<?xml version="1.0"?>
<VTKFile type="UnstructuredGrid" version="0.1" byte_order="LittleEndian">
<UnstructuredGrid>
<Piece NumberOfPoints="30881" NumberOfCells="10862">
<Points>
<DataArray type="Float64" NumberOfComponents="3" format="ascii">
-0.49999999999999828 -0.48677703703187492 0 -0.5 -0.5 0 -0.48129281494584059 -0.49338851851593718 0 -0.5 -0.5 0 -0.48129281494584059 -0.49338851851593718 0 -0.46258562989168328 -0.5 0 -0.49999999999999828 -0.48677703703187492 0 -0.48129281494584059 -0.49338851851593718 0 -0.49999999999999828 -0.48677703703187492 0 -0.4824545428279598 -0.47451624516148783 0 -0.48129281494584059 -0.49338851851593718 0 -0.49999999999999828 -0.48677703703187492 0 -0.4824545428279598 -0.47451624516148783 0 -0.5 -0.46599539173150673 0 -0.4824545428279598 -0.47451624516148783 0 -0.46853075243710779 -0.48354990242643758 0 -0.46411508256092049 -0.46598235294430129 0 -0.4824545428279598 -0.47451624516148783 0 -0.48129281494584059 -0.49338851851593718 0 -0.46853075243710779 -0.48354990242643758 0 -0.48129281494584059 -0.49338851851593718 0 -0.46258562989168328 -0.5 0 -0.48129281494584059 -0.49338851851593718 0 -0.46258562989168328 -0.5 0 -0.46853075243710779 -0.48354990242643758 0 -0.46258562989168328 -0.5 0 -0.46853075243710779 -0.48354990242643758 0 -0.45147378687733691 -0.48362213557840178 0 -0.46853075243710779 -0.48354990242643758 0 -0.45147378687733691 -0.48362213557840178 0 -0.46411508256092049 -0.46598235294430129 0 -0.4457251648104853 -0.47020164095208389 0 -0.45147378687733691 -0.48362213557840178 0 -0.46411508256092049 -0.46598235294430129 0 -0.4457251648104853 -0.47020164095208389 0 -0.45147378687733691 -0.48362213557840178 0 -0.43513446131126993 -0.48199891714758791 0 -0.45147378687733691 -0.48362213557840178 0 -0.43275163025255442 -0.5 0 -0.43513446131126993 -0.48199891714758791 0 -0.46258562989168328 -0.5 0 -0.45147378687733691 -0.48362213557840178 0 -0.43275163025255442 -0.5 0 -0.4467190029717853 -0.45478934699519452 0 -0.4422915115958943 -0.43555510214664611 0 -0.43246707723660932 -0.44794326854796312 0 -0.4457251648104853 -0.47020164095208389 0 -0.4467190029717853 -0.45478934699519452 0 -0.46411508256092049 -0.46598235294430129 0 -0.4457251648104853 -0.47020164095208389 0 -0.4467190029717853 -0.45478934699519452 0 -0.43016578207734568 -0.46313500011938619 0 -0.4467190029717853 -0.45478934699519452 0 -0.46411508256092049 -0.46598235294430129 0 -0.47114575579794699 -0.4403844242888923 0 -0.4467190029717853 -0.45478934699519452 0 -0.47114575579794699 -0.4403844242888923 0 -0.4422915115958943 -0.43555510214664611 0 -0.47114575579794699 -0.4403844242888923 0 -0.4422915115958943 -0.43555510214664611 0 -0.46411508256092049 -0.46598235294430129 0 -0.47114575579794699 -0.4403844242888923 0 -0.48354307623736548 -0.45841843211146538 0 -0.4824545428279598 -0.47451624516148783 0 -0.46411508256092049 -0.46598235294430129 0 -0.48354307623736548 -0.45841843211146538 0 -0.4824545428279598 -0.47451624516148783 0 -0.48354307623736548 -0.45841843211146538 0 -0.5 -0.46599539173150673 0 -0.48354307623736548 -0.45841843211146538 0 -0.5 -0.46599539173150673 0 -0.49999999999999972 -0.44521374643113848 0 -0.47114575579794699 -0.4403844242888923 0 -0.49999999999999972 -0.44521374643113848 0 -0.47114575579794699 -0.4403844242888923 0 -0.49999999999999972 -0.44521374643113848 0 -0.48704432221743971 -0.42935617662229603 0 -0.47114575579794699 -0.4403844242888923 0 -0.48354307623736548 -0.45841843211146538 0 -0.49999999999999972 -0.44521374643113848 0 -0.49999999999999972 -0.44521374643113848 0 -0.48704432221743971 -0.42935617662229603 0 -0.5 -0.41591957503128979 0 -0.48704432221743971 -0.42935617662229603 0 -0.5 -0.41591957503128979 0 -0.47703153307181151 -0.41590696073786332 0 -0.5 -0.41591957503128979 0 -0.47703153307181151 -0.41590696073786332 0 -0.48817838912021821 -0.4022119694541284 0 -0.47114575579794699 -0.4403844242888923 0 -0.48704432221743971 -0.42935617662229603 0 -0.47703153307181151 -0.41590696073786332 0 -0.5 -0.38662540363144121 0 -0.47568202340906118 -0.39039593841591919 0 -0.4947615751445838 -0.37332156409002909 0 -0.47568202340906118 -0.39039593841591919 0 -0.4947615751445838 -0.37332156409002909 0 -0.5 -0.38662540363144121 0 -0.48817838912021821 -0.4022119694541284 0 -0.47568202340906118 -0.39039593841591919 0 -0.5 -0.41591957503128979 0 -0.5 -0.38662540363144121 0 -0.48817838912021821 -0.4022119694541284 0 -0.47703153307181151 -0.41590696073786332 0 -0.48817838912021821 -0.4022119694541284 0 -0.47568202340906118 -0.39039593841591919 0 -0.47703153307181151 -0.41590696073786332 0 -0.47568202340906118 -0.39039593841591919 0 -0.45660247167353862 -0.40747031274180939 0 -0.47568202340906118 -0.39039593841591919 0 -0.48030931097003587 -0.37191064435083931 0 -0.46669490250066459 -0.37481721741951951 0 -0.47568202340906118 -0.39039593841591919 0 -0.4947615751445838 -0.37332156409002909 0 -0.48030931097003587 -0.37191064435083931 0 -0.45332061783919553 -0.38729481725706361 0 -0.46669490250066459 -0.37481721741951951 0 -0.45095991715087752 -0.36968037302039969 0 -0.47568202340906118 -0.39039593841591919 0 -0.45332061783919553 -0.38729481725706361 0 -0.46669490250066459 -0.37481721741951951 0 -0.47568202340906118 -0.39039593841591919 0 -0.45660247167353862 -0.40747031274180939 0 -0.47568202340906118 -0.39039593841591919 0 -0.45332061783919553 -0.38729481725706361 0 -0.45660247167353862 -0.40747031274180939 0 -0.44332653075004852 -0.401690115615219 0 -0.44646247228389868 -0.41654464256061052 0 -0.42870657106664078 -0.39987574649354879 0 -0.45332061783919553 -0.38729481725706361 0 -0.44332653075004852 -0.401690115615219 0 -0.43479631603355468 -0.39077639303142497 0 -0.45332061783919553 -0.38729481725706361 0 -0.44332653075004852 -0.401690115615219 0 -0.45660247167353862 -0.40747031274180939 0 -0.45332061783919553 -0.38729481725706361 0 -0.43421362475025049 -0.37527491429266319 0 -0.43479631603355468 -0.39077639303142497 0 -0.45332061783919553 -0.38729481725706361 0 -0.43421362475025049 -0.37527491429266319 0 -0.45095991715087752 -0.36968037302039969 0 -0.47114575579794699 -0.4403844242888923 0 -0.45663439814062529 -0.42533932462455271 0 -0.4422915115958943 -0.43555510214664611 0 -0.47114575579794699 -0.4403844242888923 0 -0.47703153307181151 -0.41590696073786332 0 -0.45663439814062529 -0.42533932462455271 0 -0.45663439814062529 -0.42533932462455271 0 -0.45660247167353862 -0.40747031274180939 0 -0.44646247228389868 -0.41654464256061052 0 -0.47703153307181151 -0.41590696073786332 0 -0.45663439814062529 -0.42533932462455271 0 -0.45660247167353862 -0.40747031274180939 0 -0.44332653075004852 -0.401690115615219 0 -0.45660247167353862 -0.40747031274180939 0 -0.44646247228389868 -0.41654464256061052 0 -0.45660247167353862 -0.40747031274180939 0 -0.44646247228389868 -0.41654464256061052 0 -0.44646247228389868 -0.41654464256061052 0 -0.4375229199380159 -0.42454468706769971 0 -0.45663439814062529 -0.42533932462455271 0 -0.4375229199380159 -0.42454468706769971 0 -0.4422915115958943 -0.43555510214664611 0 -0.45663439814062529 -0.42533932462455271 0 -0.44646247228389868 -0.41654464256061052 0 -0.4375229199380159 -0.42454468706769971 0 -0.4375229199380159 -0.42454468706769971 0 -0.4422915115958943 -0.43555510214664611 0 -0.43077617074680319 -0.43406335077952207 0 -0.43077617074680319 -0.43406335077952207 0 -0.42550232634077589 -0.42345940056268039 0 -0.41950844772475421 -0.43888456563633732 0 -0.4375229199380159 -0.42454468706769971 0 -0.43077617074680319 -0.43406335077952207 0 -0.42550232634077589 -0.42345940056268039 0 -0.44646247228389868 -0.41654464256061052 0 -0.41657232816672918 -0.41306671883907142 0 -0.42870657106664078 -0.39987574649354879 0 -0.44646247228389868 -0.41654464256061052 0 -0.4375229199380159 -0.42454468706769971 0 -0.42550232634077589 -0.42345940056268039 0 -0.44646247228389868 -0.41654464256061052 0 -0.42550232634077589 -0.42345940056268039 0 -0.41657232816672918 -0.41306671883907142 0 -0.44646247228389868 -0.41654464256061052 0 -0.41657232816672918 -0.41306671883907142 0 -0.42550232634077589 -0.42345940056268039 0 -0.41657232816672918 -0.41306671883907142 0 -0.41333489101611293 -0.42699700567040988 0 -0.41657232816672918 -0.41306671883907142 0 -0.41333489101611293 -0.42699700567040988 0 -0.39893236021425188 -0.42931692235905211 0 -0.41333489101611293 -0.42699700567040988 0 -0.39893236021425188 -0.42931692235905211 0 -0.41950844772475421 -0.43888456563633732 0 -0.42550232634077589 -0.42345940056268039 0 -0.41333489101611293 -0.42699700567040988 0 -0.41950844772475421 -0.43888456563633732 0 -0.43421362475025049 -0.37527491429266319 0 -0.42478231784314502 -0.38643128255249681 0 -0.41656514696884139 -0.37636588688318029 0 -0.43421362475025049 -0.37527491429266319 0 -0.42478231784314502 -0.38643128255249681 0 -0.43479631603355468 -0.39077639303142497 0 -0.42478231784314502 -0.38643128255249681 0 -0.43479631603355468 -0.39077639303142497 0 -0.42870657106664078 -0.39987574649354879 0 -0.44332653075004852 -0.401690115615219 0 -0.43479631603355468 -0.39077639303142497 0 -0.42870657106664078 -0.39987574649354879 0 -0.41657232816672918 -0.41306671883907142 0 -0.40962993039643741 -0.3898634720616666 0 -0.3946356370269814 -0.39577424904278191 0 -0.42478231784314502 -0.38643128255249681 0 -0.42870657106664078 -0.39987574649354879 0 -0.40962993039643741 -0.3898634720616666 0 -0.41657232816672918 -0.41306671883907142 0 -0.42870657106664078 -0.39987574649354879 0 -0.40962993039643741 -0.3898634720616666 0 -0.42478231784314502 -0.38643128255249681 0 -0.40962993039643741 -0.3898634720616666 0 -0.41656514696884139 -0.37636588688318029 0 -0.40962993039643741 -0.3898634720616666 0 -0.41656514696884139 -0.37636588688318029 0 -0.40465459864295228 -0.37650109000307358 0 -0.39431275766669582 -0.38061373190328529 0 -0.40465459864295228 -0.37650109000307358 0 -0.3968495855878465 -0.36923685638487008 0 -0.40962993039643741 -0.3898634720616666 0 -0.39431275766669582 -0.38061373190328529 0 -0.40465459864295228 -0.37650109000307358 0 -0.40962993039643741 -0.3898634720616666 0 -0.39431275766669582 -0.38061373190328529 0 -0.3946356370269814 -0.39577424904278191 0 -0.3946356370269814 -0.39577424904278191 0 -0.38704143117499401 -0.40999023144455299 0 -0.37464038230528551 -0.396492613407532 0 -0.3946356370269814 -0.39577424904278191 0 -0.37522403377147279 -0.38060127254172499 0 -0.37464038230528551 -0.396492613407532 0 -0.39431275766669582 -0.38061373190328529 0 -0.3946356370269814 -0.39577424904278191 0 -0.37522403377147279 -0.38060127254172499 0 -0.39431275766669582 -0.38061373190328529 0 -0.37522403377147279 -0.38060127254172499 0 -0.38569326772338258 -0.37053454129240582 0 -0.41657232816672918 -0.41306671883907142 0 -0.39893236021425188 -0.42931692235905211 0 -0.38704143117499401 -0.40999023144455299 0 -0.41657232816672918 -0.41306671883907142 0 -0.3946356370269814 -0.39577424904278191 0 -0.38704143117499401 -0.40999023144455299 0 -0.41657232816672918 -0.41306671883907142 0 -0.38704143117499401 -0.40999023144455299 0 -0.38704143117499401 -0.40999023144455299 0 -0.38131756488089769 -0.42670085612339947 0 -0.36377437909963828 -0.41972983174959272 0 -0.38131756488089769 -0.42670085612339947 0 -0.38339996822118783 -0.44368928783448319 0 -0.36866352395763108 -0.4313760290561211 0 -0.39893236021425188 -0.42931692235905211 0 -0.38131756488089769 -0.42670085612339947 0 -0.38339996822118783 -0.44368928783448319 0 -0.39893236021425188 -0.42931692235905211 0 -0.38704143117499401 -0.40999023144455299 0 -0.38131756488089769 -0.42670085612339947 0 -0.38339996822118783 -0.44368928783448319 0 -0.40446438048225181 -0.45117017211807442 0 -0.3895931593355052 -0.46351353191466821 0 -0.39893236021425188 -0.42931692235905211 0 -0.38339996822118783 -0.44368928783448319 0 -0.40446438048225181 -0.45117017211807442 0 -0.40446438048225181 -0.45117017211807442 0 -0.3895931593355052 -0.46351353191466821 0 -0.40280611050484572 -0.47090640128894168 0 -0.38339996822118783 -0.44368928783448319 0 -0.3895931593355052 -0.46351353191466821 0 -0.37415472949075129 -0.45946062715310632 0 -0.3895931593355052 -0.46351353191466821 0 -0.38039451612360919 -0.47713749807852829 0 -0.37415472949075129 -0.45946062715310632 0 -0.38039451612360919 -0.47713749807852829 0 -0.39198476482648659 -0.49312537606366408 0 -0.39366244928105898 -0.47747566409097131 0 -0.3895931593355052 -0.46351353191466821 0 -0.38039451612360919 -0.47713749807852829 0 -0.39366244928105898 -0.47747566409097131 0 -0.39198476482648659 -0.49312537606366408 0 -0.37055643484088358 -0.49425936316784103 0 -0.39198476482648659 -0.49312537606366408 0 -0.40291763061342539 -0.5 0 -0.37308363097429631 -0.50000000000000244 0 -0.39198476482648659 -0.49312537606366408 0 -0.37055643484088358 -0.49425936316784103 0 -0.37308363097429631 -0.50000000000000244 0 -0.38039451612360919 -0.47713749807852829 0 -0.39198476482648659 -0.49312537606366408 0 -0.37055643484088358 -0.49425936316784103 0 -0.39198476482648659 -0.49312537606366408 0 -0.41341309481208982 -0.49199138895948757 0 -0.39198476482648659 -0.49312537606366408 0 -0.39366244928105898 -0.47747566409097131 0 -0.40353369561484831 -0.48269551310905429 0 -0.39198476482648659 -0.49312537606366408 0 -0.40291763061342539 -0.5 0 -0.41341309481208982 -0.49199138895948757 0 -0.39198476482648659 -0.49312537606366408 0 -0.40353369561484831 -0.48269551310905429 0 -0.41341309481208982 -0.49199138895948757 0 -0.3895931593355052 -0.46351353191466821 0 -0.39366244928105898 -0.47747566409097131 0 -0.40280611050484572 -0.47090640128894168 0 -0.39366244928105898 -0.47747566409097131 0 -0.40353369561484831 -0.48269551310905429 0 -0.40280611050484572 -0.47090640128894168 0 -0.40280611050484572 -0.47090640128894168 0 -0.41792735015940108 -0.47619959015896091 0 -0.41524515795200517 -0.46243146669528151 0 -0.40353369561484831 -0.48269551310905429 0 -0.41792735015940108 -0.47619959015896091 0 -0.41341309481208982 -0.49199138895948757 0 -0.40353369561484831 -0.48269551310905429 0 -0.40280611050484572 -0.47090640128894168 0 -0.41792735015940108 -0.47619959015896091 0 -0.41792735015940108 -0.47619959015896091 0 -0.41341309481208982 -0.49199138895948757 0 -0.42480663413382869 -0.48754747406650911 0 -0.40291763061342539 -0.5 0 -0.41341309481208982 -0.49199138895948757 0 -0.43275163025255442 -0.5 0 -0.41341309481208982 -0.49199138895948757 0 -0.42480663413382869 -0.48754747406650911 0 -0.43275163025255442 -0.5 0 -0.42480663413382869 -0.48754747406650911 0 -0.43275163025255442 -0.5 0 -0.43513446131126993 -0.48199891714758791 0 -0.4457251648104853 -0.47020164095208389 0 -0.43513446131126993 -0.48199891714758791 0 -0.43016578207734568 -0.46313500011938619 0 -0.41792735015940108 -0.47619959015896091 0 -0.43513446131126993 -0.48199891714758791 0 -0.43016578207734568 -0.46313500011938619 0 -0.41792735015940108 -0.47619959015896091 0 -0.42480663413382869 -0.48754747406650911 0 -0.43513446131126993 -0.48199891714758791 0 -0.4467190029717853 -0.45478934699519452 0 -0.43016578207734568 -0.46313500011938619 0 -0.43246707723660932 -0.44794326854796312 0 -0.43016578207734568 -0.46313500011938619 0 -0.42051073979218989 -0.45215097324273301 0 -0.41524515795200517 -0.46243146669528151 0 -0.43016578207734568 -0.46313500011938619 0 -0.43246707723660932 -0.44794326854796312 0 -0.42051073979218989 -0.45215097324273301 0 -0.4422915115958943 -0.43555510214664611 0 -0.43077617074680319 -0.43406335077952207 0 -0.43246707723660932 -0.44794326854796312 0 -0.43077617074680319 -0.43406335077952207 0 -0.43246707723660932 -0.44794326854796312 0 -0.41950844772475421 -0.43888456563633732 0 -0.43246707723660932 -0.44794326854796312 0 -0.42051073979218989 -0.45215097324273301 0 -0.41950844772475421 -0.43888456563633732 0 -0.39893236021425188 -0.42931692235905211 0 -0.40446438048225181 -0.45117017211807442 0 -0.41950844772475421 -0.43888456563633732 0 -0.40446438048225181 -0.45117017211807442 0 -0.42051073979218989 -0.45215097324273301 0 -0.41950844772475421 -0.43888456563633732 0 -0.40446438048225181 -0.45117017211807442 0 -0.42051073979218989 -0.45215097324273301 0 -0.41524515795200517 -0.46243146669528151 0 -0.40446438048225181 -0.45117017211807442 0 -0.40280611050484572 -0.47090640128894168 0 -0.41524515795200517 -0.46243146669528151 0 -0.41792735015940108 -0.47619959015896091 0 -0.43016578207734568 -0.46313500011938619 0 -0.41524515795200517 -0.46243146669528151 0 -0.45018232007011222 -0.256765034028549 0 -0.429874989515865 -0.26165756953837482 0 -0.43598079583492633 -0.24721882136819351 0 -0.45018232007011222 -0.256765034028549 0 -0.43765198640052377 -0.27443700488157741 0 -0.429874989515865 -0.26165756953837482 0 -0.45018232007011222 -0.256765034028549 0 -0.43598079583492633 -0.24721882136819351 0 -0.45139902778349827 -0.24711062934306771 0 -0.45018232007011222 -0.256765034028549 0 -0.43765198640052377 -0.27443700488157741 0 -0.46196722525855399 -0.27174391220054139 0 -0.43765198640052377 -0.27443700488157741 0 -0.46196722525855399 -0.27174391220054139 0 -0.4476129789611048 -0.29283803371489903 0 -0.46196722525855399 -0.27174391220054139 0 -0.48050148842732221 -0.25523221810557922 0 -0.46267023581878858 -0.24817136713935201 0 -0.45018232007011222 -0.256765034028549 0 -0.46196722525855399 -0.27174391220054139 0 -0.46267023581878858 -0.24817136713935201 0 -0.45018232007011222 -0.256765034028549 0 -0.46267023581878858 -0.24817136713935201 0 -0.45139902778349827 -0.24711062934306771 0 -0.48050148842732221 -0.25523221810557922 0 -0.5 -0.26944871803204617 0 -0.5 -0.2401545466321974 0 -0.48050148842732221 -0.25523221810557922 0 -0.5 -0.26944871803204617 0 -0.48245797385404121 -0.28063059353633901 0 -0.46196722525855399 -0.27174391220054139 0 -0.48050148842732221 -0.25523221810557922 0 -0.48245797385404121 -0.28063059353633901 0 -0.46196722525855399 -0.27174391220054139 0 -0.48245797385404121 -0.28063059353633901 0 -0.46937090116945868 -0.29821258941183898 0 -0.48245797385404121 -0.28063059353633901 0 -0.5 -0.29874288943189498 0 -0.46937090116945868 -0.29821258941183898 0 -0.5 -0.26944871803204617 0 -0.48245797385404121 -0.28063059353633901 0 -0.5 -0.29874288943189498 0 -0.5 -0.29874288943189498 0 -0.46937090116945868 -0.29821258941183898 0 -0.47623524987602139 -0.32201367690444971 0 -0.46937090116945868 -0.29821258941183898 0 -0.4476129789611048 -0.29283803371489903 0 -0.45018982867155483 -0.32180400573951162 0 -0.46196722525855399 -0.27174391220054139 0 -0.46937090116945868 -0.29821258941183898 0 -0.4476129789611048 -0.29283803371489903 0 -0.43765198640052377 -0.27443700488157741 0 -0.4476129789611048 -0.29283803371489903 0 -0.43236213870239748 -0.29002705800971151 0 -0.4476129789611048 -0.29283803371489903 0 -0.45018982867155483 -0.32180400573951162 0 -0.4314578060398388 -0.3048790663939604 0 -0.45018982867155483 -0.32180400573951162 0 -0.4314578060398388 -0.3048790663939604 0 -0.45018982867155483 -0.32180400573951162 0 -0.46157657978994598 -0.34139555482026068 0 -0.43521386225128428 -0.33802231259611382 0 -0.46157657978994598 -0.34139555482026068 0 -0.43521386225128428 -0.33802231259611382 0 -0.45018982867155483 -0.32180400573951162 0 -0.46157657978994598 -0.34139555482026068 0 -0.47623524987602139 -0.32201367690444971 0 -0.46937090116945868 -0.29821258941183898 0 -0.45018982867155483 -0.32180400573951162 0 -0.47623524987602139 -0.32201367690444971 0 -0.5 -0.29874288943189498 0 -0.47623524987602139 -0.32201367690444971 0 -0.5 -0.32803706083174372 0 -0.47623524987602139 -0.32201367690444971 0 -0.5 -0.32803706083174372 0 -0.48561656391384522 -0.34384835974822991 0 -0.5 -0.32803706083174372 0 -0.5 -0.35733123223159241 0 -0.48561656391384522 -0.34384835974822991 0 -0.46157657978994598 -0.34139555482026068 0 -0.47623524987602139 -0.32201367690444971 0 -0.48561656391384522 -0.34384835974822991 0 -0.46157657978994598 -0.34139555482026068 0 -0.47568148196104371 -0.35852722048879659 0 -0.48561656391384522 -0.34384835974822991 0 -0.47568148196104371 -0.35852722048879659 0 -0.48561656391384522 -0.34384835974822991 0 -0.48768886795130861 -0.36141736908419309 0 -0.5 -0.35733123223159241 0 -0.48561656391384522 -0.34384835974822991 0 -0.48768886795130861 -0.36141736908419309 0 -0.5 -0.35733123223159241 0 -0.4947615751445838 -0.37332156409002909 0 -0.48768886795130861 -0.36141736908419309 0 -0.5 -0.38662540363144121 0 -0.5 -0.35733123223159241 0 -0.4947615751445838 -0.37332156409002909 0 -0.4947615751445838 -0.37332156409002909 0 -0.48768886795130861 -0.36141736908419309 0 -0.48030931097003587 -0.37191064435083931 0 -0.47568148196104371 -0.35852722048879659 0 -0.48030931097003587 -0.37191064435083931 0 -0.46669490250066459 -0.37481721741951951 0 -0.47568148196104371 -0.35852722048879659 0 -0.48768886795130861 -0.36141736908419309 0 -0.48030931097003587 -0.37191064435083931 0 -0.46669490250066459 -0.37481721741951951 0 -0.45985290530711531 -0.35919053618658509 0 -0.45095991715087752 -0.36968037302039969 0 -0.47568148196104371 -0.35852722048879659 0 -0.46669490250066459 -0.37481721741951951 0 -0.45985290530711531 -0.35919053618658509 0 -0.46157657978994598 -0.34139555482026068 0 -0.47568148196104371 -0.35852722048879659 0 -0.45985290530711531 -0.35919053618658509 0 -0.46157657978994598 -0.34139555482026068 0 -0.45985290530711531 -0.35919053618658509 0 -0.44091292170358748 -0.35617636658334351 0 -0.46157657978994598 -0.34139555482026068 0 -0.44091292170358748 -0.35617636658334351 0 -0.43521386225128428 -0.33802231259611382 0 -0.43421362475025049 -0.37527491429266319 0 -0.44091292170358748 -0.35617636658334351 0 -0.45095991715087752 -0.36968037302039969 0 -0.45985290530711531 -0.35919053618658509 0 -0.44091292170358748 -0.35617636658334351 0 -0.45095991715087752 -0.36968037302039969 0 -0.43421362475025049 -0.37527491429266319 0 -0.41656514696884139 -0.37636588688318029 0 -0.42218579342164808 -0.36334977441807748 0 -0.43421362475025049 -0.37527491429266319 0 -0.44091292170358748 -0.35617636658334351 0 -0.42218579342164808 -0.36334977441807748 0 -0.44091292170358748 -0.35617636658334351 0 -0.42218579342164808 -0.36334977441807748 0 -0.42066840753926321 -0.34864312644900147 0 -0.44091292170358748 -0.35617636658334351 0 -0.42066840753926321 -0.34864312644900147 0 -0.43521386225128428 -0.33802231259611382 0 -0.42218579342164808 -0.36334977441807748 0 -0.42066840753926321 -0.34864312644900147 0 -0.40690054455725883 -0.35815659477868023 0 -0.40690054455725883 -0.35815659477868023 0 -0.40885114471262263 -0.334649070371968 0 -0.42066840753926321 -0.34864312644900147 0 -0.40690054455725883 -0.35815659477868023 0 -0.40885114471262263 -0.334649070371968 0 -0.42218579342164808 -0.36334977441807748 0 -0.40690054455725883 -0.35815659477868023 0 -0.40625971269279348 -0.36587953617857771 0 -0.40690054455725883 -0.35815659477868023 0 -0.40625971269279348 -0.36587953617857771 0 -0.41656514696884139 -0.37636588688318029 0 -0.42218579342164808 -0.36334977441807748 0 -0.40625971269279348 -0.36587953617857771 0 -0.42218579342164808 -0.36334977441807748 0 -0.40690054455725883 -0.35815659477868023 0 -0.41656514696884139 -0.37636588688318029 0 -0.40465459864295228 -0.37650109000307358 0 -0.40625971269279348 -0.36587953617857771 0 -0.40465459864295228 -0.37650109000307358 0 -0.40625971269279348 -0.36587953617857771 0 -0.3968495855878465 -0.36923685638487008 0 -0.40690054455725883 -0.35815659477868023 0 -0.40029228617445223 -0.36350286704594809 0 -0.3911593018599101 -0.36073848084166482 0 -0.40625971269279348 -0.36587953617857771 0 -0.40029228617445223 -0.36350286704594809 0 -0.3968495855878465 -0.36923685638487008 0 -0.40690054455725883 -0.35815659477868023 0 -0.40625971269279348 -0.36587953617857771 0 -0.40029228617445223 -0.36350286704594809 0 -0.3911593018599101 -0.36073848084166482 0 -0.3968495855878465 -0.36923685638487008 0 -0.38569326772338258 -0.37053454129240582 0 -0.40029228617445223 -0.36350286704594809 0 -0.3911593018599101 -0.36073848084166482 0 -0.3968495855878465 -0.36923685638487008 0 -0.39431275766669582 -0.38061373190328529 0 -0.3968495855878465 -0.36923685638487008 0 -0.38569326772338258 -0.37053454129240582 0 -0.3911593018599101 -0.36073848084166482 0 -0.38569326772338258 -0.37053454129240582 0 -0.37568472164775779 -0.36524225821647011 0 -0.37522403377147279 -0.38060127254172499 0 -0.38569326772338258 -0.37053454129240582 0 -0.37568472164775779 -0.36524225821647011 0 -0.3911593018599101 -0.36073848084166482 0 -0.37568472164775779 -0.36524225821647011 0 -0.38024887903539811 -0.3491016629308506 0 -0.40690054455725883 -0.35815659477868023 0 -0.3911593018599101 -0.36073848084166482 0 -0.38024887903539811 -0.3491016629308506 0 -0.40690054455725883 -0.35815659477868023 0 -0.38024887903539811 -0.3491016629308506 0 -0.39533213247953691 -0.34338662223350158 0 -0.40690054455725883 -0.35815659477868023 0 -0.39533213247953691 -0.34338662223350158 0 -0.40885114471262263 -0.334649070371968 0 -0.40690054455725883 -0.35815659477868023 0 -0.38024887903539811 -0.3491016629308506 0 -0.39533213247953691 -0.34338662223350158 0 -0.38532796161286798 -0.33163916085250739 0 -0.40885114471262263 -0.334649070371968 0 -0.38532796161286798 -0.33163916085250739 0 -0.40885114471262263 -0.334649070371968 0 -0.38024887903539811 -0.3491016629308506 0 -0.39533213247953691 -0.34338662223350158 0 -0.38532796161286798 -0.33163916085250739 0 -0.38024887903539811 -0.3491016629308506 0 -0.38532796161286798 -0.33163916085250739 0 -0.37024470816872912 -0.33735420154985679 0 -0.38532796161286798 -0.33163916085250739 0 -0.37601492727600683 -0.3197696392392384 0 -0.39293033406270472 -0.31505081143976649 0 -0.37601492727600683 -0.3197696392392384 0 -0.39293033406270472 -0.31505081143976649 0 -0.37651642550459341 -0.307078797330949 0 -0.38532796161286798 -0.33163916085250739 0 -0.39293033406270472 -0.31505081143976649 0 -0.40885114471262263 -0.334649070371968 0 -0.39293033406270472 -0.31505081143976649 0 -0.40885114471262263 -0.334649070371968 0 -0.41078846406037228 -0.3113015987101887 0 -0.40885114471262263 -0.334649070371968 0 -0.42554877913925399 -0.3223331804902434 0 -0.41078846406037228 -0.3113015987101887 0 -0.40885114471262263 -0.334649070371968 0 -0.41078846406037228 -0.3113015987101887 0 -0.42066840753926321 -0.34864312644900147 0 -0.40885114471262263 -0.334649070371968 0 -0.43521386225128428 -0.33802231259611382 0 -0.40885114471262263 -0.334649070371968 0 -0.43521386225128428 -0.33802231259611382 0 -0.40885114471262263 -0.334649070371968 0 -0.43521386225128428 -0.33802231259611382 0 -0.42554877913925399 -0.3223331804902434 0 -0.42554877913925399 -0.3223331804902434 0 -0.4314578060398388 -0.3048790663939604 0 -0.41078846406037228 -0.3113015987101887 0 -0.45018982867155483 -0.32180400573951162 0 -0.43521386225128428 -0.33802231259611382 0 -0.42554877913925399 -0.3223331804902434 0 -0.45018982867155483 -0.32180400573951162 0 -0.42554877913925399 -0.3223331804902434 0 -0.4314578060398388 -0.3048790663939604 0 -0.4476129789611048 -0.29283803371489903 0 -0.4314578060398388 -0.3048790663939604 0 -0.43236213870239748 -0.29002705800971151 0 -0.4314578060398388 -0.3048790663939604 0 -0.43236213870239748 -0.29002705800971151 0 -0.41272578340812272 -0.2879541270484095 0 -0.4314578060398388 -0.3048790663939604 0 -0.41272578340812272 -0.2879541270484095 0 -0.43765198640052377 -0.27443700488157741 0 -0.43236213870239748 -0.29002705800971151 0 -0.41272578340812272 -0.2879541270484095 0 -0.4314578060398388 -0.3048790663939604 0 -0.41272578340812272 -0.2879541270484095 0 -0.41078846406037228 -0.3113015987101887 0 -0.41272578340812272 -0.2879541270484095 0 -0.41078846406037228 -0.3113015987101887 0 -0.41272578340812272 -0.2879541270484095 0 -0.41078846406037228 -0.3113015987101887 0 -0.39233272698174793 -0.29435547039456872 0 -0.39293033406270472 -0.31505081143976649 0 -0.41078846406037228 -0.3113015987101887 0 -0.39233272698174793 -0.29435547039456872 0 -0.39293033406270472 -0.31505081143976649 0 -0.37651642550459341 -0.307078797330949 0 -0.39233272698174793 -0.29435547039456872 0 -0.39233272698174793 -0.29435547039456872 0 -0.39278725088820249 -0.26993907014966689 0 -0.37040839911066209 -0.28171057629616708 0 -0.37651642550459341 -0.307078797330949 0 -0.39233272698174793 -0.29435547039456872 0 -0.37040839911066209 -0.28171057629616708 0 -0.41272578340812272 -0.2879541270484095 0 -0.39233272698174793 -0.29435547039456872 0 -0.39278725088820249 -0.26993907014966689 0 -0.41272578340812272 -0.2879541270484095 0 -0.39278725088820249 -0.26993907014966689 0 -0.39278725088820249 -0.26993907014966689 0 -0.37040839911066209 -0.28171057629616708 0 -0.39278725088820249 -0.26993907014966689 0 -0.37533687834285862 -0.25417213976024849 0 -0.37040839911066209 -0.28171057629616708 0 -0.39278725088820249 -0.26993907014966689 0 -0.37533687834285862 -0.25417213976024849 0 -0.39826986996263802 -0.25360934065352753 0 -0.39278725088820249 -0.26993907014966689 0 -0.37533687834285862 -0.25417213976024849 0 -0.39278725088820249 -0.26993907014966689 0 -0.39826986996263802 -0.25360934065352753 0 -0.41519883225968468 -0.25815034790020708 0 -0.39278725088820249 -0.26993907014966689 0 -0.41519883225968468 -0.25815034790020708 0 -0.39826986996263802 -0.25360934065352753 0 -0.41519883225968468 -0.25815034790020708 0 -0.41615383063077721 -0.2466412503256647 0 -0.41519883225968468 -0.25815034790020708 0 -0.41615383063077721 -0.2466412503256647 0 -0.41272578340812272 -0.2879541270484095 0 -0.41519883225968468 -0.25815034790020708 0 -0.41272578340812272 -0.2879541270484095 0 -0.41519883225968468 -0.25815034790020708 0 -0.429874989515865 -0.26165756953837482 0 -0.41272578340812272 -0.2879541270484095 0 -0.39278725088820249 -0.26993907014966689 0 -0.41519883225968468 -0.25815034790020708 0 -0.43765198640052377 -0.27443700488157741 0 -0.41272578340812272 -0.2879541270484095 0 -0.429874989515865 -0.26165756953837482 0 -0.41519883225968468 -0.25815034790020708 0 -0.43598079583492633 -0.24721882136819351 0 -0.41519883225968468 -0.25815034790020708 0 -0.429874989515865 -0.26165756953837482 0 -0.43598079583492633 -0.24721882136819351 0 -0.41519883225968468 -0.25815034790020708 0 -0.43598079583492633 -0.24721882136819351 0 -0.41615383063077721 -0.2466412503256647 0 -0.31968345090478489 -0.25798973640781447 0 -0.33623326073948312 -0.25365348176558788 0 -0.32213598881581812 -0.2442700999577708 0 -0.31968345090478489 -0.25798973640781447 0 -0.31319680135340772 -0.27337899374224139 0 -0.30564385326437488 -0.26015983685037081 0 -0.31968345090478489 -0.25798973640781447 0 -0.31319680135340772 -0.27337899374224139 0 -0.33256675641106698 -0.27199424518209242 0 -0.31319680135340772 -0.27337899374224139 0 -0.33256675641106698 -0.27199424518209242 0 -0.3219330120753135 -0.28752383142540722 0 -0.33256675641106698 -0.27199424518209242 0 -0.33623326073948312 -0.25365348176558788 0 -0.35329637777243872 -0.26495799818728782 0 -0.31968345090478489 -0.25798973640781447 0 -0.33256675641106698 -0.27199424518209242 0 -0.33623326073948312 -0.25365348176558788 0 -0.33623326073948312 -0.25365348176558788 0 -0.35329637777243872 -0.26495799818728782 0 -0.35305879752332059 -0.24486073726717009 0 -0.37533687834285862 -0.25417213976024849 0 -0.35329637777243872 -0.26495799818728782 0 -0.35305879752332059 -0.24486073726717009 0 -0.37533687834285862 -0.25417213976024849 0 -0.35329637777243872 -0.26495799818728782 0 -0.37040839911066209 -0.28171057629616708 0 -0.35329637777243872 -0.26495799818728782 0 -0.34802954733312141 -0.29348208244266671 0 -0.37040839911066209 -0.28171057629616708 0 -0.33256675641106698 -0.27199424518209242 0 -0.35329637777243872 -0.26495799818728782 0 -0.34802954733312141 -0.29348208244266671 0 -0.34802954733312141 -0.29348208244266671 0 -0.37040839911066209 -0.28171057629616708 0 -0.37651642550459341 -0.307078797330949 0 -0.37040839911066209 -0.28171057629616708 0 -0.36249180620921062 -0.30132401124355712 0 -0.34802954733312141 -0.29348208244266671 0 -0.37040839911066209 -0.28171057629616708 0 -0.36249180620921062 -0.30132401124355712 0 -0.37651642550459341 -0.307078797330949 0 -0.36249180620921062 -0.30132401124355712 0 -0.36514172279026702 -0.314674684486903 0 -0.36249180620921062 -0.30132401124355712 0 -0.35217384865543538 -0.31302074178168637 0 -0.36514172279026702 -0.314674684486903 0 -0.34802954733312141 -0.29348208244266671 0 -0.33894022777705518 -0.31261958861733652 0 -0.35217384865543538 -0.31302074178168637 0 -0.34802954733312141 -0.29348208244266671 0 -0.36249180620921062 -0.30132401124355712 0 -0.35217384865543538 -0.31302074178168637 0 -0.34802954733312141 -0.29348208244266671 0 -0.32565069555558063 -0.30525358858916618 0 -0.33894022777705518 -0.31261958861733652 0 -0.34802954733312141 -0.29348208244266671 0 -0.32565069555558063 -0.30525358858916618 0 -0.32565069555558063 -0.30525358858916618 0 -0.32940773276489932 -0.31652548782855527 0 -0.33894022777705518 -0.31261958861733652 0 -0.33256675641106698 -0.27199424518209242 0 -0.34802954733312141 -0.29348208244266671 0 -0.3219330120753135 -0.28752383142540722 0 -0.34802954733312141 -0.29348208244266671 0 -0.3219330120753135 -0.28752383142540722 0 -0.32565069555558063 -0.30525358858916618 0 -0.3219330120753135 -0.28752383142540722 0 -0.31228269981280887 -0.29918463989613459 0 -0.30483638085835207 -0.28788342401786787 0 -0.31319680135340772 -0.27337899374224139 0 -0.3219330120753135 -0.28752383142540722 0 -0.30483638085835207 -0.28788342401786787 0 -0.32565069555558063 -0.30525358858916618 0 -0.30327184377803978 -0.31702509473566581 0 -0.31228269981280887 -0.29918463989613459 0 -0.3219330120753135 -0.28752383142540722 0 -0.32565069555558063 -0.30525358858916618 0 -0.31228269981280887 -0.29918463989613459 0 -0.32565069555558063 -0.30525358858916618 0 -0.30327184377803978 -0.31702509473566581 0 -0.31475841231360341 -0.32260943229412947 0 -0.32694554799167658 -0.33099179923519167 0 -0.33828159541335823 -0.32561934181358893 0 -0.32565069555558063 -0.30525358858916618 0 -0.31475841231360341 -0.32260943229412947 0 -0.30327184377803978 -0.31702509473566581 0 -0.31475841231360341 -0.32260943229412947 0 -0.33828159541335823 -0.32561934181358893 0 -0.32940773276489932 -0.31652548782855527 0 -0.32565069555558063 -0.30525358858916618 0 -0.31475841231360341 -0.32260943229412947 0 -0.32940773276489932 -0.31652548782855527 0 -0.31475841231360341 -0.32260943229412947 0 -0.33828159541335823 -0.32561934181358893 0 -0.31475841231360341 -0.32260943229412947 0 -0.31372637242327511 -0.33497634201883658 0 -0.32694554799167658 -0.33099179923519167 0 -0.32694554799167658 -0.33099179923519167 0 -0.32737612656656928 -0.35021722948502532 0 -0.3170311031704231 -0.34491623006635341 0 -0.31372637242327511 -0.33497634201883658 0 -0.32694554799167658 -0.33099179923519167 0 -0.3170311031704231 -0.34491623006635341 0 -0.31372637242327511 -0.33497634201883658 0 -0.3170311031704231 -0.34491623006635341 0 -0.30849554643820359 -0.34481279163420842 0 -0.32694554799167658 -0.33099179923519167 0 -0.33828159541335823 -0.32561934181358893 0 -0.35359721351353718 -0.34004673108302108 0 -0.32694554799167658 -0.33099179923519167 0 -0.35359721351353718 -0.34004673108302108 0 -0.33765025977867152 -0.34480892108230998 0 -0.32694554799167658 -0.33099179923519167 0 -0.35359721351353718 -0.34004673108302108 0 -0.32694554799167658 -0.33099179923519167 0 -0.33765025977867152 -0.34480892108230998 0 -0.32737612656656928 -0.35021722948502532 0 -0.33828159541335823 -0.32561934181358893 0 -0.32940773276489932 -0.31652548782855527 0 -0.33894022777705518 -0.31261958861733652 0 -0.33828159541335823 -0.32561934181358893 0 -0.33894022777705518 -0.31261958861733652 0 -0.35217384865543538 -0.31302074178168637 0 -0.33828159541335823 -0.32561934181358893 0 -0.3618047785131131 -0.32862925133304821 0 -0.33828159541335823 -0.32561934181358893 0 -0.35217384865543538 -0.31302074178168637 0 -0.3618047785131131 -0.32862925133304821 0 -0.38532796161286798 -0.33163916085250739 0 -0.37601492727600683 -0.3197696392392384 0 -0.3618047785131131 -0.32862925133304821 0 -0.35217384865543538 -0.31302074178168637 0 -0.36514172279026702 -0.314674684486903 0 -0.3618047785131131 -0.32862925133304821 0 -0.37601492727600683 -0.3197696392392384 0 -0.36514172279026702 -0.314674684486903 0 -0.3618047785131131 -0.32862925133304821 0 -0.37601492727600683 -0.3197696392392384 0 -0.37651642550459341 -0.307078797330949 0 -0.36514172279026702 -0.314674684486903 0 -0.38532796161286798 -0.33163916085250739 0 -0.37024470816872912 -0.33735420154985679 0 -0.3618047785131131 -0.32862925133304821 0 -0.37024470816872912 -0.33735420154985679 0 -0.3618047785131131 -0.32862925133304821 0 -0.35359721351353718 -0.34004673108302108 0 -0.38532796161286798 -0.33163916085250739 0 -0.3618047785131131 -0.32862925133304821 0 -0.38024887903539811 -0.3491016629308506 0 -0.37024470816872912 -0.33735420154985679 0 -0.35359721351353718 -0.34004673108302108 0 -0.33828159541335823 -0.32561934181358893 0 -0.3618047785131131 -0.32862925133304821 0 -0.35359721351353718 -0.34004673108302108 0 -0.35359721351353718 -0.34004673108302108 0 -0.36247207576052709 -0.35740109745143939 0 -0.34268215104290278 -0.35797992452600158 0 -0.35359721351353718 -0.34004673108302108 0 -0.34268215104290278 -0.35797992452600158 0 -0.33765025977867152 -0.34480892108230998 0 -0.37568472164775779 -0.36524225821647011 0 -0.38024887903539811 -0.3491016629308506 0 -0.36247207576052709 -0.35740109745143939 0 -0.38024887903539811 -0.3491016629308506 0 -0.35359721351353718 -0.34004673108302108 0 -0.36247207576052709 -0.35740109745143939 0 -0.38024887903539811 -0.3491016629308506 0 -0.35359721351353718 -0.34004673108302108 0 -0.37522403377147279 -0.38060127254172499 0 -0.37568472164775779 -0.36524225821647011 0 -0.35964608014779109 -0.37334112637938882 0 -0.37568472164775779 -0.36524225821647011 0 -0.36247207576052709 -0.35740109745143939 0 -0.35964608014779109 -0.37334112637938882 0 -0.36247207576052709 -0.35740109745143939 0 -0.35964608014779109 -0.37334112637938882 0 -0.34268215104290278 -0.35797992452600158 0 -0.35964608014779109 -0.37334112637938882 0 -0.34268215104290278 -0.35797992452600158 0 -0.34254000635277743 -0.38197763020755832 0 -0.34268215104290278 -0.35797992452600158 0 -0.32737612656656928 -0.35021722948502532 0 -0.32270418411731933 -0.37181077970513959 0 -0.34268215104290278 -0.35797992452600158 0 -0.32270418411731933 -0.37181077970513959 0 -0.34254000635277743 -0.38197763020755832 0 -0.34268215104290278 -0.35797992452600158 0 -0.34254000635277743 -0.38197763020755832 0 -0.34268215104290278 -0.35797992452600158 0 -0.33765025977867152 -0.34480892108230998 0 -0.32737612656656928 -0.35021722948502532 0 -0.32737612656656928 -0.35021722948502532 0 -0.31662274924076123 -0.35606216629487569 0 -0.32270418411731933 -0.37181077970513959 0 -0.32737612656656928 -0.35021722948502532 0 -0.3170311031704231 -0.34491623006635341 0 -0.31662274924076123 -0.35606216629487569 0 -0.3170311031704231 -0.34491623006635341 0 -0.31662274924076123 -0.35606216629487569 0 -0.30902027636205309 -0.35243705172998302 0 -0.31662274924076123 -0.35606216629487569 0 -0.32270418411731933 -0.37181077970513959 0 -0.30796050174877349 -0.36016317053514468 0 -0.32270418411731933 -0.37181077970513959 0 -0.29719619905707523 -0.36594012765828582 0 -0.30796050174877349 -0.36016317053514468 0 -0.32270418411731933 -0.37181077970513959 0 -0.29719619905707523 -0.36594012765828582 0 -0.3103864423796594 -0.37828470113645102 0 -0.32270418411731933 -0.37181077970513959 0 -0.29719619905707523 -0.36594012765828582 0 -0.29719619905707523 -0.36594012765828582 0 -0.29943295026653399 -0.35953932364306618 0 -0.30796050174877349 -0.36016317053514468 0 -0.29719619905707523 -0.36594012765828582 0 -0.29584447723995128 -0.37444813956539807 0 -0.3103864423796594 -0.37828470113645102 0 -0.31662274924076123 -0.35606216629487569 0 -0.30796050174877349 -0.36016317053514468 0 -0.30902027636205309 -0.35243705172998302 0 -0.30796050174877349 -0.36016317053514468 0 -0.30902027636205309 -0.35243705172998302 0 -0.30278665144889838 -0.35518957417951802 0 -0.3170311031704231 -0.34491623006635341 0 -0.30902027636205309 -0.35243705172998302 0 -0.30849554643820359 -0.34481279163420842 0 -0.30902027636205309 -0.35243705172998302 0 -0.30849554643820359 -0.34481279163420842 0 -0.30076474035813339 -0.34759465108555682 0 -0.30849554643820359 -0.34481279163420842 0 -0.30076474035813339 -0.34759465108555682 0 -0.30398917998114899 -0.33934800480643368 0 -0.30902027636205309 -0.35243705172998302 0 -0.30076474035813339 -0.34759465108555682 0 -0.30278665144889838 -0.35518957417951802 0 -0.29943295026653399 -0.35953932364306618 0 -0.30796050174877349 -0.36016317053514468 0 -0.30278665144889838 -0.35518957417951802 0 -0.30076474035813339 -0.34759465108555682 0 -0.30278665144889838 -0.35518957417951802 0 -0.29719830368448108 -0.35301728683459582 0 -0.29943295026653399 -0.35953932364306618 0 -0.30278665144889838 -0.35518957417951802 0 -0.29719830368448108 -0.35301728683459582 0 -0.29943295026653399 -0.35953932364306618 0 -0.29719830368448108 -0.35301728683459582 0 -0.29016743694869812 -0.35649807524262711 0 -0.29016743694869812 -0.35649807524262711 0 -0.28284547851944208 -0.35047845284871731 0 -0.27168821399683141 -0.36006947561143121 0 -0.29719830368448108 -0.35301728683459582 0 -0.29016743694869812 -0.35649807524262711 0 -0.2925915294609488 -0.34919256188026188 0 -0.2925915294609488 -0.34919256188026188 0 -0.28611540962297188 -0.3426453659285974 0 -0.29619358151489988 -0.34015641309103278 0 -0.30076474035813339 -0.34759465108555682 0 -0.29719830368448108 -0.35301728683459582 0 -0.2925915294609488 -0.34919256188026188 0 -0.30076474035813339 -0.34759465108555682 0 -0.2925915294609488 -0.34919256188026188 0 -0.29619358151489988 -0.34015641309103278 0 -0.2925915294609488 -0.34919256188026188 0 -0.28284547851944208 -0.35047845284871731 0 -0.28611540962297188 -0.3426453659285974 0 -0.28284547851944208 -0.35047845284871731 0 -0.27676447355633299 -0.3457480812413124 0 -0.28611540962297188 -0.3426453659285974 0 -0.29016743694869812 -0.35649807524262711 0 -0.2925915294609488 -0.34919256188026188 0 -0.28284547851944208 -0.35047845284871731 0 -0.29202770366946113 -0.36668513997228358 0 -0.27168821399683141 -0.36006947561143121 0 -0.28307956849111848 -0.3828068929804474 0 -0.29719619905707523 -0.36594012765828582 0 -0.27168821399683141 -0.36006947561143121 0 -0.29202770366946113 -0.36668513997228358 0 -0.28307956849111848 -0.3828068929804474 0 -0.29202770366946113 -0.36668513997228358 0 -0.29584447723995128 -0.37444813956539807 0 -0.28307956849111848 -0.3828068929804474 0 -0.29719619905707523 -0.36594012765828582 0 -0.29016743694869812 -0.35649807524262711 0 -0.27168821399683141 -0.36006947561143121 0 -0.29719619905707523 -0.36594012765828582 0 -0.29202770366946113 -0.36668513997228358 0 -0.27168821399683141 -0.36006947561143121 0 -0.29719619905707523 -0.36594012765828582 0 -0.29943295026653399 -0.35953932364306618 0 -0.29016743694869812 -0.35649807524262711 0 -0.29719619905707523 -0.36594012765828582 0 -0.29202770366946113 -0.36668513997228358 0 -0.29584447723995128 -0.37444813956539807 0 -0.27168821399683141 -0.36006947561143121 0 -0.28307956849111848 -0.3828068929804474 0 -0.27168821399683141 -0.36006947561143121 0 -0.28307956849111848 -0.3828068929804474 0 -0.26050234447883253 -0.38027693877573482 0 -0.27168821399683141 -0.36006947561143121 0 -0.25721723303835431 -0.36623646057876708 0 -0.26050234447883253 -0.38027693877573482 0 -0.27168821399683141 -0.36006947561143121 0 -0.25721723303835431 -0.36623646057876708 0 -0.24850069890613241 -0.35473287875334369 0 -0.25721723303835431 -0.36623646057876708 0 -0.24817767477162081 -0.36986654917455902 0 -0.24850069890613241 -0.35473287875334369 0 -0.25721723303835431 -0.36623646057876708 0 -0.26050234447883253 -0.38027693877573482 0 -0.24817767477162081 -0.36986654917455902 0 -0.27168821399683141 -0.36006947561143121 0 -0.25445926970156468 -0.34270101061729968 0 -0.24850069890613241 -0.35473287875334369 0 -0.27168821399683141 -0.36006947561143121 0 -0.26120815563270988 -0.3391510272218049 0 -0.25445926970156468 -0.34270101061729968 0 -0.27168821399683141 -0.36006947561143121 0 -0.24850069890613241 -0.35473287875334369 0 -0.27168821399683141 -0.36006947561143121 0 -0.27676447355633299 -0.3457480812413124 0 -0.26120815563270988 -0.3391510272218049 0 -0.27168821399683141 -0.36006947561143121 0 -0.26120815563270988 -0.3391510272218049 0 -0.28284547851944208 -0.35047845284871731 0 -0.27168821399683141 -0.36006947561143121 0 -0.27676447355633299 -0.3457480812413124 0 -0.27676447355633299 -0.3457480812413124 0 -0.27858368134566353 -0.33798527866036399 0 -0.28611540962297188 -0.3426453659285974 0 -0.27676447355633299 -0.3457480812413124 0 -0.27858368134566353 -0.33798527866036399 0 -0.26120815563270988 -0.3391510272218049 0 -0.28089299200049878 -0.32879660088216478 0 -0.26120815563270988 -0.3391510272218049 0 -0.28089299200049878 -0.32879660088216478 0 -0.26120815563270988 -0.3391510272218049 0 -0.26730676106940449 -0.32685643845792262 0 -0.27858368134566353 -0.33798527866036399 0 -0.28089299200049878 -0.32879660088216478 0 -0.26120815563270988 -0.3391510272218049 0 -0.26120815563270988 -0.3391510272218049 0 -0.26057751607960811 -0.32279583566460812 0 -0.26730676106940449 -0.32685643845792262 0 -0.26120815563270988 -0.3391510272218049 0 -0.25273748935779161 -0.32224337373924072 0 -0.26120815563270988 -0.3391510272218049 0 -0.25207330520806498 -0.33378255792528982 0 -0.25273748935779161 -0.32224337373924072 0 -0.26120815563270988 -0.3391510272218049 0 -0.25445926970156468 -0.34270101061729968 0 -0.25207330520806498 -0.33378255792528982 0 -0.25445926970156468 -0.34270101061729968 0 -0.2460450098649074 -0.33743905859998191 0 -0.26120815563270988 -0.3391510272218049 0 -0.25207330520806498 -0.33378255792528982 0 -0.25445926970156468 -0.34270101061729968 0 -0.25273748935779161 -0.32224337373924072 0 -0.26050456352867191 -0.3149367065078193 0 -0.24426682308287331 -0.30533572025667649 0 -0.26120815563270988 -0.3391510272218049 0 -0.25273748935779161 -0.32224337373924072 0 -0.26057751607960811 -0.32279583566460812 0 -0.26057751607960811 -0.32279583566460812 0 -0.26050456352867191 -0.3149367065078193 0 -0.26730676106940449 -0.32685643845792262 0 -0.25273748935779161 -0.32224337373924072 0 -0.26057751607960811 -0.32279583566460812 0 -0.26050456352867191 -0.3149367065078193 0 -0.28089299200049878 -0.32879660088216478 0 -0.26050456352867191 -0.3149367065078193 0 -0.27445713665833338 -0.31633796571173628 0 -0.28089299200049878 -0.32879660088216478 0 -0.26050456352867191 -0.3149367065078193 0 -0.26050456352867191 -0.3149367065078193 0 -0.27445713665833338 -0.31633796571173628 0 -0.26793999894844561 -0.31004618489902153 0 -0.28089299200049878 -0.32879660088216478 0 -0.26050456352867191 -0.3149367065078193 0 -0.26730676106940449 -0.32685643845792262 0 -0.28089299200049878 -0.32879660088216478 0 -0.27445713665833338 -0.31633796571173628 0 -0.28125105682705043 -0.31976055402590231 0 -0.27445713665833338 -0.31633796571173628 0 -0.28252008875028978 -0.31254235777143202 0 -0.28125105682705043 -0.31976055402590231 0 -0.28252008875028978 -0.31254235777143202 0 -0.28823329624350208 -0.31711313423980658 0 -0.29327146190654751 -0.30876504511160502 0 -0.28089299200049878 -0.32879660088216478 0 -0.28823329624350208 -0.31711313423980658 0 -0.30327184377803978 -0.31702509473566581 0 -0.28089299200049878 -0.32879660088216478 0 -0.29457520052377689 -0.33013191680287202 0 -0.30327184377803978 -0.31702509473566581 0 -0.28089299200049878 -0.32879660088216478 0 -0.30327184377803978 -0.31702509473566581 0 -0.28252008875028978 -0.31254235777143202 0 -0.28125105682705043 -0.31976055402590231 0 -0.28823329624350208 -0.31711313423980658 0 -0.28823329624350208 -0.31711313423980658 0 -0.30327184377803978 -0.31702509473566581 0 -0.29327146190654751 -0.30876504511160502 0 -0.28089299200049878 -0.32879660088216478 0 -0.28125105682705043 -0.31976055402590231 0 -0.28823329624350208 -0.31711313423980658 0 -0.28089299200049878 -0.32879660088216478 0 -0.28793737591580382 -0.33358531802794061 0 -0.27858368134566353 -0.33798527866036399 0 -0.28089299200049878 -0.32879660088216478 0 -0.28793737591580382 -0.33358531802794061 0 -0.28089299200049878 -0.32879660088216478 0 -0.28793737591580382 -0.33358531802794061 0 -0.29457520052377689 -0.33013191680287202 0 -0.27858368134566353 -0.33798527866036399 0 -0.28793737591580382 -0.33358531802794061 0 -0.28611540962297188 -0.3426453659285974 0 -0.28793737591580382 -0.33358531802794061 0 -0.28611540962297188 -0.3426453659285974 0 -0.29619358151489988 -0.34015641309103278 0 -0.28793737591580382 -0.33358531802794061 0 -0.29619358151489988 -0.34015641309103278 0 -0.29457520052377689 -0.33013191680287202 0 -0.29619358151489988 -0.34015641309103278 0 -0.29457520052377689 -0.33013191680287202 0 -0.30458020940964259 -0.3310961572775562 0 -0.30076474035813339 -0.34759465108555682 0 -0.29619358151489988 -0.34015641309103278 0 -0.30398917998114899 -0.33934800480643368 0 -0.29619358151489988 -0.34015641309103278 0 -0.30458020940964259 -0.3310961572775562 0 -0.30398917998114899 -0.33934800480643368 0 -0.31372637242327511 -0.33497634201883658 0 -0.30849554643820359 -0.34481279163420842 0 -0.30398917998114899 -0.33934800480643368 0 -0.31475841231360341 -0.32260943229412947 0 -0.31372637242327511 -0.33497634201883658 0 -0.30458020940964259 -0.3310961572775562 0 -0.31372637242327511 -0.33497634201883658 0 -0.30458020940964259 -0.3310961572775562 0 -0.30398917998114899 -0.33934800480643368 0 -0.31475841231360341 -0.32260943229412947 0 -0.30458020940964259 -0.3310961572775562 0 -0.30327184377803978 -0.31702509473566581 0 -0.29457520052377689 -0.33013191680287202 0 -0.30458020940964259 -0.3310961572775562 0 -0.30327184377803978 -0.31702509473566581 0 -0.30327184377803978 -0.31702509473566581 0 -0.30068554560480582 -0.30112982209441241 0 -0.31228269981280887 -0.29918463989613459 0 -0.30327184377803978 -0.31702509473566581 0 -0.30068554560480582 -0.30112982209441241 0 -0.29327146190654751 -0.30876504511160502 0 -0.30068554560480582 -0.30112982209441241 0 -0.30483638085835207 -0.28788342401786787 0 -0.28888361246081401 -0.29493054457851903 0 -0.30068554560480582 -0.30112982209441241 0 -0.31228269981280887 -0.29918463989613459 0 -0.30483638085835207 -0.28788342401786787 0 -0.28888361246081401 -0.29493054457851903 0 -0.28078806465599399 -0.28300047521785149 0 -0.29451735460655398 -0.27472288856989607 0 -0.30483638085835207 -0.28788342401786787 0 -0.28888361246081401 -0.29493054457851903 0 -0.29451735460655398 -0.27472288856989607 0 -0.28888361246081401 -0.29493054457851903 0 -0.28295382644196537 -0.3038897035906043 0 -0.27388309143310768 -0.29511411685975181 0 -0.28888361246081401 -0.29493054457851903 0 -0.28295382644196537 -0.3038897035906043 0 -0.29327146190654751 -0.30876504511160502 0 -0.30068554560480582 -0.30112982209441241 0 -0.28888361246081401 -0.29493054457851903 0 -0.29327146190654751 -0.30876504511160502 0 -0.28252008875028978 -0.31254235777143202 0 -0.28295382644196537 -0.3038897035906043 0 -0.29327146190654751 -0.30876504511160502 0 -0.27445713665833338 -0.31633796571173628 0 -0.28252008875028978 -0.31254235777143202 0 -0.27524002690986649 -0.30828041126704497 0 -0.28252008875028978 -0.31254235777143202 0 -0.28295382644196537 -0.3038897035906043 0 -0.27524002690986649 -0.30828041126704497 0 -0.28295382644196537 -0.3038897035906043 0 -0.27524002690986649 -0.30828041126704497 0 -0.27388309143310768 -0.29511411685975181 0 -0.26808679199009749 -0.30362992927208171 0 -0.26252268864995981 -0.29761987486456531 0 -0.27388309143310768 -0.29511411685975181 0 -0.27524002690986649 -0.30828041126704497 0 -0.26808679199009749 -0.30362992927208171 0 -0.27388309143310768 -0.29511411685975181 0 -0.27445713665833338 -0.31633796571173628 0 -0.27524002690986649 -0.30828041126704497 0 -0.26793999894844561 -0.31004618489902153 0 -0.27524002690986649 -0.30828041126704497 0 -0.26808679199009749 -0.30362992927208171 0 -0.26793999894844561 -0.31004618489902153 0 -0.26808679199009749 -0.30362992927208171 0 -0.26793999894844561 -0.31004618489902153 0 -0.26278193746552841 -0.30551063084933561 0 -0.26050456352867191 -0.3149367065078193 0 -0.25485564421046719 -0.30132045870319019 0 -0.24011613505684479 -0.30107681213347393 0 -0.26050456352867191 -0.3149367065078193 0 -0.24011613505684479 -0.30107681213347393 0 -0.26050456352867191 -0.3149367065078193 0 -0.26278193746552841 -0.30551063084933561 0 -0.25485564421046719 -0.30132045870319019 0 -0.26050456352867191 -0.3149367065078193 0 -0.26793999894844561 -0.31004618489902153 0 -0.26278193746552841 -0.30551063084933561 0 -0.26278193746552841 -0.30551063084933561 0 -0.26252268864995981 -0.29761987486456531 0 -0.25485564421046719 -0.30132045870319019 0 -0.26252268864995981 -0.29761987486456531 0 -0.25485564421046719 -0.30132045870319019 0 -0.2567143935458242 -0.29223768812186002 0 -0.26808679199009749 -0.30362992927208171 0 -0.26278193746552841 -0.30551063084933561 0 -0.26252268864995981 -0.29761987486456531 0 -0.25608276685525683 -0.28295324223861612 0 -0.2567143935458242 -0.29223768812186002 0 -0.24732420154209239 -0.29033586459568173 0 -0.25485564421046719 -0.30132045870319019 0 -0.2567143935458242 -0.29223768812186002 0 -0.24732420154209239 -0.29033586459568173 0 -0.26252268864995981 -0.29761987486456531 0 -0.2567143935458242 -0.29223768812186002 0 -0.26350989061834318 -0.28909490770035701 0 -0.25608276685525683 -0.28295324223861612 0 -0.26350989061834318 -0.28909490770035701 0 -0.26907982973782107 -0.2804670883869903 0 -0.25608276685525683 -0.28295324223861612 0 -0.2567143935458242 -0.29223768812186002 0 -0.26350989061834318 -0.28909490770035701 0 -0.26350989061834318 -0.28909490770035701 0 -0.27388309143310768 -0.29511411685975181 0 -0.26907982973782107 -0.2804670883869903 0 -0.26252268864995981 -0.29761987486456531 0 -0.26350989061834318 -0.28909490770035701 0 -0.27388309143310768 -0.29511411685975181 0 -0.28888361246081401 -0.29493054457851903 0 -0.27388309143310768 -0.29511411685975181 0 -0.28078806465599399 -0.28300047521785149 0 -0.27388309143310768 -0.29511411685975181 0 -0.28078806465599399 -0.28300047521785149 0 -0.26907982973782107 -0.2804670883869903 0 -0.27772768471542669 -0.26767482265106679 0 -0.26907982973782107 -0.2804670883869903 0 -0.25958550566062261 -0.27102626557679149 0 -0.28078806465599399 -0.28300047521785149 0 -0.27772768471542669 -0.26767482265106679 0 -0.26907982973782107 -0.2804670883869903 0 -0.25608276685525683 -0.28295324223861612 0 -0.26907982973782107 -0.2804670883869903 0 -0.25958550566062261 -0.27102626557679149 0 -0.25608276685525683 -0.28295324223861612 0 -0.25958550566062261 -0.27102626557679149 0 -0.2444485511135471 -0.27534046621033159 0 -0.26398002587916253 -0.25656090854441049 0 -0.24465976002352091 -0.25387891845332877 0 -0.25992972331208369 -0.2410680052130979 0 -0.25958550566062261 -0.27102626557679149 0 -0.26398002587916253 -0.25656090854441049 0 -0.24465976002352091 -0.25387891845332877 0 -0.27772768471542669 -0.26767482265106679 0 -0.26398002587916253 -0.25656090854441049 0 -0.27722523139620658 -0.24922189107985179 0 -0.27772768471542669 -0.26767482265106679 0 -0.25958550566062261 -0.27102626557679149 0 -0.26398002587916253 -0.25656090854441049 0 -0.27772768471542669 -0.26767482265106679 0 -0.29131753467172561 -0.25675805269722002 0 -0.27722523139620658 -0.24922189107985179 0 -0.28078806465599399 -0.28300047521785149 0 -0.27772768471542669 -0.26767482265106679 0 -0.29451735460655398 -0.27472288856989607 0 -0.27772768471542669 -0.26767482265106679 0 -0.29131753467172561 -0.25675805269722002 0 -0.29451735460655398 -0.27472288856989607 0 -0.31319680135340772 -0.27337899374224139 0 -0.29451735460655398 -0.27472288856989607 0 -0.30564385326437488 -0.26015983685037081 0 -0.31319680135340772 -0.27337899374224139 0 -0.30483638085835207 -0.28788342401786787 0 -0.29451735460655398 -0.27472288856989607 0 -0.29131753467172561 -0.25675805269722002 0 -0.29451735460655398 -0.27472288856989607 0 -0.30564385326437488 -0.26015983685037081 0 -0.29131753467172561 -0.25675805269722002 0 -0.30564385326437488 -0.26015983685037081 0 -0.30769212114973271 -0.24578220261295139 0 -0.31968345090478489 -0.25798973640781447 0 -0.30564385326437488 -0.26015983685037081 0 -0.30769212114973271 -0.24578220261295139 0 -0.34207866423036198 -0.45986413066326443 0 -0.33141508850449702 -0.45187214799378478 0 -0.32594289259428999 -0.46085836632795257 0 -0.34207866423036198 -0.45986413066326443 0 -0.32594289259428999 -0.46085836632795257 0 -0.33264581849560632 -0.47431014716802089 0 -0.34207866423036198 -0.45986413066326443 0 -0.34225571697252682 -0.42997304157067162 0 -0.34207866423036198 -0.45986413066326443 0 -0.33358626016413989 -0.44229992863572659 0 -0.33141508850449702 -0.45187214799378478 0 -0.34207866423036198 -0.45986413066326443 0 -0.33358626016413989 -0.44229992863572659 0 -0.34225571697252682 -0.42997304157067162 0 -0.33358626016413989 -0.44229992863572659 0 -0.33141508850449702 -0.45187214799378478 0 -0.32300139100864811 -0.44723989508536771 0 -0.33358626016413989 -0.44229992863572659 0 -0.32300139100864811 -0.44723989508536771 0 -0.32413493920603592 -0.43586432580396972 0 -0.32300139100864811 -0.44723989508536771 0 -0.31385630152515048 -0.44199725430357722 0 -0.32413493920603592 -0.43586432580396972 0 -0.32300139100864811 -0.44723989508536771 0 -0.31385630152515048 -0.44199725430357722 0 -0.31044958537109257 -0.45255960714027171 0 -0.32594289259428999 -0.46085836632795257 0 -0.31333683559556219 -0.46686726284272168 0 -0.31044958537109257 -0.45255960714027171 0 -0.32594289259428999 -0.46085836632795257 0 -0.31333683559556219 -0.46686726284272168 0 -0.32224857144892449 -0.47649828689453749 0 -0.32300139100864811 -0.44723989508536771 0 -0.32594289259428999 -0.46085836632795257 0 -0.31044958537109257 -0.45255960714027171 0 -0.33141508850449702 -0.45187214799378478 0 -0.32300139100864811 -0.44723989508536771 0 -0.32594289259428999 -0.46085836632795257 0 -0.31333683559556219 -0.46686726284272168 0 -0.32224857144892449 -0.47649828689453749 0 -0.30503152439861497 -0.48190266549989857 0 -0.32224857144892449 -0.47649828689453749 0 -0.32279626626388608 -0.48781718170045291 0 -0.30503152439861497 -0.48190266549989857 0 -0.32594289259428999 -0.46085836632795257 0 -0.32224857144892449 -0.47649828689453749 0 -0.33264581849560632 -0.47431014716802089 0 -0.32224857144892449 -0.47649828689453749 0 -0.32279626626388608 -0.48781718170045291 0 -0.33105735271625752 -0.4845747321984929 0 -0.32006214434654462 -0.5 0 -0.32279626626388608 -0.48781718170045291 0 -0.30503152439861497 -0.48190266549989857 0 -0.32006214434654462 -0.5 0 -0.32279626626388608 -0.48781718170045291 0 -0.33558173840908911 -0.49611022390933512 0 -0.32006214434654462 -0.5 0 -0.33558173840908911 -0.49611022390933512 0 -0.34657288766042038 -0.5 0 -0.33558173840908911 -0.49611022390933512 0 -0.34190161148819742 -0.48975521975585701 0 -0.35306908662498632 -0.4951847935385878 0 -0.32279626626388608 -0.48781718170045291 0 -0.33558173840908911 -0.49611022390933512 0 -0.33105735271625752 -0.4845747321984929 0 -0.33558173840908911 -0.49611022390933512 0 -0.33105735271625752 -0.4845747321984929 0 -0.34190161148819742 -0.48975521975585701 0 -0.34207866423036198 -0.45986413066326443 0 -0.34190161148819742 -0.48975521975585701 0 -0.34207866423036198 -0.45986413066326443 0 -0.34190161148819742 -0.48975521975585701 0 -0.33264581849560632 -0.47431014716802089 0 -0.33105735271625752 -0.4845747321984929 0 -0.34190161148819742 -0.48975521975585701 0 -0.33264581849560632 -0.47431014716802089 0 -0.32224857144892449 -0.47649828689453749 0 -0.33105735271625752 -0.4845747321984929 0 -0.33264581849560632 -0.47431014716802089 0 -0.34190161148819742 -0.48975521975585701 0 -0.35001641252228072 -0.47142734906239081 0 -0.35328963507943428 -0.48328499015431992 0 -0.34207866423036198 -0.45986413066326443 0 -0.34190161148819742 -0.48975521975585701 0 -0.35001641252228072 -0.47142734906239081 0 -0.35328963507943428 -0.48328499015431992 0 -0.35950950469085041 -0.48638993404071668 0 -0.36112286221809747 -0.47283058930211808 0 -0.35001641252228072 -0.47142734906239081 0 -0.35328963507943428 -0.48328499015431992 0 -0.36112286221809747 -0.47283058930211808 0 -0.33558173840908911 -0.49611022390933512 0 -0.35306908662498632 -0.4951847935385878 0 -0.33558173840908911 -0.49611022390933512 0 -0.34657288766042038 -0.5 0 -0.35306908662498632 -0.4951847935385878 0 -0.34657288766042038 -0.5 0 -0.35306908662498632 -0.4951847935385878 0 -0.37308363097429631 -0.50000000000000244 0 -0.34190161148819742 -0.48975521975585701 0 -0.35328963507943428 -0.48328499015431992 0 -0.35306908662498632 -0.4951847935385878 0 -0.35328963507943428 -0.48328499015431992 0 -0.35306908662498632 -0.4951847935385878 0 -0.35950950469085041 -0.48638993404071668 0 -0.35306908662498632 -0.4951847935385878 0 -0.35950950469085041 -0.48638993404071668 0 -0.37055643484088358 -0.49425936316784103 0 -0.35306908662498632 -0.4951847935385878 0 -0.37055643484088358 -0.49425936316784103 0 -0.35950950469085041 -0.48638993404071668 0 -0.37055643484088358 -0.49425936316784103 0 -0.36112286221809747 -0.47283058930211808 0 -0.35306908662498632 -0.4951847935385878 0 -0.37055643484088358 -0.49425936316784103 0 -0.37308363097429631 -0.50000000000000244 0 -0.37055643484088358 -0.49425936316784103 0 -0.37308363097429631 -0.50000000000000244 0 -0.38039451612360919 -0.47713749807852829 0 -0.37055643484088358 -0.49425936316784103 0 -0.36112286221809747 -0.47283058930211808 0 -0.37055643484088358 -0.49425936316784103 0 -0.36112286221809747 -0.47283058930211808 0 -0.38039451612360919 -0.47713749807852829 0 -0.36112286221809747 -0.47283058930211808 0 -0.37415472949075129 -0.45946062715310632 0 -0.37415472949075129 -0.45946062715310632 0 -0.3629811744391212 -0.45722253899736259 0 -0.36406731613876331 -0.44506275929787698 0 -0.36112286221809747 -0.47283058930211808 0 -0.37415472949075129 -0.45946062715310632 0 -0.3629811744391212 -0.45722253899736259 0 -0.36112286221809747 -0.47283058930211808 0 -0.3629811744391212 -0.45722253899736259 0 -0.35168928959531232 -0.4514018154363949 0 -0.36112286221809747 -0.47283058930211808 0 -0.35168928959531232 -0.4514018154363949 0 -0.35001641252228072 -0.47142734906239081 0 -0.36112286221809747 -0.47283058930211808 0 -0.35168928959531232 -0.4514018154363949 0 -0.34207866423036198 -0.45986413066326443 0 -0.35001641252228072 -0.47142734906239081 0 -0.35168928959531232 -0.4514018154363949 0 -0.35168928959531232 -0.4514018154363949 0 -0.34225571697252682 -0.42997304157067162 0 -0.35168928959531232 -0.4514018154363949 0 -0.36406731613876331 -0.44506275929787698 0 -0.34225571697252682 -0.42997304157067162 0 -0.34207866423036198 -0.45986413066326443 0 -0.35168928959531232 -0.4514018154363949 0 -0.34225571697252682 -0.42997304157067162 0 -0.38339996822118783 -0.44368928783448319 0 -0.36406731613876331 -0.44506275929787698 0 -0.36866352395763108 -0.4313760290561211 0 -0.38339996822118783 -0.44368928783448319 0 -0.37415472949075129 -0.45946062715310632 0 -0.36406731613876331 -0.44506275929787698 0 -0.3629811744391212 -0.45722253899736259 0 -0.35168928959531232 -0.4514018154363949 0 -0.36406731613876331 -0.44506275929787698 0 -0.38131756488089769 -0.42670085612339947 0 -0.36866352395763108 -0.4313760290561211 0 -0.36377437909963828 -0.41972983174959272 0 -0.38704143117499401 -0.40999023144455299 0 -0.3575105341832589 -0.40691374405003478 0 -0.38704143117499401 -0.40999023144455299 0 -0.36377437909963828 -0.41972983174959272 0 -0.3575105341832589 -0.40691374405003478 0 -0.35062038894632092 -0.41624612172537079 0 -0.34239786166265201 -0.40597533588911489 0 -0.34225571697252682 -0.42997304157067162 0 -0.36377437909963828 -0.41972983174959272 0 -0.3575105341832589 -0.40691374405003478 0 -0.35062038894632092 -0.41624612172537079 0 -0.3575105341832589 -0.40691374405003478 0 -0.35062038894632092 -0.41624612172537079 0 -0.34239786166265201 -0.40597533588911489 0 -0.36406731613876331 -0.44506275929787698 0 -0.36866352395763108 -0.4313760290561211 0 -0.34225571697252682 -0.42997304157067162 0 -0.36866352395763108 -0.4313760290561211 0 -0.36377437909963828 -0.41972983174959272 0 -0.34225571697252682 -0.42997304157067162 0 -0.36377437909963828 -0.41972983174959272 0 -0.35062038894632092 -0.41624612172537079 0 -0.34225571697252682 -0.42997304157067162 0 -0.37522403377147279 -0.38060127254172499 0 -0.37464038230528551 -0.396492613407532 0 -0.35879027536972019 -0.3891835699585654 0 -0.37522403377147279 -0.38060127254172499 0 -0.35964608014779109 -0.37334112637938882 0 -0.35879027536972019 -0.3891835699585654 0 -0.38704143117499401 -0.40999023144455299 0 -0.3575105341832589 -0.40691374405003478 0 -0.37464038230528551 -0.396492613407532 0 -0.3575105341832589 -0.40691374405003478 0 -0.37464038230528551 -0.396492613407532 0 -0.35879027536972019 -0.3891835699585654 0 -0.3575105341832589 -0.40691374405003478 0 -0.35030966939210212 -0.39601257002631829 0 -0.35879027536972019 -0.3891835699585654 0 -0.35030966939210212 -0.39601257002631829 0 -0.34254000635277743 -0.38197763020755832 0 -0.34239786166265201 -0.40597533588911489 0 -0.3575105341832589 -0.40691374405003478 0 -0.35030966939210212 -0.39601257002631829 0 -0.34239786166265201 -0.40597533588911489 0 -0.35964608014779109 -0.37334112637938882 0 -0.35879027536972019 -0.3891835699585654 0 -0.34254000635277743 -0.38197763020755832 0 -0.35030966939210212 -0.39601257002631829 0 -0.35879027536972019 -0.3891835699585654 0 -0.34254000635277743 -0.38197763020755832 0 -0.32270418411731933 -0.37181077970513959 0 -0.34254000635277743 -0.38197763020755832 0 -0.32435131947256218 -0.38428518727128619 0 -0.34254000635277743 -0.38197763020755832 0 -0.33211028503505757 -0.39455092735479258 0 -0.32435131947256218 -0.38428518727128619 0 -0.34254000635277743 -0.38197763020755832 0 -0.33211028503505757 -0.39455092735479258 0 -0.34239786166265201 -0.40597533588911489 0 -0.34254000635277743 -0.38197763020755832 0 -0.34239786166265201 -0.40597533588911489 0 -0.33211028503505757 -0.39455092735479258 0 -0.32627218782356721 -0.40254155632103228 0 -0.33325599186729038 -0.40952977136485508 0 -0.33211028503505757 -0.39455092735479258 0 -0.34239786166265201 -0.40597533588911489 0 -0.33325599186729038 -0.40952977136485508 0 -0.32627218782356721 -0.40254155632103228 0 -0.31778611784491262 -0.39429551077659458 0 -0.31836523457261151 -0.40628576827473822 0 -0.31778611784491262 -0.39429551077659458 0 -0.31836523457261151 -0.40628576827473822 0 -0.30856762168503782 -0.40330407176644772 0 -0.33211028503505757 -0.39455092735479258 0 -0.32627218782356721 -0.40254155632103228 0 -0.31778611784491262 -0.39429551077659458 0 -0.33211028503505757 -0.39455092735479258 0 -0.31778611784491262 -0.39429551077659458 0 -0.32435131947256218 -0.38428518727128619 0 -0.31778611784491262 -0.39429551077659458 0 -0.32435131947256218 -0.38428518727128619 0 -0.3103864423796594 -0.37828470113645102 0 -0.32270418411731933 -0.37181077970513959 0 -0.32435131947256218 -0.38428518727128619 0 -0.3103864423796594 -0.37828470113645102 0 -0.34225571697252682 -0.42997304157067162 0 -0.32127707919304882 -0.42450406978857058 0 -0.32413493920603592 -0.43586432580396972 0 -0.33358626016413989 -0.44229992863572659 0 -0.34225571697252682 -0.42997304157067162 0 -0.32413493920603592 -0.43586432580396972 0 -0.34225571697252682 -0.42997304157067162 0 -0.32547848823970138 -0.41505510354763547 0 -0.32127707919304882 -0.42450406978857058 0 -0.34225571697252682 -0.42997304157067162 0 -0.33325599186729038 -0.40952977136485508 0 -0.34239786166265201 -0.40597533588911489 0 -0.34225571697252682 -0.42997304157067162 0 -0.34225571697252682 -0.42997304157067162 0 -0.33325599186729038 -0.40952977136485508 0 -0.32547848823970138 -0.41505510354763547 0 -0.34239786166265201 -0.40597533588911489 0 -0.34225571697252682 -0.42997304157067162 0 -0.33325599186729038 -0.40952977136485508 0 -0.32627218782356721 -0.40254155632103228 0 -0.33325599186729038 -0.40952977136485508 0 -0.32547848823970138 -0.41505510354763547 0 -0.32547848823970138 -0.41505510354763547 0 -0.3149711123139971 -0.41411215899080989 0 -0.32127707919304882 -0.42450406978857058 0 -0.32627218782356721 -0.40254155632103228 0 -0.32547848823970138 -0.41505510354763547 0 -0.31836523457261151 -0.40628576827473822 0 -0.32547848823970138 -0.41505510354763547 0 -0.31836523457261151 -0.40628576827473822 0 -0.3149711123139971 -0.41411215899080989 0 -0.31836523457261151 -0.40628576827473822 0 -0.3149711123139971 -0.41411215899080989 0 -0.30856762168503782 -0.40330407176644772 0 -0.3149711123139971 -0.41411215899080989 0 -0.32127707919304882 -0.42450406978857058 0 -0.31068047406536009 -0.42124040027518911 0 -0.32127707919304882 -0.42450406978857058 0 -0.31073004788055869 -0.43167813375356229 0 -0.31068047406536009 -0.42124040027518911 0 -0.32127707919304882 -0.42450406978857058 0 -0.32413493920603592 -0.43586432580396972 0 -0.31073004788055869 -0.43167813375356229 0 -0.31385630152515048 -0.44199725430357722 0 -0.32413493920603592 -0.43586432580396972 0 -0.31073004788055869 -0.43167813375356229 0 -0.31073004788055869 -0.43167813375356229 0 -0.29829421210859891 -0.43220714453990322 0 -0.30286215921622678 -0.44210958888768459 0 -0.31073004788055869 -0.43167813375356229 0 -0.29829421210859891 -0.43220714453990322 0 -0.30293836312512551 -0.42244552438862548 0 -0.29829421210859891 -0.43220714453990322 0 -0.30293836312512551 -0.42244552438862548 0 -0.29038846928103268 -0.42353273433611682 0 -0.31073004788055869 -0.43167813375356229 0 -0.30293836312512551 -0.42244552438862548 0 -0.31068047406536009 -0.42124040027518911 0 -0.3149711123139971 -0.41411215899080989 0 -0.31068047406536009 -0.42124040027518911 0 -0.30545777612822328 -0.41428354029227837 0 -0.30293836312512551 -0.42244552438862548 0 -0.31068047406536009 -0.42124040027518911 0 -0.30545777612822328 -0.41428354029227837 0 -0.3149711123139971 -0.41411215899080989 0 -0.30545777612822328 -0.41428354029227837 0 -0.30856762168503782 -0.40330407176644772 0 -0.30545777612822328 -0.41428354029227837 0 -0.30856762168503782 -0.40330407176644772 0 -0.30079847364115991 -0.40578130343003371 0 -0.30545777612822328 -0.41428354029227837 0 -0.2987732092282892 -0.41413177709842958 0 -0.30079847364115991 -0.40578130343003371 0 -0.30293836312512551 -0.42244552438862548 0 -0.2987732092282892 -0.41413177709842958 0 -0.29038846928103268 -0.42353273433611682 0 -0.30293836312512551 -0.42244552438862548 0 -0.2987732092282892 -0.41413177709842958 0 -0.30293836312512551 -0.42244552438862548 0 -0.30545777612822328 -0.41428354029227837 0 -0.2987732092282892 -0.41413177709842958 0 -0.30545777612822328 -0.41428354029227837 0 -0.2987732092282892 -0.41413177709842958 0 -0.2987732092282892 -0.41413177709842958 0 -0.29092638885970451 -0.39846933503943821 0 -0.2987732092282892 -0.41413177709842958 0 -0.28243901841779939 -0.41376093348156762 0 -0.29092638885970451 -0.39846933503943821 0 -0.2987732092282892 -0.41413177709842958 0 -0.28243901841779939 -0.41376093348156762 0 -0.29038846928103268 -0.42353273433611682 0 -0.2987732092282892 -0.41413177709842958 0 -0.28243901841779939 -0.41376093348156762 0 -0.28243901841779939 -0.41376093348156762 0 -0.29038846928103268 -0.42353273433611682 0 -0.27500508569675858 -0.42792788340523652 0 -0.29038846928103268 -0.42353273433611682 0 -0.27500508569675858 -0.42792788340523652 0 -0.28620792983366777 -0.44117103379144762 0 -0.29829421210859891 -0.43220714453990322 0 -0.29038846928103268 -0.42353273433611682 0 -0.28620792983366777 -0.44117103379144762 0 -0.31778611784491262 -0.39429551077659458 0 -0.3103864423796594 -0.37828470113645102 0 -0.30424293331838692 -0.39073887816822978 0 -0.29584447723995128 -0.37444813956539807 0 -0.29713407365637251 -0.38186722723828942 0 -0.3103864423796594 -0.37828470113645102 0 -0.29713407365637251 -0.38186722723828942 0 -0.30424293331838692 -0.39073887816822978 0 -0.29406976999373469 -0.38920344929064732 0 -0.29713407365637251 -0.38186722723828942 0 -0.3103864423796594 -0.37828470113645102 0 -0.30424293331838692 -0.39073887816822978 0 -0.29998863005712628 -0.39809616774203599 0 -0.30424293331838692 -0.39073887816822978 0 -0.30856762168503782 -0.40330407176644772 0 -0.29998863005712628 -0.39809616774203599 0 -0.30424293331838692 -0.39073887816822978 0 -0.29406976999373469 -0.38920344929064732 0 -0.31778611784491262 -0.39429551077659458 0 -0.30424293331838692 -0.39073887816822978 0 -0.30856762168503782 -0.40330407176644772 0 -0.29998863005712628 -0.39809616774203599 0 -0.30079847364115991 -0.40578130343003371 0 -0.29092638885970451 -0.39846933503943821 0 -0.29998863005712628 -0.39809616774203599 0 -0.30856762168503782 -0.40330407176644772 0 -0.30079847364115991 -0.40578130343003371 0 -0.2987732092282892 -0.41413177709842958 0 -0.30079847364115991 -0.40578130343003371 0 -0.29092638885970451 -0.39846933503943821 0 -0.29092638885970451 -0.39846933503943821 0 -0.28307956849111848 -0.3828068929804474 0 -0.29092638885970451 -0.39846933503943821 0 -0.28307956849111848 -0.3828068929804474 0 -0.27459219804921331 -0.39809849142257658 0 -0.28243901841779939 -0.41376093348156762 0 -0.29092638885970451 -0.39846933503943821 0 -0.27459219804921331 -0.39809849142257658 0 -0.29998863005712628 -0.39809616774203599 0 -0.29092638885970451 -0.39846933503943821 0 -0.29406976999373469 -0.38920344929064732 0 -0.29092638885970451 -0.39846933503943821 0 -0.29406976999373469 -0.38920344929064732 0 -0.28307956849111848 -0.3828068929804474 0 -0.29713407365637251 -0.38186722723828942 0 -0.29406976999373469 -0.38920344929064732 0 -0.28307956849111848 -0.3828068929804474 0 -0.29584447723995128 -0.37444813956539807 0 -0.29713407365637251 -0.38186722723828942 0 -0.28307956849111848 -0.3828068929804474 0 -0.28307956849111848 -0.3828068929804474 0 -0.27459219804921331 -0.39809849142257658 0 -0.26050234447883253 -0.38027693877573482 0 -0.28307956849111848 -0.3828068929804474 0 -0.27459219804921331 -0.39809849142257658 0 -0.27459219804921331 -0.39809849142257658 0 -0.26610482760730952 -0.4133900898647066 0 -0.27459219804921331 -0.39809849142257658 0 -0.26088670843651829 -0.40068536336094251 0 -0.26610482760730952 -0.4133900898647066 0 -0.26088670843651829 -0.40068536336094251 0 -0.26050234447883253 -0.38027693877573482 0 -0.2487824818667288 -0.3954643368039899 0 -0.27459219804921331 -0.39809849142257658 0 -0.26088670843651829 -0.40068536336094251 0 -0.26050234447883253 -0.38027693877573482 0 -0.26088670843651829 -0.40068536336094251 0 -0.24694430377570939 -0.41295507854145541 0 -0.2487824818667288 -0.3954643368039899 0 -0.27500508569675858 -0.42792788340523652 0 -0.25298523514652932 -0.43702750984159111 0 -0.27028712802556781 -0.44002206955302048 0 -0.27500508569675858 -0.42792788340523652 0 -0.27028712802556781 -0.44002206955302048 0 -0.28620792983366777 -0.44117103379144762 0 -0.28243901841779939 -0.41376093348156762 0 -0.27500508569675858 -0.42792788340523652 0 -0.26610482760730952 -0.4133900898647066 0 -0.28243901841779939 -0.41376093348156762 0 -0.27459219804921331 -0.39809849142257658 0 -0.26610482760730952 -0.4133900898647066 0 -0.28243901841779939 -0.41376093348156762 0 -0.26610482760730952 -0.4133900898647066 0 -0.26610482760730952 -0.4133900898647066 0 -0.24694430377570939 -0.41295507854145541 0 -0.26610482760730952 -0.4133900898647066 0 -0.25298523514652932 -0.43702750984159111 0 -0.24694430377570939 -0.41295507854145541 0 -0.26088670843651829 -0.40068536336094251 0 -0.26610482760730952 -0.4133900898647066 0 -0.24694430377570939 -0.41295507854145541 0 -0.27500508569675858 -0.42792788340523652 0 -0.26610482760730952 -0.4133900898647066 0 -0.25298523514652932 -0.43702750984159111 0 -0.26610482760730952 -0.4133900898647066 0 -0.25298523514652932 -0.43702750984159111 0 -0.25298523514652932 -0.43702750984159111 0 -0.25823473398406083 -0.46259190486934387 0 -0.27139768853026319 -0.45350369328431828 0 -0.25298523514652932 -0.43702750984159111 0 -0.27139768853026319 -0.45350369328431828 0 -0.27028712802556781 -0.44002206955302048 0 -0.25298523514652932 -0.43702750984159111 0 -0.25823473398406083 -0.46259190486934387 0 -0.2398656426857485 -0.46066492981847512 0 -0.27139768853026319 -0.45350369328431828 0 -0.28665438526504589 -0.45880473289459528 0 -0.27499686831673542 -0.4693274569635677 0 -0.25823473398406083 -0.46259190486934387 0 -0.27139768853026319 -0.45350369328431828 0 -0.27499686831673542 -0.4693274569635677 0 -0.27139768853026319 -0.45350369328431828 0 -0.27028712802556781 -0.44002206955302048 0 -0.28620792983366777 -0.44117103379144762 0 -0.28620792983366777 -0.44117103379144762 0 -0.29665932401628559 -0.4519210782245337 0 -0.28665438526504589 -0.45880473289459528 0 -0.28620792983366777 -0.44117103379144762 0 -0.29665932401628559 -0.4519210782245337 0 -0.30286215921622678 -0.44210958888768459 0 -0.27139768853026319 -0.45350369328431828 0 -0.28620792983366777 -0.44117103379144762 0 -0.28665438526504589 -0.45880473289459528 0 -0.29829421210859891 -0.43220714453990322 0 -0.28620792983366777 -0.44117103379144762 0 -0.30286215921622678 -0.44210958888768459 0 -0.28665438526504589 -0.45880473289459528 0 -0.28928475434474438 -0.47221518125428918 0 -0.27499686831673542 -0.4693274569635677 0 -0.28665438526504589 -0.45880473289459528 0 -0.30029558254474148 -0.46389675841394568 0 -0.28928475434474438 -0.47221518125428918 0 -0.29665932401628559 -0.4519210782245337 0 -0.28665438526504589 -0.45880473289459528 0 -0.30029558254474148 -0.46389675841394568 0 -0.29665932401628559 -0.4519210782245337 0 -0.30029558254474148 -0.46389675841394568 0 -0.31044958537109257 -0.45255960714027171 0 -0.31333683559556219 -0.46686726284272168 0 -0.30029558254474148 -0.46389675841394568 0 -0.31044958537109257 -0.45255960714027171 0 -0.31385630152515048 -0.44199725430357722 0 -0.31044958537109257 -0.45255960714027171 0 -0.30286215921622678 -0.44210958888768459 0 -0.31385630152515048 -0.44199725430357722 0 -0.31073004788055869 -0.43167813375356229 0 -0.30286215921622678 -0.44210958888768459 0 -0.29665932401628559 -0.4519210782245337 0 -0.31044958537109257 -0.45255960714027171 0 -0.30286215921622678 -0.44210958888768459 0 -0.32006214434654462 -0.5 0 -0.30503152439861497 -0.48190266549989857 0 -0.29355140103266869 -0.5 0 -0.30029558254474148 -0.46389675841394568 0 -0.30503152439861497 -0.48190266549989857 0 -0.28928475434474438 -0.47221518125428918 0 -0.31333683559556219 -0.46686726284272168 0 -0.30029558254474148 -0.46389675841394568 0 -0.30503152439861497 -0.48190266549989857 0 -0.30503152439861497 -0.48190266549989857 0 -0.28928475434474438 -0.47221518125428918 0 -0.27944541119858413 -0.48714429249943858 0 -0.30503152439861497 -0.48190266549989857 0 -0.29355140103266869 -0.5 0 -0.27944541119858413 -0.48714429249943858 0 -0.26704065771879287 -0.5 0 -0.27944541119858413 -0.48714429249943858 0 -0.26377894750559139 -0.4817410620592058 0 -0.29355140103266869 -0.5 0 -0.26704065771879287 -0.5 0 -0.27944541119858413 -0.48714429249943858 0 -0.27944541119858413 -0.48714429249943858 0 -0.27499686831673542 -0.4693274569635677 0 -0.26377894750559139 -0.4817410620592058 0 -0.28928475434474438 -0.47221518125428918 0 -0.27944541119858413 -0.48714429249943858 0 -0.27499686831673542 -0.4693274569635677 0 -0.25823473398406083 -0.46259190486934387 0 -0.27499686831673542 -0.4693274569635677 0 -0.26377894750559139 -0.4817410620592058 0 -0.25823473398406083 -0.46259190486934387 0 -0.26377894750559139 -0.4817410620592058 0 -0.24769273461092009 -0.47775775457152359 0 -0.26704065771879287 -0.5 0 -0.26377894750559139 -0.4817410620592058 0 -0.24052991440491719 -0.5 0 -0.26377894750559139 -0.4817410620592058 0 -0.24052991440491719 -0.5 0 -0.24769273461092009 -0.47775775457152359 0 -0.24052991440491719 -0.5 0 -0.24769273461092009 -0.47775775457152359 0 -0.2238647917587385 -0.47868470982513422 0 -0.24769273461092009 -0.47775775457152359 0 -0.2238647917587385 -0.47868470982513422 0 -0.2253613830811457 -0.45761053917550981 0 -0.24052991440491719 -0.5 0 -0.2238647917587385 -0.47868470982513422 0 -0.2140191710910414 -0.49999999999999972 0 -0.25298523514652932 -0.43702750984159111 0 -0.23591515519085041 -0.44398209369878189 0 -0.2398656426857485 -0.46066492981847512 0 -0.25298523514652932 -0.43702750984159111 0 -0.2398656426857485 -0.46066492981847512 0 -0.25823473398406083 -0.46259190486934387 0 -0.24769273461092009 -0.47775775457152359 0 -0.2398656426857485 -0.46066492981847512 0 -0.24769273461092009 -0.47775775457152359 0 -0.2398656426857485 -0.46066492981847512 0 -0.2253613830811457 -0.45761053917550981 0 -0.24769273461092009 -0.47775775457152359 0 -0.2253613830811457 -0.45761053917550981 0 -0.2238647917587385 -0.47868470982513422 0 -0.2253613830811457 -0.45761053917550981 0 -0.20999779143719291 -0.46083672605530768 0 -0.23591515519085041 -0.44398209369878189 0 -0.2398656426857485 -0.46066492981847512 0 -0.2253613830811457 -0.45761053917550981 0 -0.23591515519085041 -0.44398209369878189 0 -0.2253613830811457 -0.45761053917550981 0 -0.22549954629610269 -0.43500765649169948 0 -0.2253613830811457 -0.45761053917550981 0 -0.20999779143719291 -0.46083672605530768 0 -0.2030300315513712 -0.43746332377949593 0 -0.2253613830811457 -0.45761053917550981 0 -0.2030300315513712 -0.43746332377949593 0 -0.20999779143719291 -0.46083672605530768 0 -0.19715634076338631 -0.4518064782969281 0 -0.2030300315513712 -0.43746332377949593 0 -0.2253613830811457 -0.45761053917550981 0 -0.2030300315513712 -0.43746332377949593 0 -0.22549954629610269 -0.43500765649169948 0 -0.20999779143719291 -0.46083672605530768 0 -0.19715634076338631 -0.4518064782969281 0 -0.2055877559272139 -0.47590323914846377 0 -0.19715634076338631 -0.4518064782969281 0 -0.2055877559272139 -0.47590323914846377 0 -0.19179305986328829 -0.46711759196808689 0 -0.19715634076338631 -0.4518064782969281 0 -0.2055877559272139 -0.47590323914846377 0 -0.19179305986328829 -0.46711759196808689 0 -0.19715634076338631 -0.4518064782969281 0 -0.184822707974968 -0.45592422963236362 0 -0.19715634076338631 -0.4518064782969281 0 -0.2030300315513712 -0.43746332377949593 0 -0.18872492559955881 -0.42770971744539221 0 -0.19715634076338631 -0.4518064782969281 0 -0.18872492559955881 -0.42770971744539221 0 -0.19715634076338631 -0.4518064782969281 0 -0.1870173619903012 -0.44414077979923022 0 -0.18872492559955881 -0.42770971744539221 0 -0.19715634076338631 -0.4518064782969281 0 -0.184822707974968 -0.45592422963236362 0 -0.1870173619903012 -0.44414077979923022 0 -0.2140191710910414 -0.49999999999999972 0 -0.2055877559272139 -0.47590323914846377 0 -0.2140191710910414 -0.49999999999999972 0 -0.2055877559272139 -0.47590323914846377 0 -0.1915741566131953 -0.48274482478870012 0 -0.2238647917587385 -0.47868470982513422 0 -0.2140191710910414 -0.49999999999999972 0 -0.2055877559272139 -0.47590323914846377 0 -0.2238647917587385 -0.47868470982513422 0 -0.20999779143719291 -0.46083672605530768 0 -0.2055877559272139 -0.47590323914846377 0 -0.19179305986328829 -0.46711759196808689 0 -0.2055877559272139 -0.47590323914846377 0 -0.1915741566131953 -0.48274482478870012 0 -0.19179305986328829 -0.46711759196808689 0 -0.1915741566131953 -0.48274482478870012 0 -0.17982433803767831 -0.46920918797397909 0 -0.2140191710910414 -0.49999999999999972 0 -0.1915741566131953 -0.48274482478870012 0 -0.1841956238768391 -0.5 0 -0.1915741566131953 -0.48274482478870012 0 -0.1841956238768391 -0.5 0 -0.17247084166804699 -0.48396500267038112 0 -0.1841956238768391 -0.5 0 -0.17247084166804699 -0.48396500267038112 0 -0.15437207666263669 -0.50000000000000022 0 -0.15669106487963419 -0.47716915445828201 0 -0.17247084166804699 -0.48396500267038112 0 -0.15437207666263669 -0.50000000000000022 0 -0.15669106487963419 -0.47716915445828201 0 -0.17247084166804699 -0.48396500267038112 0 -0.1680230602922401 -0.4683158249620154 0 -0.17247084166804699 -0.48396500267038112 0 -0.17982433803767831 -0.46920918797397909 0 -0.1680230602922401 -0.4683158249620154 0 -0.1915741566131953 -0.48274482478870012 0 -0.17247084166804699 -0.48396500267038112 0 -0.17982433803767831 -0.46920918797397909 0 -0.19179305986328829 -0.46711759196808689 0 -0.17982433803767831 -0.46920918797397909 0 -0.184822707974968 -0.45592422963236362 0 -0.17982433803767831 -0.46920918797397909 0 -0.184822707974968 -0.45592422963236362 0 -0.17211900377920919 -0.45689747079087062 0 -0.17982433803767831 -0.46920918797397909 0 -0.17211900377920919 -0.45689747079087062 0 -0.1680230602922401 -0.4683158249620154 0 -0.1870173619903012 -0.44414077979923022 0 -0.17843006300647921 -0.44542980211747812 0 -0.1823118302108766 -0.43680876328769058 0 -0.184822707974968 -0.45592422963236362 0 -0.1870173619903012 -0.44414077979923022 0 -0.17843006300647921 -0.44542980211747812 0 -0.17211900377920919 -0.45689747079087062 0 -0.17843006300647921 -0.44542980211747812 0 -0.16919262628862339 -0.44362555979768409 0 -0.184822707974968 -0.45592422963236362 0 -0.17211900377920919 -0.45689747079087062 0 -0.17843006300647921 -0.44542980211747812 0 -0.17843006300647921 -0.44542980211747812 0 -0.16919262628862339 -0.44362555979768409 0 -0.17507497024716731 -0.42995475378866199 0 -0.1590100530966318 -0.45433830891656402 0 -0.148881704538534 -0.44296791951084241 0 -0.1613290413136293 -0.43150746337484569 0 -0.1590100530966318 -0.45433830891656402 0 -0.1613290413136293 -0.43150746337484569 0 -0.16919262628862339 -0.44362555979768409 0 -0.1590100530966318 -0.45433830891656402 0 -0.1613290413136293 -0.43150746337484569 0 -0.17211900377920919 -0.45689747079087062 0 -0.16919262628862339 -0.44362555979768409 0 -0.1590100530966318 -0.45433830891656402 0 -0.15669106487963419 -0.47716915445828201 0 -0.1680230602922401 -0.4683158249620154 0 -0.1590100530966318 -0.45433830891656402 0 -0.15669106487963419 -0.47716915445828201 0 -0.1590100530966318 -0.45433830891656402 0 -0.17211900377920919 -0.45689747079087062 0 -0.1680230602922401 -0.4683158249620154 0 -0.1590100530966318 -0.45433830891656402 0 -0.15669106487963419 -0.47716915445828201 0 -0.1590100530966318 -0.45433830891656402 0 -0.1472923250818238 -0.46077477567243558 0 -0.1590100530966318 -0.45433830891656402 0 -0.1472923250818238 -0.46077477567243558 0 -0.148881704538534 -0.44296791951084241 0 -0.1472923250818238 -0.46077477567243558 0 -0.148881704538534 -0.44296791951084241 0 -0.13194602454298601 -0.43962244526902572 0 -0.13194602454298601 -0.43962244526902572 0 -0.13077987840644981 -0.46069854066347632 0 -0.11615585050415531 -0.45102464773050138 0 -0.1472923250818238 -0.46077477567243558 0 -0.13194602454298601 -0.43962244526902572 0 -0.1472923250818238 -0.46077477567243558 0 -0.13077987840644981 -0.46069854066347632 0 -0.13742439756140509 -0.48004162281001828 0 -0.1472923250818238 -0.46077477567243558 0 -0.13194602454298601 -0.43962244526902572 0 -0.13077987840644981 -0.46069854066347632 0 -0.13742439756140509 -0.48004162281001828 0 -0.12108079434187891 -0.47202921183540031 0 -0.1206292342060253 -0.48641385964910883 0 -0.13077987840644981 -0.46069854066347632 0 -0.13742439756140509 -0.48004162281001828 0 -0.12108079434187891 -0.47202921183540031 0 -0.13742439756140509 -0.48004162281001828 0 -0.131118449396015 -0.5 0 -0.1206292342060253 -0.48641385964910883 0 -0.15669106487963419 -0.47716915445828201 0 -0.13742439756140509 -0.48004162281001828 0 -0.15437207666263669 -0.50000000000000022 0 -0.15669106487963419 -0.47716915445828201 0 -0.15437207666263669 -0.50000000000000022 0 -0.13742439756140509 -0.48004162281001828 0 -0.131118449396015 -0.5 0 -0.15437207666263669 -0.50000000000000022 0 -0.15669106487963419 -0.47716915445828201 0 -0.1472923250818238 -0.46077477567243558 0 -0.13742439756140509 -0.48004162281001828 0 -0.13678826443221431 -0.39755243580027871 0 -0.14931675495270949 -0.41057852288770358 0 -0.15761740849691311 -0.38818340141201402 0 -0.1369224961495438 -0.38192389563367207 0 -0.13678826443221431 -0.39755243580027871 0 -0.15761740849691311 -0.38818340141201402 0 -0.1369224961495438 -0.38192389563367207 0 -0.15761740849691311 -0.38818340141201402 0 -0.148308101659717 -0.36695316985008092 0 -0.1369224961495438 -0.38192389563367207 0 -0.12526638733901391 -0.39147447277512609 0 -0.13678826443221431 -0.39755243580027871 0 -0.1369224961495438 -0.38192389563367207 0 -0.1303219987982592 -0.3665496015062627 0 -0.12201267174342199 -0.37938718301114999 0 -0.1369224961495438 -0.38192389563367207 0 -0.12526638733901391 -0.39147447277512609 0 -0.12201267174342199 -0.37938718301114999 0 -0.12526638733901391 -0.39147447277512609 0 -0.13678826443221431 -0.39755243580027871 0 -0.12592730430259419 -0.40432488328170318 0 -0.13678826443221431 -0.39755243580027871 0 -0.12592730430259419 -0.40432488328170318 0 -0.1345256340888337 -0.41538851269275129 0 -0.13678826443221431 -0.39755243580027871 0 -0.1345256340888337 -0.41538851269275129 0 -0.14931675495270949 -0.41057852288770358 0 -0.12592730430259419 -0.40432488328170318 0 -0.1345256340888337 -0.41538851269275129 0 -0.1165997240041481 -0.41847011486561592 0 -0.13194602454298601 -0.43962244526902572 0 -0.1345256340888337 -0.41538851269275129 0 -0.14483107865759889 -0.42859660432134139 0 -0.13194602454298601 -0.43962244526902572 0 -0.1345256340888337 -0.41538851269275129 0 -0.1165997240041481 -0.41847011486561592 0 -0.148881704538534 -0.44296791951084241 0 -0.14483107865759889 -0.42859660432134139 0 -0.1613290413136293 -0.43150746337484569 0 -0.148881704538534 -0.44296791951084241 0 -0.13194602454298601 -0.43962244526902572 0 -0.14483107865759889 -0.42859660432134139 0 -0.14483107865759889 -0.42859660432134139 0 -0.14931675495270949 -0.41057852288770358 0 -0.1613290413136293 -0.43150746337484569 0 -0.1345256340888337 -0.41538851269275129 0 -0.14483107865759889 -0.42859660432134139 0 -0.14931675495270949 -0.41057852288770358 0 -0.16364802953062679 -0.40867661783312748 0 -0.1613290413136293 -0.43150746337484569 0 -0.14931675495270949 -0.41057852288770358 0 -0.16364802953062679 -0.40867661783312748 0 -0.1613290413136293 -0.43150746337484569 0 -0.16364802953062679 -0.40867661783312748 0 -0.1613290413136293 -0.43150746337484569 0 -0.17507497024716731 -0.42995475378866199 0 -0.16919262628862339 -0.44362555979768409 0 -0.1613290413136293 -0.43150746337484569 0 -0.17507497024716731 -0.42995475378866199 0 -0.1870173619903012 -0.44414077979923022 0 -0.1823118302108766 -0.43680876328769058 0 -0.18872492559955881 -0.42770971744539221 0 -0.17843006300647921 -0.44542980211747812 0 -0.17507497024716731 -0.42995475378866199 0 -0.1823118302108766 -0.43680876328769058 0 -0.17507497024716731 -0.42995475378866199 0 -0.1806986800215967 -0.4173161083834821 0 -0.18872492559955881 -0.42770971744539221 0 -0.17507497024716731 -0.42995475378866199 0 -0.1823118302108766 -0.43680876328769058 0 -0.18872492559955881 -0.42770971744539221 0 -0.1806986800215967 -0.4173161083834821 0 -0.18228064084688081 -0.39610998094782668 0 -0.19209360216251761 -0.40824625574224149 0 -0.16364802953062679 -0.40867661783312748 0 -0.17507497024716731 -0.42995475378866199 0 -0.1806986800215967 -0.4173161083834821 0 -0.16364802953062679 -0.40867661783312748 0 -0.1806986800215967 -0.4173161083834821 0 -0.18228064084688081 -0.39610998094782668 0 -0.16364802953062679 -0.40867661783312748 0 -0.18228064084688081 -0.39610998094782668 0 -0.15761740849691311 -0.38818340141201402 0 -0.14931675495270949 -0.41057852288770358 0 -0.16364802953062679 -0.40867661783312748 0 -0.15761740849691311 -0.38818340141201402 0 -0.15761740849691311 -0.38818340141201402 0 -0.183603859264966 -0.3766054584014627 0 -0.1661931572416451 -0.36889933283976362 0 -0.18228064084688081 -0.39610998094782668 0 -0.15761740849691311 -0.38818340141201402 0 -0.183603859264966 -0.3766054584014627 0 -0.18228064084688081 -0.39610998094782668 0 -0.183603859264966 -0.3766054584014627 0 -0.20216487974800659 -0.3829991661375407 0 -0.18228064084688081 -0.39610998094782668 0 -0.20343785588976751 -0.39944649130885712 0 -0.19209360216251761 -0.40824625574224149 0 -0.18228064084688081 -0.39610998094782668 0 -0.20216487974800659 -0.3829991661375407 0 -0.20343785588976751 -0.39944649130885712 0 -0.20343785588976751 -0.39944649130885712 0 -0.21350444502423929 -0.40864471589815532 0 -0.22035180610084079 -0.39356726900625483 0 -0.20216487974800659 -0.3829991661375407 0 -0.20343785588976751 -0.39944649130885712 0 -0.22035180610084079 -0.39356726900625483 0 -0.20216487974800659 -0.3829991661375407 0 -0.22035180610084079 -0.39356726900625483 0 -0.219169022554425 -0.37113875127287832 0 -0.1806986800215967 -0.4173161083834821 0 -0.2030300315513712 -0.43746332377949593 0 -0.18872492559955881 -0.42770971744539221 0 -0.1806986800215967 -0.4173161083834821 0 -0.2030300315513712 -0.43746332377949593 0 -0.2030300315513712 -0.43746332377949593 0 -0.19369636752838881 -0.41903658901391427 0 -0.2031687955665597 -0.42354741618771741 0 -0.1806986800215967 -0.4173161083834821 0 -0.2030300315513712 -0.43746332377949593 0 -0.19369636752838881 -0.41903658901391427 0 -0.19369636752838881 -0.41903658901391427 0 -0.20299923128825029 -0.41376529568937459 0 -0.2031687955665597 -0.42354741618771741 0 -0.1806986800215967 -0.4173161083834821 0 -0.19369636752838881 -0.41903658901391427 0 -0.19209360216251761 -0.40824625574224149 0 -0.19369636752838881 -0.41903658901391427 0 -0.19209360216251761 -0.40824625574224149 0 -0.20299923128825029 -0.41376529568937459 0 -0.20343785588976751 -0.39944649130885712 0 -0.19209360216251761 -0.40824625574224149 0 -0.20299923128825029 -0.41376529568937459 0 -0.20343785588976751 -0.39944649130885712 0 -0.20299923128825029 -0.41376529568937459 0 -0.21350444502423929 -0.40864471589815532 0 -0.21350444502423929 -0.40864471589815532 0 -0.21294955189822859 -0.42392445626808489 0 -0.2277837799441092 -0.41252006721820539 0 -0.20299923128825029 -0.41376529568937459 0 -0.2031687955665597 -0.42354741618771741 0 -0.21294955189822859 -0.42392445626808489 0 -0.20299923128825029 -0.41376529568937459 0 -0.21350444502423929 -0.40864471589815532 0 -0.21294955189822859 -0.42392445626808489 0 -0.2030300315513712 -0.43746332377949593 0 -0.21294955189822859 -0.42392445626808489 0 -0.22549954629610269 -0.43500765649169948 0 -0.2030300315513712 -0.43746332377949593 0 -0.2031687955665597 -0.42354741618771741 0 -0.21294955189822859 -0.42392445626808489 0 -0.23591515519085041 -0.44398209369878189 0 -0.22549954629610269 -0.43500765649169948 0 -0.23735783041644329 -0.42609093398936743 0 -0.22549954629610269 -0.43500765649169948 0 -0.2277837799441092 -0.41252006721820539 0 -0.23735783041644329 -0.42609093398936743 0 -0.21294955189822859 -0.42392445626808489 0 -0.22549954629610269 -0.43500765649169948 0 -0.2277837799441092 -0.41252006721820539 0 -0.2277837799441092 -0.41252006721820539 0 -0.24694430377570939 -0.41295507854145541 0 -0.2277837799441092 -0.41252006721820539 0 -0.24694430377570939 -0.41295507854145541 0 -0.23735783041644329 -0.42609093398936743 0 -0.2277837799441092 -0.41252006721820539 0 -0.24694430377570939 -0.41295507854145541 0 -0.2359891007147569 -0.39914414181493052 0 -0.25298523514652932 -0.43702750984159111 0 -0.24694430377570939 -0.41295507854145541 0 -0.23735783041644329 -0.42609093398936743 0 -0.25298523514652932 -0.43702750984159111 0 -0.23591515519085041 -0.44398209369878189 0 -0.23735783041644329 -0.42609093398936743 0 -0.22035180610084079 -0.39356726900625483 0 -0.23802591309349369 -0.38358476956933441 0 -0.219169022554425 -0.37113875127287832 0 -0.22035180610084079 -0.39356726900625483 0 -0.2359891007147569 -0.39914414181493052 0 -0.23802591309349369 -0.38358476956933441 0 -0.21350444502423929 -0.40864471589815532 0 -0.2277837799441092 -0.41252006721820539 0 -0.22035180610084079 -0.39356726900625483 0 -0.2277837799441092 -0.41252006721820539 0 -0.22035180610084079 -0.39356726900625483 0 -0.2359891007147569 -0.39914414181493052 0 -0.2359891007147569 -0.39914414181493052 0 -0.2487824818667288 -0.3954643368039899 0 -0.23802591309349369 -0.38358476956933441 0 -0.24694430377570939 -0.41295507854145541 0 -0.2359891007147569 -0.39914414181493052 0 -0.2487824818667288 -0.3954643368039899 0 -0.26050234447883253 -0.38027693877573482 0 -0.2487824818667288 -0.3954643368039899 0 -0.23802591309349369 -0.38358476956933441 0 -0.26050234447883253 -0.38027693877573482 0 -0.23802591309349369 -0.38358476956933441 0 -0.24817767477162081 -0.36986654917455902 0 -0.23802591309349369 -0.38358476956933441 0 -0.24817767477162081 -0.36986654917455902 0 -0.23583729862822109 -0.36574384613307409 0 -0.24817767477162081 -0.36986654917455902 0 -0.23583729862822109 -0.36574384613307409 0 -0.24850069890613241 -0.35473287875334369 0 -0.23583729862822109 -0.36574384613307409 0 -0.219169022554425 -0.37113875127287832 0 -0.22531318381543361 -0.34939628189525529 0 -0.23802591309349369 -0.38358476956933441 0 -0.23583729862822109 -0.36574384613307409 0 -0.219169022554425 -0.37113875127287832 0 -0.22531318381543361 -0.34939628189525529 0 -0.24850069890613241 -0.35473287875334369 0 -0.24219101746094579 -0.34438554910399921 0 -0.23583729862822109 -0.36574384613307409 0 -0.22531318381543361 -0.34939628189525529 0 -0.24850069890613241 -0.35473287875334369 0 -0.22531318381543361 -0.34939628189525529 0 -0.24850069890613241 -0.35473287875334369 0 -0.25445926970156468 -0.34270101061729968 0 -0.24850069890613241 -0.35473287875334369 0 -0.24219101746094579 -0.34438554910399921 0 -0.25445926970156468 -0.34270101061729968 0 -0.24219101746094579 -0.34438554910399921 0 -0.2460450098649074 -0.33743905859998191 0 -0.25207330520806498 -0.33378255792528982 0 -0.2460450098649074 -0.33743905859998191 0 -0.24306356592407591 -0.32787829483024122 0 -0.2348359590034956 -0.33686915078515089 0 -0.24306356592407591 -0.32787829483024122 0 -0.23163603200856511 -0.32708080208212859 0 -0.2460450098649074 -0.33743905859998191 0 -0.2348359590034956 -0.33686915078515089 0 -0.24306356592407591 -0.32787829483024122 0 -0.24219101746094579 -0.34438554910399921 0 -0.2460450098649074 -0.33743905859998191 0 -0.2348359590034956 -0.33686915078515089 0 -0.25273748935779161 -0.32224337373924072 0 -0.24326482791746179 -0.31394285089519419 0 -0.24426682308287331 -0.30533572025667649 0 -0.25273748935779161 -0.32224337373924072 0 -0.24426682308287331 -0.30533572025667649 0 -0.25273748935779161 -0.32224337373924072 0 -0.24326482791746179 -0.31394285089519419 0 -0.2440208243134171 -0.32058552998791068 0 -0.25273748935779161 -0.32224337373924072 0 -0.24306356592407591 -0.32787829483024122 0 -0.2440208243134171 -0.32058552998791068 0 -0.25207330520806498 -0.33378255792528982 0 -0.25273748935779161 -0.32224337373924072 0 -0.24306356592407591 -0.32787829483024122 0 -0.24306356592407591 -0.32787829483024122 0 -0.2440208243134171 -0.32058552998791068 0 -0.23701741405433899 -0.31827760048696663 0 -0.24306356592407591 -0.32787829483024122 0 -0.23701741405433899 -0.31827760048696663 0 -0.23163603200856511 -0.32708080208212859 0 -0.24326482791746179 -0.31394285089519419 0 -0.23701741405433899 -0.31827760048696663 0 -0.2384772558931193 -0.30928307653082621 0 -0.24326482791746179 -0.31394285089519419 0 -0.2440208243134171 -0.32058552998791068 0 -0.23701741405433899 -0.31827760048696663 0 -0.22244826701882919 -0.32070202864358233 0 -0.22802593536356699 -0.30882837184141948 0 -0.21110805984082151 -0.30983785689108939 0 -0.23701741405433899 -0.31827760048696663 0 -0.22244826701882919 -0.32070202864358233 0 -0.22802593536356699 -0.30882837184141948 0 -0.23701741405433899 -0.31827760048696663 0 -0.23163603200856511 -0.32708080208212859 0 -0.22244826701882919 -0.32070202864358233 0 -0.23163603200856511 -0.32708080208212859 0 -0.22244826701882919 -0.32070202864358233 0 -0.22079431421521131 -0.33353493235345111 0 -0.22531318381543361 -0.34939628189525529 0 -0.2348359590034956 -0.33686915078515089 0 -0.22079431421521131 -0.33353493235345111 0 -0.22531318381543361 -0.34939628189525529 0 -0.24219101746094579 -0.34438554910399921 0 -0.2348359590034956 -0.33686915078515089 0 -0.2348359590034956 -0.33686915078515089 0 -0.23163603200856511 -0.32708080208212859 0 -0.22079431421521131 -0.33353493235345111 0 -0.22079431421521131 -0.33353493235345111 0 -0.20839645480677241 -0.32403064402179738 0 -0.20212566872473489 -0.34405968503716688 0 -0.22531318381543361 -0.34939628189525529 0 -0.22079431421521131 -0.33353493235345111 0 -0.20212566872473489 -0.34405968503716688 0 -0.22244826701882919 -0.32070202864358233 0 -0.20839645480677241 -0.32403064402179738 0 -0.21110805984082151 -0.30983785689108939 0 -0.22244826701882919 -0.32070202864358233 0 -0.22079431421521131 -0.33353493235345111 0 -0.20839645480677241 -0.32403064402179738 0 -0.20839645480677241 -0.32403064402179738 0 -0.19575919956014079 -0.31702437624003538 0 -0.21110805984082151 -0.30983785689108939 0 -0.20839645480677241 -0.32403064402179738 0 -0.19575919956014079 -0.31702437624003538 0 -0.19562896033857519 -0.33020038185646122 0 -0.19575919956014079 -0.31702437624003538 0 -0.19562896033857519 -0.33020038185646122 0 -0.18477851095256179 -0.32477614194451959 0 -0.20212566872473489 -0.34405968503716688 0 -0.1789381536340362 -0.33872308817907848 0 -0.19562896033857519 -0.33020038185646122 0 -0.20212566872473489 -0.34405968503716688 0 -0.1789381536340362 -0.33872308817907848 0 -0.20839645480677241 -0.32403064402179738 0 -0.19562896033857519 -0.33020038185646122 0 -0.20212566872473489 -0.34405968503716688 0 -0.20212566872473489 -0.34405968503716688 0 -0.2037839996862793 -0.36234410805543599 0 -0.1863350517553729 -0.35962674217565882 0 -0.20212566872473489 -0.34405968503716688 0 -0.1863350517553729 -0.35962674217565882 0 -0.1789381536340362 -0.33872308817907848 0 -0.183603859264966 -0.3766054584014627 0 -0.20216487974800659 -0.3829991661375407 0 -0.2037839996862793 -0.36234410805543599 0 -0.183603859264966 -0.3766054584014627 0 -0.2037839996862793 -0.36234410805543599 0 -0.1863350517553729 -0.35962674217565882 0 -0.219169022554425 -0.37113875127287832 0 -0.22531318381543361 -0.34939628189525529 0 -0.2037839996862793 -0.36234410805543599 0 -0.20216487974800659 -0.3829991661375407 0 -0.219169022554425 -0.37113875127287832 0 -0.2037839996862793 -0.36234410805543599 0 -0.22531318381543361 -0.34939628189525529 0 -0.20212566872473489 -0.34405968503716688 0 -0.2037839996862793 -0.36234410805543599 0 -0.22531318381543361 -0.34939628189525529 0 -0.20212566872473489 -0.34405968503716688 0 -0.24465976002352091 -0.25387891845332877 0 -0.23199225124923151 -0.26692477658714647 0 -0.21854221021918649 -0.25236034283526498 0 -0.23199225124923151 -0.26692477658714647 0 -0.21864709985809599 -0.27150291036173302 0 -0.21854221021918649 -0.25236034283526498 0 -0.24465976002352091 -0.25387891845332877 0 -0.2444485511135471 -0.27534046621033159 0 -0.23199225124923151 -0.26692477658714647 0 -0.25958550566062261 -0.27102626557679149 0 -0.24465976002352091 -0.25387891845332877 0 -0.2444485511135471 -0.27534046621033159 0 -0.2444485511135471 -0.27534046621033159 0 -0.23199225124923151 -0.26692477658714647 0 -0.23366363503180709 -0.28154124507507411 0 -0.2197277065850177 -0.2872169177591285 0 -0.23366363503180709 -0.28154124507507411 0 -0.21864709985809599 -0.27150291036173302 0 -0.23199225124923151 -0.26692477658714647 0 -0.23366363503180709 -0.28154124507507411 0 -0.21864709985809599 -0.27150291036173302 0 -0.2197277065850177 -0.2872169177591285 0 -0.23366363503180709 -0.28154124507507411 0 -0.24011613505684479 -0.30107681213347393 0 -0.2197277065850177 -0.2872169177591285 0 -0.24011613505684479 -0.30107681213347393 0 -0.2197277065850177 -0.2872169177591285 0 -0.24011613505684479 -0.30107681213347393 0 -0.2201073871300871 -0.30044142834658671 0 -0.2444485511135471 -0.27534046621033159 0 -0.23366363503180709 -0.28154124507507411 0 -0.24732420154209239 -0.29033586459568173 0 -0.23366363503180709 -0.28154124507507411 0 -0.24732420154209239 -0.29033586459568173 0 -0.24011613505684479 -0.30107681213347393 0 -0.25608276685525683 -0.28295324223861612 0 -0.2444485511135471 -0.27534046621033159 0 -0.24732420154209239 -0.29033586459568173 0 -0.26050456352867191 -0.3149367065078193 0 -0.24011613505684479 -0.30107681213347393 0 -0.24426682308287331 -0.30533572025667649 0 -0.25485564421046719 -0.30132045870319019 0 -0.24732420154209239 -0.29033586459568173 0 -0.24011613505684479 -0.30107681213347393 0 -0.24011613505684479 -0.30107681213347393 0 -0.2384772558931193 -0.30928307653082621 0 -0.22802593536356699 -0.30882837184141948 0 -0.24326482791746179 -0.31394285089519419 0 -0.24426682308287331 -0.30533572025667649 0 -0.2384772558931193 -0.30928307653082621 0 -0.24011613505684479 -0.30107681213347393 0 -0.24426682308287331 -0.30533572025667649 0 -0.2384772558931193 -0.30928307653082621 0 -0.23701741405433899 -0.31827760048696663 0 -0.2384772558931193 -0.30928307653082621 0 -0.22802593536356699 -0.30882837184141948 0 -0.22802593536356699 -0.30882837184141948 0 -0.2201073871300871 -0.30044142834658671 0 -0.21110805984082151 -0.30983785689108939 0 -0.24011613505684479 -0.30107681213347393 0 -0.22802593536356699 -0.30882837184141948 0 -0.2201073871300871 -0.30044142834658671 0 -0.2201073871300871 -0.30044142834658671 0 -0.21110805984082151 -0.30983785689108939 0 -0.20155909880418441 -0.29524718310782239 0 -0.21110805984082151 -0.30983785689108939 0 -0.2000775247532616 -0.30687463122530689 0 -0.20155909880418441 -0.29524718310782239 0 -0.19575919956014079 -0.31702437624003538 0 -0.21110805984082151 -0.30983785689108939 0 -0.2000775247532616 -0.30687463122530689 0 -0.18961770926909149 -0.30481471110084102 0 -0.20155909880418441 -0.29524718310782239 0 -0.1798976030385912 -0.29461474791537873 0 -0.19575919956014079 -0.31702437624003538 0 -0.2000775247532616 -0.30687463122530689 0 -0.18961770926909149 -0.30481471110084102 0 -0.19575919956014079 -0.31702437624003538 0 -0.18961770926909149 -0.30481471110084102 0 -0.1803928959391416 -0.31521744924658562 0 -0.2000775247532616 -0.30687463122530689 0 -0.18961770926909149 -0.30481471110084102 0 -0.20155909880418441 -0.29524718310782239 0 -0.19933927811319041 -0.27335702338478318 0 -0.1798976030385912 -0.29461474791537873 0 -0.20155909880418441 -0.29524718310782239 0 -0.19933927811319041 -0.27335702338478318 0 -0.1798976030385912 -0.29461474791537873 0 -0.2197277065850177 -0.2872169177591285 0 -0.20155909880418441 -0.29524718310782239 0 -0.19933927811319041 -0.27335702338478318 0 -0.2197277065850177 -0.2872169177591285 0 -0.2201073871300871 -0.30044142834658671 0 -0.20155909880418441 -0.29524718310782239 0 -0.21864709985809599 -0.27150291036173302 0 -0.19933927811319041 -0.27335702338478318 0 -0.21854221021918649 -0.25236034283526498 0 -0.2197277065850177 -0.2872169177591285 0 -0.21864709985809599 -0.27150291036173302 0 -0.19933927811319041 -0.27335702338478318 0 -0.2197277065850177 -0.2872169177591285 0 -0.19933927811319041 -0.27335702338478318 0 -0.19672455084482071 -0.27157955221738023 0 -0.19563648814007639 -0.2627950405098789 0 -0.1773613401945949 -0.28300380337564962 0 -0.19672455084482071 -0.27157955221738023 0 -0.19933927811319041 -0.27335702338478318 0 -0.1773613401945949 -0.28300380337564962 0 -0.19672455084482071 -0.27157955221738023 0 -0.19933927811319041 -0.27335702338478318 0 -0.19563648814007639 -0.2627950405098789 0 -0.19672455084482071 -0.27157955221738023 0 -0.19933927811319041 -0.27335702338478318 0 -0.19933927811319041 -0.27335702338478318 0 -0.19563648814007639 -0.2627950405098789 0 -0.2024770003035091 -0.25628481747185139 0 -0.19563648814007639 -0.2627950405098789 0 -0.19160736129165659 -0.25262396586623759 0 -0.18182513936558051 -0.25739227955256888 0 -0.19563648814007639 -0.2627950405098789 0 -0.19160736129165659 -0.25262396586623759 0 -0.2024770003035091 -0.25628481747185139 0 -0.19160736129165659 -0.25262396586623759 0 -0.2024770003035091 -0.25628481747185139 0 -0.19988453840298659 -0.24176205441804 0 -0.19933927811319041 -0.27335702338478318 0 -0.2024770003035091 -0.25628481747185139 0 -0.21854221021918649 -0.25236034283526498 0 -0.2024770003035091 -0.25628481747185139 0 -0.21854221021918649 -0.25236034283526498 0 -0.19988453840298659 -0.24176205441804 0 -0.19933927811319041 -0.27335702338478318 0 -0.21854221021918649 -0.25236034283526498 0 -0.16270034237907721 -0.26451024010365409 0 -0.1689202540561075 -0.25519621835756329 0 -0.15263230708737521 -0.24356194903458239 0 -0.16270034237907721 -0.26451024010365409 0 -0.15585924966824549 -0.27338725763800159 0 -0.15263230708737521 -0.24356194903458239 0 -0.16270034237907721 -0.26451024010365409 0 -0.1689202540561075 -0.25519621835756329 0 -0.17291740387759841 -0.2648938158906885 0 -0.1689202540561075 -0.25519621835756329 0 -0.18182513936558051 -0.25739227955256888 0 -0.1745260775709061 -0.24562280720632229 0 -0.19160736129165659 -0.25262396586623759 0 -0.18182513936558051 -0.25739227955256888 0 -0.1745260775709061 -0.24562280720632229 0 -0.19563648814007639 -0.2627950405098789 0 -0.18182513936558051 -0.25739227955256888 0 -0.18269465011250469 -0.26841637399603913 0 -0.1689202540561075 -0.25519621835756329 0 -0.18182513936558051 -0.25739227955256888 0 -0.17291740387759841 -0.2648938158906885 0 -0.18182513936558051 -0.25739227955256888 0 -0.17291740387759841 -0.2648938158906885 0 -0.18269465011250469 -0.26841637399603913 0 -0.19563648814007639 -0.2627950405098789 0 -0.18269465011250469 -0.26841637399603913 0 -0.1773613401945949 -0.28300380337564962 0 -0.17291740387759841 -0.2648938158906885 0 -0.17526212336935321 -0.27297056277525461 0 -0.1680750992927145 -0.27556825783864097 0 -0.19563648814007639 -0.2627950405098789 0 -0.1773613401945949 -0.28300380337564962 0 -0.17291740387759841 -0.2648938158906885 0 -0.17526212336935321 -0.27297056277525461 0 -0.18269465011250469 -0.26841637399603913 0 -0.17526212336935321 -0.27297056277525461 0 -0.18269465011250469 -0.26841637399603913 0 -0.1773613401945949 -0.28300380337564962 0 -0.17526212336935321 -0.27297056277525461 0 -0.1680750992927145 -0.27556825783864097 0 -0.1773613401945949 -0.28300380337564962 0 -0.1680750992927145 -0.27556825783864097 0 -0.1682011228878135 -0.28257539269247411 0 -0.1773613401945949 -0.28300380337564962 0 -0.1680750992927145 -0.27556825783864097 0 -0.1622412594804854 -0.28273310688964581 0 -0.1682011228878135 -0.28257539269247411 0 -0.16270034237907721 -0.26451024010365409 0 -0.17291740387759841 -0.2648938158906885 0 -0.1680750992927145 -0.27556825783864097 0 -0.16270034237907721 -0.26451024010365409 0 -0.1680750992927145 -0.27556825783864097 0 -0.16179622859894191 -0.27503335760685149 0 -0.16270034237907721 -0.26451024010365409 0 -0.16179622859894191 -0.27503335760685149 0 -0.15585924966824549 -0.27338725763800159 0 -0.16179622859894191 -0.27503335760685149 0 -0.1622412594804854 -0.28273310688964581 0 -0.15585924966824549 -0.27338725763800159 0 -0.1680750992927145 -0.27556825783864097 0 -0.16179622859894191 -0.27503335760685149 0 -0.1622412594804854 -0.28273310688964581 0 -0.1622412594804854 -0.28273310688964581 0 -0.16512679258345911 -0.28899640266596011 0 -0.15908619224911419 -0.30321256624142101 0 -0.1622412594804854 -0.28273310688964581 0 -0.15908619224911419 -0.30321256624142101 0 -0.15585924966824549 -0.27338725763800159 0 -0.15908619224911419 -0.30321256624142101 0 -0.15585924966824549 -0.27338725763800159 0 -0.16512679258345911 -0.28899640266596011 0 -0.1773613401945949 -0.28300380337564962 0 -0.15908619224911419 -0.30321256624142101 0 -0.1773613401945949 -0.28300380337564962 0 -0.15908619224911419 -0.30321256624142101 0 -0.16512679258345911 -0.28899640266596011 0 -0.1682011228878135 -0.28257539269247411 0 -0.1773613401945949 -0.28300380337564962 0 -0.1622412594804854 -0.28273310688964581 0 -0.16512679258345911 -0.28899640266596011 0 -0.1682011228878135 -0.28257539269247411 0 -0.1773613401945949 -0.28300380337564962 0 -0.1798976030385912 -0.29461474791537873 0 -0.15908619224911419 -0.30321256624142101 0 -0.19933927811319041 -0.27335702338478318 0 -0.1773613401945949 -0.28300380337564962 0 -0.1798976030385912 -0.29461474791537873 0 -0.1798976030385912 -0.29461474791537873 0 -0.17759103405270391 -0.30762984517719472 0 -0.16045592796399111 -0.3158724724459735 0 -0.18961770926909149 -0.30481471110084102 0 -0.1798976030385912 -0.29461474791537873 0 -0.17759103405270391 -0.30762984517719472 0 -0.18961770926909149 -0.30481471110084102 0 -0.17759103405270391 -0.30762984517719472 0 -0.1803928959391416 -0.31521744924658562 0 -0.1798976030385912 -0.29461474791537873 0 -0.16045592796399111 -0.3158724724459735 0 -0.1798976030385912 -0.29461474791537873 0 -0.15908619224911419 -0.30321256624142101 0 -0.16045592796399111 -0.3158724724459735 0 -0.15908619224911419 -0.30321256624142101 0 -0.16045592796399111 -0.3158724724459735 0 -0.1471380549162328 -0.30532142906175452 0 -0.14032160831301491 -0.30752887986621158 0 -0.14130665940473261 -0.32287327510069419 0 -0.15908619224911419 -0.30321256624142101 0 -0.1471380549162328 -0.30532142906175452 0 -0.14130665940473261 -0.32287327510069419 0 -0.15908619224911419 -0.30321256624142101 0 -0.1471380549162328 -0.30532142906175452 0 -0.1510678287434867 -0.29559461902651829 0 -0.14390798587081549 -0.29739780507392732 0 -0.1471380549162328 -0.30532142906175452 0 -0.1510678287434867 -0.29559461902651829 0 -0.14390798587081549 -0.29739780507392732 0 -0.1471380549162328 -0.30532142906175452 0 -0.14032160831301491 -0.30752887986621158 0 -0.14032160831301491 -0.30752887986621158 0 -0.13439128381467691 -0.29991683468539793 0 -0.13033731665847181 -0.31286393971371201 0 -0.13439128381467691 -0.29991683468539793 0 -0.13033731665847181 -0.31286393971371201 0 -0.12304085188452731 -0.29931348820209958 0 -0.14390798587081549 -0.29739780507392732 0 -0.14032160831301491 -0.30752887986621158 0 -0.13439128381467691 -0.29991683468539793 0 -0.14390798587081549 -0.29739780507392732 0 -0.13439128381467691 -0.29991683468539793 0 -0.14011095662501261 -0.28947786809128212 0 -0.13439128381467691 -0.29991683468539793 0 -0.14011095662501261 -0.28947786809128212 0 -0.12994370463312691 -0.28995419054763111 0 -0.13439128381467691 -0.29991683468539793 0 -0.12994370463312691 -0.28995419054763111 0 -0.12304085188452731 -0.29931348820209958 0 -0.12994370463312691 -0.28995419054763111 0 -0.13687965345326569 -0.27993872332247433 0 -0.1257911728949061 -0.280427018304516 0 -0.12994370463312691 -0.28995419054763111 0 -0.1257911728949061 -0.280427018304516 0 -0.1194571486541455 -0.28746452468861589 0 -0.14011095662501261 -0.28947786809128212 0 -0.12994370463312691 -0.28995419054763111 0 -0.13687965345326569 -0.27993872332247433 0 -0.15908619224911419 -0.30321256624142101 0 -0.15162645984294551 -0.28670064183700439 0 -0.15585924966824549 -0.27338725763800159 0 -0.14011095662501261 -0.28947786809128212 0 -0.1458827091329962 -0.28225219708249882 0 -0.13687965345326569 -0.27993872332247433 0 -0.15908619224911419 -0.30321256624142101 0 -0.1510678287434867 -0.29559461902651829 0 -0.15162645984294551 -0.28670064183700439 0 -0.1458827091329962 -0.28225219708249882 0 -0.1468811506158991 -0.28912565090950809 0 -0.15162645984294551 -0.28670064183700439 0 -0.14011095662501261 -0.28947786809128212 0 -0.1458827091329962 -0.28225219708249882 0 -0.1468811506158991 -0.28912565090950809 0 -0.14390798587081549 -0.29739780507392732 0 -0.1468811506158991 -0.28912565090950809 0 -0.1510678287434867 -0.29559461902651829 0 -0.14390798587081549 -0.29739780507392732 0 -0.14011095662501261 -0.28947786809128212 0 -0.1468811506158991 -0.28912565090950809 0 -0.1468811506158991 -0.28912565090950809 0 -0.1510678287434867 -0.29559461902651829 0 -0.15162645984294551 -0.28670064183700439 0 -0.1458827091329962 -0.28225219708249882 0 -0.15162645984294551 -0.28670064183700439 0 -0.15098162864793119 -0.27663156012407891 0 -0.15162645984294551 -0.28670064183700439 0 -0.15098162864793119 -0.27663156012407891 0 -0.15585924966824549 -0.27338725763800159 0 -0.15098162864793119 -0.27663156012407891 0 -0.1522527558101047 -0.27366235468835692 0 -0.14903370440966179 -0.27344637702894548 0 -0.15098162864793119 -0.27663156012407891 0 -0.1522527558101047 -0.27366235468835692 0 -0.15585924966824549 -0.27338725763800159 0 -0.14903370440966179 -0.27344637702894548 0 -0.1531364405145805 -0.27118422396240138 0 -0.14385763015454139 -0.26954128824380802 0 -0.1522527558101047 -0.27366235468835692 0 -0.15585924966824549 -0.27338725763800159 0 -0.1531364405145805 -0.27118422396240138 0 -0.1522527558101047 -0.27366235468835692 0 -0.14903370440966179 -0.27344637702894548 0 -0.1531364405145805 -0.27118422396240138 0 -0.14903370440966179 -0.27344637702894548 0 -0.14385763015454139 -0.26954128824380802 0 -0.1442805510697899 -0.27562940435382949 0 -0.14385763015454139 -0.26954128824380802 0 -0.1442805510697899 -0.27562940435382949 0 -0.13835653564694769 -0.27242798417408381 0 -0.1458827091329962 -0.28225219708249882 0 -0.1442805510697899 -0.27562940435382949 0 -0.13687965345326569 -0.27993872332247433 0 -0.15098162864793119 -0.27663156012407891 0 -0.14903370440966179 -0.27344637702894548 0 -0.1442805510697899 -0.27562940435382949 0 -0.1458827091329962 -0.28225219708249882 0 -0.15098162864793119 -0.27663156012407891 0 -0.1442805510697899 -0.27562940435382949 0 -0.13687965345326569 -0.27993872332247433 0 -0.12970248462840331 -0.2717774759070859 0 -0.13835653564694769 -0.27242798417408381 0 -0.1442805510697899 -0.27562940435382949 0 -0.13687965345326569 -0.27993872332247433 0 -0.13835653564694769 -0.27242798417408381 0 -0.13687965345326569 -0.27993872332247433 0 -0.1257911728949061 -0.280427018304516 0 -0.12970248462840331 -0.2717774759070859 0 -0.12970248462840331 -0.2717774759070859 0 -0.13570208279224111 -0.26528350045903498 0 -0.12855037573501921 -0.26115248962005239 0 -0.14385763015454139 -0.26954128824380802 0 -0.13835653564694769 -0.27242798417408381 0 -0.13570208279224111 -0.26528350045903498 0 -0.12970248462840331 -0.2717774759070859 0 -0.13835653564694769 -0.27242798417408381 0 -0.13570208279224111 -0.26528350045903498 0 -0.13570208279224111 -0.26528350045903498 0 -0.12855037573501921 -0.26115248962005239 0 -0.1377523016625678 -0.25581657194563601 0 -0.14385763015454139 -0.26954128824380802 0 -0.13570208279224111 -0.26528350045903498 0 -0.1377523016625678 -0.25581657194563601 0 -0.12855037573501921 -0.26115248962005239 0 -0.1377523016625678 -0.25581657194563601 0 -0.1223681628105569 -0.24044891992886891 0 -0.1531364405145805 -0.27118422396240138 0 -0.1377523016625678 -0.25581657194563601 0 -0.15263230708737521 -0.24356194903458239 0 -0.15585924966824549 -0.27338725763800159 0 -0.1531364405145805 -0.27118422396240138 0 -0.15263230708737521 -0.24356194903458239 0 -0.15585924966824549 -0.27338725763800159 0 -0.15263230708737521 -0.24356194903458239 0 -0.1531364405145805 -0.27118422396240138 0 -0.1377523016625678 -0.25581657194563601 0 -0.1531364405145805 -0.27118422396240138 0 -0.14385763015454139 -0.26954128824380802 0 -0.1377523016625678 -0.25581657194563601 0 -0.1661931572416451 -0.36889933283976362 0 -0.1633245426028184 -0.34238590264286861 0 -0.15433175674287769 -0.35458729317269139 0 -0.1661931572416451 -0.36889933283976362 0 -0.1633245426028184 -0.34238590264286861 0 -0.1661931572416451 -0.36889933283976362 0 -0.17388048196752651 -0.3522733272046466 0 -0.1633245426028184 -0.34238590264286861 0 -0.1661931572416451 -0.36889933283976362 0 -0.15433175674287769 -0.35458729317269139 0 -0.148308101659717 -0.36695316985008092 0 -0.15761740849691311 -0.38818340141201402 0 -0.1661931572416451 -0.36889933283976362 0 -0.148308101659717 -0.36695316985008092 0 -0.183603859264966 -0.3766054584014627 0 -0.1661931572416451 -0.36889933283976362 0 -0.1863350517553729 -0.35962674217565882 0 -0.1661931572416451 -0.36889933283976362 0 -0.1863350517553729 -0.35962674217565882 0 -0.17388048196752651 -0.3522733272046466 0 -0.1863350517553729 -0.35962674217565882 0 -0.17388048196752651 -0.3522733272046466 0 -0.1789381536340362 -0.33872308817907848 0 -0.17388048196752651 -0.3522733272046466 0 -0.1789381536340362 -0.33872308817907848 0 -0.1633245426028184 -0.34238590264286861 0 -0.19562896033857519 -0.33020038185646122 0 -0.1789381536340362 -0.33872308817907848 0 -0.18477851095256179 -0.32477614194451959 0 -0.1789381536340362 -0.33872308817907848 0 -0.18477851095256179 -0.32477614194451959 0 -0.1735479853981102 -0.32728394705986258 0 -0.1789381536340362 -0.33872308817907848 0 -0.1735479853981102 -0.32728394705986258 0 -0.1633245426028184 -0.34238590264286861 0 -0.17759103405270391 -0.30762984517719472 0 -0.1803928959391416 -0.31521744924658562 0 -0.16045592796399111 -0.3158724724459735 0 -0.19575919956014079 -0.31702437624003538 0 -0.1803928959391416 -0.31521744924658562 0 -0.18477851095256179 -0.32477614194451959 0 -0.1803928959391416 -0.31521744924658562 0 -0.18477851095256179 -0.32477614194451959 0 -0.1735479853981102 -0.32728394705986258 0 -0.1803928959391416 -0.31521744924658562 0 -0.1735479853981102 -0.32728394705986258 0 -0.16045592796399111 -0.3158724724459735 0 -0.1735479853981102 -0.32728394705986258 0 -0.16045592796399111 -0.3158724724459735 0 -0.1633245426028184 -0.34238590264286861 0 -0.16045592796399111 -0.3158724724459735 0 -0.1633245426028184 -0.34238590264286861 0 -0.1476770575246594 -0.3298450188736391 0 -0.16045592796399111 -0.3158724724459735 0 -0.1633245426028184 -0.34238590264286861 0 -0.1633245426028184 -0.34238590264286861 0 -0.15030263560259111 -0.34285112818916452 0 -0.1476770575246594 -0.3298450188736391 0 -0.1476770575246594 -0.3298450188736391 0 -0.14130665940473261 -0.32287327510069419 0 -0.13989838249203351 -0.33226752099114382 0 -0.1476770575246594 -0.3298450188736391 0 -0.14096893258994439 -0.33934882548262568 0 -0.13989838249203351 -0.33226752099114382 0 -0.15030263560259111 -0.34285112818916452 0 -0.1476770575246594 -0.3298450188736391 0 -0.14096893258994439 -0.33934882548262568 0 -0.15908619224911419 -0.30321256624142101 0 -0.14130665940473261 -0.32287327510069419 0 -0.16045592796399111 -0.3158724724459735 0 -0.1476770575246594 -0.3298450188736391 0 -0.14130665940473261 -0.32287327510069419 0 -0.15908619224911419 -0.30321256624142101 0 -0.16045592796399111 -0.3158724724459735 0 -0.14130665940473261 -0.32287327510069419 0 -0.16045592796399111 -0.3158724724459735 0 -0.1476770575246594 -0.3298450188736391 0 -0.14130665940473261 -0.32287327510069419 0 -0.12766342535057629 -0.32481504462803062 0 -0.13033731665847181 -0.31286393971371201 0 -0.14032160831301491 -0.30752887986621158 0 -0.14130665940473261 -0.32287327510069419 0 -0.13033731665847181 -0.31286393971371201 0 -0.14130665940473261 -0.32287327510069419 0 -0.12766342535057629 -0.32481504462803062 0 -0.12902917457320359 -0.33644978787578289 0 -0.12766342535057629 -0.32481504462803062 0 -0.12902917457320359 -0.33644978787578289 0 -0.123033176677132 -0.34308019655903149 0 -0.14096893258994439 -0.33934882548262568 0 -0.12902917457320359 -0.33644978787578289 0 -0.13366226850604379 -0.34759248760944123 0 -0.14096893258994439 -0.33934882548262568 0 -0.13989838249203351 -0.33226752099114382 0 -0.12902917457320359 -0.33644978787578289 0 -0.14130665940473261 -0.32287327510069419 0 -0.12902917457320359 -0.33644978787578289 0 -0.14130665940473261 -0.32287327510069419 0 -0.13989838249203351 -0.33226752099114382 0 -0.12902917457320359 -0.33644978787578289 0 -0.12902917457320359 -0.33644978787578289 0 -0.123033176677132 -0.34308019655903149 0 -0.12902917457320359 -0.33644978787578289 0 -0.13366226850604379 -0.34759248760944123 0 -0.123033176677132 -0.34308019655903149 0 -0.13366226850604379 -0.34759248760944123 0 -0.1303219987982592 -0.3665496015062627 0 -0.123033176677132 -0.34308019655903149 0 -0.1303219987982592 -0.3665496015062627 0 -0.123033176677132 -0.34308019655903149 0 -0.13366226850604379 -0.34759248760944123 0 -0.1435303466076166 -0.35184693234157938 0 -0.1303219987982592 -0.3665496015062627 0 -0.14096893258994439 -0.33934882548262568 0 -0.13366226850604379 -0.34759248760944123 0 -0.1435303466076166 -0.35184693234157938 0 -0.15030263560259111 -0.34285112818916452 0 -0.14096893258994439 -0.33934882548262568 0 -0.1435303466076166 -0.35184693234157938 0 -0.1435303466076166 -0.35184693234157938 0 -0.15433175674287769 -0.35458729317269139 0 -0.148308101659717 -0.36695316985008092 0 -0.1633245426028184 -0.34238590264286861 0 -0.15030263560259111 -0.34285112818916452 0 -0.15433175674287769 -0.35458729317269139 0 -0.15030263560259111 -0.34285112818916452 0 -0.1435303466076166 -0.35184693234157938 0 -0.15433175674287769 -0.35458729317269139 0 -0.1435303466076166 -0.35184693234157938 0 -0.148308101659717 -0.36695316985008092 0 -0.1303219987982592 -0.3665496015062627 0 -0.1369224961495438 -0.38192389563367207 0 -0.148308101659717 -0.36695316985008092 0 -0.1303219987982592 -0.3665496015062627 0 -0.1303219987982592 -0.3665496015062627 0 -0.1159926709000937 -0.36685414663024191 0 -0.11895596668836859 -0.34683008488337108 0 -0.1303219987982592 -0.3665496015062627 0 -0.1159926709000937 -0.36685414663024191 0 -0.12201267174342199 -0.37938718301114999 0 -0.1024060606807759 -0.36205135125861898 0 -0.1016559479587178 -0.38500202459504551 0 -0.1159926709000937 -0.36685414663024191 0 -0.1024060606807759 -0.36205135125861898 0 -0.1094440337948836 -0.37923577087639421 0 -0.1024060606807759 -0.36205135125861898 0 -0.1016559479587178 -0.38500202459504551 0 -0.095426438310298192 -0.37780241062099151 0 -0.1024060606807759 -0.36205135125861898 0 -0.090139611558562177 -0.37333304007799939 0 -0.095426438310298192 -0.37780241062099151 0 -0.1024060606807759 -0.36205135125861898 0 -0.093943439343664059 -0.36410026383479388 0 -0.090139611558562177 -0.37333304007799939 0 -0.1024060606807759 -0.36205135125861898 0 -0.093943439343664059 -0.36410026383479388 0 -0.095626283443773746 -0.35612124291623848 0 -0.1024060606807759 -0.36205135125861898 0 -0.090139611558562177 -0.37333304007799939 0 -0.1024060606807759 -0.36205135125861898 0 -0.1029439411344124 -0.34559419992324319 0 -0.1024060606807759 -0.36205135125861898 0 -0.1029439411344124 -0.34559419992324319 0 -0.11895596668836859 -0.34683008488337108 0 -0.1024060606807759 -0.36205135125861898 0 -0.095626283443773746 -0.35612124291623848 0 -0.1029439411344124 -0.34559419992324319 0 -0.095626283443773746 -0.35612124291623848 0 -0.1029439411344124 -0.34559419992324319 0 -0.093212578299404075 -0.34130700998995739 0 -0.1159926709000937 -0.36685414663024191 0 -0.1024060606807759 -0.36205135125861898 0 -0.11895596668836859 -0.34683008488337108 0 -0.1024060606807759 -0.36205135125861898 0 -0.11895596668836859 -0.34683008488337108 0 -0.1303219987982592 -0.3665496015062627 0 -0.11895596668836859 -0.34683008488337108 0 -0.123033176677132 -0.34308019655903149 0 -0.1029439411344124 -0.34559419992324319 0 -0.11895596668836859 -0.34683008488337108 0 -0.123033176677132 -0.34308019655903149 0 -0.11895596668836859 -0.34683008488337108 0 -0.123033176677132 -0.34308019655903149 0 -0.1029439411344124 -0.34559419992324319 0 -0.1137910684918501 -0.33520612369310882 0 -0.123033176677132 -0.34308019655903149 0 -0.123033176677132 -0.34308019655903149 0 -0.1159692764993048 -0.31568518943543378 0 -0.1137910684918501 -0.33520612369310882 0 -0.123033176677132 -0.34308019655903149 0 -0.1159692764993048 -0.31568518943543378 0 -0.12766342535057629 -0.32481504462803062 0 -0.123033176677132 -0.34308019655903149 0 -0.1159692764993048 -0.31568518943543378 0 -0.1137910684918501 -0.33520612369310882 0 -0.1159692764993048 -0.31568518943543378 0 -0.1034818215880495 -0.3291370485878673 0 -0.12766342535057629 -0.32481504462803062 0 -0.13033731665847181 -0.31286393971371201 0 -0.1159692764993048 -0.31568518943543378 0 -0.1159692764993048 -0.31568518943543378 0 -0.10079975883819629 -0.31506063040533638 0 -0.1034818215880495 -0.3291370485878673 0 -0.10079975883819629 -0.31506063040533638 0 -0.093212578299404075 -0.34130700998995739 0 -0.10079975883819629 -0.31506063040533638 0 -0.093212578299404075 -0.34130700998995739 0 -0.087373844159168004 -0.3291061545470132 0 -0.10079975883819629 -0.31506063040533638 0 -0.1034818215880495 -0.3291370485878673 0 -0.093212578299404075 -0.34130700998995739 0 -0.1029439411344124 -0.34559419992324319 0 -0.1034818215880495 -0.3291370485878673 0 -0.1029439411344124 -0.34559419992324319 0 -0.1034818215880495 -0.3291370485878673 0 -0.093212578299404075 -0.34130700998995739 0 -0.1029439411344124 -0.34559419992324319 0 -0.1137910684918501 -0.33520612369310882 0 -0.1034818215880495 -0.3291370485878673 0 -0.093212578299404075 -0.34130700998995739 0 -0.087373844159168004 -0.3291061545470132 0 -0.080908772255243899 -0.33898270124258217 0 -0.087373844159168004 -0.3291061545470132 0 -0.080908772255243899 -0.33898270124258217 0 -0.077490532230771417 -0.32991328235931511 0 -0.093212578299404075 -0.34130700998995739 0 -0.080908772255243899 -0.33898270124258217 0 -0.080378844364046895 -0.35001101873094542 0 -0.10079975883819629 -0.31506063040533638 0 -0.085305929108392881 -0.31951846990187233 0 -0.091873739319295072 -0.31122357941036211 0 -0.10079975883819629 -0.31506063040533638 0 -0.087373844159168004 -0.3291061545470132 0 -0.085305929108392881 -0.31951846990187233 0 -0.085305929108392881 -0.31951846990187233 0 -0.076805788315873161 -0.32077910918615782 0 -0.077490532230771417 -0.32991328235931511 0 -0.087373844159168004 -0.3291061545470132 0 -0.085305929108392881 -0.31951846990187233 0 -0.077490532230771417 -0.32991328235931511 0 -0.085305929108392881 -0.31951846990187233 0 -0.076805788315873161 -0.32077910918615782 0 -0.078544889372492196 -0.31002595631180607 0 -0.085305929108392881 -0.31951846990187233 0 -0.091873739319295072 -0.31122357941036211 0 -0.078544889372492196 -0.31002595631180607 0 -0.066882954587322394 -0.32486941793266988 0 -0.078544889372492196 -0.31002595631180607 0 -0.05424539878688571 -0.319762651601179 0 -0.078544889372492196 -0.31002595631180607 0 -0.05424539878688571 -0.319762651601179 0 -0.076805788315873161 -0.32077910918615782 0 -0.066882954587322394 -0.32486941793266988 0 -0.078544889372492196 -0.31002595631180607 0 -0.076805788315873161 -0.32077910918615782 0 -0.066882954587322394 -0.32486941793266988 0 -0.077490532230771417 -0.32991328235931511 0 -0.066882954587322394 -0.32486941793266988 0 -0.070160141916437824 -0.34098238217286791 0 -0.054527031800802053 -0.34042178362413461 0 -0.066882954587322394 -0.32486941793266988 0 -0.077490532230771417 -0.32991328235931511 0 -0.070160141916437824 -0.34098238217286791 0 -0.080908772255243899 -0.33898270124258217 0 -0.077490532230771417 -0.32991328235931511 0 -0.070160141916437824 -0.34098238217286791 0 -0.080908772255243899 -0.33898270124258217 0 -0.070160141916437824 -0.34098238217286791 0 -0.080378844364046895 -0.35001101873094542 0 -0.070160141916437824 -0.34098238217286791 0 -0.066522813126512412 -0.35680227137673098 0 -0.054527031800802053 -0.34042178362413461 0 -0.070160141916437824 -0.34098238217286791 0 -0.066522813126512412 -0.35680227137673098 0 -0.080378844364046895 -0.35001101873094542 0 -0.066522813126512412 -0.35680227137673098 0 -0.076582500297099523 -0.36039923154202719 0 -0.080378844364046895 -0.35001101873094542 0 -0.066522813126512412 -0.35680227137673098 0 -0.073802945937226916 -0.36723024648585417 0 -0.058387822440418388 -0.36975607908058028 0 -0.073802945937226916 -0.36723024648585417 0 -0.058387822440418388 -0.36975607908058028 0 -0.08170780991661282 -0.38109255286014232 0 -0.066522813126512412 -0.35680227137673098 0 -0.073802945937226916 -0.36723024648585417 0 -0.076582500297099523 -0.36039923154202719 0 -0.073802945937226916 -0.36723024648585417 0 -0.076582500297099523 -0.36039923154202719 0 -0.085625397760611066 -0.36755338957457828 0 -0.085625397760611066 -0.36755338957457828 0 -0.087954911787112483 -0.37534235041220648 0 -0.08170780991661282 -0.38109255286014232 0 -0.073802945937226916 -0.36723024648585417 0 -0.085625397760611066 -0.36755338957457828 0 -0.08170780991661282 -0.38109255286014232 0 -0.085625397760611066 -0.36755338957457828 0 -0.08170780991661282 -0.38109255286014232 0 -0.093943439343664059 -0.36410026383479388 0 -0.085625397760611066 -0.36755338957457828 0 -0.090139611558562177 -0.37333304007799939 0 -0.093943439343664059 -0.36410026383479388 0 -0.090139611558562177 -0.37333304007799939 0 -0.085625397760611066 -0.36755338957457828 0 -0.090139611558562177 -0.37333304007799939 0 -0.087954911787112483 -0.37534235041220648 0 -0.085625397760611066 -0.36755338957457828 0 -0.087954911787112483 -0.37534235041220648 0 -0.090139611558562177 -0.37333304007799939 0 -0.087954911787112483 -0.37534235041220648 0 -0.093943439343664059 -0.36410026383479388 0 -0.095626283443773746 -0.35612124291623848 0 -0.085625397760611066 -0.36755338957457828 0 -0.093212578299404075 -0.34130700998995739 0 -0.085625397760611066 -0.36755338957457828 0 -0.076582500297099523 -0.36039923154202719 0 -0.085625397760611066 -0.36755338957457828 0 -0.080378844364046895 -0.35001101873094542 0 -0.093212578299404075 -0.34130700998995739 0 -0.085625397760611066 -0.36755338957457828 0 -0.080378844364046895 -0.35001101873094542 0 -0.085625397760611066 -0.36755338957457828 0 -0.080378844364046895 -0.35001101873094542 0 -0.095626283443773746 -0.35612124291623848 0 -0.093212578299404075 -0.34130700998995739 0 -0.085625397760611066 -0.36755338957457828 0 -0.10474757541744149 -0.26087495970427582 0 -0.090174700483665673 -0.26498018187443112 0 -0.1005321994236209 -0.2431127607729493 0 -0.10474757541744149 -0.26087495970427582 0 -0.11757885349586771 -0.25701660664448461 0 -0.1005321994236209 -0.2431127607729493 0 -0.12855037573501921 -0.26115248962005239 0 -0.11757885349586771 -0.25701660664448461 0 -0.1127895441811773 -0.27358429336009982 0 -0.12855037573501921 -0.26115248962005239 0 -0.11757885349586771 -0.25701660664448461 0 -0.1223681628105569 -0.24044891992886891 0 -0.10474757541744149 -0.26087495970427582 0 -0.11757885349586771 -0.25701660664448461 0 -0.1127895441811773 -0.27358429336009982 0 -0.11757885349586771 -0.25701660664448461 0 -0.1127895441811773 -0.27358429336009982 0 -0.1257911728949061 -0.280427018304516 0 -0.12970248462840331 -0.2717774759070859 0 -0.1127895441811773 -0.27358429336009982 0 -0.12855037573501921 -0.26115248962005239 0 -0.1127895441811773 -0.27358429336009982 0 -0.12970248462840331 -0.2717774759070859 0 -0.12855037573501921 -0.26115248962005239 0 -0.1127895441811773 -0.27358429336009982 0 -0.1257911728949061 -0.280427018304516 0 -0.1127895441811773 -0.27358429336009982 0 -0.1194571486541455 -0.28746452468861589 0 -0.1127895441811773 -0.27358429336009982 0 -0.1083869393769897 -0.28881425082071571 0 -0.1127895441811773 -0.27358429336009982 0 -0.093274829049746905 -0.28897707944045958 0 -0.090174700483665673 -0.26498018187443112 0 -0.10474757541744149 -0.26087495970427582 0 -0.1127895441811773 -0.27358429336009982 0 -0.090174700483665673 -0.26498018187443112 0 -0.1127895441811773 -0.27358429336009982 0 -0.1067008731150054 -0.28283902414649681 0 -0.093274829049746905 -0.28897707944045958 0 -0.1127895441811773 -0.27358429336009982 0 -0.093274829049746905 -0.28897707944045958 0 -0.1083869393769897 -0.28881425082071571 0 -0.102844379958099 -0.30028926102243358 0 -0.093274829049746905 -0.28897707944045958 0 -0.1127895441811773 -0.27358429336009982 0 -0.1083869393769897 -0.28881425082071571 0 -0.1067008731150054 -0.28283902414649681 0 -0.1083869393769897 -0.28881425082071571 0 -0.1067008731150054 -0.28283902414649681 0 -0.1083869393769897 -0.28881425082071571 0 -0.1067008731150054 -0.28283902414649681 0 -0.093274829049746905 -0.28897707944045958 0 -0.1127895441811773 -0.27358429336009982 0 -0.1083869393769897 -0.28881425082071571 0 -0.1194571486541455 -0.28746452468861589 0 -0.12994370463312691 -0.28995419054763111 0 -0.1194571486541455 -0.28746452468861589 0 -0.12304085188452731 -0.29931348820209958 0 -0.1083869393769897 -0.28881425082071571 0 -0.1194571486541455 -0.28746452468861589 0 -0.12304085188452731 -0.29931348820209958 0 -0.1159692764993048 -0.31568518943543378 0 -0.1083869393769897 -0.28881425082071571 0 -0.12304085188452731 -0.29931348820209958 0 -0.1159692764993048 -0.31568518943543378 0 -0.1083869393769897 -0.28881425082071571 0 -0.13033731665847181 -0.31286393971371201 0 -0.1159692764993048 -0.31568518943543378 0 -0.12304085188452731 -0.29931348820209958 0 -0.1159692764993048 -0.31568518943543378 0 -0.10079975883819629 -0.31506063040533638 0 -0.1083869393769897 -0.28881425082071571 0 -0.10079975883819629 -0.31506063040533638 0 -0.1083869393769897 -0.28881425082071571 0 -0.10079975883819629 -0.31506063040533638 0 -0.1083869393769897 -0.28881425082071571 0 -0.102844379958099 -0.30028926102243358 0 -0.10079975883819629 -0.31506063040533638 0 -0.102844379958099 -0.30028926102243358 0 -0.091873739319295072 -0.31122357941036211 0 -0.078544889372492196 -0.31002595631180607 0 -0.073760113918316481 -0.30436986552081963 0 -0.093274829049746905 -0.28897707944045958 0 -0.102844379958099 -0.30028926102243358 0 -0.078544889372492196 -0.31002595631180607 0 -0.093274829049746905 -0.28897707944045958 0 -0.102844379958099 -0.30028926102243358 0 -0.091873739319295072 -0.31122357941036211 0 -0.078544889372492196 -0.31002595631180607 0 -0.102844379958099 -0.30028926102243358 0 -0.078544889372492196 -0.31002595631180607 0 -0.078544889372492196 -0.31002595631180607 0 -0.073760113918316481 -0.30436986552081963 0 -0.05424539878688571 -0.319762651601179 0 -0.073760113918316481 -0.30436986552081963 0 -0.05424539878688571 -0.319762651601179 0 -0.073760113918316481 -0.30436986552081963 0 -0.071188273097670243 -0.28513602236808322 0 -0.055748641784298267 -0.30178875706485681 0 -0.073760113918316481 -0.30436986552081963 0 -0.071188273097670243 -0.28513602236808322 0 -0.093274829049746905 -0.28897707944045958 0 -0.073760113918316481 -0.30436986552081963 0 -0.093274829049746905 -0.28897707944045958 0 -0.071188273097670243 -0.28513602236808322 0 -0.093274829049746905 -0.28897707944045958 0 -0.090174700483665673 -0.26498018187443112 0 -0.071188273097670243 -0.28513602236808322 0 -0.063484538676239377 -0.26413124226689111 0 -0.090174700483665673 -0.26498018187443112 0 -0.063484538676239377 -0.26413124226689111 0 -0.076282262678724011 -0.24169347649274159 0 -0.063484538676239377 -0.26413124226689111 0 -0.090174700483665673 -0.26498018187443112 0 -0.076282262678724011 -0.24169347649274159 0 -0.036942597034766073 -0.27265489088473938 0 -0.050686814673754729 -0.28656900804104057 0 -0.0185119813334658 -0.28327625011988139 0 -0.038581934025118947 -0.25114857380685968 0 -0.038334603868346327 -0.2604973367990705 0 -0.03064478186574425 -0.25326356670072259 0 -0.038334603868346327 -0.2604973367990705 0 -0.029413390480137139 -0.26518294325465769 0 -0.03064478186574425 -0.25326356670072259 0 -0.038334603868346327 -0.2604973367990705 0 -0.046517308340487992 -0.25474718453952289 0 -0.048289188575406587 -0.26955092917192058 0 -0.038581934025118947 -0.25114857380685968 0 -0.038334603868346327 -0.2604973367990705 0 -0.046517308340487992 -0.25474718453952289 0 -0.063484538676239377 -0.26413124226689111 0 -0.046517308340487992 -0.25474718453952289 0 -0.0567919256119837 -0.24387644547435741 0 -0.063484538676239377 -0.26413124226689111 0 -0.046517308340487992 -0.25474718453952289 0 -0.048289188575406587 -0.26955092917192058 0 -0.063484538676239377 -0.26413124226689111 0 -0.050686814673754729 -0.28656900804104057 0 -0.071188273097670243 -0.28513602236808322 0 -0.063484538676239377 -0.26413124226689111 0 -0.050686814673754729 -0.28656900804104057 0 -0.063484538676239377 -0.26413124226689111 0 -0.048289188575406587 -0.26955092917192058 0 -0.050686814673754729 -0.28656900804104057 0 -0.048289188575406587 -0.26955092917192058 0 -0.036942597034766073 -0.27265489088473938 0 -0.050686814673754729 -0.28656900804104057 0 -0.038334603868346327 -0.2604973367990705 0 -0.048289188575406587 -0.26955092917192058 0 -0.036942597034766073 -0.27265489088473938 0 -0.038334603868346327 -0.2604973367990705 0 -0.036942597034766073 -0.27265489088473938 0 -0.029413390480137139 -0.26518294325465769 0 -0.050686814673754729 -0.28656900804104057 0 -0.037889090671270123 -0.30900677381518998 0 -0.0185119813334658 -0.28327625011988139 0 -0.071188273097670243 -0.28513602236808322 0 -0.050686814673754729 -0.28656900804104057 0 -0.055748641784298267 -0.30178875706485681 0 -0.073760113918316481 -0.30436986552081963 0 -0.055748641784298267 -0.30178875706485681 0 -0.05424539878688571 -0.319762651601179 0 -0.055748641784298267 -0.30178875706485681 0 -0.037889090671270123 -0.30900677381518998 0 -0.05424539878688571 -0.319762651601179 0 -0.050686814673754729 -0.28656900804104057 0 -0.055748641784298267 -0.30178875706485681 0 -0.037889090671270123 -0.30900677381518998 0 -0.050686814673754729 -0.28656900804104057 0 -0.037889090671270123 -0.30900677381518998 0 -0.037889090671270123 -0.30900677381518998 0 -0.014390974368570029 -0.31032982847088841 0 -0.0185119813334658 -0.28327625011988139 0 -0.014390974368570029 -0.31032982847088841 0 0.001904989571353899 -0.32214434476741449 0 0.0019518825097332619 -0.30029273945570772 0 -0.014390974368570029 -0.31032982847088841 0 -0.0185119813334658 -0.28327625011988139 0 0.0019518825097332619 -0.30029273945570772 0 -0.0185119813334658 -0.28327625011988139 0 -0.0020851015340006161 -0.28052611142458661 0 0.0019518825097332619 -0.30029273945570772 0 -0.014390974368570029 -0.31032982847088841 0 -0.0185119813334658 -0.28327625011988139 0 -0.036942597034766073 -0.27265489088473938 0 -0.0185119813334658 -0.28327625011988139 0 -0.029413390480137139 -0.26518294325465769 0 -0.0185119813334658 -0.28327625011988139 0 -0.02263298829836323 -0.25622267176887481 0 -0.029413390480137139 -0.26518294325465769 0 -0.0185119813334658 -0.28327625011988139 0 -0.02263298829836323 -0.25622267176887481 0 -0.0185119813334658 -0.28327625011988139 0 -0.0093077836028632385 -0.27105033158696179 0 -0.02263298829836323 -0.25622267176887481 0 -0.0185119813334658 -0.28327625011988139 0 -0.0020851015340006161 -0.28052611142458661 0 -0.0093077836028632385 -0.27105033158696179 0 -0.0020851015340006161 -0.28052611142458661 0 -0.0093077836028632385 -0.27105033158696179 0 0.0055944649301708496 -0.26664830233551728 0 -0.014059514610042069 -0.25416210053859828 0 -0.02263298829836323 -0.25622267176887481 0 0.0055944649301708496 -0.26664830233551728 0 -0.0093077836028632385 -0.27105033158696179 0 -0.02263298829836323 -0.25622267176887481 0 0.0055944649301708496 -0.26664830233551728 0 -0.02263298829836323 -0.25622267176887481 0 0.0055944649301708496 -0.26664830233551728 0 -0.014059514610042069 -0.25416210053859828 0 -0.0080727856436109482 -0.2481099565327444 0 0.0055944649301708496 -0.26664830233551728 0 -0.014059514610042069 -0.25416210053859828 0 -0.01887874476148543 -0.24814250919209771 0 -0.0080727856436109482 -0.2481099565327444 0 -0.014059514610042069 -0.25416210053859828 0 -0.02263298829836323 -0.25622267176887481 0 -0.02285766608625657 -0.25474770747244752 0 -0.014059514610042069 -0.25416210053859828 0 -0.02285766608625657 -0.25474770747244752 0 -0.01887874476148543 -0.24814250919209771 0 -0.02285766608625657 -0.25474770747244752 0 -0.026067501294639708 -0.24850247980592871 0 -0.01887874476148543 -0.24814250919209771 0 -0.02263298829836323 -0.25622267176887481 0 -0.02285766608625657 -0.25474770747244752 0 -0.02263298829836323 -0.25622267176887481 0 -0.029413390480137139 -0.26518294325465769 0 -0.03064478186574425 -0.25326356670072259 0 -0.02263298829836323 -0.25622267176887481 0 -0.03064478186574425 -0.25326356670072259 0 -0.02263298829836323 -0.25622267176887481 0 -0.02285766608625657 -0.25474770747244752 0 -0.03064478186574425 -0.25326356670072259 0 -0.02285766608625657 -0.25474770747244752 0 -0.03064478186574425 -0.25326356670072259 0 -0.026067501294639708 -0.24850247980592871 0 -0.040780788735907937 -0.34809370153295588 0 -0.035070660285960877 -0.35841379707961513 0 -0.051335308585544609 -0.35442186843706669 0 -0.040780788735907937 -0.34809370153295588 0 -0.033802973987086503 -0.33588719504380232 0 -0.029167969020145641 -0.35132386348016093 0 -0.040780788735907937 -0.34809370153295588 0 -0.035070660285960877 -0.35841379707961513 0 -0.029167969020145641 -0.35132386348016093 0 -0.035070660285960877 -0.35841379707961513 0 -0.040000350022935588 -0.37213681664196291 0 -0.021437446366364531 -0.36359117576668931 0 -0.035070660285960877 -0.35841379707961513 0 -0.058387822440418388 -0.36975607908058028 0 -0.035070660285960877 -0.35841379707961513 0 -0.040000350022935588 -0.37213681664196291 0 -0.058387822440418388 -0.36975607908058028 0 -0.040000350022935588 -0.37213681664196291 0 -0.058387822440418388 -0.36975607908058028 0 -0.058563253679506787 -0.38068245751723601 0 -0.035070660285960877 -0.35841379707961513 0 -0.058387822440418388 -0.36975607908058028 0 -0.051335308585544609 -0.35442186843706669 0 -0.066522813126512412 -0.35680227137673098 0 -0.058387822440418388 -0.36975607908058028 0 -0.051335308585544609 -0.35442186843706669 0 -0.066522813126512412 -0.35680227137673098 0 -0.051335308585544609 -0.35442186843706669 0 -0.054527031800802053 -0.34042178362413461 0 -0.040780788735907937 -0.34809370153295588 0 -0.051335308585544609 -0.35442186843706669 0 -0.054527031800802053 -0.34042178362413461 0 -0.066882954587322394 -0.32486941793266988 0 -0.054527031800802053 -0.34042178362413461 0 -0.05424539878688571 -0.319762651601179 0 -0.054527031800802053 -0.34042178362413461 0 -0.05424539878688571 -0.319762651601179 0 -0.033802973987086503 -0.33588719504380232 0 -0.05424539878688571 -0.319762651601179 0 -0.039668382727836717 -0.32560359559526031 0 -0.05424539878688571 -0.319762651601179 0 -0.033802973987086503 -0.33588719504380232 0 -0.037889090671270123 -0.30900677381518998 0 -0.025091366668787349 -0.3314445395893405 0 -0.05424539878688571 -0.319762651601179 0 -0.039668382727836717 -0.32560359559526031 0 -0.033802973987086503 -0.33588719504380232 0 -0.037889090671270123 -0.30900677381518998 0 -0.05424539878688571 -0.319762651601179 0 -0.039668382727836717 -0.32560359559526031 0 -0.037889090671270123 -0.30900677381518998 0 -0.039668382727836717 -0.32560359559526031 0 -0.025091366668787349 -0.3314445395893405 0 -0.040780788735907937 -0.34809370153295588 0 -0.054527031800802053 -0.34042178362413461 0 -0.033802973987086503 -0.33588719504380232 0 -0.039668382727836717 -0.32560359559526031 0 -0.025091366668787349 -0.3314445395893405 0 -0.039668382727836717 -0.32560359559526031 0 -0.033802973987086503 -0.33588719504380232 0 -0.025091366668787349 -0.3314445395893405 0 -0.025091366668787349 -0.3314445395893405 0 -0.01336054918728761 -0.35201173848642592 0 -0.033802973987086503 -0.33588719504380232 0 -0.025091366668787349 -0.3314445395893405 0 -0.01336054918728761 -0.35201173848642592 0 -0.025091366668787349 -0.3314445395893405 0 -0.01532372128421448 -0.33535839064186268 0 -0.01336054918728761 -0.35201173848642592 0 -0.025091366668787349 -0.3314445395893405 0 -0.022734703789933738 -0.32728556430890232 0 -0.01532372128421448 -0.33535839064186268 0 -0.025091366668787349 -0.3314445395893405 0 -0.01532372128421448 -0.33535839064186268 0 -0.022734703789933738 -0.32728556430890232 0 -0.01532372128421448 -0.33535839064186268 0 -0.037889090671270123 -0.30900677381518998 0 -0.014390974368570029 -0.31032982847088841 0 -0.022734703789933738 -0.32728556430890232 0 -0.037889090671270123 -0.30900677381518998 0 -0.025091366668787349 -0.3314445395893405 0 -0.022734703789933738 -0.32728556430890232 0 -0.014390974368570029 -0.31032982847088841 0 -0.022734703789933738 -0.32728556430890232 0 -0.01532372128421448 -0.33535839064186268 0 -0.014390974368570029 -0.31032982847088841 0 -0.010269967403673339 -0.33738340682189533 0 -0.014390974368570029 -0.31032982847088841 0 -0.010269967403673339 -0.33738340682189533 0 -0.01532372128421448 -0.33535839064186268 0 -0.014390974368570029 -0.31032982847088841 0 -0.010269967403673339 -0.33738340682189533 0 0.001904989571353899 -0.32214434476741449 0 -0.010269967403673339 -0.33738340682189533 0 -0.0096343958099064687 -0.34155580596031437 0 0.0075807645751098419 -0.34453611388615663 0 -0.010269967403673339 -0.33738340682189533 0 0.0075807645751098419 -0.34453611388615663 0 -0.0096343958099064687 -0.34155580596031437 0 -0.01532372128421448 -0.33535839064186268 0 -0.01336054918728761 -0.35201173848642592 0 -0.010269967403673339 -0.33738340682189533 0 -0.0096343958099064687 -0.34155580596031437 0 -0.010269967403673339 -0.33738340682189533 0 -0.0096343958099064687 -0.34155580596031437 0 -0.01532372128421448 -0.33535839064186268 0 -0.0096343958099064687 -0.34155580596031437 0 -0.01532372128421448 -0.33535839064186268 0 -0.010269967403673339 -0.33738340682189533 0 -0.01532372128421448 -0.33535839064186268 0 -0.010269967403673339 -0.33738340682189533 0 0.0034794820758208261 -0.33361449123698089 0 0.001904989571353899 -0.32214434476741449 0 -0.0096343958099064687 -0.34155580596031437 0 -0.0070150904897389628 -0.35875101633193152 0 -0.0096343958099064687 -0.34155580596031437 0 -0.0070150904897389628 -0.35875101633193152 0 -0.01336054918728761 -0.35201173848642592 0 -0.0096343958099064687 -0.34155580596031437 0 -0.0070150904897389628 -0.35875101633193152 0 0.0099352179383349771 -0.36287309999936251 0 -0.033802973987086503 -0.33588719504380232 0 -0.01336054918728761 -0.35201173848642592 0 -0.029167969020145641 -0.35132386348016093 0 -0.01336054918728761 -0.35201173848642592 0 -0.029167969020145641 -0.35132386348016093 0 -0.021437446366364531 -0.36359117576668931 0 -0.033802973987086503 -0.33588719504380232 0 -0.01336054918728761 -0.35201173848642592 0 -0.035070660285960877 -0.35841379707961513 0 -0.029167969020145641 -0.35132386348016093 0 -0.021437446366364531 -0.36359117576668931 0 -0.040000350022935588 -0.37213681664196291 0 -0.021437446366364531 -0.36359117576668931 0 -0.02618172091304426 -0.37743656618445498 0 -0.021437446366364531 -0.36359117576668931 0 -0.002178803782163227 -0.37161627006544062 0 -0.02618172091304426 -0.37743656618445498 0 -0.040000350022935588 -0.37213681664196291 0 -0.021437446366364531 -0.36359117576668931 0 -0.01336054918728761 -0.35201173848642592 0 -0.021437446366364531 -0.36359117576668931 0 -0.002178803782163227 -0.37161627006544062 0 -0.01336054918728761 -0.35201173848642592 0 -0.002178803782163227 -0.37161627006544062 0 -0.0070150904897389628 -0.35875101633193152 0 -0.01336054918728761 -0.35201173848642592 0 -0.002178803782163227 -0.37161627006544062 0 -0.002178803782163227 -0.37161627006544062 0 -0.026336278995230201 -0.38905167830789189 0 -0.002178803782163227 -0.37161627006544062 0 -0.0066930742226519926 -0.39143820132839208 0 -0.026336278995230201 -0.38905167830789189 0 -0.0066930742226519926 -0.39143820132839208 0 -0.001728596279610697 -0.40597762003102339 0 -0.017737199096442072 -0.40073047040120602 0 -0.0066930742226519926 -0.39143820132839208 0 -0.017737199096442072 -0.40073047040120602 0 -0.026336278995230201 -0.38905167830789189 0 -0.017737199096442072 -0.40073047040120602 0 -0.026336278995230201 -0.38905167830789189 0 -0.033287388117186109 -0.40399871831440642 0 -0.002178803782163227 -0.37161627006544062 0 -0.026336278995230201 -0.38905167830789189 0 -0.02618172091304426 -0.37743656618445498 0 -0.026336278995230201 -0.38905167830789189 0 -0.02618172091304426 -0.37743656618445498 0 -0.033482850758781962 -0.383939184607547 0 -0.02618172091304426 -0.37743656618445498 0 -0.042372487296275553 -0.37905951185084519 0 -0.033482850758781962 -0.383939184607547 0 -0.02618172091304426 -0.37743656618445498 0 -0.042372487296275553 -0.37905951185084519 0 -0.040000350022935588 -0.37213681664196291 0 -0.02618172091304426 -0.37743656618445498 0 -0.042372487296275553 -0.37905951185084519 0 -0.042372487296275553 -0.37905951185084519 0 -0.039040915830577852 -0.39020898208699611 0 -0.049048127186911553 -0.38756594990863991 0 -0.042372487296275553 -0.37905951185084519 0 -0.039040915830577852 -0.39020898208699611 0 -0.033482850758781962 -0.383939184607547 0 -0.026336278995230201 -0.38905167830789189 0 -0.039040915830577852 -0.39020898208699611 0 -0.033482850758781962 -0.383939184607547 0 -0.026336278995230201 -0.38905167830789189 0 -0.050493754208297943 -0.40648708655034188 0 -0.039040915830577852 -0.39020898208699611 0 -0.048181286987745188 -0.3967611761759377 0 -0.050493754208297943 -0.40648708655034188 0 -0.026336278995230201 -0.38905167830789189 0 -0.039040915830577852 -0.39020898208699611 0 -0.050493754208297943 -0.40648708655034188 0 -0.026336278995230201 -0.38905167830789189 0 -0.033287388117186109 -0.40399871831440642 0 -0.050493754208297943 -0.40648708655034188 0 -0.039040915830577852 -0.39020898208699611 0 -0.048181286987745188 -0.3967611761759377 0 -0.049048127186911553 -0.38756594990863991 0 -0.048181286987745188 -0.3967611761759377 0 -0.055512870853615448 -0.39455951290216967 0 -0.049048127186911553 -0.38756594990863991 0 -0.055512870853615448 -0.39455951290216967 0 -0.052509649903146327 -0.40794203844841681 0 -0.074281153156084773 -0.38791836881244668 0 -0.048181286987745188 -0.3967611761759377 0 -0.055512870853615448 -0.39455951290216967 0 -0.050493754208297943 -0.40648708655034188 0 -0.055512870853615448 -0.39455951290216967 0 -0.052509649903146327 -0.40794203844841681 0 -0.050493754208297943 -0.40648708655034188 0 -0.048181286987745188 -0.3967611761759377 0 -0.050493754208297943 -0.40648708655034188 0 -0.040000350022935588 -0.37213681664196291 0 -0.042372487296275553 -0.37905951185084519 0 -0.058563253679506787 -0.38068245751723601 0 -0.042372487296275553 -0.37905951185084519 0 -0.058563253679506787 -0.38068245751723601 0 -0.040000350022935588 -0.37213681664196291 0 -0.058563253679506787 -0.38068245751723601 0 -0.042372487296275553 -0.37905951185084519 0 -0.058563253679506787 -0.38068245751723601 0 -0.049048127186911553 -0.38756594990863991 0 -0.055512870853615448 -0.39455951290216967 0 -0.058563253679506787 -0.38068245751723601 0 -0.049048127186911553 -0.38756594990863991 0 -0.055571169944573007 -0.4278419796903028 0 -0.060002998013559863 -0.44648162232419802 0 -0.069408814394604765 -0.42365151461769918 0 -0.055571169944573007 -0.4278419796903028 0 -0.060002998013559863 -0.44648162232419802 0 -0.055571169944573007 -0.4278419796903028 0 -0.04142135733128624 -0.43391233418184683 0 -0.048623679129421588 -0.44273110985945369 0 -0.055571169944573007 -0.4278419796903028 0 -0.059775586818595829 -0.41787661413097049 0 -0.069408814394604765 -0.42365151461769918 0 -0.055571169944573007 -0.4278419796903028 0 -0.059775586818595829 -0.41787661413097049 0 -0.052509649903146327 -0.40794203844841681 0 -0.055571169944573007 -0.4278419796903028 0 -0.052509649903146327 -0.40794203844841681 0 -0.038621424185474637 -0.4207153063468223 0 -0.055571169944573007 -0.4278419796903028 0 -0.052509649903146327 -0.40794203844841681 0 -0.052509649903146327 -0.40794203844841681 0 -0.070248957975066639 -0.42074520084202788 0 -0.059775586818595829 -0.41787661413097049 0 -0.052509649903146327 -0.40794203844841681 0 -0.070248957975066639 -0.42074520084202788 0 -0.052509649903146327 -0.40794203844841681 0 -0.050493754208297943 -0.40648708655034188 0 -0.041470954428671609 -0.41006675355118111 0 -0.052509649903146327 -0.40794203844841681 0 -0.050493754208297943 -0.40648708655034188 0 -0.052509649903146327 -0.40794203844841681 0 -0.038621424185474637 -0.4207153063468223 0 -0.033287388117186109 -0.40399871831440642 0 -0.050493754208297943 -0.40648708655034188 0 -0.041470954428671609 -0.41006675355118111 0 -0.052509649903146327 -0.40794203844841681 0 -0.041470954428671609 -0.41006675355118111 0 -0.038621424185474637 -0.4207153063468223 0 -0.033287388117186109 -0.40399871831440642 0 -0.041470954428671609 -0.41006675355118111 0 -0.027792962261932352 -0.41547375898907968 0 -0.041470954428671609 -0.41006675355118111 0 -0.038621424185474637 -0.4207153063468223 0 -0.027792962261932352 -0.41547375898907968 0 -0.055571169944573007 -0.4278419796903028 0 -0.038621424185474637 -0.4207153063468223 0 -0.04142135733128624 -0.43391233418184683 0 -0.038621424185474637 -0.4207153063468223 0 -0.026103506495360269 -0.43222827563723731 0 -0.038621424185474637 -0.4207153063468223 0 -0.04142135733128624 -0.43391233418184683 0 -0.026103506495360269 -0.43222827563723731 0 -0.04142135733128624 -0.43391233418184683 0 -0.026103506495360269 -0.43222827563723731 0 -0.035662081446574762 -0.44437129177822371 0 -0.026103506495360269 -0.43222827563723731 0 -0.027792962261932352 -0.41547375898907968 0 -0.009537301248459449 -0.42510302968362512 0 -0.026103506495360269 -0.43222827563723731 0 -0.009537301248459449 -0.42510302968362512 0 -0.019709463090837601 -0.44530454005801179 0 -0.038621424185474637 -0.4207153063468223 0 -0.026103506495360269 -0.43222827563723731 0 -0.027792962261932352 -0.41547375898907968 0 -0.017737199096442072 -0.40073047040120602 0 -0.027792962261932352 -0.41547375898907968 0 -0.009537301248459449 -0.42510302968362512 0 -0.017737199096442072 -0.40073047040120602 0 -0.033287388117186109 -0.40399871831440642 0 -0.027792962261932352 -0.41547375898907968 0 -0.001728596279610697 -0.40597762003102339 0 -0.017737199096442072 -0.40073047040120602 0 -0.009537301248459449 -0.42510302968362512 0 -0.017737199096442072 -0.40073047040120602 0 -0.009537301248459449 -0.42510302968362512 0 -0.001728596279610697 -0.40597762003102339 0 -0.009537301248459449 -0.42510302968362512 0 0.0082246319185010179 -0.41465428951275207 0 -0.009537301248459449 -0.42510302968362512 0 -0.0013374034004768371 -0.44947558896604423 0 -0.009537301248459449 -0.42510302968362512 0 -0.0013374034004768371 -0.44947558896604423 0 0.01039378864355619 -0.42848339288335913 0 -0.009537301248459449 -0.42510302968362512 0 -0.0013374034004768371 -0.44947558896604423 0 -0.019709463090837601 -0.44530454005801179 0 -0.0013374034004768371 -0.44947558896604423 0 -0.014612752260004851 -0.46155177919014362 0 -0.019709463090837601 -0.44530454005801179 0 -0.0013374034004768371 -0.44947558896604423 0 -0.014612752260004851 -0.46155177919014362 0 0.0068624944475057766 -0.47384814824846327 0 -0.014612752260004851 -0.46155177919014362 0 -0.028521420705905499 -0.4674310816654948 0 -0.030789477839635839 -0.45543267362212791 0 -0.014612752260004851 -0.46155177919014362 0 -0.030789477839635839 -0.45543267362212791 0 -0.019709463090837601 -0.44530454005801179 0 -0.030789477839635839 -0.45543267362212791 0 -0.019709463090837601 -0.44530454005801179 0 -0.035662081446574762 -0.44437129177822371 0 -0.026103506495360269 -0.43222827563723731 0 -0.019709463090837601 -0.44530454005801179 0 -0.035662081446574762 -0.44437129177822371 0 -0.015217900669161011 -0.5 0 -0.01418124297067914 -0.47781864258071971 0 0.0024053695883212941 -0.48891336768777249 0 -0.01418124297067914 -0.47781864258071971 0 0.0068624944475057766 -0.47384814824846327 0 0.0024053695883212941 -0.48891336768777249 0 -0.014612752260004851 -0.46155177919014362 0 -0.01418124297067914 -0.47781864258071971 0 0.0068624944475057766 -0.47384814824846327 0 -0.014612752260004851 -0.46155177919014362 0 -0.028521420705905499 -0.4674310816654948 0 -0.01418124297067914 -0.47781864258071971 0 -0.028521420705905499 -0.4674310816654948 0 -0.01418124297067914 -0.47781864258071971 0 -0.027752274071966478 -0.47742461628286209 0 -0.015217900669161011 -0.5 0 -0.027752274071966478 -0.47742461628286209 0 -0.038171784631523778 -0.48284131767108018 0 -0.015217900669161011 -0.5 0 -0.01418124297067914 -0.47781864258071971 0 -0.027752274071966478 -0.47742461628286209 0 -0.015217900669161011 -0.5 0 -0.043972809743024373 -0.5 0 -0.038171784631523778 -0.48284131767108018 0 -0.043972809743024373 -0.5 0 -0.038171784631523778 -0.48284131767108018 0 -0.049841179956411519 -0.48183723669954598 0 -0.038171784631523778 -0.48284131767108018 0 -0.048675315621036823 -0.47094071089761919 0 -0.038171784631523778 -0.48284131767108018 0 -0.048675315621036823 -0.47094071089761919 0 -0.049841179956411519 -0.48183723669954598 0 -0.027752274071966478 -0.47742461628286209 0 -0.038171784631523778 -0.48284131767108018 0 -0.038764373548703768 -0.47063519779216179 0 -0.028521420705905499 -0.4674310816654948 0 -0.027752274071966478 -0.47742461628286209 0 -0.038764373548703768 -0.47063519779216179 0 -0.038764373548703768 -0.47063519779216179 0 -0.048675315621036823 -0.47094071089761919 0 -0.045335619097383061 -0.46570514195792412 0 -0.038171784631523778 -0.48284131767108018 0 -0.038764373548703768 -0.47063519779216179 0 -0.048675315621036823 -0.47094071089761919 0 -0.048675315621036823 -0.47094071089761919 0 -0.055120034750126161 -0.47128965669693351 0 -0.049841179956411519 -0.48183723669954598 0 -0.048675315621036823 -0.47094071089761919 0 -0.055120034750126161 -0.47128965669693351 0 -0.057384894248553399 -0.46524593439390849 0 -0.055120034750126161 -0.47128965669693351 0 -0.059149819292987238 -0.47777467248794547 0 -0.064422500494955764 -0.4650694252783244 0 -0.059149819292987238 -0.47777467248794547 0 -0.049841179956411519 -0.48183723669954598 0 -0.058853327493046781 -0.48842932436532971 0 -0.055120034750126161 -0.47128965669693351 0 -0.059149819292987238 -0.47777467248794547 0 -0.049841179956411519 -0.48183723669954598 0 -0.059149819292987238 -0.47777467248794547 0 -0.058853327493046781 -0.48842932436532971 0 -0.068575109655922298 -0.48253471263916042 0 -0.043972809743024373 -0.5 0 -0.058853327493046781 -0.48842932436532971 0 -0.072727718816887776 -0.49999999999999672 0 -0.043972809743024373 -0.5 0 -0.049841179956411519 -0.48183723669954598 0 -0.058853327493046781 -0.48842932436532971 0 -0.045123684251444827 -0.45223268167437758 0 -0.035662081446574762 -0.44437129177822371 0 -0.048623679129421588 -0.44273110985945369 0 -0.04142135733128624 -0.43391233418184683 0 -0.035662081446574762 -0.44437129177822371 0 -0.048623679129421588 -0.44273110985945369 0 -0.030789477839635839 -0.45543267362212791 0 -0.045123684251444827 -0.45223268167437758 0 -0.035662081446574762 -0.44437129177822371 0 -0.030789477839635839 -0.45543267362212791 0 -0.045123684251444827 -0.45223268167437758 0 -0.04007978340352341 -0.46172459869688548 0 -0.028521420705905499 -0.4674310816654948 0 -0.030789477839635839 -0.45543267362212791 0 -0.04007978340352341 -0.46172459869688548 0 -0.028521420705905499 -0.4674310816654948 0 -0.038764373548703768 -0.47063519779216179 0 -0.04007978340352341 -0.46172459869688548 0 -0.038764373548703768 -0.47063519779216179 0 -0.04007978340352341 -0.46172459869688548 0 -0.045335619097383061 -0.46570514195792412 0 -0.04007978340352341 -0.46172459869688548 0 -0.045335619097383061 -0.46570514195792412 0 -0.047248161051959649 -0.4591011094540644 0 -0.045123684251444827 -0.45223268167437758 0 -0.04007978340352341 -0.46172459869688548 0 -0.047248161051959649 -0.4591011094540644 0 -0.045123684251444827 -0.45223268167437758 0 -0.050581796861615229 -0.45333412325219669 0 -0.047248161051959649 -0.4591011094540644 0 -0.050581796861615229 -0.45333412325219669 0 -0.047248161051959649 -0.4591011094540644 0 -0.051910461861691633 -0.46612409294888979 0 -0.051910461861691633 -0.46612409294888979 0 -0.05917884661055 -0.4590401041241583 0 -0.060002998013559863 -0.44648162232419802 0 -0.051910461861691633 -0.46612409294888979 0 -0.060002998013559863 -0.44648162232419802 0 -0.050581796861615229 -0.45333412325219669 0 -0.051910461861691633 -0.46612409294888979 0 -0.060002998013559863 -0.44648162232419802 0 -0.048675315621036823 -0.47094071089761919 0 -0.05917884661055 -0.4590401041241583 0 -0.048675315621036823 -0.47094071089761919 0 -0.051910461861691633 -0.46612409294888979 0 -0.05917884661055 -0.4590401041241583 0 -0.048675315621036823 -0.47094071089761919 0 -0.045335619097383061 -0.46570514195792412 0 -0.051910461861691633 -0.46612409294888979 0 -0.045335619097383061 -0.46570514195792412 0 -0.047248161051959649 -0.4591011094540644 0 -0.051910461861691633 -0.46612409294888979 0 -0.055120034750126161 -0.47128965669693351 0 -0.057384894248553399 -0.46524593439390849 0 -0.064422500494955764 -0.4650694252783244 0 -0.048675315621036823 -0.47094071089761919 0 -0.057384894248553399 -0.46524593439390849 0 -0.05917884661055 -0.4590401041241583 0 -0.057384894248553399 -0.46524593439390849 0 -0.05917884661055 -0.4590401041241583 0 -0.059237257045792073 -0.46090013765886428 0 -0.064422500494955764 -0.4650694252783244 0 -0.057384894248553399 -0.46524593439390849 0 -0.059237257045792073 -0.46090013765886428 0 -0.064422500494955764 -0.4650694252783244 0 -0.057384894248553399 -0.46524593439390849 0 -0.059237257045792073 -0.46090013765886428 0 -0.05917884661055 -0.4590401041241583 0 -0.059237257045792073 -0.46090013765886428 0 -0.062180371227510647 -0.45563934639583059 0 -0.064422500494955764 -0.4650694252783244 0 -0.059237257045792073 -0.46090013765886428 0 -0.05917884661055 -0.4590401041241583 0 -0.062180371227510647 -0.45563934639583059 0 -0.05917884661055 -0.4590401041241583 0 -0.062180371227510647 -0.45563934639583059 0 -0.05917884661055 -0.4590401041241583 0 -0.061269440441321127 -0.45180810022505591 0 -0.05917884661055 -0.4590401041241583 0 -0.062180371227510647 -0.45563934639583059 0 -0.061269440441321127 -0.45180810022505591 0 -0.062180371227510647 -0.45563934639583059 0 -0.061269440441321127 -0.45180810022505591 0 -0.055571169944573007 -0.4278419796903028 0 -0.060002998013559863 -0.44648162232419802 0 -0.048623679129421588 -0.44273110985945369 0 -0.05917884661055 -0.4590401041241583 0 -0.061269440441321127 -0.45180810022505591 0 -0.060002998013559863 -0.44648162232419802 0 -0.061269440441321127 -0.45180810022505591 0 -0.060002998013559863 -0.44648162232419802 0 -0.050581796861615229 -0.45333412325219669 0 -0.060002998013559863 -0.44648162232419802 0 -0.048623679129421588 -0.44273110985945369 0 -0.045123684251444827 -0.45223268167437758 0 -0.050581796861615229 -0.45333412325219669 0 -0.048623679129421588 -0.44273110985945369 0 -0.061269440441321127 -0.45180810022505591 0 -0.069408814394604765 -0.42365151461769918 0 -0.062180371227510647 -0.45563934639583059 0 -0.061269440441321127 -0.45180810022505591 0 -0.077098496045509793 -0.43873696019506903 0 -0.062180371227510647 -0.45563934639583059 0 -0.077098496045509793 -0.43873696019506903 0 -0.073769461018799692 -0.45951707792468061 0 -0.061269440441321127 -0.45180810022505591 0 -0.077098496045509793 -0.43873696019506903 0 -0.069408814394604765 -0.42365151461769918 0 -0.061269440441321127 -0.45180810022505591 0 -0.060002998013559863 -0.44648162232419802 0 -0.069408814394604765 -0.42365151461769918 0 -0.062180371227510647 -0.45563934639583059 0 -0.077098496045509793 -0.43873696019506903 0 -0.062180371227510647 -0.45563934639583059 0 -0.064422500494955764 -0.4650694252783244 0 -0.062180371227510647 -0.45563934639583059 0 -0.064422500494955764 -0.4650694252783244 0 -0.073769461018799692 -0.45951707792468061 0 -0.084521355142842869 -0.45759592347480388 0 -0.086143661312174283 -0.48253471263916248 0 -0.099165393688022629 -0.46120376842987459 0 -0.073769461018799692 -0.45951707792468061 0 -0.084521355142842869 -0.45759592347480388 0 -0.086143661312174283 -0.48253471263916248 0 -0.084521355142842869 -0.45759592347480388 0 -0.089624247433654214 -0.44685599598904568 0 -0.099165393688022629 -0.46120376842987459 0 -0.077098496045509793 -0.43873696019506903 0 -0.084521355142842869 -0.45759592347480388 0 -0.089624247433654214 -0.44685599598904568 0 -0.077098496045509793 -0.43873696019506903 0 -0.073769461018799692 -0.45951707792468061 0 -0.084521355142842869 -0.45759592347480388 0 -0.089624247433654214 -0.44685599598904568 0 -0.099878095611554862 -0.4393977270813314 0 -0.089545628933694749 -0.43673796215895883 0 -0.077098496045509793 -0.43873696019506903 0 -0.089624247433654214 -0.44685599598904568 0 -0.089545628933694749 -0.43673796215895883 0 -0.072727718816887776 -0.49999999999999672 0 -0.068575109655922298 -0.48253471263916042 0 -0.058853327493046781 -0.48842932436532971 0 -0.072727718816887776 -0.49999999999999672 0 -0.068575109655922298 -0.48253471263916042 0 -0.072727718816887776 -0.49999999999999672 0 -0.068575109655922298 -0.48253471263916042 0 -0.086143661312174283 -0.48253471263916248 0 -0.064422500494955764 -0.4650694252783244 0 -0.068575109655922298 -0.48253471263916042 0 -0.059149819292987238 -0.47777467248794547 0 -0.064422500494955764 -0.4650694252783244 0 -0.068575109655922298 -0.48253471263916042 0 -0.064422500494955764 -0.4650694252783244 0 -0.073769461018799692 -0.45951707792468061 0 -0.086143661312174283 -0.48253471263916248 0 -0.064422500494955764 -0.4650694252783244 0 -0.068575109655922298 -0.48253471263916042 0 -0.086143661312174283 -0.48253471263916248 0 -0.064422500494955764 -0.4650694252783244 0 -0.086143661312174283 -0.48253471263916248 0 -0.072727718816887776 -0.49999999999999672 0 -0.086143661312174283 -0.48253471263916248 0 -0.090296270473140428 -0.5 0 -0.086143661312174283 -0.48253471263916248 0 -0.090296270473140428 -0.5 0 -0.10786482212939311 -0.50000000000000011 0 -0.086143661312174283 -0.48253471263916248 0 -0.10786482212939311 -0.50000000000000011 0 -0.086143661312174283 -0.48253471263916248 0 -0.10786482212939311 -0.50000000000000011 0 -0.1056577076014347 -0.47999846360012538 0 -0.086143661312174283 -0.48253471263916248 0 -0.1056577076014347 -0.47999846360012538 0 -0.099165393688022629 -0.46120376842987459 0 -0.1056577076014347 -0.47999846360012538 0 -0.12108079434187891 -0.47202921183540031 0 -0.099165393688022629 -0.46120376842987459 0 -0.1056577076014347 -0.47999846360012538 0 -0.12108079434187891 -0.47202921183540031 0 -0.1206292342060253 -0.48641385964910883 0 -0.131118449396015 -0.5 0 -0.10786482212939311 -0.50000000000000011 0 -0.1206292342060253 -0.48641385964910883 0 -0.10786482212939311 -0.50000000000000011 0 -0.1056577076014347 -0.47999846360012538 0 -0.1206292342060253 -0.48641385964910883 0 -0.099878095611554862 -0.4393977270813314 0 -0.099165393688022629 -0.46120376842987459 0 -0.099878095611554862 -0.4393977270813314 0 -0.099165393688022629 -0.46120376842987459 0 -0.11615585050415531 -0.45102464773050138 0 -0.089624247433654214 -0.44685599598904568 0 -0.099878095611554862 -0.4393977270813314 0 -0.099165393688022629 -0.46120376842987459 0 -0.12108079434187891 -0.47202921183540031 0 -0.099165393688022629 -0.46120376842987459 0 -0.11615585050415531 -0.45102464773050138 0 -0.13077987840644981 -0.46069854066347632 0 -0.12108079434187891 -0.47202921183540031 0 -0.11615585050415531 -0.45102464773050138 0 -0.13194602454298601 -0.43962244526902572 0 -0.11615585050415531 -0.45102464773050138 0 -0.1129403580353462 -0.43280081863281078 0 -0.099878095611554862 -0.4393977270813314 0 -0.11615585050415531 -0.45102464773050138 0 -0.1129403580353462 -0.43280081863281078 0 -0.13194602454298601 -0.43962244526902572 0 -0.1165997240041481 -0.41847011486561592 0 -0.13194602454298601 -0.43962244526902572 0 -0.1129403580353462 -0.43280081863281078 0 -0.1165997240041481 -0.41847011486561592 0 -0.1129403580353462 -0.43280081863281078 0 -0.1079125428112538 -0.41892639524425412 0 -0.1165997240041481 -0.41847011486561592 0 -0.099878095611554862 -0.4393977270813314 0 -0.100590797535087 -0.41759168573278821 0 -0.092016620863508841 -0.4218345739943074 0 -0.099878095611554862 -0.4393977270813314 0 -0.089545628933694749 -0.43673796215895883 0 -0.092016620863508841 -0.4218345739943074 0 -0.099878095611554862 -0.4393977270813314 0 -0.1129403580353462 -0.43280081863281078 0 -0.10283731640903 -0.42510314405888588 0 -0.099878095611554862 -0.4393977270813314 0 -0.100590797535087 -0.41759168573278821 0 -0.099878095611554862 -0.4393977270813314 0 -0.10283731640903 -0.42510314405888588 0 -0.100590797535087 -0.41759168573278821 0 -0.1129403580353462 -0.43280081863281078 0 -0.10283731640903 -0.42510314405888588 0 -0.1079125428112538 -0.41892639524425412 0 -0.100590797535087 -0.41759168573278821 0 -0.1012534234653099 -0.39731778446220639 0 -0.1165997240041481 -0.41847011486561592 0 -0.1012534234653099 -0.39731778446220639 0 -0.100590797535087 -0.41759168573278821 0 -0.094499944748829334 -0.39722631626938482 0 -0.088610052547492879 -0.41006814396079783 0 -0.100590797535087 -0.41759168573278821 0 -0.1079125428112538 -0.41892639524425412 0 -0.1012534234653099 -0.39731778446220639 0 -0.100590797535087 -0.41759168573278821 0 -0.094499944748829334 -0.39722631626938482 0 -0.1079125428112538 -0.41892639524425412 0 -0.1165997240041481 -0.41847011486561592 0 -0.1012534234653099 -0.39731778446220639 0 -0.10283731640903 -0.42510314405888588 0 -0.100590797535087 -0.41759168573278821 0 -0.1079125428112538 -0.41892639524425412 0 -0.10283731640903 -0.42510314405888588 0 -0.100590797535087 -0.41759168573278821 0 -0.12592730430259419 -0.40432488328170318 0 -0.1165997240041481 -0.41847011486561592 0 -0.1152538145686829 -0.39895411709426332 0 -0.1165997240041481 -0.41847011486561592 0 -0.1152538145686829 -0.39895411709426332 0 -0.1012534234653099 -0.39731778446220639 0 -0.12526638733901391 -0.39147447277512609 0 -0.12592730430259419 -0.40432488328170318 0 -0.1152538145686829 -0.39895411709426332 0 -0.12526638733901391 -0.39147447277512609 0 -0.1152538145686829 -0.39895411709426332 0 -0.1147112201852714 -0.38836266809632891 0 -0.1152538145686829 -0.39895411709426332 0 -0.1147112201852714 -0.38836266809632891 0 -0.1077648281157602 -0.39377477908459929 0 -0.12526638733901391 -0.39147447277512609 0 -0.12201267174342199 -0.37938718301114999 0 -0.1147112201852714 -0.38836266809632891 0 -0.1147112201852714 -0.38836266809632891 0 -0.1094440337948836 -0.37923577087639421 0 -0.1073228884697877 -0.3875649225559597 0 -0.1147112201852714 -0.38836266809632891 0 -0.1073228884697877 -0.3875649225559597 0 -0.1077648281157602 -0.39377477908459929 0 -0.12201267174342199 -0.37938718301114999 0 -0.1147112201852714 -0.38836266809632891 0 -0.1094440337948836 -0.37923577087639421 0 -0.1159926709000937 -0.36685414663024191 0 -0.12201267174342199 -0.37938718301114999 0 -0.1094440337948836 -0.37923577087639421 0 -0.1024060606807759 -0.36205135125861898 0 -0.1094440337948836 -0.37923577087639421 0 -0.1016559479587178 -0.38500202459504551 0 -0.1094440337948836 -0.37923577087639421 0 -0.1016559479587178 -0.38500202459504551 0 -0.1073228884697877 -0.3875649225559597 0 -0.1016559479587178 -0.38500202459504551 0 -0.1014693111655476 -0.390712419775258 0 -0.1016559479587178 -0.38500202459504551 0 -0.1073228884697877 -0.3875649225559597 0 -0.1014693111655476 -0.390712419775258 0 -0.1016559479587178 -0.38500202459504551 0 -0.091585827134305964 -0.3839926061052007 0 -0.1016559479587178 -0.38500202459504551 0 -0.1014693111655476 -0.390712419775258 0 -0.093729726096669103 -0.3869476153003294 0 -0.1016559479587178 -0.38500202459504551 0 -0.091585827134305964 -0.3839926061052007 0 -0.093729726096669103 -0.3869476153003294 0 -0.1014693111655476 -0.390712419775258 0 -0.093729726096669103 -0.3869476153003294 0 -0.1016559479587178 -0.38500202459504551 0 -0.095426438310298192 -0.37780241062099151 0 -0.091585827134305964 -0.3839926061052007 0 -0.100590797535087 -0.41759168573278821 0 -0.1012534234653099 -0.39731778446220639 0 -0.099487365185966847 -0.39952233119993291 0 -0.100590797535087 -0.41759168573278821 0 -0.094499944748829334 -0.39722631626938482 0 -0.099487365185966847 -0.39952233119993291 0 -0.1152538145686829 -0.39895411709426332 0 -0.1077648281157602 -0.39377477908459929 0 -0.1012534234653099 -0.39731778446220639 0 -0.1073228884697877 -0.3875649225559597 0 -0.1077648281157602 -0.39377477908459929 0 -0.1014693111655476 -0.390712419775258 0 -0.1077648281157602 -0.39377477908459929 0 -0.1012534234653099 -0.39731778446220639 0 -0.1014693111655476 -0.390712419775258 0 -0.1077648281157602 -0.39377477908459929 0 -0.1014693111655476 -0.390712419775258 0 -0.1012534234653099 -0.39731778446220639 0 -0.094499944748829334 -0.39722631626938482 0 -0.099487365185966847 -0.39952233119993291 0 -0.1012534234653099 -0.39731778446220639 0 -0.094499944748829334 -0.39722631626938482 0 -0.093729726096669103 -0.3869476153003294 0 -0.1012534234653099 -0.39731778446220639 0 -0.1014693111655476 -0.390712419775258 0 -0.093729726096669103 -0.3869476153003294 0 -0.1012534234653099 -0.39731778446220639 0 -0.093729726096669103 -0.3869476153003294 0 -0.1012534234653099 -0.39731778446220639 0 -0.1014693111655476 -0.390712419775258 0 -0.094499944748829334 -0.39722631626938482 0 -0.099487365185966847 -0.39952233119993291 0 -0.094499944748829334 -0.39722631626938482 0 -0.085553154766675646 -0.40134027138503481 0 -0.088610052547492879 -0.41006814396079783 0 -0.094499944748829334 -0.39722631626938482 0 -0.082560309743270749 -0.39172977139542609 0 -0.085553154766675646 -0.40134027138503481 0 -0.094499944748829334 -0.39722631626938482 0 -0.082560309743270749 -0.39172977139542609 0 -0.091033556626635648 -0.38563610430902873 0 -0.094499944748829334 -0.39722631626938482 0 -0.082560309743270749 -0.39172977139542609 0 -0.094499944748829334 -0.39722631626938482 0 -0.091033556626635648 -0.38563610430902873 0 -0.082560309743270749 -0.39172977139542609 0 -0.079097438192195432 -0.39013559964190198 0 -0.074673198083630793 -0.40544040024196493 0 -0.082560309743270749 -0.39172977139542609 0 -0.079097438192195432 -0.39013559964190198 0 -0.082560309743270749 -0.39172977139542609 0 -0.076542312027108539 -0.406336853914531 0 -0.082560309743270749 -0.39172977139542609 0 -0.085553154766675646 -0.40134027138503481 0 -0.076542312027108539 -0.406336853914531 0 -0.085553154766675646 -0.40134027138503481 0 -0.076542312027108539 -0.406336853914531 0 -0.088610052547492879 -0.41006814396079783 0 -0.090139611558562177 -0.37333304007799939 0 -0.088525620654428705 -0.37725057202694517 0 -0.088525620654428705 -0.37725057202694517 0 -0.087954911787112483 -0.37534235041220648 0 -0.08170780991661282 -0.38109255286014232 0 -0.090139611558562177 -0.37333304007799939 0 -0.088525620654428705 -0.37725057202694517 0 -0.087954911787112483 -0.37534235041220648 0 -0.088525620654428705 -0.37725057202694517 0 -0.087954911787112483 -0.37534235041220648 0 -0.090139611558562177 -0.37333304007799939 0 -0.095426438310298192 -0.37780241062099151 0 -0.088525620654428705 -0.37725057202694517 0 -0.088525620654428705 -0.37725057202694517 0 -0.091585827134305964 -0.3839926061052007 0 -0.095426438310298192 -0.37780241062099151 0 -0.088525620654428705 -0.37725057202694517 0 -0.091585827134305964 -0.3839926061052007 0 -0.088525620654428705 -0.37725057202694517 0 -0.086634605294488312 -0.38349630075200858 0 -0.088525620654428705 -0.37725057202694517 0 -0.086634605294488312 -0.38349630075200858 0 -0.091585827134305964 -0.3839926061052007 0 -0.082560309743270749 -0.39172977139542609 0 -0.086634605294488312 -0.38349630075200858 0 -0.091033556626635648 -0.38563610430902873 0 -0.094499944748829334 -0.39722631626938482 0 -0.091033556626635648 -0.38563610430902873 0 -0.093729726096669103 -0.3869476153003294 0 -0.086634605294488312 -0.38349630075200858 0 -0.091585827134305964 -0.3839926061052007 0 -0.086634605294488312 -0.38349630075200858 0 -0.091033556626635648 -0.38563610430902873 0 -0.086634605294488312 -0.38349630075200858 0 -0.091585827134305964 -0.3839926061052007 0 -0.091033556626635648 -0.38563610430902873 0 -0.091585827134305964 -0.3839926061052007 0 -0.091033556626635648 -0.38563610430902873 0 -0.093729726096669103 -0.3869476153003294 0 -0.091033556626635648 -0.38563610430902873 0 -0.093729726096669103 -0.3869476153003294 0 -0.091585827134305964 -0.3839926061052007 0 -0.093729726096669103 -0.3869476153003294 0 -0.091585827134305964 -0.3839926061052007 0 -0.091033556626635648 -0.38563610430902873 0 -0.082560309743270749 -0.39172977139542609 0 -0.086634605294488312 -0.38349630075200858 0 -0.082560309743270749 -0.39172977139542609 0 -0.086634605294488312 -0.38349630075200858 0 -0.081174899406055781 -0.38294902548401538 0 -0.082560309743270749 -0.39172977139542609 0 -0.079097438192195432 -0.39013559964190198 0 -0.081174899406055781 -0.38294902548401538 0 -0.079097438192195432 -0.39013559964190198 0 -0.081174899406055781 -0.38294902548401538 0 -0.074281153156084773 -0.38791836881244668 0 -0.079097438192195432 -0.39013559964190198 0 -0.081174899406055781 -0.38294902548401538 0 -0.086634605294488312 -0.38349630075200858 0 -0.081174899406055781 -0.38294902548401538 0 -0.088525620654428705 -0.37725057202694517 0 -0.086634605294488312 -0.38349630075200858 0 -0.08170780991661282 -0.38109255286014232 0 -0.086634605294488312 -0.38349630075200858 0 -0.081174899406055781 -0.38294902548401538 0 -0.08170780991661282 -0.38109255286014232 0 -0.086634605294488312 -0.38349630075200858 0 -0.08170780991661282 -0.38109255286014232 0 -0.081174899406055781 -0.38294902548401538 0 -0.08170780991661282 -0.38109255286014232 0 -0.087954911787112483 -0.37534235041220648 0 -0.08170780991661282 -0.38109255286014232 0 -0.055512870853615448 -0.39455951290216967 0 -0.058563253679506787 -0.38068245751723601 0 -0.074281153156084773 -0.38791836881244668 0 -0.058563253679506787 -0.38068245751723601 0 -0.074281153156084773 -0.38791836881244668 0 -0.058387822440418388 -0.36975607908058028 0 -0.08170780991661282 -0.38109255286014232 0 -0.058387822440418388 -0.36975607908058028 0 -0.081174899406055781 -0.38294902548401538 0 -0.08170780991661282 -0.38109255286014232 0 -0.058563253679506787 -0.38068245751723601 0 -0.081174899406055781 -0.38294902548401538 0 -0.074281153156084773 -0.38791836881244668 0 -0.058563253679506787 -0.38068245751723601 0 -0.081174899406055781 -0.38294902548401538 0 -0.058387822440418388 -0.36975607908058028 0 -0.058563253679506787 -0.38068245751723601 0 -0.081174899406055781 -0.38294902548401538 0 -0.081174899406055781 -0.38294902548401538 0 -0.074281153156084773 -0.38791836881244668 0 -0.079097438192195432 -0.39013559964190198 0 -0.074281153156084773 -0.38791836881244668 0 -0.079097438192195432 -0.39013559964190198 0 -0.074281153156084773 -0.38791836881244668 0 -0.074673198083630793 -0.40544040024196493 0 -0.052509649903146327 -0.40794203844841681 0 -0.074281153156084773 -0.38791836881244668 0 -0.052509649903146327 -0.40794203844841681 0 -0.074281153156084773 -0.38791836881244668 0 -0.074673198083630793 -0.40544040024196493 0 -0.082560309743270749 -0.39172977139542609 0 -0.074673198083630793 -0.40544040024196493 0 -0.076542312027108539 -0.406336853914531 0 -0.079097438192195432 -0.39013559964190198 0 -0.074673198083630793 -0.40544040024196493 0 -0.052509649903146327 -0.40794203844841681 0 -0.074673198083630793 -0.40544040024196493 0 -0.070248957975066639 -0.42074520084202788 0 -0.076542312027108539 -0.406336853914531 0 -0.070248957975066639 -0.42074520084202788 0 -0.074673198083630793 -0.40544040024196493 0 -0.070248957975066639 -0.42074520084202788 0 -0.074673198083630793 -0.40544040024196493 0 -0.076542312027108539 -0.406336853914531 0 -0.070248957975066639 -0.42074520084202788 0 -0.070248957975066639 -0.42074520084202788 0 -0.077246521605040669 -0.42579562012280953 0 -0.078194253298280558 -0.41865647959270891 0 -0.076542312027108539 -0.406336853914531 0 -0.070248957975066639 -0.42074520084202788 0 -0.078194253298280558 -0.41865647959270891 0 -0.059775586818595829 -0.41787661413097049 0 -0.070248957975066639 -0.42074520084202788 0 -0.069408814394604765 -0.42365151461769918 0 -0.060002998013559863 -0.44648162232419802 0 -0.069408814394604765 -0.42365151461769918 0 -0.070248957975066639 -0.42074520084202788 0 -0.069408814394604765 -0.42365151461769918 0 -0.077098496045509793 -0.43873696019506903 0 -0.069408814394604765 -0.42365151461769918 0 -0.077246521605040669 -0.42579562012280953 0 -0.070248957975066639 -0.42074520084202788 0 -0.069408814394604765 -0.42365151461769918 0 -0.077246521605040669 -0.42579562012280953 0 -0.070248957975066639 -0.42074520084202788 0 -0.077246521605040669 -0.42579562012280953 0 -0.077246521605040669 -0.42579562012280953 0 -0.082943237868067593 -0.4239856173255338 0 -0.078194253298280558 -0.41865647959270891 0 -0.077098496045509793 -0.43873696019506903 0 -0.082943237868067593 -0.4239856173255338 0 -0.092016620863508841 -0.4218345739943074 0 -0.077098496045509793 -0.43873696019506903 0 -0.089545628933694749 -0.43673796215895883 0 -0.092016620863508841 -0.4218345739943074 0 -0.077098496045509793 -0.43873696019506903 0 -0.092016620863508841 -0.4218345739943074 0 -0.077098496045509793 -0.43873696019506903 0 -0.077246521605040669 -0.42579562012280953 0 -0.082943237868067593 -0.4239856173255338 0 -0.100590797535087 -0.41759168573278821 0 -0.092016620863508841 -0.4218345739943074 0 -0.088610052547492879 -0.41006814396079783 0 -0.082943237868067593 -0.4239856173255338 0 -0.092016620863508841 -0.4218345739943074 0 -0.083714880680240453 -0.41622037016703428 0 -0.092016620863508841 -0.4218345739943074 0 -0.088610052547492879 -0.41006814396079783 0 -0.083714880680240453 -0.41622037016703428 0 -0.076542312027108539 -0.406336853914531 0 -0.088610052547492879 -0.41006814396079783 0 -0.083714880680240453 -0.41622037016703428 0 -0.076542312027108539 -0.406336853914531 0 -0.078194253298280558 -0.41865647959270891 0 -0.083714880680240453 -0.41622037016703428 0 -0.082943237868067593 -0.4239856173255338 0 -0.078194253298280558 -0.41865647959270891 0 -0.083714880680240453 -0.41622037016703428 0 -0.081808777729522386 -0.083143660930833002 0 -0.073985000225153141 -0.099795971436559522 0 -0.085935801107842547 -0.09579043756499836 0 -0.081808777729522386 -0.083143660930833002 0 -0.085935801107842547 -0.09579043756499836 0 -0.094306078709463503 -0.087148618235937392 0 -0.081808777729522386 -0.083143660930833002 0 -0.094306078709463503 -0.087148618235937392 0 -0.095869533599057435 -0.074719864200214883 0 -0.081808777729522386 -0.083143660930833002 0 -0.087640100333796281 -0.066301869750421821 0 -0.076351800502585221 -0.068318825045574613 0 -0.081808777729522386 -0.083143660930833002 0 -0.087640100333796281 -0.066301869750421821 0 -0.095869533599057435 -0.074719864200214883 0 -0.087640100333796281 -0.066301869750421821 0 -0.095869533599057435 -0.074719864200214883 0 -0.097041901727127691 -0.062312633498474219 0 -0.087640100333796281 -0.066301869750421821 0 -0.076351800502585221 -0.068318825045574613 0 -0.079773765115028039 -0.057914828426178573 0 -0.081808777729522386 -0.083143660930833002 0 -0.076351800502585221 -0.068318825045574613 0 -0.068001603171865072 -0.074911341683796137 0 -0.068001603171865072 -0.074911341683796137 0 -0.065822825648978775 -0.060485584973140792 0 -0.05753372126900759 -0.073422836261521005 0 -0.076351800502585221 -0.068318825045574613 0 -0.068001603171865072 -0.074911341683796137 0 -0.065822825648978775 -0.060485584973140792 0 -0.068001603171865072 -0.074911341683796137 0 -0.066670257350634976 -0.085780572793309681 0 -0.05753372126900759 -0.073422836261521005 0 -0.081808777729522386 -0.083143660930833002 0 -0.066670257350634976 -0.085780572793309681 0 -0.073985000225153141 -0.099795971436559522 0 -0.081808777729522386 -0.083143660930833002 0 -0.068001603171865072 -0.074911341683796137 0 -0.066670257350634976 -0.085780572793309681 0 -0.066670257350634976 -0.085780572793309681 0 -0.073985000225153141 -0.099795971436559522 0 -0.05982498813170789 -0.10249801488187529 0 -0.073985000225153141 -0.099795971436559522 0 -0.065415314349395459 -0.11473522154729129 0 -0.05982498813170789 -0.10249801488187529 0 -0.073985000225153141 -0.099795971436559522 0 -0.065415314349395459 -0.11473522154729129 0 -0.07727601190464152 -0.1134926659633375 0 -0.065415314349395459 -0.11473522154729129 0 -0.060446148579459319 -0.1303024678998376 0 -0.071674103496310607 -0.1250344835198243 0 -0.07727601190464152 -0.1134926659633375 0 -0.082994471061899833 -0.1234246307735777 0 -0.071674103496310607 -0.1250344835198243 0 -0.065415314349395459 -0.11473522154729129 0 -0.07727601190464152 -0.1134926659633375 0 -0.071674103496310607 -0.1250344835198243 0 -0.07727601190464152 -0.1134926659633375 0 -0.082994471061899833 -0.1234246307735777 0 -0.08680817640523622 -0.1078855820033275 0 -0.082994471061899833 -0.1234246307735777 0 -0.08680817640523622 -0.1078855820033275 0 -0.095277368860953449 -0.1178446661751102 0 -0.082994471061899833 -0.1234246307735777 0 -0.095277368860953449 -0.1178446661751102 0 -0.095971306836852913 -0.13086642389395989 0 -0.085935801107842547 -0.09579043756499836 0 -0.08680817640523622 -0.1078855820033275 0 -0.1020424425883536 -0.1015565670732166 0 -0.073985000225153141 -0.099795971436559522 0 -0.085935801107842547 -0.09579043756499836 0 -0.08680817640523622 -0.1078855820033275 0 -0.073985000225153141 -0.099795971436559522 0 -0.07727601190464152 -0.1134926659633375 0 -0.08680817640523622 -0.1078855820033275 0 -0.085935801107842547 -0.09579043756499836 0 -0.1020424425883536 -0.1015565670732166 0 -0.094306078709463503 -0.087148618235937392 0 -0.08680817640523622 -0.1078855820033275 0 -0.1020424425883536 -0.1015565670732166 0 -0.095277368860953449 -0.1178446661751102 0 -0.1020424425883536 -0.1015565670732166 0 -0.095277368860953449 -0.1178446661751102 0 -0.1085913382140784 -0.11903379143832921 0 -0.095277368860953449 -0.1178446661751102 0 -0.1085913382140784 -0.11903379143832921 0 -0.095971306836852913 -0.13086642389395989 0 -0.1085913382140784 -0.11903379143832921 0 -0.11893842975153809 -0.10446969177473921 0 -0.12736410167423581 -0.1213878944680517 0 -0.1020424425883536 -0.1015565670732166 0 -0.11893842975153809 -0.10446969177473921 0 -0.1189291253072135 -0.086669643832799348 0 -0.1020424425883536 -0.1015565670732166 0 -0.1085913382140784 -0.11903379143832921 0 -0.11893842975153809 -0.10446969177473921 0 -0.1189291253072135 -0.086669643832799348 0 -0.1056068239719813 -0.08097964138995771 0 -0.1139735316209595 -0.069866863539540053 0 -0.1020424425883536 -0.1015565670732166 0 -0.1189291253072135 -0.086669643832799348 0 -0.1056068239719813 -0.08097964138995771 0 -0.1020424425883536 -0.1015565670732166 0 -0.1056068239719813 -0.08097964138995771 0 -0.094306078709463503 -0.087148618235937392 0 -0.1056068239719813 -0.08097964138995771 0 -0.094306078709463503 -0.087148618235937392 0 -0.095869533599057435 -0.074719864200214883 0 -0.095869533599057435 -0.074719864200214883 0 -0.1039382096783972 -0.069282752438140638 0 -0.097041901727127691 -0.062312633498474219 0 -0.1056068239719813 -0.08097964138995771 0 -0.1039382096783972 -0.069282752438140638 0 -0.1139735316209595 -0.069866863539540053 0 -0.1056068239719813 -0.08097964138995771 0 -0.095869533599057435 -0.074719864200214883 0 -0.1039382096783972 -0.069282752438140638 0 -0.1039382096783972 -0.069282752438140638 0 -0.097041901727127691 -0.062312633498474219 0 -0.1071992574728602 -0.058534759562516372 0 -0.1039382096783972 -0.069282752438140638 0 -0.1139735316209595 -0.069866863539540053 0 -0.1071992574728602 -0.058534759562516372 0 -0.1189291253072135 -0.086669643832799348 0 -0.1139735316209595 -0.069866863539540053 0 -0.12930964035960699 -0.069761515268982097 0 -0.1139735316209595 -0.069866863539540053 0 -0.1161384697585349 -0.056806249932135858 0 -0.12930964035960699 -0.069761515268982097 0 -0.1161384697585349 -0.056806249932135858 0 -0.1208541397454049 -0.045822468476665427 0 -0.12930964035960699 -0.069761515268982097 0 -0.1248214427799455 -0.0491876577223027 0 -0.1208541397454049 -0.045822468476665427 0 -0.12930964035960699 -0.069761515268982097 0 -0.1161384697585349 -0.056806249932135858 0 -0.10991932193075039 -0.048940588969216672 0 -0.1071992574728602 -0.058534759562516372 0 -0.1139735316209595 -0.069866863539540053 0 -0.1161384697585349 -0.056806249932135858 0 -0.1071992574728602 -0.058534759562516372 0 -0.1161384697585349 -0.056806249932135858 0 -0.10991932193075039 -0.048940588969216672 0 -0.1149357203506014 -0.047989794102068162 0 -0.1161384697585349 -0.056806249932135858 0 -0.1149357203506014 -0.047989794102068162 0 -0.1208541397454049 -0.045822468476665427 0 -0.1248214427799455 -0.0491876577223027 0 -0.1208541397454049 -0.045822468476665427 0 -0.1246368416492639 -0.024787675353444869 0 -0.1128309499677153 -0.040389869030254703 0 -0.10841128816168021 -0.033720593740292633 0 -0.11239863913120279 -0.021883421684348751 0 -0.1208541397454049 -0.045822468476665427 0 -0.11239863913120279 -0.021883421684348751 0 -0.1208541397454049 -0.045822468476665427 0 -0.1128309499677153 -0.040389869030254703 0 -0.11239863913120279 -0.021883421684348751 0 -0.1248214427799455 -0.0491876577223027 0 -0.1246368416492639 -0.024787675353444869 0 -0.1149357203506014 -0.047989794102068162 0 -0.1208541397454049 -0.045822468476665427 0 -0.1128309499677153 -0.040389869030254703 0 -0.10991932193075039 -0.048940588969216672 0 -0.1149357203506014 -0.047989794102068162 0 -0.1128309499677153 -0.040389869030254703 0 -0.10991932193075039 -0.048940588969216672 0 -0.1128309499677153 -0.040389869030254703 0 -0.1049963107845597 -0.040407454994133042 0 -0.10991932193075039 -0.048940588969216672 0 -0.1049963107845597 -0.040407454994133042 0 -0.1002598709818909 -0.049694841596422852 0 -0.1049963107845597 -0.040407454994133042 0 -0.10841128816168021 -0.033720593740292633 0 -0.1012581714839781 -0.029848849592015819 0 -0.1128309499677153 -0.040389869030254703 0 -0.1049963107845597 -0.040407454994133042 0 -0.10841128816168021 -0.033720593740292633 0 -0.097298262181343159 -0.039849987036595598 0 -0.1012581714839781 -0.029848849592015819 0 -0.091929659262116575 -0.033133953101480262 0 -0.1049963107845597 -0.040407454994133042 0 -0.097298262181343159 -0.039849987036595598 0 -0.1012581714839781 -0.029848849592015819 0 -0.1049963107845597 -0.040407454994133042 0 -0.097298262181343159 -0.039849987036595598 0 -0.1002598709818909 -0.049694841596422852 0 -0.097298262181343159 -0.039849987036595598 0 -0.1002598709818909 -0.049694841596422852 0 -0.087030839425688053 -0.044306376809862227 0 -0.1002598709818909 -0.049694841596422852 0 -0.097041901727127691 -0.062312633498474219 0 -0.1071992574728602 -0.058534759562516372 0 -0.1002598709818909 -0.049694841596422852 0 -0.097041901727127691 -0.062312633498474219 0 -0.090164156554830718 -0.055563028782557922 0 -0.10991932193075039 -0.048940588969216672 0 -0.1002598709818909 -0.049694841596422852 0 -0.1071992574728602 -0.058534759562516372 0 -0.1244522405185825 -0.00038769298458709092 0 -0.11239863913120279 -0.021883421684348751 0 -0.10394313851700079 0.0020556251079679459 0 -0.1244522405185825 -0.00038769298458709092 0 -0.1246368416492639 -0.024787675353444869 0 -0.1244522405185825 -0.00038769298458709092 0 -0.11239863913120279 -0.021883421684348751 0 -0.1246368416492639 -0.024787675353444869 0 -0.1208541397454049 -0.045822468476665427 0 -0.11239863913120279 -0.021883421684348751 0 -0.1246368416492639 -0.024787675353444869 0 -0.10841128816168021 -0.033720593740292633 0 -0.11239863913120279 -0.021883421684348751 0 -0.1012581714839781 -0.029848849592015819 0 -0.1012581714839781 -0.029848849592015819 0 -0.090677970328949406 -0.022917020247476879 0 -0.091929659262116575 -0.033133953101480262 0 -0.1012581714839781 -0.029848849592015819 0 -0.1001126671493681 -0.016491083843961009 0 -0.090677970328949406 -0.022917020247476879 0 -0.1001126671493681 -0.016491083843961009 0 -0.092285416285709382 -0.0098617528039315269 0 -0.090677970328949406 -0.022917020247476879 0 -0.11239863913120279 -0.021883421684348751 0 -0.1012581714839781 -0.029848849592015819 0 -0.1001126671493681 -0.016491083843961009 0 -0.1001126671493681 -0.016491083843961009 0 -0.092285416285709382 -0.0098617528039315269 0 -0.10394313851700079 0.0020556251079679459 0 -0.11239863913120279 -0.021883421684348751 0 -0.1001126671493681 -0.016491083843961009 0 -0.10394313851700079 0.0020556251079679459 0 -0.092285416285709382 -0.0098617528039315269 0 -0.10394313851700079 0.0020556251079679459 0 -0.085958893623968774 0.001514634656162053 0 -0.11239863913120279 -0.021883421684348751 0 -0.10394313851700079 0.0020556251079679459 0 -0.092285416285709382 -0.0098617528039315269 0 -0.077949881484559239 -0.01307625006729682 0 -0.085958893623968774 0.001514634656162053 0 -0.092285416285709382 -0.0098617528039315269 0 -0.090677970328949406 -0.022917020247476879 0 -0.077949881484559239 -0.01307625006729682 0 -0.090677970328949406 -0.022917020247476879 0 -0.073841780976804383 -0.025706854857452392 0 -0.077949881484559239 -0.01307625006729682 0 -0.090677970328949406 -0.022917020247476879 0 -0.073841780976804383 -0.025706854857452392 0 -0.082102255714859004 -0.034759692131612618 0 -0.090677970328949406 -0.022917020247476879 0 -0.091929659262116575 -0.033133953101480262 0 -0.082102255714859004 -0.034759692131612618 0 -0.073841780976804383 -0.025706854857452392 0 -0.077949881484559239 -0.01307625006729682 0 -0.060674527584339763 -0.015412449877807689 0 -0.073841780976804383 -0.025706854857452392 0 -0.060674527584339763 -0.015412449877807689 0 -0.060703590497751453 -0.03101491529774986 0 -0.077949881484559239 -0.01307625006729682 0 -0.085958893623968774 0.001514634656162053 0 -0.065648076432031049 0.00090955339710942099 0 -0.077949881484559239 -0.01307625006729682 0 -0.060674527584339763 -0.015412449877807689 0 -0.065648076432031049 0.00090955339710942099 0 -0.079773765115028039 -0.057914828426178573 0 -0.087030839425688053 -0.044306376809862227 0 -0.074827122987446398 -0.047817820925290022 0 -0.079773765115028039 -0.057914828426178573 0 -0.090164156554830718 -0.055563028782557922 0 -0.087030839425688053 -0.044306376809862227 0 -0.087640100333796281 -0.066301869750421821 0 -0.079773765115028039 -0.057914828426178573 0 -0.090164156554830718 -0.055563028782557922 0 -0.087640100333796281 -0.066301869750421821 0 -0.097041901727127691 -0.062312633498474219 0 -0.090164156554830718 -0.055563028782557922 0 -0.1002598709818909 -0.049694841596422852 0 -0.090164156554830718 -0.055563028782557922 0 -0.087030839425688053 -0.044306376809862227 0 -0.097298262181343159 -0.039849987036595598 0 -0.087030839425688053 -0.044306376809862227 0 -0.091929659262116575 -0.033133953101480262 0 -0.087030839425688053 -0.044306376809862227 0 -0.091929659262116575 -0.033133953101480262 0 -0.082102255714859004 -0.034759692131612618 0 -0.087030839425688053 -0.044306376809862227 0 -0.082102255714859004 -0.034759692131612618 0 -0.074827122987446398 -0.047817820925290022 0 -0.082102255714859004 -0.034759692131612618 0 -0.070942460250367517 -0.03706080152277047 0 -0.074827122987446398 -0.047817820925290022 0 -0.073841780976804383 -0.025706854857452392 0 -0.082102255714859004 -0.034759692131612618 0 -0.070942460250367517 -0.03706080152277047 0 -0.073841780976804383 -0.025706854857452392 0 -0.070942460250367517 -0.03706080152277047 0 -0.060703590497751453 -0.03101491529774986 0 -0.070942460250367517 -0.03706080152277047 0 -0.061850736208416378 -0.044087883634974623 0 -0.060703590497751453 -0.03101491529774986 0 -0.070942460250367517 -0.03706080152277047 0 -0.074827122987446398 -0.047817820925290022 0 -0.061850736208416378 -0.044087883634974623 0 -0.074827122987446398 -0.047817820925290022 0 -0.065822825648978775 -0.060485584973140792 0 -0.061850736208416378 -0.044087883634974623 0 -0.079773765115028039 -0.057914828426178573 0 -0.074827122987446398 -0.047817820925290022 0 -0.065822825648978775 -0.060485584973140792 0 -0.076351800502585221 -0.068318825045574613 0 -0.079773765115028039 -0.057914828426178573 0 -0.065822825648978775 -0.060485584973140792 0 -0.065822825648978775 -0.060485584973140792 0 -0.051906109188989122 -0.051634581827710108 0 -0.055146373663134192 -0.063188587977351315 0 -0.065822825648978775 -0.060485584973140792 0 -0.051906109188989122 -0.051634581827710108 0 -0.061850736208416378 -0.044087883634974623 0 -0.051906109188989122 -0.051634581827710108 0 -0.044968642856814678 -0.064628327886466996 0 -0.055146373663134192 -0.063188587977351315 0 -0.061850736208416378 -0.044087883634974623 0 -0.048286593140243993 -0.039377229684959138 0 -0.060703590497751453 -0.03101491529774986 0 -0.051906109188989122 -0.051634581827710108 0 -0.061850736208416378 -0.044087883634974623 0 -0.048286593140243993 -0.039377229684959138 0 -0.048286593140243993 -0.039377229684959138 0 -0.039642814346724391 -0.052475069278980747 0 -0.030584103036016622 -0.035608219704199993 0 -0.039642814346724391 -0.052475069278980747 0 -0.024435088609687641 -0.049746151716912712 0 -0.030584103036016622 -0.035608219704199993 0 -0.048286593140243993 -0.039377229684959138 0 -0.044331283213942488 -0.020119990811347448 0 -0.030584103036016622 -0.035608219704199993 0 -0.039642814346724391 -0.052475069278980747 0 -0.03034189778213453 -0.060014988360291517 0 -0.024435088609687641 -0.049746151716912712 0 -0.039642814346724391 -0.052475069278980747 0 -0.03034189778213453 -0.060014988360291517 0 -0.044968642856814678 -0.064628327886466996 0 -0.051906109188989122 -0.051634581827710108 0 -0.039642814346724391 -0.052475069278980747 0 -0.044968642856814678 -0.064628327886466996 0 -0.051906109188989122 -0.051634581827710108 0 -0.048286593140243993 -0.039377229684959138 0 -0.039642814346724391 -0.052475069278980747 0 -0.060674527584339763 -0.015412449877807689 0 -0.044331283213942488 -0.020119990811347448 0 -0.045118160941850949 -0.00049033847668307538 0 -0.060674527584339763 -0.015412449877807689 0 -0.045118160941850949 -0.00049033847668307538 0 -0.065648076432031049 0.00090955339710942099 0 -0.048286593140243993 -0.039377229684959138 0 -0.060703590497751453 -0.03101491529774986 0 -0.044331283213942488 -0.020119990811347448 0 -0.060674527584339763 -0.015412449877807689 0 -0.060703590497751453 -0.03101491529774986 0 -0.044331283213942488 -0.020119990811347448 0 -0.044331283213942488 -0.020119990811347448 0 -0.027025641752002061 -0.0079319500279313396 0 -0.030584103036016622 -0.035608219704199993 0 -0.044331283213942488 -0.020119990811347448 0 -0.045118160941850949 -0.00049033847668307538 0 -0.027025641752002061 -0.0079319500279313396 0 -0.027025641752002061 -0.0079319500279313396 0 -0.0118242871531395 -0.020545428430059291 0 -0.0091716063734174208 -0.003332990253060792 0 -0.027025641752002061 -0.0079319500279313396 0 -0.0091716063734174208 -0.003332990253060792 0 -0.01566814095190756 0.010235570601176981 0 -0.027025641752002061 -0.0079319500279313396 0 -0.0118242871531395 -0.020545428430059291 0 -0.030584103036016622 -0.035608219704199993 0 -0.0118242871531395 -0.020545428430059291 0 -0.030584103036016622 -0.035608219704199993 0 -0.0118242871531395 -0.020545428430059291 0 0.006935528729737548 -0.0054826371559186567 0 0.0027408304473846411 -0.028176541972939319 0 -0.0118242871531395 -0.020545428430059291 0 -0.01026660782967455 -0.041229232136501717 0 0.0027408304473846411 -0.028176541972939319 0 -0.0118242871531395 -0.020545428430059291 0 -0.0091716063734174208 -0.003332990253060792 0 0.006935528729737548 -0.0054826371559186567 0 -0.0118242871531395 -0.020545428430059291 0 0.006935528729737548 -0.0054826371559186567 0 -0.024435088609687641 -0.049746151716912712 0 -0.01026660782967455 -0.041229232136501717 0 -0.01499476028908407 -0.06055090283160456 0 -0.03034189778213453 -0.060014988360291517 0 -0.01499476028908407 -0.06055090283160456 0 -0.03034189778213453 -0.060014988360291517 0 -0.024435088609687641 -0.049746151716912712 0 -0.01499476028908407 -0.06055090283160456 0 -0.024435088609687641 -0.049746151716912712 0 -0.030584103036016622 -0.035608219704199993 0 -0.01026660782967455 -0.041229232136501717 0 -0.0118242871531395 -0.020545428430059291 0 -0.030584103036016622 -0.035608219704199993 0 -0.01026660782967455 -0.041229232136501717 0 -0.01026660782967455 -0.041229232136501717 0 0.0096258971738255473 -0.043108802377643002 0 0.00035237720396625368 -0.061086817302918282 0 -0.01026660782967455 -0.041229232136501717 0 -0.01499476028908407 -0.06055090283160456 0 0.00035237720396625368 -0.061086817302918282 0 -0.01499476028908407 -0.06055090283160456 0 0.00035237720396625368 -0.061086817302918282 0 -0.011408129540087309 -0.083886203777590068 0 0.0065051428120863272 -0.082127796022149757 0 0.00035237720396625368 -0.061086817302918282 0 -0.011408129540087309 -0.083886203777590068 0 0.00035237720396625368 -0.061086817302918282 0 -0.01499476028908407 -0.06055090283160456 0 -0.011408129540087309 -0.083886203777590068 0 0.00035237720396625368 -0.061086817302918282 0 -0.011408129540087309 -0.083886203777590068 0 0.001856719827670471 -0.098182337095309047 0 0.0065051428120863272 -0.082127796022149757 0 -0.011408129540087309 -0.083886203777590068 0 -0.03053113156520738 -0.089911417014305078 0 -0.02316863628414112 -0.10668559025226169 0 -0.011408129540087309 -0.083886203777590068 0 -0.03053113156520738 -0.089911417014305078 0 -0.026049830403481512 -0.075342802050597457 0 -0.01499476028908407 -0.06055090283160456 0 -0.011408129540087309 -0.083886203777590068 0 -0.026049830403481512 -0.075342802050597457 0 -0.03034189778213453 -0.060014988360291517 0 -0.01499476028908407 -0.06055090283160456 0 -0.026049830403481512 -0.075342802050597457 0 -0.03034189778213453 -0.060014988360291517 0 -0.026049830403481512 -0.075342802050597457 0 -0.041349905228919973 -0.078428718904655664 0 -0.03034189778213453 -0.060014988360291517 0 -0.044968642856814678 -0.064628327886466996 0 -0.041349905228919973 -0.078428718904655664 0 -0.03053113156520738 -0.089911417014305078 0 -0.026049830403481512 -0.075342802050597457 0 -0.041349905228919973 -0.078428718904655664 0 -0.03053113156520738 -0.089911417014305078 0 -0.041349905228919973 -0.078428718904655664 0 -0.047432501145458397 -0.097370211357339573 0 -0.041349905228919973 -0.078428718904655664 0 -0.053879666709155317 -0.08598560359304859 0 -0.05753372126900759 -0.073422836261521005 0 -0.041349905228919973 -0.078428718904655664 0 -0.053879666709155317 -0.08598560359304859 0 -0.047432501145458397 -0.097370211357339573 0 -0.066670257350634976 -0.085780572793309681 0 -0.053879666709155317 -0.08598560359304859 0 -0.05982498813170789 -0.10249801488187529 0 -0.066670257350634976 -0.085780572793309681 0 -0.053879666709155317 -0.08598560359304859 0 -0.05753372126900759 -0.073422836261521005 0 -0.044968642856814678 -0.064628327886466996 0 -0.041349905228919973 -0.078428718904655664 0 -0.05753372126900759 -0.073422836261521005 0 -0.065822825648978775 -0.060485584973140792 0 -0.05753372126900759 -0.073422836261521005 0 -0.055146373663134192 -0.063188587977351315 0 -0.044968642856814678 -0.064628327886466996 0 -0.05753372126900759 -0.073422836261521005 0 -0.055146373663134192 -0.063188587977351315 0 -0.065415314349395459 -0.11473522154729129 0 -0.048239208743362072 -0.1165718691901324 0 -0.05982498813170789 -0.10249801488187529 0 -0.065415314349395459 -0.11473522154729129 0 -0.048239208743362072 -0.1165718691901324 0 -0.060446148579459319 -0.1303024678998376 0 -0.048239208743362072 -0.1165718691901324 0 -0.05982498813170789 -0.10249801488187529 0 -0.047432501145458397 -0.097370211357339573 0 -0.053879666709155317 -0.08598560359304859 0 -0.05982498813170789 -0.10249801488187529 0 -0.047432501145458397 -0.097370211357339573 0 -0.048239208743362072 -0.1165718691901324 0 -0.047432501145458397 -0.097370211357339573 0 -0.02316863628414112 -0.10668559025226169 0 -0.03053113156520738 -0.089911417014305078 0 -0.047432501145458397 -0.097370211357339573 0 -0.02316863628414112 -0.10668559025226169 0 -0.048239208743362072 -0.1165718691901324 0 -0.02316863628414112 -0.10668559025226169 0 -0.029948833034415319 -0.13246817914486481 0 -0.02316863628414112 -0.10668559025226169 0 -0.01250087523651249 -0.12826546419306251 0 -0.029948833034415319 -0.13246817914486481 0 -0.011408129540087309 -0.083886203777590068 0 -0.02316863628414112 -0.10668559025226169 0 -0.02316863628414112 -0.10668559025226169 0 0.0015243557028834459 -0.11711868301268021 0 0.001856719827670471 -0.098182337095309047 0 -0.011408129540087309 -0.083886203777590068 0 -0.02316863628414112 -0.10668559025226169 0 0.001856719827670471 -0.098182337095309047 0 -0.02316863628414112 -0.10668559025226169 0 -0.01250087523651249 -0.12826546419306251 0 0.0015243557028834459 -0.11711868301268021 0 -0.01250087523651249 -0.12826546419306251 0 -0.013317386200938249 -0.14799664519887931 0 0.0088678229424013627 -0.13941235935176011 0 -0.01250087523651249 -0.12826546419306251 0 0.0088678229424013627 -0.13941235935176011 0 0.0015243557028834459 -0.11711868301268021 0 -0.01250087523651249 -0.12826546419306251 0 -0.029948833034415319 -0.13246817914486481 0 -0.013317386200938249 -0.14799664519887931 0 -0.013317386200938249 -0.14799664519887931 0 -0.035502595344277812 -0.15658093104599841 0 -0.029948833034415319 -0.13246817914486481 0 -0.013317386200938249 -0.14799664519887931 0 -0.035502595344277812 -0.15658093104599841 0 -0.013317386200938249 -0.14799664519887931 0 0.0088678229424013627 -0.13941235935176011 0 -0.013317386200938249 -0.14799664519887931 0 0.0027310736070901482 -0.15493719994590471 0 0.0088678229424013627 -0.13941235935176011 0 -0.013317386200938249 -0.14799664519887931 0 -0.0013673002328405961 -0.1767093328090546 0 0.0027310736070901482 -0.15493719994590471 0 -0.013317386200938249 -0.14799664519887931 0 -0.0013673002328405961 -0.1767093328090546 0 -0.029934926785222919 -0.1776443960910804 0 -0.0013673002328405961 -0.1767093328090546 0 -0.0217915143334447 -0.19785215020996011 0 -0.0013673002328405961 -0.1767093328090546 0 -0.029934926785222919 -0.1776443960910804 0 -0.0217915143334447 -0.19785215020996011 0 -0.013317386200938249 -0.14799664519887931 0 -0.029934926785222919 -0.1776443960910804 0 -0.035502595344277812 -0.15658093104599841 0 -0.035502595344277812 -0.15658093104599841 0 -0.057687804487617317 -0.16516521689311761 0 -0.029934926785222919 -0.1776443960910804 0 -0.035502595344277812 -0.15658093104599841 0 -0.057687804487617317 -0.16516521689311761 0 -0.029934926785222919 -0.1776443960910804 0 -0.048583433801033478 -0.18728911877980611 0 -0.034676635542126917 -0.191298641696723 0 -0.029934926785222919 -0.1776443960910804 0 -0.048583433801033478 -0.18728911877980611 0 -0.057687804487617317 -0.16516521689311761 0 -0.048583433801033478 -0.18728911877980611 0 -0.057687804487617317 -0.16516521689311761 0 -0.063770138428779252 -0.18079669395549949 0 -0.035502595344277812 -0.15658093104599841 0 -0.057687804487617317 -0.16516521689311761 0 -0.06059931965736505 -0.14742373122833671 0 -0.035502595344277812 -0.15658093104599841 0 -0.06059931965736505 -0.14742373122833671 0 -0.046947221071775923 -0.13666943570183401 0 -0.048239208743362072 -0.1165718691901324 0 -0.046947221071775923 -0.13666943570183401 0 -0.060446148579459319 -0.1303024678998376 0 -0.06059931965736505 -0.14742373122833671 0 -0.046947221071775923 -0.13666943570183401 0 -0.060446148579459319 -0.1303024678998376 0 -0.048239208743362072 -0.1165718691901324 0 -0.029948833034415319 -0.13246817914486481 0 -0.046947221071775923 -0.13666943570183401 0 -0.029948833034415319 -0.13246817914486481 0 -0.035502595344277812 -0.15658093104599841 0 -0.046947221071775923 -0.13666943570183401 0 -0.03064478186574425 -0.25326356670072259 0 -0.026067501294639708 -0.24850247980592871 0 -0.033387688564450117 -0.24425465961654741 0 -0.026067501294639708 -0.24850247980592871 0 -0.02456862519526215 -0.24210395604782819 0 -0.033387688564450117 -0.24425465961654741 0 -0.02974340118516787 -0.23585106297766359 0 -0.02456862519526215 -0.24210395604782819 0 -0.02062871475200042 -0.2320366992723622 0 -0.02974340118516787 -0.23585106297766359 0 -0.02456862519526215 -0.24210395604782819 0 -0.033387688564450117 -0.24425465961654741 0 -0.02456862519526215 -0.24210395604782819 0 -0.01660477195623393 -0.2403164687020414 0 -0.02062871475200042 -0.2320366992723622 0 -0.02456862519526215 -0.24210395604782819 0 -0.01660477195623393 -0.2403164687020414 0 -0.01887874476148543 -0.24814250919209771 0 -0.026067501294639708 -0.24850247980592871 0 -0.02456862519526215 -0.24210395604782819 0 -0.01887874476148543 -0.24814250919209771 0 -0.01660477195623393 -0.2403164687020414 0 -0.01887874476148543 -0.24814250919209771 0 -0.0080727856436109482 -0.2481099565327444 0 -0.0080727856436109482 -0.2481099565327444 0 -0.0084819670471955304 -0.2367225590632196 0 0.0055632338660241776 -0.24332209518663511 0 -0.01660477195623393 -0.2403164687020414 0 -0.0084819670471955304 -0.2367225590632196 0 -0.02062871475200042 -0.2320366992723622 0 -0.01660477195623393 -0.2403164687020414 0 -0.0080727856436109482 -0.2481099565327444 0 -0.0084819670471955304 -0.2367225590632196 0 -0.0084819670471955304 -0.2367225590632196 0 -0.0075276580997289226 -0.21896018305478171 0 0.0032521440618358652 -0.23009641691855939 0 -0.0084819670471955304 -0.2367225590632196 0 -0.0075276580997289226 -0.21896018305478171 0 -0.02062871475200042 -0.2320366992723622 0 -0.0075276580997289226 -0.21896018305478171 0 -0.02062871475200042 -0.2320366992723622 0 -0.024832472176938718 -0.21885173135413241 0 -0.02974340118516787 -0.23585106297766359 0 -0.02062871475200042 -0.2320366992723622 0 -0.031998745265470661 -0.22641465662269231 0 -0.02062871475200042 -0.2320366992723622 0 -0.024832472176938718 -0.21885173135413241 0 -0.031998745265470661 -0.22641465662269231 0 -0.0075276580997289226 -0.21896018305478171 0 -0.024832472176938718 -0.21885173135413241 0 -0.0217915143334447 -0.19785215020996011 0 -0.024832472176938718 -0.21885173135413241 0 -0.0217915143334447 -0.19785215020996011 0 -0.042215728434048867 -0.21899496761086559 0 -0.0075276580997289226 -0.21896018305478171 0 -0.0217915143334447 -0.19785215020996011 0 0.003555539334036632 -0.19934620758084881 0 -0.0013673002328405961 -0.1767093328090546 0 -0.0217915143334447 -0.19785215020996011 0 0.003555539334036632 -0.19934620758084881 0 -0.029934926785222919 -0.1776443960910804 0 -0.0217915143334447 -0.19785215020996011 0 -0.034676635542126917 -0.191298641696723 0 -0.0217915143334447 -0.19785215020996011 0 -0.034676635542126917 -0.191298641696723 0 -0.04224094911505525 -0.20168175555289891 0 -0.048583433801033478 -0.18728911877980611 0 -0.034676635542126917 -0.191298641696723 0 -0.04224094911505525 -0.20168175555289891 0 -0.048583433801033478 -0.18728911877980611 0 -0.058327232484387218 -0.2013044317948425 0 -0.063770138428779252 -0.18079669395549949 0 -0.048583433801033478 -0.18728911877980611 0 -0.04224094911505525 -0.20168175555289891 0 -0.058327232484387218 -0.2013044317948425 0 -0.058327232484387218 -0.2013044317948425 0 -0.04785115009529034 -0.21335122322519601 0 -0.065984069430329237 -0.21594808513783789 0 -0.04224094911505525 -0.20168175555289891 0 -0.058327232484387218 -0.2013044317948425 0 -0.04785115009529034 -0.21335122322519601 0 -0.04785115009529034 -0.21335122322519601 0 -0.065984069430329237 -0.21594808513783789 0 -0.04785115009529034 -0.21335122322519601 0 -0.050089297127046031 -0.22131182591420251 0 -0.065984069430329237 -0.21594808513783789 0 -0.0217915143334447 -0.19785215020996011 0 -0.042215728434048867 -0.21899496761086559 0 -0.0217915143334447 -0.19785215020996011 0 -0.04224094911505525 -0.20168175555289891 0 -0.042215728434048867 -0.21899496761086559 0 -0.04224094911505525 -0.20168175555289891 0 -0.04785115009529034 -0.21335122322519601 0 -0.042215728434048867 -0.21899496761086559 0 -0.04785115009529034 -0.21335122322519601 0 -0.042215728434048867 -0.21899496761086559 0 -0.050089297127046031 -0.22131182591420251 0 -0.024832472176938718 -0.21885173135413241 0 -0.031998745265470661 -0.22641465662269231 0 -0.042215728434048867 -0.21899496761086559 0 -0.031998745265470661 -0.22641465662269231 0 -0.042215728434048867 -0.21899496761086559 0 -0.041320068815934301 -0.22639292378782619 0 -0.031998745265470661 -0.22641465662269231 0 -0.041320068815934301 -0.22639292378782619 0 -0.038133232148655979 -0.23444534332888789 0 -0.02974340118516787 -0.23585106297766359 0 -0.031998745265470661 -0.22641465662269231 0 -0.038133232148655979 -0.23444534332888789 0 -0.041320068815934301 -0.22639292378782619 0 -0.052151212760384272 -0.22988480121754831 0 -0.038133232148655979 -0.23444534332888789 0 -0.042215728434048867 -0.21899496761086559 0 -0.041320068815934301 -0.22639292378782619 0 -0.050089297127046031 -0.22131182591420251 0 -0.041320068815934301 -0.22639292378782619 0 -0.050089297127046031 -0.22131182591420251 0 -0.052151212760384272 -0.22988480121754831 0 -0.0567919256119837 -0.24387644547435741 0 -0.065984069430329237 -0.21594808513783789 0 -0.050089297127046031 -0.22131182591420251 0 -0.052151212760384272 -0.22988480121754831 0 -0.065984069430329237 -0.21594808513783789 0 -0.052151212760384272 -0.22988480121754831 0 -0.0567919256119837 -0.24387644547435741 0 -0.065984069430329237 -0.21594808513783789 0 -0.052151212760384272 -0.22988480121754831 0 -0.0567919256119837 -0.24387644547435741 0 -0.045207486351244337 -0.24272005325013779 0 -0.046517308340487992 -0.25474718453952289 0 -0.0567919256119837 -0.24387644547435741 0 -0.045207486351244337 -0.24272005325013779 0 -0.038581934025118947 -0.25114857380685968 0 -0.046517308340487992 -0.25474718453952289 0 -0.045207486351244337 -0.24272005325013779 0 -0.052151212760384272 -0.22988480121754831 0 -0.045207486351244337 -0.24272005325013779 0 -0.038133232148655979 -0.23444534332888789 0 -0.02974340118516787 -0.23585106297766359 0 -0.038133232148655979 -0.23444534332888789 0 -0.033387688564450117 -0.24425465961654741 0 -0.045207486351244337 -0.24272005325013779 0 -0.038133232148655979 -0.23444534332888789 0 -0.033387688564450117 -0.24425465961654741 0 -0.038581934025118947 -0.25114857380685968 0 -0.03064478186574425 -0.25326356670072259 0 -0.033387688564450117 -0.24425465961654741 0 -0.038581934025118947 -0.25114857380685968 0 -0.045207486351244337 -0.24272005325013779 0 -0.033387688564450117 -0.24425465961654741 0 -0.076282262678724011 -0.24169347649274159 0 -0.094544528280961701 -0.23130979592197831 0 -0.1005321994236209 -0.2431127607729493 0 -0.090174700483665673 -0.26498018187443112 0 -0.076282262678724011 -0.24169347649274159 0 -0.1005321994236209 -0.2431127607729493 0 -0.063484538676239377 -0.26413124226689111 0 -0.0567919256119837 -0.24387644547435741 0 -0.076282262678724011 -0.24169347649274159 0 -0.0567919256119837 -0.24387644547435741 0 -0.076282262678724011 -0.24169347649274159 0 -0.076216545617433393 -0.2267874217425101 0 -0.0567919256119837 -0.24387644547435741 0 -0.076216545617433393 -0.2267874217425101 0 -0.065984069430329237 -0.21594808513783789 0 -0.076216545617433393 -0.2267874217425101 0 -0.089079986681209755 -0.21925571071859279 0 -0.065984069430329237 -0.21594808513783789 0 -0.076282262678724011 -0.24169347649274159 0 -0.076216545617433393 -0.2267874217425101 0 -0.089079986681209755 -0.21925571071859279 0 -0.076282262678724011 -0.24169347649274159 0 -0.089079986681209755 -0.21925571071859279 0 -0.076282262678724011 -0.24169347649274159 0 -0.089079986681209755 -0.21925571071859279 0 -0.094544528280961701 -0.23130979592197831 0 -0.089079986681209755 -0.21925571071859279 0 -0.087982693832912948 -0.20610030108417279 0 -0.065984069430329237 -0.21594808513783789 0 -0.089079986681209755 -0.21925571071859279 0 -0.091681034097487346 -0.21469539259619891 0 -0.087982693832912948 -0.20610030108417279 0 -0.089079986681209755 -0.21925571071859279 0 -0.091681034097487346 -0.21469539259619891 0 -0.089079986681209755 -0.21925571071859279 0 -0.065984069430329237 -0.21594808513783789 0 -0.058327232484387218 -0.2013044317948425 0 -0.065984069430329237 -0.21594808513783789 0 -0.072928541530643487 -0.1948487939390374 0 -0.065984069430329237 -0.21594808513783789 0 -0.072928541530643487 -0.1948487939390374 0 -0.087982693832912948 -0.20610030108417279 0 -0.065984069430329237 -0.21594808513783789 0 -0.072928541530643487 -0.1948487939390374 0 -0.058327232484387218 -0.2013044317948425 0 -0.072928541530643487 -0.1948487939390374 0 -0.063770138428779252 -0.18079669395549949 0 -0.087982693832912948 -0.20610030108417279 0 -0.072928541530643487 -0.1948487939390374 0 -0.088647710124579282 -0.1895137930351245 0 -0.087982693832912948 -0.20610030108417279 0 -0.088647710124579282 -0.1895137930351245 0 -0.098413722631135098 -0.19641739989264009 0 -0.088647710124579282 -0.1895137930351245 0 -0.098413722631135098 -0.19641739989264009 0 -0.1039428787252024 -0.18306303235069041 0 -0.087982693832912948 -0.20610030108417279 0 -0.098413722631135098 -0.19641739989264009 0 -0.1018219586260966 -0.2062222809526808 0 -0.098413722631135098 -0.19641739989264009 0 -0.10967337184688419 -0.19718759204053191 0 -0.1018219586260966 -0.2062222809526808 0 -0.098413722631135098 -0.19641739989264009 0 -0.10967337184688419 -0.19718759204053191 0 -0.1039428787252024 -0.18306303235069041 0 -0.1039428787252024 -0.18306303235069041 0 -0.1280127438194481 -0.19237656196114411 0 -0.10967337184688419 -0.19718759204053191 0 -0.1178174188303993 -0.20556040013348681 0 -0.1280127438194481 -0.19237656196114411 0 -0.10967337184688419 -0.19718759204053191 0 -0.1039428787252024 -0.18306303235069041 0 -0.1280127438194481 -0.19237656196114411 0 -0.10967337184688419 -0.19718759204053191 0 -0.10961342770230489 -0.21003706569406461 0 -0.1178174188303993 -0.20556040013348681 0 -0.1178174188303993 -0.20556040013348681 0 -0.1109550451866443 -0.21888036136960631 0 -0.13246178853905299 -0.20873151589840269 0 -0.1109550451866443 -0.21888036136960631 0 -0.13246178853905299 -0.20873151589840269 0 -0.1109550451866443 -0.21888036136960631 0 -0.12407830270498089 -0.22426790937284519 0 -0.13246178853905299 -0.20873151589840269 0 -0.10961342770230489 -0.21003706569406461 0 -0.1178174188303993 -0.20556040013348681 0 -0.1109550451866443 -0.21888036136960631 0 -0.10961342770230489 -0.21003706569406461 0 -0.103172625086798 -0.22127395363072039 0 -0.1109550451866443 -0.21888036136960631 0 -0.10961342770230489 -0.21003706569406461 0 -0.1018219586260966 -0.2062222809526808 0 -0.103172625086798 -0.22127395363072039 0 -0.10967337184688419 -0.19718759204053191 0 -0.10961342770230489 -0.21003706569406461 0 -0.1018219586260966 -0.2062222809526808 0 -0.091681034097487346 -0.21469539259619891 0 -0.087982693832912948 -0.20610030108417279 0 -0.103172625086798 -0.22127395363072039 0 -0.089079986681209755 -0.21925571071859279 0 -0.091681034097487346 -0.21469539259619891 0 -0.103172625086798 -0.22127395363072039 0 -0.087982693832912948 -0.20610030108417279 0 -0.103172625086798 -0.22127395363072039 0 -0.087982693832912948 -0.20610030108417279 0 -0.1018219586260966 -0.2062222809526808 0 -0.103172625086798 -0.22127395363072039 0 -0.094544528280961701 -0.23130979592197831 0 -0.103172625086798 -0.22127395363072039 0 -0.1005321994236209 -0.2431127607729493 0 -0.089079986681209755 -0.21925571071859279 0 -0.103172625086798 -0.22127395363072039 0 -0.089079986681209755 -0.21925571071859279 0 -0.094544528280961701 -0.23130979592197831 0 -0.103172625086798 -0.22127395363072039 0 -0.103172625086798 -0.22127395363072039 0 -0.1223681628105569 -0.24044891992886891 0 -0.103172625086798 -0.22127395363072039 0 -0.12407830270498089 -0.22426790937284519 0 -0.1238233973506119 -0.23541481827178831 0 -0.103172625086798 -0.22127395363072039 0 -0.1223681628105569 -0.24044891992886891 0 -0.1238233973506119 -0.23541481827178831 0 -0.103172625086798 -0.22127395363072039 0 -0.12407830270498089 -0.22426790937284519 0 -0.103172625086798 -0.22127395363072039 0 -0.1109550451866443 -0.21888036136960631 0 -0.12407830270498089 -0.22426790937284519 0 -0.11757885349586771 -0.25701660664448461 0 -0.1223681628105569 -0.24044891992886891 0 -0.1005321994236209 -0.2431127607729493 0 -0.11757885349586771 -0.25701660664448461 0 -0.1223681628105569 -0.24044891992886891 0 -0.1223681628105569 -0.24044891992886891 0 -0.1238233973506119 -0.23541481827178831 0 -0.103172625086798 -0.22127395363072039 0 -0.1223681628105569 -0.24044891992886891 0 -0.1005321994236209 -0.2431127607729493 0 -0.088441251280713618 -0.1477167476767523 0 -0.085474651021334253 -0.13655174303235951 0 -0.077236065216807342 -0.1460130695171887 0 -0.088441251280713618 -0.1477167476767523 0 -0.077236065216807342 -0.1460130695171887 0 -0.072985053953480025 -0.15595005707556001 0 -0.088441251280713618 -0.1477167476767523 0 -0.093538562727787294 -0.15940564464812701 0 -0.098894310772838973 -0.14952020789867901 0 -0.088441251280713618 -0.1477167476767523 0 -0.085474651021334253 -0.13655174303235951 0 -0.095252038160572317 -0.1406191133899993 0 -0.085474651021334253 -0.13655174303235951 0 -0.095971306836852913 -0.13086642389395989 0 -0.095252038160572317 -0.1406191133899993 0 -0.082994471061899833 -0.1234246307735777 0 -0.085474651021334253 -0.13655174303235951 0 -0.095971306836852913 -0.13086642389395989 0 -0.082994471061899833 -0.1234246307735777 0 -0.085474651021334253 -0.13655174303235951 0 -0.073596501371478315 -0.1364787996572045 0 -0.085474651021334253 -0.13655174303235951 0 -0.073596501371478315 -0.1364787996572045 0 -0.077236065216807342 -0.1460130695171887 0 -0.06059931965736505 -0.14742373122833671 0 -0.060446148579459319 -0.1303024678998376 0 -0.073596501371478315 -0.1364787996572045 0 -0.082994471061899833 -0.1234246307735777 0 -0.073596501371478315 -0.1364787996572045 0 -0.071674103496310607 -0.1250344835198243 0 -0.060446148579459319 -0.1303024678998376 0 -0.073596501371478315 -0.1364787996572045 0 -0.071674103496310607 -0.1250344835198243 0 -0.06059931965736505 -0.14742373122833671 0 -0.073596501371478315 -0.1364787996572045 0 -0.077236065216807342 -0.1460130695171887 0 -0.057687804487617317 -0.16516521689311761 0 -0.06059931965736505 -0.14742373122833671 0 -0.072985053953480025 -0.15595005707556001 0 -0.06059931965736505 -0.14742373122833671 0 -0.077236065216807342 -0.1460130695171887 0 -0.072985053953480025 -0.15595005707556001 0 -0.057687804487617317 -0.16516521689311761 0 -0.079873013630956835 -0.17374950274023659 0 -0.057687804487617317 -0.16516521689311761 0 -0.072985053953480025 -0.15595005707556001 0 -0.079873013630956835 -0.17374950274023659 0 -0.072928541530643487 -0.1948487939390374 0 -0.079873013630956835 -0.17374950274023659 0 -0.057687804487617317 -0.16516521689311761 0 -0.063770138428779252 -0.18079669395549949 0 -0.079873013630956835 -0.17374950274023659 0 -0.072928541530643487 -0.1948487939390374 0 -0.063770138428779252 -0.18079669395549949 0 -0.079873013630956835 -0.17374950274023659 0 -0.072928541530643487 -0.1948487939390374 0 -0.088647710124579282 -0.1895137930351245 0 -0.079873013630956835 -0.17374950274023659 0 -0.079873013630956835 -0.17374950274023659 0 -0.1039428787252024 -0.18306303235069041 0 -0.088647710124579282 -0.1895137930351245 0 -0.079873013630956835 -0.17374950274023659 0 -0.1039428787252024 -0.18306303235069041 0 -0.088441251280713618 -0.1477167476767523 0 -0.079873013630956835 -0.17374950274023659 0 -0.079873013630956835 -0.17374950274023659 0 -0.093538562727787294 -0.15940564464812701 0 -0.098088850166783578 -0.16700629557107341 0 -0.088441251280713618 -0.1477167476767523 0 -0.079873013630956835 -0.17374950274023659 0 -0.093538562727787294 -0.15940564464812701 0 -0.088441251280713618 -0.1477167476767523 0 -0.072985053953480025 -0.15595005707556001 0 -0.079873013630956835 -0.17374950274023659 0 -0.093538562727787294 -0.15940564464812701 0 -0.098088850166783578 -0.16700629557107341 0 -0.1023953877876435 -0.15903546935389351 0 -0.098088850166783578 -0.16700629557107341 0 -0.1039428787252024 -0.18306303235069041 0 -0.1119878388851908 -0.16231915977259129 0 -0.098088850166783578 -0.16700629557107341 0 -0.1023953877876435 -0.15903546935389351 0 -0.1119878388851908 -0.16231915977259129 0 -0.079873013630956835 -0.17374950274023659 0 -0.098088850166783578 -0.16700629557107341 0 -0.1039428787252024 -0.18306303235069041 0 -0.1039428787252024 -0.18306303235069041 0 -0.11859204859796291 -0.17560578940816099 0 -0.1119878388851908 -0.16231915977259129 0 -0.1039428787252024 -0.18306303235069041 0 -0.11859204859796291 -0.17560578940816099 0 -0.1280127438194481 -0.19237656196114411 0 -0.1023953877876435 -0.15903546935389351 0 -0.1119878388851908 -0.16231915977259129 0 -0.1169630623746598 -0.14907522687480429 0 -0.11859204859796291 -0.17560578940816099 0 -0.1119878388851908 -0.16231915977259129 0 -0.12588679133122799 -0.1624874708491951 0 -0.1119878388851908 -0.16231915977259129 0 -0.1169630623746598 -0.14907522687480429 0 -0.12588679133122799 -0.1624874708491951 0 -0.1119878388851908 -0.16231915977259129 0 -0.1169630623746598 -0.14907522687480429 0 -0.1023953877876435 -0.15903546935389351 0 -0.1169630623746598 -0.14907522687480429 0 -0.098894310772838973 -0.14952020789867901 0 -0.1169630623746598 -0.14907522687480429 0 -0.098894310772838973 -0.14952020789867901 0 -0.1169630623746598 -0.14907522687480429 0 -0.098894310772838973 -0.14952020789867901 0 -0.1074786708911218 -0.1384404444482458 0 -0.088441251280713618 -0.1477167476767523 0 -0.098894310772838973 -0.14952020789867901 0 -0.095252038160572317 -0.1406191133899993 0 -0.098894310772838973 -0.14952020789867901 0 -0.095252038160572317 -0.1406191133899993 0 -0.1074786708911218 -0.1384404444482458 0 -0.093538562727787294 -0.15940564464812701 0 -0.1023953877876435 -0.15903546935389351 0 -0.098894310772838973 -0.14952020789867901 0 -0.1085913382140784 -0.11903379143832921 0 -0.095971306836852913 -0.13086642389395989 0 -0.1074786708911218 -0.1384404444482458 0 -0.095971306836852913 -0.13086642389395989 0 -0.095252038160572317 -0.1406191133899993 0 -0.1074786708911218 -0.1384404444482458 0 -0.1085913382140784 -0.11903379143832921 0 -0.1074786708911218 -0.1384404444482458 0 -0.12736410167423581 -0.1213878944680517 0 -0.1169630623746598 -0.14907522687480429 0 -0.1074786708911218 -0.1384404444482458 0 -0.12736410167423581 -0.1213878944680517 0 -0.1169630623746598 -0.14907522687480429 0 -0.12736410167423581 -0.1213878944680517 0 -0.13746664940214659 -0.13470709103134659 0 -0.12736410167423581 -0.1213878944680517 0 -0.14737054533773081 -0.1208951937003558 0 -0.1169630623746598 -0.14907522687480429 0 -0.13746664940214659 -0.13470709103134659 0 -0.12736410167423581 -0.1213878944680517 0 -0.1569759497016511 -0.14808982533941309 0 -0.14737054533773081 -0.1208951937003558 0 -0.13746664940214659 -0.13470709103134659 0 -0.1569759497016511 -0.14808982533941309 0 -0.14737054533773081 -0.1208951937003558 0 -0.1369695060381555 -0.1485825261071109 0 -0.1526603788815559 -0.1573596194762775 0 -0.1569759497016511 -0.14808982533941309 0 -0.13746664940214659 -0.13470709103134659 0 -0.1369695060381555 -0.1485825261071109 0 -0.1569759497016511 -0.14808982533941309 0 -0.1369695060381555 -0.1485825261071109 0 -0.1569759497016511 -0.14808982533941309 0 -0.1169630623746598 -0.14907522687480429 0 -0.1369695060381555 -0.1485825261071109 0 -0.1169630623746598 -0.14907522687480429 0 -0.1369695060381555 -0.1485825261071109 0 -0.12588679133122799 -0.1624874708491951 0 -0.1169630623746598 -0.14907522687480429 0 -0.13746664940214659 -0.13470709103134659 0 -0.1369695060381555 -0.1485825261071109 0 -0.11859204859796291 -0.17560578940816099 0 -0.12588679133122799 -0.1624874708491951 0 -0.13147554750711021 -0.17522771154146191 0 -0.12588679133122799 -0.1624874708491951 0 -0.13147554750711021 -0.17522771154146191 0 -0.14107140235061469 -0.16358211752318311 0 -0.13147554750711021 -0.17522771154146191 0 -0.14520517551865919 -0.17294749126987599 0 -0.14107140235061469 -0.16358211752318311 0 -0.1369695060381555 -0.1485825261071109 0 -0.12588679133122799 -0.1624874708491951 0 -0.14107140235061469 -0.16358211752318311 0 -0.11859204859796291 -0.17560578940816099 0 -0.13147554750711021 -0.17522771154146191 0 -0.1280127438194481 -0.19237656196114411 0 -0.13147554750711021 -0.17522771154146191 0 -0.1398254013782112 -0.18365029146927231 0 -0.1280127438194481 -0.19237656196114411 0 -0.13147554750711021 -0.17522771154146191 0 -0.1398254013782112 -0.18365029146927231 0 -0.14520517551865919 -0.17294749126987599 0 -0.1398254013782112 -0.18365029146927231 0 -0.14820117369214661 -0.18035874543477601 0 -0.1498687104188495 -0.18767128888863599 0 -0.1398254013782112 -0.18365029146927231 0 -0.14820117369214661 -0.18035874543477601 0 -0.14520517551865919 -0.17294749126987599 0 -0.14820117369214661 -0.18035874543477601 0 -0.14520517551865919 -0.17294749126987599 0 -0.1568216795970071 -0.17538216601134321 0 -0.14820117369214661 -0.18035874543477601 0 -0.15608754076248521 -0.18190001438557629 0 -0.1568216795970071 -0.17538216601134321 0 -0.14520517551865919 -0.17294749126987599 0 -0.15263532751206779 -0.16758471640843459 0 -0.1568216795970071 -0.17538216601134321 0 -0.14820117369214661 -0.18035874543477601 0 -0.15608754076248521 -0.18190001438557629 0 -0.1498687104188495 -0.18767128888863599 0 -0.15608754076248521 -0.18190001438557629 0 -0.1607184616130248 -0.18728683910860641 0 -0.1498687104188495 -0.18767128888863599 0 -0.1369695060381555 -0.1485825261071109 0 -0.14107140235061469 -0.16358211752318311 0 -0.1526603788815559 -0.1573596194762775 0 -0.14520517551865919 -0.17294749126987599 0 -0.14107140235061469 -0.16358211752318311 0 -0.15263532751206779 -0.16758471640843459 0 -0.15263532751206779 -0.16758471640843459 0 -0.1526603788815559 -0.1573596194762775 0 -0.16142564196989831 -0.16655703171874039 0 -0.14107140235061469 -0.16358211752318311 0 -0.15263532751206779 -0.16758471640843459 0 -0.1526603788815559 -0.1573596194762775 0 -0.1526603788815559 -0.1573596194762775 0 -0.16142564196989831 -0.16655703171874039 0 -0.16326087804426159 -0.16588359066980229 0 -0.16326087804426159 -0.16588359066980229 0 -0.1569759497016511 -0.14808982533941309 0 -0.1526603788815559 -0.1573596194762775 0 -0.16326087804426159 -0.16588359066980229 0 -0.1569759497016511 -0.14808982533941309 0 -0.1594122663447772 -0.17133307891758459 0 -0.16142564196989831 -0.16655703171874039 0 -0.16676641630013581 -0.17580840153182001 0 -0.15263532751206779 -0.16758471640843459 0 -0.1594122663447772 -0.17133307891758459 0 -0.16142564196989831 -0.16655703171874039 0 -0.16142564196989831 -0.16655703171874039 0 -0.16326087804426159 -0.16588359066980229 0 -0.16676641630013581 -0.17580840153182001 0 -0.15263532751206779 -0.16758471640843459 0 -0.1594122663447772 -0.17133307891758459 0 -0.1568216795970071 -0.17538216601134321 0 -0.16142564196989831 -0.16655703171874039 0 -0.16326087804426159 -0.16588359066980229 0 -0.16326087804426159 -0.16588359066980229 0 -0.16676641630013581 -0.17580840153182001 0 -0.1783922457352059 -0.17293489930968209 0 -0.16326087804426159 -0.16588359066980229 0 -0.16676641630013581 -0.17580840153182001 0 -0.15608754076248521 -0.18190001438557629 0 -0.1607184616130248 -0.18728683910860641 0 -0.16676641630013581 -0.17580840153182001 0 -0.15608754076248521 -0.18190001438557629 0 -0.1568216795970071 -0.17538216601134321 0 -0.16676641630013581 -0.17580840153182001 0 -0.1594122663447772 -0.17133307891758459 0 -0.1568216795970071 -0.17538216601134321 0 -0.16676641630013581 -0.17580840153182001 0 -0.1607184616130248 -0.18728683910860641 0 -0.16676641630013581 -0.17580840153182001 0 -0.17547527524387041 -0.1884338249559952 0 -0.17547527524387041 -0.1884338249559952 0 -0.1969820185962792 -0.17828497948479149 0 -0.1783922457352059 -0.17293489930968209 0 -0.17547527524387041 -0.1884338249559952 0 -0.1969820185962792 -0.17828497948479149 0 -0.16676641630013581 -0.17580840153182001 0 -0.1783922457352059 -0.17293489930968209 0 -0.17547527524387041 -0.1884338249559952 0 -0.16326087804426159 -0.16588359066980229 0 -0.18947664049148261 -0.1562636999060015 0 -0.16326087804426159 -0.16588359066980229 0 -0.18633417632017751 -0.14736681724080919 0 -0.18947664049148261 -0.1562636999060015 0 -0.16326087804426159 -0.16588359066980229 0 -0.1783922457352059 -0.17293489930968209 0 -0.18947664049148261 -0.1562636999060015 0 -0.18633417632017751 -0.14736681724080919 0 -0.16621773075288121 -0.1295318635244681 0 -0.18400621351090571 -0.1217110611121094 0 -0.16621773075288121 -0.1295318635244681 0 -0.1569759497016511 -0.14808982533941309 0 -0.14737054533773081 -0.1208951937003558 0 -0.18633417632017751 -0.14736681724080919 0 -0.16621773075288121 -0.1295318635244681 0 -0.1569759497016511 -0.14808982533941309 0 -0.18633417632017751 -0.14736681724080919 0 -0.1569759497016511 -0.14808982533941309 0 -0.16326087804426159 -0.16588359066980229 0 -0.18633417632017751 -0.14736681724080919 0 -0.1569759497016511 -0.14808982533941309 0 -0.1377523016625678 -0.25581657194563601 0 -0.15263230708737521 -0.24356194903458239 0 -0.13476861079800859 -0.2391754021203874 0 -0.15263230708737521 -0.24356194903458239 0 -0.13476861079800859 -0.2391754021203874 0 -0.14055595197029169 -0.22979662500526149 0 -0.1377523016625678 -0.25581657194563601 0 -0.1223681628105569 -0.24044891992886891 0 -0.13476861079800859 -0.2391754021203874 0 -0.1377523016625678 -0.25581657194563601 0 -0.1223681628105569 -0.24044891992886891 0 -0.1238233973506119 -0.23541481827178831 0 -0.13476861079800859 -0.2391754021203874 0 -0.13139441447274411 -0.22962184130071481 0 -0.1223681628105569 -0.24044891992886891 0 -0.1238233973506119 -0.23541481827178831 0 -0.13476861079800859 -0.2391754021203874 0 -0.13476861079800859 -0.2391754021203874 0 -0.14055595197029169 -0.22979662500526149 0 -0.13139441447274411 -0.22962184130071481 0 -0.12407830270498089 -0.22426790937284519 0 -0.1238233973506119 -0.23541481827178831 0 -0.13139441447274411 -0.22962184130071481 0 -0.12407830270498089 -0.22426790937284519 0 -0.13139441447274411 -0.22962184130071481 0 -0.13441394179160859 -0.22010184774946731 0 -0.14055595197029169 -0.22979662500526149 0 -0.13139441447274411 -0.22962184130071481 0 -0.13441394179160859 -0.22010184774946731 0 -0.14055595197029169 -0.22979662500526149 0 -0.13441394179160859 -0.22010184774946731 0 -0.14940536450650499 -0.21373664043116339 0 -0.15263230708737521 -0.24356194903458239 0 -0.14940536450650499 -0.21373664043116339 0 -0.15263230708737521 -0.24356194903458239 0 -0.14940536450650499 -0.21373664043116339 0 -0.16621803193972459 -0.22739125443424221 0 -0.15263230708737521 -0.24356194903458239 0 -0.14055595197029169 -0.22979662500526149 0 -0.14940536450650499 -0.21373664043116339 0 -0.14940536450650499 -0.21373664043116339 0 -0.13246178853905299 -0.20873151589840269 0 -0.1539685318914617 -0.1985826704271989 0 -0.13246178853905299 -0.20873151589840269 0 -0.1539685318914617 -0.1985826704271989 0 -0.13441394179160859 -0.22010184774946731 0 -0.14940536450650499 -0.21373664043116339 0 -0.13246178853905299 -0.20873151589840269 0 -0.12407830270498089 -0.22426790937284519 0 -0.13441394179160859 -0.22010184774946731 0 -0.13246178853905299 -0.20873151589840269 0 -0.1178174188303993 -0.20556040013348681 0 -0.13246178853905299 -0.20873151589840269 0 -0.1280127438194481 -0.19237656196114411 0 -0.13246178853905299 -0.20873151589840269 0 -0.1280127438194481 -0.19237656196114411 0 -0.14041115317576749 -0.19424917250638599 0 -0.1398254013782112 -0.18365029146927231 0 -0.1280127438194481 -0.19237656196114411 0 -0.14041115317576749 -0.19424917250638599 0 -0.13246178853905299 -0.20873151589840269 0 -0.14041115317576749 -0.19424917250638599 0 -0.1539685318914617 -0.1985826704271989 0 -0.14041115317576749 -0.19424917250638599 0 -0.1539685318914617 -0.1985826704271989 0 -0.1498687104188495 -0.18767128888863599 0 -0.1398254013782112 -0.18365029146927231 0 -0.14041115317576749 -0.19424917250638599 0 -0.1498687104188495 -0.18767128888863599 0 -0.1607184616130248 -0.18728683910860641 0 -0.1539685318914617 -0.1985826704271989 0 -0.1498687104188495 -0.18767128888863599 0 -0.1607184616130248 -0.18728683910860641 0 -0.1539685318914617 -0.1985826704271989 0 -0.17547527524387041 -0.1884338249559952 0 -0.1539685318914617 -0.1985826704271989 0 -0.17547527524387041 -0.1884338249559952 0 -0.16825702714884239 -0.20885775366498019 0 -0.1539685318914617 -0.1985826704271989 0 -0.17547527524387041 -0.1884338249559952 0 -0.17547527524387041 -0.1884338249559952 0 -0.18277425339256639 -0.2026996383603622 0 -0.16825702714884239 -0.20885775366498019 0 -0.17547527524387041 -0.1884338249559952 0 -0.18277425339256639 -0.2026996383603622 0 -0.1902080517791363 -0.1917922864575213 0 -0.18277425339256639 -0.2026996383603622 0 -0.16825702714884239 -0.20885775366498019 0 -0.18626938338499441 -0.22517712183416291 0 -0.14940536450650499 -0.21373664043116339 0 -0.1539685318914617 -0.1985826704271989 0 -0.16825702714884239 -0.20885775366498019 0 -0.14940536450650499 -0.21373664043116339 0 -0.16825702714884239 -0.20885775366498019 0 -0.16621803193972459 -0.22739125443424221 0 -0.16825702714884239 -0.20885775366498019 0 -0.16621803193972459 -0.22739125443424221 0 -0.18626938338499441 -0.22517712183416291 0 -0.16621803193972459 -0.22739125443424221 0 -0.18626938338499441 -0.22517712183416291 0 -0.1745260775709061 -0.24562280720632229 0 -0.18626938338499441 -0.22517712183416291 0 -0.1745260775709061 -0.24562280720632229 0 -0.19988453840298659 -0.24176205441804 0 -0.18626938338499441 -0.22517712183416291 0 -0.1745260775709061 -0.24562280720632229 0 -0.15263230708737521 -0.24356194903458239 0 -0.16621803193972459 -0.22739125443424221 0 -0.1745260775709061 -0.24562280720632229 0 -0.1689202540561075 -0.25519621835756329 0 -0.15263230708737521 -0.24356194903458239 0 -0.1745260775709061 -0.24562280720632229 0 -0.21854221021918649 -0.25236034283526498 0 -0.19988453840298659 -0.24176205441804 0 -0.21493562756427159 -0.22243862284749449 0 -0.19160736129165659 -0.25262396586623759 0 -0.1745260775709061 -0.24562280720632229 0 -0.19988453840298659 -0.24176205441804 0 -0.18626938338499441 -0.22517712183416291 0 -0.19988453840298659 -0.24176205441804 0 -0.21493562756427159 -0.22243862284749449 0 -0.21493562756427159 -0.22243862284749449 0 -0.19801268919908249 -0.2047314364620034 0 -0.21541309520260529 -0.20113031717637361 0 -0.18626938338499441 -0.22517712183416291 0 -0.19801268919908249 -0.2047314364620034 0 -0.18277425339256639 -0.2026996383603622 0 -0.18626938338499441 -0.22517712183416291 0 -0.19801268919908249 -0.2047314364620034 0 -0.18626938338499441 -0.22517712183416291 0 -0.21493562756427159 -0.22243862284749449 0 -0.19801268919908249 -0.2047314364620034 0 -0.19801268919908249 -0.2047314364620034 0 -0.1902080517791363 -0.1917922864575213 0 -0.20975599501317069 -0.18428575108984399 0 -0.18277425339256639 -0.2026996383603622 0 -0.19801268919908249 -0.2047314364620034 0 -0.1902080517791363 -0.1917922864575213 0 -0.21541309520260529 -0.20113031717637361 0 -0.20975599501317069 -0.18428575108984399 0 -0.229896455205026 -0.18225842567294781 0 -0.19801268919908249 -0.2047314364620034 0 -0.21541309520260529 -0.20113031717637361 0 -0.20975599501317069 -0.18428575108984399 0 -0.19801268919908249 -0.2047314364620034 0 -0.20975599501317069 -0.18428575108984399 0 -0.21541309520260529 -0.20113031717637361 0 -0.23384346774119599 -0.2034651679104556 0 -0.229896455205026 -0.18225842567294781 0 -0.24262172765942899 -0.19089247064050549 0 -0.25644706280453389 -0.1995927939493197 0 -0.25029992488695979 -0.1782534950292988 0 -0.24262172765942899 -0.19089247064050549 0 -0.23384346774119599 -0.2034651679104556 0 -0.25644706280453389 -0.1995927939493197 0 -0.24262172765942899 -0.19089247064050549 0 -0.23384346774119599 -0.2034651679104556 0 -0.229896455205026 -0.18225842567294781 0 -0.23384346774119599 -0.2034651679104556 0 -0.2377451423251814 -0.23136366228574551 0 -0.25674041691710447 -0.22108212323078871 0 -0.23384346774119599 -0.2034651679104556 0 -0.25674041691710447 -0.22108212323078871 0 -0.25644706280453389 -0.1995927939493197 0 -0.21493562756427159 -0.22243862284749449 0 -0.21541309520260529 -0.20113031717637361 0 -0.23384346774119599 -0.2034651679104556 0 -0.21493562756427159 -0.22243862284749449 0 -0.23384346774119599 -0.2034651679104556 0 -0.2377451423251814 -0.23136366228574551 0 -0.24465976002352091 -0.25387891845332877 0 -0.2377451423251814 -0.23136366228574551 0 -0.25992972331208369 -0.2410680052130979 0 -0.24465976002352091 -0.25387891845332877 0 -0.21854221021918649 -0.25236034283526498 0 -0.2377451423251814 -0.23136366228574551 0 -0.21854221021918649 -0.25236034283526498 0 -0.21493562756427159 -0.22243862284749449 0 -0.2377451423251814 -0.23136366228574551 0 -0.21854221021918649 -0.25236034283526498 0 -0.2377451423251814 -0.23136366228574551 0 -0.21569240293870359 -0.1466438091422006 0 -0.18947664049148261 -0.1562636999060015 0 -0.2105647825198341 -0.15627799774793921 0 -0.2105647825198341 -0.15627799774793921 0 -0.22149930082725899 -0.1638400657176845 0 -0.22047208921520459 -0.14652609931143951 0 -0.21569240293870359 -0.1466438091422006 0 -0.2105647825198341 -0.15627799774793921 0 -0.22047208921520459 -0.14652609931143951 0 -0.21569240293870359 -0.1466438091422006 0 -0.22047208921520459 -0.14652609931143951 0 -0.20228853596836749 -0.13187567246267581 0 -0.2244809527826766 -0.1321180186971766 0 -0.2129261089666101 -0.1196792574727195 0 -0.21569240293870359 -0.1466438091422006 0 -0.20228853596836749 -0.13187567246267581 0 -0.2244809527826766 -0.1321180186971766 0 -0.18633417632017751 -0.14736681724080919 0 -0.20228853596836749 -0.13187567246267581 0 -0.18400621351090571 -0.1217110611121094 0 -0.21569240293870359 -0.1466438091422006 0 -0.18947664049148261 -0.1562636999060015 0 -0.18633417632017751 -0.14736681724080919 0 -0.21569240293870359 -0.1466438091422006 0 -0.18947664049148261 -0.1562636999060015 0 -0.18633417632017751 -0.14736681724080919 0 -0.21569240293870359 -0.1466438091422006 0 -0.18633417632017751 -0.14736681724080919 0 -0.21569240293870359 -0.1466438091422006 0 -0.20228853596836749 -0.13187567246267581 0 -0.1783922457352059 -0.17293489930968209 0 -0.18947664049148261 -0.1562636999060015 0 -0.1969820185962792 -0.17828497948479149 0 -0.18947664049148261 -0.1562636999060015 0 -0.1969820185962792 -0.17828497948479149 0 -0.20568347912652049 -0.16811631466237001 0 -0.18947664049148261 -0.1562636999060015 0 -0.20568347912652049 -0.16811631466237001 0 -0.2105647825198341 -0.15627799774793921 0 -0.1902080517791363 -0.1917922864575213 0 -0.1969820185962792 -0.17828497948479149 0 -0.20975599501317069 -0.18428575108984399 0 -0.17547527524387041 -0.1884338249559952 0 -0.1902080517791363 -0.1917922864575213 0 -0.1969820185962792 -0.17828497948479149 0 -0.20975599501317069 -0.18428575108984399 0 -0.22149930082725899 -0.1638400657176845 0 -0.20975599501317069 -0.18428575108984399 0 -0.20568347912652049 -0.16811631466237001 0 -0.22149930082725899 -0.1638400657176845 0 -0.1969820185962792 -0.17828497948479149 0 -0.20975599501317069 -0.18428575108984399 0 -0.20568347912652049 -0.16811631466237001 0 -0.20568347912652049 -0.16811631466237001 0 -0.2105647825198341 -0.15627799774793921 0 -0.22149930082725899 -0.1638400657176845 0 -0.22149930082725899 -0.1638400657176845 0 -0.2402834514435094 -0.1667894474332684 0 -0.2341322288468432 -0.15422277024092529 0 -0.22149930082725899 -0.1638400657176845 0 -0.229896455205026 -0.18225842567294781 0 -0.2402834514435094 -0.1667894474332684 0 -0.20975599501317069 -0.18428575108984399 0 -0.22149930082725899 -0.1638400657176845 0 -0.229896455205026 -0.18225842567294781 0 -0.229896455205026 -0.18225842567294781 0 -0.2402834514435094 -0.1667894474332684 0 -0.25029992488695979 -0.1782534950292988 0 -0.24262172765942899 -0.19089247064050549 0 -0.229896455205026 -0.18225842567294781 0 -0.25029992488695979 -0.1782534950292988 0 -0.2402834514435094 -0.1667894474332684 0 -0.25029992488695979 -0.1782534950292988 0 -0.25761979100978533 -0.16665415002795461 0 -0.2402834514435094 -0.1667894474332684 0 -0.24825300788518309 -0.1555077779107997 0 -0.25761979100978533 -0.16665415002795461 0 -0.2402834514435094 -0.1667894474332684 0 -0.24825300788518309 -0.1555077779107997 0 -0.2341322288468432 -0.15422277024092529 0 -0.24825300788518309 -0.1555077779107997 0 -0.2405789555143194 -0.1375116727892334 0 -0.25601133851015478 -0.1487044986697981 0 -0.24825300788518309 -0.1555077779107997 0 -0.2341322288468432 -0.15422277024092529 0 -0.2405789555143194 -0.1375116727892334 0 -0.21569240293870359 -0.1466438091422006 0 -0.22047208921520459 -0.14652609931143951 0 -0.2405789555143194 -0.1375116727892334 0 -0.22149930082725899 -0.1638400657176845 0 -0.2341322288468432 -0.15422277024092529 0 -0.22047208921520459 -0.14652609931143951 0 -0.21569240293870359 -0.1466438091422006 0 -0.2405789555143194 -0.1375116727892334 0 -0.2341322288468432 -0.15422277024092529 0 -0.22047208921520459 -0.14652609931143951 0 -0.2405789555143194 -0.1375116727892334 0 -0.21569240293870359 -0.1466438091422006 0 -0.2244809527826766 -0.1321180186971766 0 -0.2405789555143194 -0.1375116727892334 0 -0.2244809527826766 -0.1321180186971766 0 -0.2405789555143194 -0.1375116727892334 0 -0.23651179230599079 -0.1199754775459997 0 -0.2405789555143194 -0.1375116727892334 0 -0.23651179230599079 -0.1199754775459997 0 -0.25054446979338107 -0.12912519928877991 0 -0.23651179230599079 -0.1199754775459997 0 -0.24959534238117709 -0.1078054475449232 0 -0.26009747564537128 -0.1202716976192799 0 -0.23651179230599079 -0.1199754775459997 0 -0.26009747564537128 -0.1202716976192799 0 -0.23651179230599079 -0.1199754775459997 0 -0.26009747564537128 -0.1202716976192799 0 -0.25054446979338107 -0.12912519928877991 0 -0.23651179230599079 -0.1199754775459997 0 -0.24959534238117709 -0.1078054475449232 0 -0.23746734258601571 -0.1067534300414448 0 -0.24098124084432149 -0.095291905336151436 0 -0.23746734258601571 -0.1067534300414448 0 -0.22473934926471251 -0.1042306158888877 0 -0.24959534238117709 -0.1078054475449232 0 -0.24098124084432149 -0.095291905336151436 0 -0.25687551172258971 -0.095275519396915032 0 -0.24959534238117709 -0.1078054475449232 0 -0.24098124084432149 -0.095291905336151436 0 -0.23746734258601571 -0.1067534300414448 0 -0.22473934926471251 -0.1042306158888877 0 -0.22774604229393439 -0.087804120453188278 0 -0.20897213189474381 -0.093424031558921927 0 -0.24098124084432149 -0.095291905336151436 0 -0.22473934926471251 -0.1042306158888877 0 -0.22774604229393439 -0.087804120453188278 0 -0.2244809527826766 -0.1321180186971766 0 -0.23651179230599079 -0.1199754775459997 0 -0.2129261089666101 -0.1196792574727195 0 -0.23651179230599079 -0.1199754775459997 0 -0.2129261089666101 -0.1196792574727195 0 -0.23651179230599079 -0.1199754775459997 0 -0.23746734258601571 -0.1067534300414448 0 -0.22473934926471251 -0.1042306158888877 0 -0.23651179230599079 -0.1199754775459997 0 -0.22473934926471251 -0.1042306158888877 0 -0.2129261089666101 -0.1196792574727195 0 -0.2466384096447127 -0.069214282175018252 0 -0.23144064811545881 -0.071679072189906365 0 -0.24006258296416741 -0.059977364163272567 0 -0.2466384096447127 -0.069214282175018252 0 -0.23867713564867771 -0.0818228939715063 0 -0.25106785873748549 -0.083001848322642804 0 -0.2466384096447127 -0.069214282175018252 0 -0.23867713564867771 -0.0818228939715063 0 -0.23144064811545881 -0.071679072189906365 0 -0.24098124084432149 -0.095291905336151436 0 -0.25106785873748549 -0.083001848322642804 0 -0.25687551172258971 -0.095275519396915032 0 -0.24098124084432149 -0.095291905336151436 0 -0.23867713564867771 -0.0818228939715063 0 -0.25106785873748549 -0.083001848322642804 0 -0.24098124084432149 -0.095291905336151436 0 -0.23867713564867771 -0.0818228939715063 0 -0.22774604229393439 -0.087804120453188278 0 -0.22048160989483939 -0.080833284582646742 0 -0.22774604229393439 -0.087804120453188278 0 -0.23144064811545881 -0.071679072189906365 0 -0.23867713564867771 -0.0818228939715063 0 -0.22774604229393439 -0.087804120453188278 0 -0.23144064811545881 -0.071679072189906365 0 -0.22048160989483939 -0.080833284582646742 0 -0.22774604229393439 -0.087804120453188278 0 -0.20897213189474381 -0.093424031558921927 0 -0.23144064811545881 -0.071679072189906365 0 -0.2137676172752207 -0.070425914128570383 0 -0.21856310265569601 -0.047427796698218422 0 -0.22048160989483939 -0.080833284582646742 0 -0.23144064811545881 -0.071679072189906365 0 -0.2137676172752207 -0.070425914128570383 0 -0.23144064811545881 -0.071679072189906365 0 -0.23092663332862359 -0.057189961691847993 0 -0.24006258296416741 -0.059977364163272567 0 -0.20335705558913081 -0.063140738221072371 0 -0.2137676172752207 -0.070425914128570383 0 -0.20224544779007569 -0.076575791796341275 0 -0.2137676172752207 -0.070425914128570383 0 -0.20897213189474381 -0.093424031558921927 0 -0.20224544779007569 -0.076575791796341275 0 -0.2137676172752207 -0.070425914128570383 0 -0.20897213189474381 -0.093424031558921927 0 -0.22048160989483939 -0.080833284582646742 0 -0.2137676172752207 -0.070425914128570383 0 -0.20897213189474381 -0.093424031558921927 0 -0.20897213189474381 -0.093424031558921927 0 -0.18864483179057751 -0.079783658531738119 0 -0.20224544779007569 -0.076575791796341275 0 -0.20897213189474381 -0.093424031558921927 0 -0.18864483179057751 -0.079783658531738119 0 -0.1843208979706715 -0.098582101900239388 0 -0.20335705558913081 -0.063140738221072371 0 -0.18864483179057751 -0.079783658531738119 0 -0.20224544779007569 -0.076575791796341275 0 -0.20335705558913081 -0.063140738221072371 0 -0.18864483179057751 -0.079783658531738119 0 -0.20335705558913081 -0.063140738221072371 0 -0.18864483179057751 -0.079783658531738119 0 -0.18476368522970901 -0.060313507398174523 0 -0.22473934926471251 -0.1042306158888877 0 -0.2129261089666101 -0.1196792574727195 0 -0.1994025973422491 -0.10829052452779669 0 -0.20228853596836749 -0.13187567246267581 0 -0.2129261089666101 -0.1196792574727195 0 -0.1994025973422491 -0.10829052452779669 0 -0.22473934926471251 -0.1042306158888877 0 -0.20897213189474381 -0.093424031558921927 0 -0.1994025973422491 -0.10829052452779669 0 -0.20897213189474381 -0.093424031558921927 0 -0.1994025973422491 -0.10829052452779669 0 -0.1843208979706715 -0.098582101900239388 0 -0.20228853596836749 -0.13187567246267581 0 -0.1994025973422491 -0.10829052452779669 0 -0.18400621351090571 -0.1217110611121094 0 -0.1994025973422491 -0.10829052452779669 0 -0.18400621351090571 -0.1217110611121094 0 -0.1843208979706715 -0.098582101900239388 0 -0.16621773075288121 -0.1295318635244681 0 -0.18400621351090571 -0.1217110611121094 0 -0.16647442841019139 -0.11035058163789351 0 -0.18400621351090571 -0.1217110611121094 0 -0.16647442841019139 -0.11035058163789351 0 -0.1843208979706715 -0.098582101900239388 0 -0.16621773075288121 -0.1295318635244681 0 -0.16647442841019139 -0.11035058163789351 0 -0.14737054533773081 -0.1208951937003558 0 -0.16647442841019139 -0.11035058163789351 0 -0.16521255597131029 -0.094363556792246006 0 -0.15171862691764881 -0.097019712797942706 0 -0.16647442841019139 -0.11035058163789351 0 -0.16521255597131029 -0.094363556792246006 0 -0.1843208979706715 -0.098582101900239388 0 -0.16521255597131029 -0.094363556792246006 0 -0.1843208979706715 -0.098582101900239388 0 -0.1718657805157274 -0.077566403117392158 0 -0.18864483179057751 -0.079783658531738119 0 -0.1843208979706715 -0.098582101900239388 0 -0.1718657805157274 -0.077566403117392158 0 -0.18864483179057751 -0.079783658531738119 0 -0.1718657805157274 -0.077566403117392158 0 -0.18476368522970901 -0.060313507398174523 0 -0.1718657805157274 -0.077566403117392158 0 -0.16766997596840549 -0.055069670457126463 0 -0.18476368522970901 -0.060313507398174523 0 -0.1718657805157274 -0.077566403117392158 0 -0.1555984100513392 -0.067553704814911478 0 -0.16766997596840549 -0.055069670457126463 0 -0.1718657805157274 -0.077566403117392158 0 -0.15451520526235171 -0.083858215916353424 0 -0.1555984100513392 -0.067553704814911478 0 -0.16521255597131029 -0.094363556792246006 0 -0.1718657805157274 -0.077566403117392158 0 -0.15451520526235171 -0.083858215916353424 0 -0.16521255597131029 -0.094363556792246006 0 -0.15451520526235171 -0.083858215916353424 0 -0.15171862691764881 -0.097019712797942706 0 -0.15451520526235171 -0.083858215916353424 0 -0.14334301715898221 -0.074859018030624863 0 -0.13903100861317999 -0.090330850909877913 0 -0.15451520526235171 -0.083858215916353424 0 -0.13903100861317999 -0.090330850909877913 0 -0.15171862691764881 -0.097019712797942706 0 -0.1377651409738101 -0.093700562061298426 0 -0.13903100861317999 -0.090330850909877913 0 -0.15171862691764881 -0.097019712797942706 0 -0.15451520526235171 -0.083858215916353424 0 -0.1555984100513392 -0.067553704814911478 0 -0.14334301715898221 -0.074859018030624863 0 -0.1555984100513392 -0.067553704814911478 0 -0.14334301715898221 -0.074859018030624863 0 -0.13945189113323761 -0.059806177835795588 0 -0.14334301715898221 -0.074859018030624863 0 -0.12930964035960699 -0.069761515268982097 0 -0.13945189113323761 -0.059806177835795588 0 -0.12930964035960699 -0.069761515268982097 0 -0.1377651409738101 -0.093700562061298426 0 -0.12930964035960699 -0.069761515268982097 0 -0.1377651409738101 -0.093700562061298426 0 -0.13903100861317999 -0.090330850909877913 0 -0.1189291253072135 -0.086669643832799348 0 -0.12930964035960699 -0.069761515268982097 0 -0.1377651409738101 -0.093700562061298426 0 -0.14334301715898221 -0.074859018030624863 0 -0.12930964035960699 -0.069761515268982097 0 -0.13903100861317999 -0.090330850909877913 0 -0.1377651409738101 -0.093700562061298426 0 -0.13903100861317999 -0.090330850909877913 0 -0.11893842975153809 -0.10446969177473921 0 -0.1377651409738101 -0.093700562061298426 0 -0.12736410167423581 -0.1213878944680517 0 -0.1377651409738101 -0.093700562061298426 0 -0.12736410167423581 -0.1213878944680517 0 -0.11893842975153809 -0.10446969177473921 0 -0.1189291253072135 -0.086669643832799348 0 -0.1377651409738101 -0.093700562061298426 0 -0.1377651409738101 -0.093700562061298426 0 -0.12736410167423581 -0.1213878944680517 0 -0.14737054533773081 -0.1208951937003558 0 -0.16647442841019139 -0.11035058163789351 0 -0.14737054533773081 -0.1208951937003558 0 -0.15171862691764881 -0.097019712797942706 0 -0.1377651409738101 -0.093700562061298426 0 -0.14737054533773081 -0.1208951937003558 0 -0.15171862691764881 -0.097019712797942706 0 -0.1377651409738101 -0.093700562061298426 0 -0.14737054533773081 -0.1208951937003558 0 -0.14925834278157041 -0.027771983247297551 0 -0.15381676672243971 -0.0048344028756085976 0 -0.16158573310271521 -0.019122381719964599 0 -0.14925834278157041 -0.027771983247297551 0 -0.15381676672243971 -0.0048344028756085976 0 -0.14925834278157041 -0.027771983247297551 0 -0.13622810944285851 -0.025664644749336048 0 -0.13728148428220571 -0.03631729474545041 0 -0.15381676672243971 -0.0048344028756085976 0 -0.13373576905839379 -0.01378162565115138 0 -0.13796817939809339 -7.5853332940862265e-05 0 -0.14925834278157041 -0.027771983247297551 0 -0.15381676672243971 -0.0048344028756085976 0 -0.13373576905839379 -0.01378162565115138 0 -0.1244522405185825 -0.00038769298458709092 0 -0.1246368416492639 -0.024787675353444869 0 -0.13373576905839379 -0.01378162565115138 0 -0.1244522405185825 -0.00038769298458709092 0 -0.13373576905839379 -0.01378162565115138 0 -0.13796817939809339 -7.5853332940862265e-05 0 -0.1244522405185825 -0.00038769298458709092 0 -0.13373576905839379 -0.01378162565115138 0 -0.1246368416492639 -0.024787675353444869 0 -0.13373576905839379 -0.01378162565115138 0 -0.13622810944285851 -0.025664644749336048 0 -0.14925834278157041 -0.027771983247297551 0 -0.13373576905839379 -0.01378162565115138 0 -0.13622810944285851 -0.025664644749336048 0 -0.1246368416492639 -0.024787675353444869 0 -0.13622810944285851 -0.025664644749336048 0 -0.13728148428220571 -0.03631729474545041 0 -0.1248214427799455 -0.0491876577223027 0 -0.1246368416492639 -0.024787675353444869 0 -0.13067566527459321 -0.039597081228004503 0 -0.1246368416492639 -0.024787675353444869 0 -0.13067566527459321 -0.039597081228004503 0 -0.13728148428220571 -0.03631729474545041 0 -0.1248214427799455 -0.0491876577223027 0 -0.13067566527459321 -0.039597081228004503 0 -0.1359628923869578 -0.048095697090820053 0 -0.13067566527459321 -0.039597081228004503 0 -0.13728148428220571 -0.03631729474545041 0 -0.1359628923869578 -0.048095697090820053 0 -0.13728148428220571 -0.03631729474545041 0 -0.1359628923869578 -0.048095697090820053 0 -0.14767594406259391 -0.049379474087132447 0 -0.1248214427799455 -0.0491876577223027 0 -0.12930964035960699 -0.069761515268982097 0 -0.13945189113323761 -0.059806177835795588 0 -0.1208541397454049 -0.045822468476665427 0 -0.12930964035960699 -0.069761515268982097 0 -0.1248214427799455 -0.0491876577223027 0 -0.1359628923869578 -0.048095697090820053 0 -0.13945189113323761 -0.059806177835795588 0 -0.1555984100513392 -0.067553704814911478 0 -0.13945189113323761 -0.059806177835795588 0 -0.14767594406259391 -0.049379474087132447 0 -0.1359628923869578 -0.048095697090820053 0 -0.13945189113323761 -0.059806177835795588 0 -0.14767594406259391 -0.049379474087132447 0 -0.14925834278157041 -0.027771983247297551 0 -0.14767594406259391 -0.049379474087132447 0 -0.16346190388351911 -0.035477368974388322 0 -0.14925834278157041 -0.027771983247297551 0 -0.13728148428220571 -0.03631729474545041 0 -0.14767594406259391 -0.049379474087132447 0 -0.14767594406259391 -0.049379474087132447 0 -0.16346190388351911 -0.035477368974388322 0 -0.16766997596840549 -0.055069670457126463 0 -0.16346190388351911 -0.035477368974388322 0 -0.16766997596840549 -0.055069670457126463 0 -0.1792130821544009 -0.041655239440509813 0 -0.1555984100513392 -0.067553704814911478 0 -0.14767594406259391 -0.049379474087132447 0 -0.16766997596840549 -0.055069670457126463 0 -0.16766997596840549 -0.055069670457126463 0 -0.18476368522970901 -0.060313507398174523 0 -0.1792130821544009 -0.041655239440509813 0 -0.18476368522970901 -0.060313507398174523 0 -0.1792130821544009 -0.041655239440509813 0 -0.19607578221694649 -0.043845816873478577 0 -0.16346190388351911 -0.035477368974388322 0 -0.1792130821544009 -0.041655239440509813 0 -0.1747539590121796 -0.02148713112583673 0 -0.1792130821544009 -0.041655239440509813 0 -0.1747539590121796 -0.02148713112583673 0 -0.18874747204970219 -0.028974905836781941 0 -0.1747539590121796 -0.02148713112583673 0 -0.18814241231787171 -0.014961103822567131 0 -0.18874747204970219 -0.028974905836781941 0 -0.14925834278157041 -0.027771983247297551 0 -0.16346190388351911 -0.035477368974388322 0 -0.16158573310271521 -0.019122381719964599 0 -0.16346190388351911 -0.035477368974388322 0 -0.1747539590121796 -0.02148713112583673 0 -0.16158573310271521 -0.019122381719964599 0 -0.1747539590121796 -0.02148713112583673 0 -0.16158573310271521 -0.019122381719964599 0 -0.1670666400728934 -0.0075955490013497832 0 -0.15381676672243971 -0.0048344028756085976 0 -0.1670666400728934 -0.0075955490013497832 0 -0.16872927738725291 0.0066655648670224509 0 -0.15381676672243971 -0.0048344028756085976 0 -0.16158573310271521 -0.019122381719964599 0 -0.1670666400728934 -0.0075955490013497832 0 -0.1670666400728934 -0.0075955490013497832 0 -0.1785064095432054 -0.0066611219507198768 0 -0.16872927738725291 0.0066655648670224509 0 -0.1747539590121796 -0.02148713112583673 0 -0.1670666400728934 -0.0075955490013497832 0 -0.1785064095432054 -0.0066611219507198768 0 -0.1747539590121796 -0.02148713112583673 0 -0.1785064095432054 -0.0066611219507198768 0 -0.18814241231787171 -0.014961103822567131 0 -0.1785064095432054 -0.0066611219507198768 0 -0.18814241231787171 -0.014961103822567131 0 -0.193034969706537 0.00064734206737222756 0 -0.20555212454711219 -0.022925237921517471 0 -0.20993853639106591 -0.0035380738047605968 0 -0.193034969706537 0.00064734206737222756 0 -0.18814241231787171 -0.014961103822567131 0 -0.20555212454711219 -0.022925237921517471 0 -0.193034969706537 0.00064734206737222756 0 -0.20555212454711219 -0.022925237921517471 0 -0.193034969706537 0.00064734206737222756 0 -0.20993853639106591 -0.0035380738047605968 0 -0.193034969706537 0.00064734206737222756 0 -0.18814241231787171 -0.014961103822567131 0 -0.18874747204970219 -0.028974905836781941 0 -0.20555212454711219 -0.022925237921517471 0 -0.20555212454711219 -0.022925237921517471 0 -0.21630961893328751 -0.01519709454307171 0 -0.22290571171937651 -0.026601576769118469 0 -0.20993853639106591 -0.0035380738047605968 0 -0.22684210307559549 -0.0077234896768903086 0 -0.21568563774484731 0.0082874278720449449 0 -0.20993853639106591 -0.0035380738047605968 0 -0.21630961893328751 -0.01519709454307171 0 -0.22684210307559549 -0.0077234896768903086 0 -0.20555212454711219 -0.022925237921517471 0 -0.20993853639106591 -0.0035380738047605968 0 -0.21630961893328751 -0.01519709454307171 0 -0.20993853639106591 -0.0035380738047605968 0 -0.22684210307559549 -0.0077234896768903086 0 -0.20335705558913081 -0.063140738221072371 0 -0.18476368522970901 -0.060313507398174523 0 -0.19607578221694649 -0.043845816873478577 0 -0.1792130821544009 -0.041655239440509813 0 -0.18874747204970219 -0.028974905836781941 0 -0.19607578221694649 -0.043845816873478577 0 -0.18874747204970219 -0.028974905836781941 0 -0.20555212454711219 -0.022925237921517471 0 -0.19607578221694649 -0.043845816873478577 0 -0.20555212454711219 -0.022925237921517471 0 -0.21856310265569601 -0.047427796698218422 0 -0.20555212454711219 -0.022925237921517471 0 -0.21856310265569601 -0.047427796698218422 0 -0.21896932036315811 -0.045479663861346789 0 -0.20555212454711219 -0.022925237921517471 0 -0.19607578221694649 -0.043845816873478577 0 -0.21856310265569601 -0.047427796698218422 0 -0.20555212454711219 -0.022925237921517471 0 -0.21896932036315811 -0.045479663861346789 0 -0.22290571171937651 -0.026601576769118469 0 -0.2137676172752207 -0.070425914128570383 0 -0.21856310265569601 -0.047427796698218422 0 -0.20335705558913081 -0.063140738221072371 0 -0.2137676172752207 -0.070425914128570383 0 -0.21856310265569601 -0.047427796698218422 0 -0.20335705558913081 -0.063140738221072371 0 -0.19607578221694649 -0.043845816873478577 0 -0.21856310265569601 -0.047427796698218422 0 -0.20335705558913081 -0.063140738221072371 0 -0.21856310265569601 -0.047427796698218422 0 -0.23144064811545881 -0.071679072189906365 0 -0.21856310265569601 -0.047427796698218422 0 -0.23092663332862359 -0.057189961691847993 0 -0.23144064811545881 -0.071679072189906365 0 -0.21856310265569601 -0.047427796698218422 0 -0.21856310265569601 -0.047427796698218422 0 -0.23092663332862359 -0.057189961691847993 0 -0.22458774444026389 -0.046948698447319907 0 -0.23092663332862359 -0.057189961691847993 0 -0.2320274706224234 -0.04981915803055513 0 -0.23892230415514151 -0.050781370399802413 0 -0.23092663332862359 -0.057189961691847993 0 -0.22458774444026389 -0.046948698447319907 0 -0.2320274706224234 -0.04981915803055513 0 -0.21896932036315811 -0.045479663861346789 0 -0.2306307955349908 -0.032287844280089482 0 -0.22290571171937651 -0.026601576769118469 0 -0.21896932036315811 -0.045479663861346789 0 -0.22290571171937651 -0.026601576769118469 0 -0.22458774444026389 -0.046948698447319907 0 -0.2320274706224234 -0.04981915803055513 0 -0.23529860714157019 -0.041169280456794459 0 -0.22458774444026389 -0.046948698447319907 0 -0.2306307955349908 -0.032287844280089482 0 -0.23529860714157019 -0.041169280456794459 0 -0.22458774444026389 -0.046948698447319907 0 -0.21896932036315811 -0.045479663861346789 0 -0.2306307955349908 -0.032287844280089482 0 -0.21856310265569601 -0.047427796698218422 0 -0.22458774444026389 -0.046948698447319907 0 -0.21896932036315811 -0.045479663861346789 0 -0.21856310265569601 -0.047427796698218422 0 -0.21896932036315811 -0.045479663861346789 0 -0.21896932036315811 -0.045479663861346789 0 -0.2306307955349908 -0.032287844280089482 0 -0.2306307955349908 -0.032287844280089482 0 -0.23529860714157019 -0.041169280456794459 0 -0.241537864008738 -0.030171217790278881 0 -0.24798951326795751 -0.035882587373858313 0 -0.23529860714157019 -0.041169280456794459 0 -0.241537864008738 -0.030171217790278881 0 -0.24798951326795751 -0.035882587373858313 0 -0.24357205858261219 -0.044359355700093257 0 -0.23529860714157019 -0.041169280456794459 0 -0.24798951326795751 -0.035882587373858313 0 -0.24357205858261219 -0.044359355700093257 0 -0.25238491957690051 -0.051022134359787842 0 -0.24357205858261219 -0.044359355700093257 0 -0.23529860714157019 -0.041169280456794459 0 -0.23892230415514151 -0.050781370399802413 0 -0.2466384096447127 -0.069214282175018252 0 -0.24006258296416741 -0.059977364163272567 0 -0.25238491957690051 -0.051022134359787842 0 -0.2320274706224234 -0.04981915803055513 0 -0.23529860714157019 -0.041169280456794459 0 -0.23892230415514151 -0.050781370399802413 0 -0.23892230415514151 -0.050781370399802413 0 -0.24006258296416741 -0.059977364163272567 0 -0.25238491957690051 -0.051022134359787842 0 -0.24357205858261219 -0.044359355700093257 0 -0.23892230415514151 -0.050781370399802413 0 -0.25238491957690051 -0.051022134359787842 0 -0.23092663332862359 -0.057189961691847993 0 -0.23892230415514151 -0.050781370399802413 0 -0.24006258296416741 -0.059977364163272567 0 -0.21630961893328751 -0.01519709454307171 0 -0.22684210307559549 -0.0077234896768903086 0 -0.22290571171937651 -0.026601576769118469 0 -0.22684210307559549 -0.0077234896768903086 0 -0.22290571171937651 -0.026601576769118469 0 -0.23226271327452069 -0.02198020745377605 0 -0.22684210307559549 -0.0077234896768903086 0 -0.22290571171937651 -0.026601576769118469 0 -0.2306307955349908 -0.032287844280089482 0 -0.22290571171937651 -0.026601576769118469 0 -0.23226271327452069 -0.02198020745377605 0 -0.22684210307559549 -0.0077234896768903086 0 -0.23226271327452069 -0.02198020745377605 0 -0.24229227070682269 -0.019096024698831499 0 -0.2306307955349908 -0.032287844280089482 0 -0.241537864008738 -0.030171217790278881 0 -0.24229227070682269 -0.019096024698831499 0 -0.2306307955349908 -0.032287844280089482 0 -0.23226271327452069 -0.02198020745377605 0 -0.24229227070682269 -0.019096024698831499 0 -0.2306307955349908 -0.032287844280089482 0 -0.24229227070682269 -0.019096024698831499 0 -0.24798951326795751 -0.035882587373858313 0 -0.241537864008738 -0.030171217790278881 0 -0.25387676547985721 -0.02452441136234379 0 -0.241537864008738 -0.030171217790278881 0 -0.24229227070682269 -0.019096024698831499 0 -0.25387676547985721 -0.02452441136234379 0 -0.24229227070682269 -0.019096024698831499 0 -0.24826461013585729 -0.013027819984466921 0 -0.25387676547985721 -0.02452441136234379 0 -0.22684210307559549 -0.0077234896768903086 0 -0.24826461013585729 -0.013027819984466921 0 -0.24598119983726671 0.0037338506766126851 0 -0.22684210307559549 -0.0077234896768903086 0 -0.24229227070682269 -0.019096024698831499 0 -0.24826461013585729 -0.013027819984466921 0 -0.22684210307559549 -0.0077234896768903086 0 -0.24826461013585729 -0.013027819984466921 0 -0.24826461013585729 -0.013027819984466921 0 -0.26003022337954462 -0.0038093911555793728 0 -0.24598119983726671 0.0037338506766126851 0 -0.24826461013585729 -0.013027819984466921 0 -0.26003022337954462 -0.0038093911555793728 0 -0.26968711719611937 -0.018332150292041979 0 -0.24826461013585729 -0.013027819984466921 0 -0.26968711719611937 -0.018332150292041979 0 -0.25387676547985721 -0.02452441136234379 0 -0.26968711719611937 -0.018332150292041979 0 -0.26155562347943467 -0.037861138146123199 0 -0.24826461013585729 -0.013027819984466921 0 -0.25387676547985721 -0.02452441136234379 0 -0.26968711719611937 -0.018332150292041979 0 -0.26968711719611937 -0.018332150292041979 0 -0.28953187906397732 -0.034281883787379987 0 -0.27524211720584768 -0.038538427260779863 0 -0.26003022337954462 -0.0038093911555793728 0 -0.26968711719611937 -0.018332150292041979 0 -0.27433688946420332 -0.0007833753365484626 0 -0.26968711719611937 -0.018332150292041979 0 -0.27433688946420332 -0.0007833753365484626 0 -0.28631392786639209 -0.0070506759659385472 0 -0.28631392786639209 -0.0070506759659385472 0 -0.29653674479957171 -0.021015146411400301 0 -0.3025805037907468 -0.0027432771802810229 0 -0.28631392786639209 -0.0070506759659385472 0 -0.3025805037907468 -0.0027432771802810229 0 -0.28842838408131971 0.0076205693905790281 0 -0.27433688946420332 -0.0007833753365484626 0 -0.28631392786639209 -0.0070506759659385472 0 -0.28842838408131971 0.0076205693905790281 0 -0.26968711719611937 -0.018332150292041979 0 -0.28631392786639209 -0.0070506759659385472 0 -0.29653674479957171 -0.021015146411400301 0 -0.26968711719611937 -0.018332150292041979 0 -0.29653674479957171 -0.021015146411400301 0 -0.28953187906397732 -0.034281883787379987 0 -0.29653674479957171 -0.021015146411400301 0 -0.28953187906397732 -0.034281883787379987 0 -0.31718310516035308 -0.038172790333745737 0 -0.29653674479957171 -0.021015146411400301 0 -0.31459326366374579 -0.01532774276474733 0 -0.31718310516035308 -0.038172790333745737 0 -0.29653674479957171 -0.021015146411400301 0 -0.3025805037907468 -0.0027432771802810229 0 -0.31459326366374579 -0.01532774276474733 0 -0.30229462048881822 -0.056161209871372138 0 -0.29850594913894141 -0.055440370537233663 0 -0.30849544073550722 -0.074776909133231664 0 -0.30229462048881822 -0.056161209871372138 0 -0.29366820665513949 -0.048519954280836622 0 -0.31370341578724742 -0.051143824177853653 0 -0.30229462048881822 -0.056161209871372138 0 -0.29850594913894141 -0.055440370537233663 0 -0.29366820665513949 -0.048519954280836622 0 -0.30229462048881822 -0.056161209871372138 0 -0.31629816603535338 -0.060261719535131632 0 -0.30229462048881822 -0.056161209871372138 0 -0.31178497446605258 -0.064623658022855565 0 -0.31629816603535338 -0.060261719535131632 0 -0.30229462048881822 -0.056161209871372138 0 -0.31370341578724742 -0.051143824177853653 0 -0.31629816603535338 -0.060261719535131632 0 -0.29366820665513949 -0.048519954280836622 0 -0.31718310516035308 -0.038172790333745737 0 -0.29366820665513949 -0.048519954280836622 0 -0.31718310516035308 -0.038172790333745737 0 -0.31370341578724742 -0.051143824177853653 0 -0.28953187906397732 -0.034281883787379987 0 -0.29366820665513949 -0.048519954280836622 0 -0.31718310516035308 -0.038172790333745737 0 -0.28953187906397732 -0.034281883787379987 0 -0.29366820665513949 -0.048519954280836622 0 -0.27524211720584768 -0.038538427260779863 0 -0.29366820665513949 -0.048519954280836622 0 -0.27015330814992611 -0.058867118227927437 0 -0.29366820665513949 -0.048519954280836622 0 -0.28660483069534037 -0.061918496488246169 0 -0.27015330814992611 -0.058867118227927437 0 -0.29850594913894141 -0.055440370537233663 0 -0.28660483069534037 -0.061918496488246169 0 -0.29557893925590151 -0.069462416794053169 0 -0.29850594913894141 -0.055440370537233663 0 -0.29366820665513949 -0.048519954280836622 0 -0.28660483069534037 -0.061918496488246169 0 -0.29366820665513949 -0.048519954280836622 0 -0.27015330814992611 -0.058867118227927437 0 -0.27524211720584768 -0.038538427260779863 0 -0.26968711719611937 -0.018332150292041979 0 -0.27524211720584768 -0.038538427260779863 0 -0.26155562347943467 -0.037861138146123199 0 -0.27015330814992611 -0.058867118227927437 0 -0.27524211720584768 -0.038538427260779863 0 -0.26155562347943467 -0.037861138146123199 0 -0.24798951326795751 -0.035882587373858313 0 -0.26155562347943467 -0.037861138146123199 0 -0.25238491957690051 -0.051022134359787842 0 -0.24798951326795751 -0.035882587373858313 0 -0.25387676547985721 -0.02452441136234379 0 -0.26155562347943467 -0.037861138146123199 0 -0.27015330814992611 -0.058867118227927437 0 -0.26155562347943467 -0.037861138146123199 0 -0.25238491957690051 -0.051022134359787842 0 -0.2466384096447127 -0.069214282175018252 0 -0.27015330814992611 -0.058867118227927437 0 -0.25238491957690051 -0.051022134359787842 0 -0.2466384096447127 -0.069214282175018252 0 -0.27015330814992611 -0.058867118227927437 0 -0.26102584033089798 -0.073534373921212107 0 -0.2466384096447127 -0.069214282175018252 0 -0.27015330814992611 -0.058867118227927437 0 -0.2466384096447127 -0.069214282175018252 0 -0.26102584033089798 -0.073534373921212107 0 -0.25106785873748549 -0.083001848322642804 0 -0.25106785873748549 -0.083001848322642804 0 -0.26431637422662529 -0.083961298504163229 0 -0.25687551172258971 -0.095275519396915032 0 -0.26431637422662529 -0.083961298504163229 0 -0.25687551172258971 -0.095275519396915032 0 -0.26922948176741379 -0.094556007429682482 0 -0.26102584033089798 -0.073534373921212107 0 -0.25106785873748549 -0.083001848322642804 0 -0.26431637422662529 -0.083961298504163229 0 -0.26431637422662529 -0.083961298504163229 0 -0.27622487875609619 -0.085738752979791055 0 -0.27411142324960069 -0.07331497732508381 0 -0.26431637422662529 -0.083961298504163229 0 -0.27622487875609619 -0.085738752979791055 0 -0.26922948176741379 -0.094556007429682482 0 -0.27622487875609619 -0.085738752979791055 0 -0.26922948176741379 -0.094556007429682482 0 -0.28208733676033698 -0.099544680508420066 0 -0.27622487875609619 -0.085738752979791055 0 -0.27411142324960069 -0.07331497732508381 0 -0.28634330733871821 -0.075869823829162894 0 -0.28660483069534037 -0.061918496488246169 0 -0.27015330814992611 -0.058867118227927437 0 -0.27411142324960069 -0.07331497732508381 0 -0.27015330814992611 -0.058867118227927437 0 -0.26102584033089798 -0.073534373921212107 0 -0.27411142324960069 -0.07331497732508381 0 -0.26102584033089798 -0.073534373921212107 0 -0.26431637422662529 -0.083961298504163229 0 -0.27411142324960069 -0.07331497732508381 0 -0.24959534238117709 -0.1078054475449232 0 -0.26009747564537128 -0.1202716976192799 0 -0.26511094786836592 -0.1069062435210571 0 -0.24959534238117709 -0.1078054475449232 0 -0.26511094786836592 -0.1069062435210571 0 -0.25687551172258971 -0.095275519396915032 0 -0.26511094786836592 -0.1069062435210571 0 -0.25687551172258971 -0.095275519396915032 0 -0.26922948176741379 -0.094556007429682482 0 -0.26511094786836592 -0.1069062435210571 0 -0.27676276389741278 -0.11052104179975 0 -0.28208733676033698 -0.099544680508420066 0 -0.26511094786836592 -0.1069062435210571 0 -0.26922948176741379 -0.094556007429682482 0 -0.28208733676033698 -0.099544680508420066 0 -0.26511094786836592 -0.1069062435210571 0 -0.28208733676033698 -0.099544680508420066 0 -0.26009747564537128 -0.1202716976192799 0 -0.28368315898475188 -0.1205679176925603 0 -0.26697405985724948 -0.1304210152969853 0 -0.26009747564537128 -0.1202716976192799 0 -0.27676276389741278 -0.11052104179975 0 -0.28368315898475188 -0.1205679176925603 0 -0.26009747564537128 -0.1202716976192799 0 -0.28368315898475188 -0.1205679176925603 0 -0.26009747564537128 -0.1202716976192799 0 -0.26511094786836592 -0.1069062435210571 0 -0.27676276389741278 -0.11052104179975 0 -0.28368315898475188 -0.1205679176925603 0 -0.30807566230962469 -0.12087427087378499 0 -0.28368315898475188 -0.1205679176925603 0 -0.29137344231852969 -0.1063755175941712 0 -0.30807566230962469 -0.12087427087378499 0 -0.27676276389741278 -0.11052104179975 0 -0.28368315898475188 -0.1205679176925603 0 -0.29137344231852969 -0.1063755175941712 0 -0.28368315898475188 -0.1205679176925603 0 -0.29137344231852969 -0.1063755175941712 0 -0.29137344231852969 -0.1063755175941712 0 -0.28208733676033698 -0.099544680508420066 0 -0.29906372565230788 -0.092183117495782341 0 -0.28208733676033698 -0.099544680508420066 0 -0.29906372565230788 -0.092183117495782341 0 -0.27676276389741278 -0.11052104179975 0 -0.29137344231852969 -0.1063755175941712 0 -0.28208733676033698 -0.099544680508420066 0 -0.29137344231852969 -0.1063755175941712 0 -0.29906372565230788 -0.092183117495782341 0 -0.30690970986333499 -0.10413412755240679 0 -0.29906372565230788 -0.092183117495782341 0 -0.31411573014289268 -0.085656035662949492 0 -0.29137344231852969 -0.1063755175941712 0 -0.30690970986333499 -0.10413412755240679 0 -0.29906372565230788 -0.092183117495782341 0 -0.28368315898475188 -0.1205679176925603 0 -0.30807566230962469 -0.12087427087378499 0 -0.30140371581860798 -0.1292511186866305 0 -0.29137344231852969 -0.1063755175941712 0 -0.30690970986333499 -0.10413412755240679 0 -0.30807566230962469 -0.12087427087378499 0 -0.29557893925590151 -0.069462416794053169 0 -0.28634330733871821 -0.075869823829162894 0 -0.29528406594296941 -0.079953964946478426 0 -0.28660483069534037 -0.061918496488246169 0 -0.29557893925590151 -0.069462416794053169 0 -0.28634330733871821 -0.075869823829162894 0 -0.28660483069534037 -0.061918496488246169 0 -0.27411142324960069 -0.07331497732508381 0 -0.28634330733871821 -0.075869823829162894 0 -0.27622487875609619 -0.085738752979791055 0 -0.28634330733871821 -0.075869823829162894 0 -0.28693891673241251 -0.08747755748016231 0 -0.28208733676033698 -0.099544680508420066 0 -0.28693891673241251 -0.08747755748016231 0 -0.29906372565230788 -0.092183117495782341 0 -0.27622487875609619 -0.085738752979791055 0 -0.28208733676033698 -0.099544680508420066 0 -0.28693891673241251 -0.08747755748016231 0 -0.28693891673241251 -0.08747755748016231 0 -0.29528406594296941 -0.079953964946478426 0 -0.29906372565230788 -0.092183117495782341 0 -0.28634330733871821 -0.075869823829162894 0 -0.28693891673241251 -0.08747755748016231 0 -0.29528406594296941 -0.079953964946478426 0 -0.29528406594296941 -0.079953964946478426 0 -0.29906372565230788 -0.092183117495782341 0 -0.30849544073550722 -0.074776909133231664 0 -0.29906372565230788 -0.092183117495782341 0 -0.30849544073550722 -0.074776909133231664 0 -0.29906372565230788 -0.092183117495782341 0 -0.30849544073550722 -0.074776909133231664 0 -0.31411573014289268 -0.085656035662949492 0 -0.29906372565230788 -0.092183117495782341 0 -0.31411573014289268 -0.085656035662949492 0 -0.30849544073550722 -0.074776909133231664 0 -0.31411573014289268 -0.085656035662949492 0 -0.30229462048881822 -0.056161209871372138 0 -0.30849544073550722 -0.074776909133231664 0 -0.31178497446605258 -0.064623658022855565 0 -0.29850594913894141 -0.055440370537233663 0 -0.29557893925590151 -0.069462416794053169 0 -0.30849544073550722 -0.074776909133231664 0 -0.30849544073550722 -0.074776909133231664 0 -0.31286059459191501 -0.066721027791507209 0 -0.29850594913894141 -0.055440370537233663 0 -0.30849544073550722 -0.074776909133231664 0 -0.29557893925590151 -0.069462416794053169 0 -0.29528406594296941 -0.079953964946478426 0 -0.30849544073550722 -0.074776909133231664 0 -0.30849544073550722 -0.074776909133231664 0 -0.31178497446605258 -0.064623658022855565 0 -0.31286059459191501 -0.066721027791507209 0 -0.31178497446605258 -0.064623658022855565 0 -0.31286059459191501 -0.066721027791507209 0 -0.31286059459191501 -0.066721027791507209 0 -0.32103296817657878 -0.082656476452658639 0 -0.31286059459191501 -0.066721027791507209 0 -0.32103296817657878 -0.082656476452658639 0 -0.32352590008436471 -0.062378140209921912 0 -0.31178497446605258 -0.064623658022855565 0 -0.31286059459191501 -0.066721027791507209 0 -0.31629816603535338 -0.060261719535131632 0 -0.30849544073550722 -0.074776909133231664 0 -0.31286059459191501 -0.066721027791507209 0 -0.32103296817657878 -0.082656476452658639 0 -0.31286059459191501 -0.066721027791507209 0 -0.31629816603535338 -0.060261719535131632 0 -0.31286059459191501 -0.066721027791507209 0 -0.31629816603535338 -0.060261719535131632 0 -0.32352590008436471 -0.062378140209921912 0 -0.32103296817657878 -0.082656476452658639 0 -0.33093834944883532 -0.101971145942244 0 -0.30849544073550722 -0.074776909133231664 0 -0.31411573014289268 -0.085656035662949492 0 -0.32103296817657878 -0.082656476452658639 0 -0.31411573014289268 -0.085656035662949492 0 -0.32103296817657878 -0.082656476452658639 0 -0.32329194788869442 -0.1034183298589804 0 -0.31411573014289268 -0.085656035662949492 0 -0.32103296817657878 -0.082656476452658639 0 -0.32103296817657878 -0.082656476452658639 0 -0.33692687914299491 -0.089632102483736459 0 -0.33093834944883532 -0.101971145942244 0 -0.32103296817657878 -0.082656476452658639 0 -0.33692687914299491 -0.089632102483736459 0 -0.3453529791357649 -0.07211045902320197 0 -0.32103296817657878 -0.082656476452658639 0 -0.3453529791357649 -0.07211045902320197 0 -0.32352590008436471 -0.062378140209921912 0 -0.34475717967991132 -0.068595070548471249 0 -0.3453529791357649 -0.07211045902320197 0 -0.32352590008436471 -0.062378140209921912 0 -0.34475717967991132 -0.068595070548471249 0 -0.32352590008436471 -0.062378140209921912 0 -0.32103296817657878 -0.082656476452658639 0 -0.3453529791357649 -0.07211045902320197 0 -0.30807566230962469 -0.12087427087378499 0 -0.32329194788869442 -0.1034183298589804 0 -0.33246816563449738 -0.1211806240550105 0 -0.30807566230962469 -0.12087427087378499 0 -0.33246816563449738 -0.1211806240550105 0 -0.30807566230962469 -0.12087427087378499 0 -0.32007374605487132 -0.12494213909402439 0 -0.33246816563449738 -0.1211806240550105 0 -0.30690970986333499 -0.10413412755240679 0 -0.30807566230962469 -0.12087427087378499 0 -0.32329194788869442 -0.1034183298589804 0 -0.32329194788869442 -0.1034183298589804 0 -0.33246816563449738 -0.1211806240550105 0 -0.32007374605487132 -0.12494213909402439 0 -0.33441303965894859 -0.1249452932850653 0 -0.30690970986333499 -0.10413412755240679 0 -0.31411573014289268 -0.085656035662949492 0 -0.32329194788869442 -0.1034183298589804 0 -0.32103296817657878 -0.082656476452658639 0 -0.32329194788869442 -0.1034183298589804 0 -0.33093834944883532 -0.101971145942244 0 -0.31411573014289268 -0.085656035662949492 0 -0.32329194788869442 -0.1034183298589804 0 -0.32329194788869442 -0.1034183298589804 0 -0.33093834944883532 -0.101971145942244 0 -0.33246816563449738 -0.1211806240550105 0 -0.33692687914299491 -0.089632102483736459 0 -0.33093834944883532 -0.101971145942244 0 -0.35038321981080389 -0.10179032851684799 0 -0.33093834944883532 -0.101971145942244 0 -0.34773438721257438 -0.1121772477149196 0 -0.35038321981080389 -0.10179032851684799 0 -0.33093834944883532 -0.101971145942244 0 -0.3408437307210912 -0.1212858154318297 0 -0.33093834944883532 -0.101971145942244 0 -0.3408437307210912 -0.1212858154318297 0 -0.33246816563449738 -0.1211806240550105 0 -0.33093834944883532 -0.101971145942244 0 -0.3408437307210912 -0.1212858154318297 0 -0.34773438721257438 -0.1121772477149196 0 -0.34272140335036932 -0.124947120862287 0 -0.3408437307210912 -0.1212858154318297 0 -0.33441303965894859 -0.1249452932850653 0 -0.3408437307210912 -0.1212858154318297 0 -0.33246816563449738 -0.1211806240550105 0 -0.34272140335036932 -0.124947120862287 0 -0.33441303965894859 -0.1249452932850653 0 -0.34272140335036932 -0.124947120862287 0 -0.3408437307210912 -0.1212858154318297 0 -0.32007374605487132 -0.12494213909402439 0 -0.33441303965894859 -0.1249452932850653 0 -0.33246816563449738 -0.1211806240550105 0 -0.3408437307210912 -0.1212858154318297 0 -0.33441303965894859 -0.1249452932850653 0 -0.33246816563449738 -0.1211806240550105 0 -0.33441303965894859 -0.1249452932850653 0 -0.33246816563449738 -0.1211806240550105 0 -0.34272140335036932 -0.124947120862287 0 -0.35433435295871402 -0.1214552484327875 0 -0.36893450279197471 -0.1249528869149899 0 -0.34272140335036932 -0.124947120862287 0 -0.36893450279197471 -0.1249528869149899 0 -0.3408437307210912 -0.1212858154318297 0 -0.35433435295871402 -0.1214552484327875 0 -0.3408437307210912 -0.1212858154318297 0 -0.35433435295871402 -0.1214552484327875 0 -0.34773438721257438 -0.1121772477149196 0 -0.34272140335036932 -0.124947120862287 0 -0.3408437307210912 -0.1212858154318297 0 -0.35433435295871402 -0.1214552484327875 0 -0.35433435295871402 -0.1214552484327875 0 -0.34773438721257438 -0.1121772477149196 0 -0.3623387343604032 -0.1125517513480446 0 -0.34773438721257438 -0.1121772477149196 0 -0.35038321981080389 -0.10179032851684799 0 -0.3623387343604032 -0.1125517513480446 0 -0.37380044498630338 -0.100392191664622 0 -0.3623387343604032 -0.1125517513480446 0 -0.3789649235099295 -0.11270856972454819 0 -0.35038321981080389 -0.10179032851684799 0 -0.37380044498630338 -0.100392191664622 0 -0.36747037526515469 -0.088210616938563927 0 -0.35038321981080389 -0.10179032851684799 0 -0.37380044498630338 -0.100392191664622 0 -0.3623387343604032 -0.1125517513480446 0 -0.3623387343604032 -0.1125517513480446 0 -0.36893450279197471 -0.1249528869149899 0 -0.3789649235099295 -0.11270856972454819 0 -0.35433435295871402 -0.1214552484327875 0 -0.3623387343604032 -0.1125517513480446 0 -0.36893450279197471 -0.1249528869149899 0 -0.34995192587724822 -0.070116192960804249 0 -0.35645509357982358 -0.081628608772215283 0 -0.36843110820579178 -0.075527255856609146 0 -0.34995192587724822 -0.070116192960804249 0 -0.36608399240098949 -0.063120758007335118 0 -0.35494834161021771 -0.06194377696909157 0 -0.34995192587724822 -0.070116192960804249 0 -0.36843110820579178 -0.075527255856609146 0 -0.34995192587724822 -0.070116192960804249 0 -0.36608399240098949 -0.063120758007335118 0 -0.34995192587724822 -0.070116192960804249 0 -0.34475717967991132 -0.068595070548471249 0 -0.35494834161021771 -0.06194377696909157 0 -0.34995192587724822 -0.070116192960804249 0 -0.34475717967991132 -0.068595070548471249 0 -0.34995192587724822 -0.070116192960804249 0 -0.34475717967991132 -0.068595070548471249 0 -0.3453529791357649 -0.07211045902320197 0 -0.34995192587724822 -0.070116192960804249 0 -0.3453529791357649 -0.07211045902320197 0 -0.34995192587724822 -0.070116192960804249 0 -0.3453529791357649 -0.07211045902320197 0 -0.35645509357982358 -0.081628608772215283 0 -0.34475717967991132 -0.068595070548471249 0 -0.3453529791357649 -0.07211045902320197 0 -0.35038321981080389 -0.10179032851684799 0 -0.35645509357982358 -0.081628608772215283 0 -0.36747037526515469 -0.088210616938563927 0 -0.35038321981080389 -0.10179032851684799 0 -0.3453529791357649 -0.07211045902320197 0 -0.35645509357982358 -0.081628608772215283 0 -0.33692687914299491 -0.089632102483736459 0 -0.35038321981080389 -0.10179032851684799 0 -0.3453529791357649 -0.07211045902320197 0 -0.35038321981080389 -0.10179032851684799 0 -0.3453529791357649 -0.07211045902320197 0 -0.36747037526515469 -0.088210616938563927 0 -0.36843110820579178 -0.075527255856609146 0 -0.38691029053433551 -0.080938318752413793 0 -0.35645509357982358 -0.081628608772215283 0 -0.36747037526515469 -0.088210616938563927 0 -0.36843110820579178 -0.075527255856609146 0 -0.34995192587724822 -0.070116192960804249 0 -0.36843110820579178 -0.075527255856609146 0 -0.36608399240098949 -0.063120758007335118 0 -0.36843110820579178 -0.075527255856609146 0 -0.36608399240098949 -0.063120758007335118 0 -0.37978412082390189 -0.068029865631836883 0 -0.36608399240098949 -0.063120758007335118 0 -0.37085155020467431 -0.050438611479832557 0 -0.38221605892473098 -0.056125323053866277 0 -0.36608399240098949 -0.063120758007335118 0 -0.38221605892473098 -0.056125323053866277 0 -0.37085155020467431 -0.050438611479832557 0 -0.36177701350261748 -0.054750595911384127 0 -0.36329546327126672 -0.041142767418341691 0 -0.36608399240098949 -0.063120758007335118 0 -0.36177701350261748 -0.054750595911384127 0 -0.35494834161021771 -0.06194377696909157 0 -0.36608399240098949 -0.063120758007335118 0 -0.37085155020467431 -0.050438611479832557 0 -0.36177701350261748 -0.054750595911384127 0 -0.36177701350261748 -0.054750595911384127 0 -0.35494834161021771 -0.06194377696909157 0 -0.35217159659032232 -0.05313626741746251 0 -0.34475717967991132 -0.068595070548471249 0 -0.35217159659032232 -0.05313626741746251 0 -0.34008173660725832 -0.04100860914713586 0 -0.36177701350261748 -0.054750595911384127 0 -0.35217159659032232 -0.05313626741746251 0 -0.36329546327126672 -0.041142767418341691 0 -0.34475717967991132 -0.068595070548471249 0 -0.35494834161021771 -0.06194377696909157 0 -0.35217159659032232 -0.05313626741746251 0 -0.35217159659032232 -0.05313626741746251 0 -0.35233090603521772 -0.034345905606361089 0 -0.36329546327126672 -0.041142767418341691 0 -0.35217159659032232 -0.05313626741746251 0 -0.35233090603521772 -0.034345905606361089 0 -0.34008173660725832 -0.04100860914713586 0 -0.35233090603521772 -0.034345905606361089 0 -0.34677261788783459 -0.022263095799622792 0 -0.34008173660725832 -0.04100860914713586 0 -0.35233090603521772 -0.034345905606361089 0 -0.36329546327126672 -0.041142767418341691 0 -0.36125368123050811 -0.029816691131076791 0 -0.36329546327126672 -0.041142767418341691 0 -0.37015544225173291 -0.03012439130571171 0 -0.36125368123050811 -0.029816691131076791 0 -0.37085155020467431 -0.050438611479832557 0 -0.36329546327126672 -0.041142767418341691 0 -0.37439980638912518 -0.038891661293645137 0 -0.36329546327126672 -0.041142767418341691 0 -0.37439980638912518 -0.038891661293645137 0 -0.37015544225173291 -0.03012439130571171 0 -0.37439980638912518 -0.038891661293645137 0 -0.37015544225173291 -0.03012439130571171 0 -0.37866743010551202 -0.02906954498465647 0 -0.37015544225173291 -0.03012439130571171 0 -0.37402384376206249 -0.023759624541515059 0 -0.37866743010551202 -0.02906954498465647 0 -0.37015544225173291 -0.03012439130571171 0 -0.37402384376206249 -0.023759624541515059 0 -0.36652472594663232 -0.022500501643346649 0 -0.37402384376206249 -0.023759624541515059 0 -0.37465439862472261 -0.016787835852634068 0 -0.36652472594663232 -0.022500501643346649 0 -0.37465439862472261 -0.016787835852634068 0 -0.36652472594663232 -0.022500501643346649 0 -0.3596530522362773 -0.017262546391789129 0 -0.36652472594663232 -0.022500501643346649 0 -0.3596530522362773 -0.017262546391789129 0 -0.35649867437881472 -0.022585523222405649 0 -0.36652472594663232 -0.022500501643346649 0 -0.36125368123050811 -0.029816691131076791 0 -0.35649867437881472 -0.022585523222405649 0 -0.37015544225173291 -0.03012439130571171 0 -0.36652472594663232 -0.022500501643346649 0 -0.36125368123050811 -0.029816691131076791 0 -0.37465439862472261 -0.016787835852634068 0 -0.3596530522362773 -0.017262546391789129 0 -0.34857824671955512 -0.007874197240844389 0 -0.37465439862472261 -0.016787835852634068 0 -0.3597652811465577 -0.0058215117475868012 0 -0.34857824671955512 -0.007874197240844389 0 -0.37465439862472261 -0.016787835852634068 0 -0.34857824671955512 -0.007874197240844389 0 -0.37126952376897032 -0.00085078512189483576 0 -0.36867541047690239 -0.006920070417115203 0 -0.36494834593608783 -0.001298186014321303 0 -0.37126952376897032 -0.00085078512189483576 0 -0.37464851222799189 -0.0076089195940836872 0 -0.37774077980655368 -0.001289555558904682 0 -0.37126952376897032 -0.00085078512189483576 0 -0.37464851222799189 -0.0076089195940836872 0 -0.36867541047690239 -0.006920070417115203 0 -0.37465439862472261 -0.016787835852634068 0 -0.36867541047690239 -0.006920070417115203 0 -0.3597652811465577 -0.0058215117475868012 0 -0.37465439862472261 -0.016787835852634068 0 -0.37464851222799189 -0.0076089195940836872 0 -0.36867541047690239 -0.006920070417115203 0 -0.36867541047690239 -0.006920070417115203 0 -0.3597652811465577 -0.0058215117475868012 0 -0.36494834593608783 -0.001298186014321303 0 -0.3597652811465577 -0.0058215117475868012 0 -0.36494834593608783 -0.001298186014321303 0 -0.35900139338342918 0.0020097317905480609 0 -0.3597652811465577 -0.0058215117475868012 0 -0.35221409618436439 -0.0049109655465913588 0 -0.34857824671955512 -0.007874197240844389 0 -0.3597652811465577 -0.0058215117475868012 0 -0.35509488683577939 -0.0004162838960613095 0 -0.35900139338342918 0.0020097317905480609 0 -0.3597652811465577 -0.0058215117475868012 0 -0.35509488683577939 -0.0004162838960613095 0 -0.35221409618436439 -0.0049109655465913588 0 -0.3596530522362773 -0.017262546391789129 0 -0.34857824671955512 -0.007874197240844389 0 -0.35200921551166209 -0.0165646739997149 0 -0.34857824671955512 -0.007874197240844389 0 -0.34618108527798752 -0.01472783018749277 0 -0.35200921551166209 -0.0165646739997149 0 -0.35233090603521772 -0.034345905606361089 0 -0.36125368123050811 -0.029816691131076791 0 -0.35649867437881472 -0.022585523222405649 0 -0.35233090603521772 -0.034345905606361089 0 -0.35649867437881472 -0.022585523222405649 0 -0.34677261788783459 -0.022263095799622792 0 -0.35649867437881472 -0.022585523222405649 0 -0.35200921551166209 -0.0165646739997149 0 -0.34677261788783459 -0.022263095799622792 0 -0.3596530522362773 -0.017262546391789129 0 -0.35649867437881472 -0.022585523222405649 0 -0.35200921551166209 -0.0165646739997149 0 -0.34618108527798752 -0.01472783018749277 0 -0.35200921551166209 -0.0165646739997149 0 -0.34677261788783459 -0.022263095799622792 0 -0.33540629353460438 -0.01342214774580049 0 -0.31718310516035308 -0.038172790333745737 0 -0.34008173660725832 -0.04100860914713586 0 -0.33540629353460438 -0.01342214774580049 0 -0.34008173660725832 -0.04100860914713586 0 -0.34677261788783459 -0.022263095799622792 0 -0.33540629353460438 -0.01342214774580049 0 -0.34008173660725832 -0.04100860914713586 0 -0.34618108527798752 -0.01472783018749277 0 -0.34677261788783459 -0.022263095799622792 0 -0.33540629353460438 -0.01342214774580049 0 -0.33540629353460438 -0.01342214774580049 0 -0.3204068892458079 -0.0014125807301150939 0 -0.33073085046195078 0.01416431365553468 0 -0.34857824671955512 -0.007874197240844389 0 -0.33540629353460438 -0.01342214774580049 0 -0.33073085046195078 0.01416431365553468 0 -0.34857824671955512 -0.007874197240844389 0 -0.34618108527798752 -0.01472783018749277 0 -0.33540629353460438 -0.01342214774580049 0 -0.3025805037907468 -0.0027432771802810229 0 -0.31459326366374579 -0.01532774276474733 0 -0.3204068892458079 -0.0014125807301150939 0 -0.33540629353460438 -0.01342214774580049 0 -0.31459326366374579 -0.01532774276474733 0 -0.3204068892458079 -0.0014125807301150939 0 -0.33540629353460438 -0.01342214774580049 0 -0.31459326366374579 -0.01532774276474733 0 -0.31718310516035308 -0.038172790333745737 0 -0.31718310516035308 -0.038172790333745737 0 -0.3268834079531176 -0.05023453433316457 0 -0.34008173660725832 -0.04100860914713586 0 -0.31718310516035308 -0.038172790333745737 0 -0.31370341578724742 -0.051143824177853653 0 -0.3268834079531176 -0.05023453433316457 0 -0.31370341578724742 -0.051143824177853653 0 -0.31629816603535338 -0.060261719535131632 0 -0.32352590008436471 -0.062378140209921912 0 -0.31629816603535338 -0.060261719535131632 0 -0.32352590008436471 -0.062378140209921912 0 -0.32352590008436471 -0.062378140209921912 0 -0.3268834079531176 -0.05023453433316457 0 -0.33381205608116321 -0.055554088559673351 0 -0.31370341578724742 -0.051143824177853653 0 -0.32352590008436471 -0.062378140209921912 0 -0.3268834079531176 -0.05023453433316457 0 -0.34475717967991132 -0.068595070548471249 0 -0.32352590008436471 -0.062378140209921912 0 -0.33381205608116321 -0.055554088559673351 0 -0.34475717967991132 -0.068595070548471249 0 -0.33381205608116321 -0.055554088559673351 0 -0.34008173660725832 -0.04100860914713586 0 -0.3268834079531176 -0.05023453433316457 0 -0.33381205608116321 -0.055554088559673351 0 -0.34008173660725832 -0.04100860914713586 0 -0.34475717967991132 -0.068595070548471249 0 -0.34008173660725832 -0.04100860914713586 0 -0.29131753467172561 -0.25675805269722002 0 -0.30769212114973271 -0.24578220261295139 0 -0.29241592956139478 -0.23974284613727589 0 -0.30769212114973271 -0.24578220261295139 0 -0.30829656048542242 -0.23127198481015249 0 -0.29241592956139478 -0.23974284613727589 0 -0.30829656048542242 -0.23127198481015249 0 -0.29279532374442052 -0.2217612167757172 0 -0.3129652712195421 -0.2114706657937139 0 -0.30829656048542242 -0.23127198481015249 0 -0.29279532374442052 -0.2217612167757172 0 -0.29241592956139478 -0.23974284613727589 0 -0.29279532374442052 -0.2217612167757172 0 -0.29241592956139478 -0.23974284613727589 0 -0.27798049023744681 -0.23352671123603991 0 -0.29279532374442052 -0.2217612167757172 0 -0.27798049023744681 -0.23352671123603991 0 -0.27449661508218531 -0.21747639879007349 0 -0.29131753467172561 -0.25675805269722002 0 -0.29241592956139478 -0.23974284613727589 0 -0.27722523139620658 -0.24922189107985179 0 -0.29241592956139478 -0.23974284613727589 0 -0.27722523139620658 -0.24922189107985179 0 -0.27798049023744681 -0.23352671123603991 0 -0.27722523139620658 -0.24922189107985179 0 -0.25992972331208369 -0.2410680052130979 0 -0.27798049023744681 -0.23352671123603991 0 -0.26398002587916253 -0.25656090854441049 0 -0.27722523139620658 -0.24922189107985179 0 -0.25992972331208369 -0.2410680052130979 0 -0.25992972331208369 -0.2410680052130979 0 -0.25674041691710447 -0.22108212323078871 0 -0.27798049023744681 -0.23352671123603991 0 -0.2377451423251814 -0.23136366228574551 0 -0.25992972331208369 -0.2410680052130979 0 -0.25674041691710447 -0.22108212323078871 0 -0.25674041691710447 -0.22108212323078871 0 -0.27798049023744681 -0.23352671123603991 0 -0.27449661508218531 -0.21747639879007349 0 -0.27449661508218531 -0.21747639879007349 0 -0.25644706280453389 -0.1995927939493197 0 -0.27817485521465529 -0.19463925610534399 0 -0.27449661508218531 -0.21747639879007349 0 -0.27817485521465529 -0.19463925610534399 0 -0.25674041691710447 -0.22108212323078871 0 -0.27449661508218531 -0.21747639879007349 0 -0.25644706280453389 -0.1995927939493197 0 -0.25644706280453389 -0.1995927939493197 0 -0.27817485521465529 -0.19463925610534399 0 -0.26629571781906192 -0.18034234132084431 0 -0.27817485521465529 -0.19463925610534399 0 -0.29367807880863189 -0.20345752952089671 0 -0.29386082525749962 -0.1848532680646672 0 -0.27449661508218531 -0.21747639879007349 0 -0.27817485521465529 -0.19463925610534399 0 -0.29367807880863189 -0.20345752952089671 0 -0.29279532374442052 -0.2217612167757172 0 -0.27449661508218531 -0.21747639879007349 0 -0.29367807880863189 -0.20345752952089671 0 -0.29279532374442052 -0.2217612167757172 0 -0.29367807880863189 -0.20345752952089671 0 -0.3129652712195421 -0.2114706657937139 0 -0.29367807880863189 -0.20345752952089671 0 -0.30717411826112789 -0.1920401195635244 0 -0.29386082525749962 -0.1848532680646672 0 -0.29367807880863189 -0.20345752952089671 0 -0.30717411826112789 -0.1920401195635244 0 -0.3129652712195421 -0.2114706657937139 0 -0.30551265723832022 -0.17938492804960809 0 -0.29677214667513702 -0.1677956617280158 0 -0.29386082525749962 -0.1848532680646672 0 -0.30717411826112789 -0.1920401195635244 0 -0.30551265723832022 -0.17938492804960809 0 -0.29386082525749962 -0.1848532680646672 0 -0.30717411826112789 -0.1920401195635244 0 -0.30551265723832022 -0.17938492804960809 0 -0.31489114071409963 -0.18333745750317351 0 -0.30551265723832022 -0.17938492804960809 0 -0.31220508881165993 -0.16846949012138551 0 -0.29677214667513702 -0.1677956617280158 0 -0.30551265723832022 -0.17938492804960809 0 -0.31220508881165993 -0.16846949012138551 0 -0.31489114071409963 -0.18333745750317351 0 -0.31220508881165993 -0.16846949012138551 0 -0.2949530938874384 -0.15245549241185349 0 -0.31498630483336881 -0.15987728715749039 0 -0.31220508881165993 -0.16846949012138551 0 -0.2949530938874384 -0.15245549241185349 0 -0.31220508881165993 -0.16846949012138551 0 -0.29677214667513702 -0.1677956617280158 0 -0.2949530938874384 -0.15245549241185349 0 -0.28185309534712533 -0.17180211342061449 0 -0.28553133547959519 -0.14896497073588499 0 -0.29677214667513702 -0.1677956617280158 0 -0.28185309534712533 -0.17180211342061449 0 -0.2949530938874384 -0.15245549241185349 0 -0.28185309534712533 -0.17180211342061449 0 -0.28553133547959519 -0.14896497073588499 0 -0.2949530938874384 -0.15245549241185349 0 -0.27817485521465529 -0.19463925610534399 0 -0.28185309534712533 -0.17180211342061449 0 -0.29386082525749962 -0.1848532680646672 0 -0.29677214667513702 -0.1677956617280158 0 -0.28185309534712533 -0.17180211342061449 0 -0.29386082525749962 -0.1848532680646672 0 -0.27817485521465529 -0.19463925610534399 0 -0.28185309534712533 -0.17180211342061449 0 -0.27817485521465529 -0.19463925610534399 0 -0.28185309534712533 -0.17180211342061449 0 -0.26629571781906192 -0.18034234132084431 0 -0.26629571781906192 -0.18034234132084431 0 -0.25029992488695979 -0.1782534950292988 0 -0.25761979100978533 -0.16665415002795461 0 -0.25644706280453389 -0.1995927939493197 0 -0.26629571781906192 -0.18034234132084431 0 -0.25029992488695979 -0.1782534950292988 0 -0.26629571781906192 -0.18034234132084431 0 -0.25761979100978533 -0.16665415002795461 0 -0.26933386928146391 -0.16300442301689841 0 -0.24825300788518309 -0.1555077779107997 0 -0.25761979100978533 -0.16665415002795461 0 -0.26108146703715113 -0.15708396540124031 0 -0.25761979100978533 -0.16665415002795461 0 -0.26108146703715113 -0.15708396540124031 0 -0.26933386928146391 -0.16300442301689841 0 -0.28185309534712533 -0.17180211342061449 0 -0.27598770130958522 -0.15333886838191951 0 -0.28553133547959519 -0.14896497073588499 0 -0.28185309534712533 -0.17180211342061449 0 -0.26629571781906192 -0.18034234132084431 0 -0.26933386928146391 -0.16300442301689841 0 -0.26108146703715113 -0.15708396540124031 0 -0.26933386928146391 -0.16300442301689841 0 -0.26726071412102442 -0.15087550168963329 0 -0.28185309534712533 -0.17180211342061449 0 -0.26933386928146391 -0.16300442301689841 0 -0.27598770130958522 -0.15333886838191951 0 -0.27598770130958522 -0.15333886838191951 0 -0.271177428866754 -0.14364721368904659 0 -0.28553133547959519 -0.14896497073588499 0 -0.271177428866754 -0.14364721368904659 0 -0.28662611268527088 -0.1421678116724244 0 -0.28553133547959519 -0.14896497073588499 0 -0.271177428866754 -0.14364721368904659 0 -0.28553133547959519 -0.14896497073588499 0 -0.271177428866754 -0.14364721368904659 0 -0.26726071412102442 -0.15087550168963329 0 -0.25891484533836889 -0.13910423861407881 0 -0.271177428866754 -0.14364721368904659 0 -0.26726071412102442 -0.15087550168963329 0 -0.27598770130958522 -0.15333886838191951 0 -0.271177428866754 -0.14364721368904659 0 -0.26726071412102442 -0.15087550168963329 0 -0.26933386928146391 -0.16300442301689841 0 -0.27598770130958522 -0.15333886838191951 0 -0.26726071412102442 -0.15087550168963329 0 -0.2405789555143194 -0.1375116727892334 0 -0.25601133851015478 -0.1487044986697981 0 -0.25891484533836889 -0.13910423861407881 0 -0.26108146703715113 -0.15708396540124031 0 -0.26726071412102442 -0.15087550168963329 0 -0.25601133851015478 -0.1487044986697981 0 -0.271177428866754 -0.14364721368904659 0 -0.25891484533836889 -0.13910423861407881 0 -0.26726071412102442 -0.15087550168963329 0 -0.25601133851015478 -0.1487044986697981 0 -0.25891484533836889 -0.13910423861407881 0 -0.24825300788518309 -0.1555077779107997 0 -0.26108146703715113 -0.15708396540124031 0 -0.25601133851015478 -0.1487044986697981 0 -0.26009747564537128 -0.1202716976192799 0 -0.25054446979338107 -0.12912519928877991 0 -0.26697405985724948 -0.1304210152969853 0 -0.25054446979338107 -0.12912519928877991 0 -0.25891484533836889 -0.13910423861407881 0 -0.26697405985724948 -0.1304210152969853 0 -0.2405789555143194 -0.1375116727892334 0 -0.25054446979338107 -0.12912519928877991 0 -0.25891484533836889 -0.13910423861407881 0 -0.28368315898475188 -0.1205679176925603 0 -0.271177428866754 -0.14364721368904659 0 -0.26697405985724948 -0.1304210152969853 0 -0.28368315898475188 -0.1205679176925603 0 -0.271177428866754 -0.14364721368904659 0 -0.28514813781506088 -0.1345929107172644 0 -0.28368315898475188 -0.1205679176925603 0 -0.271177428866754 -0.14364721368904659 0 -0.271177428866754 -0.14364721368904659 0 -0.25891484533836889 -0.13910423861407881 0 -0.26697405985724948 -0.1304210152969853 0 -0.271177428866754 -0.14364721368904659 0 -0.28514813781506088 -0.1345929107172644 0 -0.28662611268527088 -0.1421678116724244 0 -0.28368315898475188 -0.1205679176925603 0 -0.29492821592448881 -0.13453805291007029 0 -0.28514813781506088 -0.1345929107172644 0 -0.28368315898475188 -0.1205679176925603 0 -0.29492821592448881 -0.13453805291007029 0 -0.30140371581860798 -0.1292511186866305 0 -0.29492821592448881 -0.13453805291007029 0 -0.2912775948780732 -0.1389862943003273 0 -0.28514813781506088 -0.1345929107172644 0 -0.29657756063899582 -0.140013172184488 0 -0.29492821592448881 -0.13453805291007029 0 -0.2912775948780732 -0.1389862943003273 0 -0.2912775948780732 -0.1389862943003273 0 -0.28514813781506088 -0.1345929107172644 0 -0.28662611268527088 -0.1421678116724244 0 -0.28662611268527088 -0.1421678116724244 0 -0.28553133547959519 -0.14896497073588499 0 -0.28662611268527088 -0.1421678116724244 0 -0.28553133547959519 -0.14896497073588499 0 -0.28937009998544028 -0.14621975116982991 0 -0.28553133547959519 -0.14896497073588499 0 -0.2922536480049423 -0.1499497578362777 0 -0.28937009998544028 -0.14621975116982991 0 -0.28553133547959519 -0.14896497073588499 0 -0.2922536480049423 -0.1499497578362777 0 -0.2949530938874384 -0.15245549241185349 0 -0.28553133547959519 -0.14896497073588499 0 -0.2949530938874384 -0.15245549241185349 0 -0.2922536480049423 -0.1499497578362777 0 -0.2949530938874384 -0.15245549241185349 0 -0.29617843115691228 -0.14802272380236281 0 -0.2922536480049423 -0.1499497578362777 0 -0.2949530938874384 -0.15245549241185349 0 -0.2912775948780732 -0.1389862943003273 0 -0.28662611268527088 -0.1421678116724244 0 -0.29310794732654949 -0.1436195240173895 0 -0.28662611268527088 -0.1421678116724244 0 -0.28937009998544028 -0.14621975116982991 0 -0.29310794732654949 -0.1436195240173895 0 -0.2922536480049423 -0.1499497578362777 0 -0.28937009998544028 -0.14621975116982991 0 -0.29310794732654949 -0.1436195240173895 0 -0.29617843115691228 -0.14802272380236281 0 -0.29310794732654949 -0.1436195240173895 0 -0.29956135480037449 -0.14472193576336759 0 -0.2922536480049423 -0.1499497578362777 0 -0.29617843115691228 -0.14802272380236281 0 -0.29310794732654949 -0.1436195240173895 0 -0.29657756063899582 -0.140013172184488 0 -0.2912775948780732 -0.1389862943003273 0 -0.29310794732654949 -0.1436195240173895 0 -0.29657756063899582 -0.140013172184488 0 -0.29310794732654949 -0.1436195240173895 0 -0.29956135480037449 -0.14472193576336759 0 -0.29956135480037449 -0.14472193576336759 0 -0.30554397810907652 -0.146919348525368 0 -0.30456114821214081 -0.13888567554976469 0 -0.2949530938874384 -0.15245549241185349 0 -0.30620642865757891 -0.15285211384445899 0 -0.31498630483336881 -0.15987728715749039 0 -0.2949530938874384 -0.15245549241185349 0 -0.31498630483336881 -0.15987728715749039 0 -0.29657756063899582 -0.140013172184488 0 -0.29956135480037449 -0.14472193576336759 0 -0.30456114821214081 -0.13888567554976469 0 -0.29617843115691228 -0.14802272380236281 0 -0.29956135480037449 -0.14472193576336759 0 -0.30052761464898298 -0.14908162957255741 0 -0.29956135480037449 -0.14472193576336759 0 -0.30052761464898298 -0.14908162957255741 0 -0.30554397810907652 -0.146919348525368 0 -0.2949530938874384 -0.15245549241185349 0 -0.30052761464898298 -0.14908162957255741 0 -0.30620642865757891 -0.15285211384445899 0 -0.2949530938874384 -0.15245549241185349 0 -0.29617843115691228 -0.14802272380236281 0 -0.30052761464898298 -0.14908162957255741 0 -0.30052761464898298 -0.14908162957255741 0 -0.30620642865757891 -0.15285211384445899 0 -0.30554397810907652 -0.146919348525368 0 -0.30620642865757891 -0.15285211384445899 0 -0.31211863317072019 -0.1538765410016501 0 -0.31498630483336881 -0.15987728715749039 0 -0.30620642865757891 -0.15285211384445899 0 -0.31071230574427161 -0.15022116190891349 0 -0.30554397810907652 -0.146919348525368 0 -0.30620642865757891 -0.15285211384445899 0 -0.31071230574427161 -0.15022116190891349 0 -0.31211863317072019 -0.1538765410016501 0 -0.31246836027323899 -0.14497521722301901 0 -0.31246708178415561 -0.13872402753426441 0 -0.30456114821214081 -0.13888567554976469 0 -0.30554397810907652 -0.146919348525368 0 -0.31246836027323899 -0.14497521722301901 0 -0.30456114821214081 -0.13888567554976469 0 -0.31071230574427161 -0.15022116190891349 0 -0.30554397810907652 -0.146919348525368 0 -0.31246836027323899 -0.14497521722301901 0 -0.30140371581860798 -0.1292511186866305 0 -0.30456114821214081 -0.13888567554976469 0 -0.31280589771709483 -0.13181614145056869 0 -0.31246708178415561 -0.13872402753426441 0 -0.30456114821214081 -0.13888567554976469 0 -0.31280589771709483 -0.13181614145056869 0 -0.30807566230962469 -0.12087427087378499 0 -0.30140371581860798 -0.1292511186866305 0 -0.31280589771709483 -0.13181614145056869 0 -0.29657756063899582 -0.140013172184488 0 -0.29492821592448881 -0.13453805291007029 0 -0.30456114821214081 -0.13888567554976469 0 -0.29492821592448881 -0.13453805291007029 0 -0.30140371581860798 -0.1292511186866305 0 -0.30456114821214081 -0.13888567554976469 0 -0.3226930215385343 -0.13395567837890529 0 -0.31855308997834159 -0.13934265221991729 0 -0.32506280578504959 -0.14064102607364051 0 -0.3226930215385343 -0.13395567837890529 0 -0.32506280578504959 -0.14064102607364051 0 -0.33047387389575927 -0.1369340691945744 0 -0.3226930215385343 -0.13395567837890529 0 -0.32807010768985068 -0.12986880773923029 0 -0.33047387389575927 -0.1369340691945744 0 -0.32007374605487132 -0.12494213909402439 0 -0.33441303965894859 -0.1249452932850653 0 -0.32807010768985068 -0.12986880773923029 0 -0.32007374605487132 -0.12494213909402439 0 -0.3226930215385343 -0.13395567837890529 0 -0.32807010768985068 -0.12986880773923029 0 -0.32007374605487132 -0.12494213909402439 0 -0.3226930215385343 -0.13395567837890529 0 -0.31280589771709483 -0.13181614145056869 0 -0.30807566230962469 -0.12087427087378499 0 -0.32007374605487132 -0.12494213909402439 0 -0.31280589771709483 -0.13181614145056869 0 -0.3226930215385343 -0.13395567837890529 0 -0.31280589771709483 -0.13181614145056869 0 -0.31855308997834159 -0.13934265221991729 0 -0.31246708178415561 -0.13872402753426441 0 -0.31280589771709483 -0.13181614145056869 0 -0.31855308997834159 -0.13934265221991729 0 -0.31246836027323899 -0.14497521722301901 0 -0.31246708178415561 -0.13872402753426441 0 -0.31855308997834159 -0.13934265221991729 0 -0.31246836027323899 -0.14497521722301901 0 -0.31855308997834159 -0.13934265221991729 0 -0.32096396999162452 -0.14503749675666289 0 -0.31246836027323899 -0.14497521722301901 0 -0.31722412851074311 -0.15248258895007169 0 -0.32096396999162452 -0.14503749675666289 0 -0.31211863317072019 -0.1538765410016501 0 -0.31722412851074311 -0.15248258895007169 0 -0.31498630483336881 -0.15987728715749039 0 -0.31071230574427161 -0.15022116190891349 0 -0.31246836027323899 -0.14497521722301901 0 -0.31722412851074311 -0.15248258895007169 0 -0.31071230574427161 -0.15022116190891349 0 -0.31211863317072019 -0.1538765410016501 0 -0.31722412851074311 -0.15248258895007169 0 -0.32096396999162452 -0.14503749675666289 0 -0.32506280578504959 -0.14064102607364051 0 -0.33039285730051032 -0.1475567648151897 0 -0.31722412851074311 -0.15248258895007169 0 -0.32096396999162452 -0.14503749675666289 0 -0.33039285730051032 -0.1475567648151897 0 -0.31855308997834159 -0.13934265221991729 0 -0.32096396999162452 -0.14503749675666289 0 -0.32506280578504959 -0.14064102607364051 0 -0.33039285730051032 -0.1475567648151897 0 -0.33813688440009898 -0.15615522653291031 0 -0.34198145815712638 -0.1395953898376964 0 -0.32506280578504959 -0.14064102607364051 0 -0.33039285730051032 -0.1475567648151897 0 -0.33047387389575927 -0.1369340691945744 0 -0.31722412851074311 -0.15248258895007169 0 -0.33039285730051032 -0.1475567648151897 0 -0.33813688440009898 -0.15615522653291031 0 -0.33039285730051032 -0.1475567648151897 0 -0.34198145815712638 -0.1395953898376964 0 -0.33047387389575927 -0.1369340691945744 0 -0.33813688440009898 -0.15615522653291031 0 -0.34198145815712638 -0.1395953898376964 0 -0.34954987665533299 -0.15424548639031271 0 -0.34198145815712638 -0.1395953898376964 0 -0.3337346198504213 -0.1328358900141379 0 -0.33047387389575927 -0.1369340691945744 0 -0.32807010768985068 -0.12986880773923029 0 -0.3337346198504213 -0.1328358900141379 0 -0.33047387389575927 -0.1369340691945744 0 -0.33441303965894859 -0.1249452932850653 0 -0.32807010768985068 -0.12986880773923029 0 -0.3337346198504213 -0.1328358900141379 0 -0.33441303965894859 -0.1249452932850653 0 -0.34198145815712638 -0.1395953898376964 0 -0.34272140335036932 -0.124947120862287 0 -0.33441303965894859 -0.1249452932850653 0 -0.34198145815712638 -0.1395953898376964 0 -0.33441303965894859 -0.1249452932850653 0 -0.34198145815712638 -0.1395953898376964 0 -0.3337346198504213 -0.1328358900141379 0 -0.34272140335036932 -0.124947120862287 0 -0.35413341494744088 -0.14719959415449421 0 -0.34272140335036932 -0.124947120862287 0 -0.35599685079288468 -0.13305792836185981 0 -0.35413341494744088 -0.14719959415449421 0 -0.34272140335036932 -0.124947120862287 0 -0.34198145815712638 -0.1395953898376964 0 -0.35413341494744088 -0.14719959415449421 0 -0.34272140335036932 -0.124947120862287 0 -0.36893450279197471 -0.1249528869149899 0 -0.35599685079288468 -0.13305792836185981 0 -0.35599685079288468 -0.13305792836185981 0 -0.36484224068191412 -0.14157370685753851 0 -0.35413341494744088 -0.14719959415449421 0 -0.36893450279197471 -0.1249528869149899 0 -0.35599685079288468 -0.13305792836185981 0 -0.36484224068191412 -0.14157370685753851 0 -0.36893450279197471 -0.1249528869149899 0 -0.36484224068191412 -0.14157370685753851 0 -0.3777566452334315 -0.14913711856379011 0 -0.3679743334396014 -0.15408772885571331 0 -0.37696591512674532 -0.1609827341034305 0 -0.3777566452334315 -0.14913711856379011 0 -0.3679743334396014 -0.15408772885571331 0 -0.36484224068191412 -0.14157370685753851 0 -0.3777566452334315 -0.14913711856379011 0 -0.3679743334396014 -0.15408772885571331 0 -0.36484224068191412 -0.14157370685753851 0 -0.35413341494744088 -0.14719959415449421 0 -0.35413341494744088 -0.14719959415449421 0 -0.34954987665533299 -0.15424548639031271 0 -0.35445721343992059 -0.1619675590177023 0 -0.34198145815712638 -0.1395953898376964 0 -0.34954987665533299 -0.15424548639031271 0 -0.34198145815712638 -0.1395953898376964 0 -0.35413341494744088 -0.14719959415449421 0 -0.34954987665533299 -0.15424548639031271 0 -0.33813688440009898 -0.15615522653291031 0 -0.34954987665533299 -0.15424548639031271 0 -0.34648545334868369 -0.16311147615285329 0 -0.34648545334868369 -0.16311147615285329 0 -0.35788001493839611 -0.17576831496813999 0 -0.33501951577929873 -0.16729908190312789 0 -0.34954987665533299 -0.15424548639031271 0 -0.34648545334868369 -0.16311147615285329 0 -0.35445721343992059 -0.1619675590177023 0 -0.35413341494744088 -0.14719959415449421 0 -0.35445721343992059 -0.1619675590177023 0 -0.36554542654456429 -0.16945206744667471 0 -0.35788001493839611 -0.17576831496813999 0 -0.33501951577929873 -0.16729908190312789 0 -0.34648545334868369 -0.16311147615285329 0 -0.35445721343992059 -0.1619675590177023 0 -0.35788001493839611 -0.17576831496813999 0 -0.35445721343992059 -0.1619675590177023 0 -0.36554542654456429 -0.16945206744667471 0 -0.35788001493839611 -0.17576831496813999 0 -0.35413341494744088 -0.14719959415449421 0 -0.36554542654456429 -0.16945206744667471 0 -0.3679743334396014 -0.15408772885571331 0 -0.35413341494744088 -0.14719959415449421 0 -0.36554542654456429 -0.16945206744667471 0 -0.3679743334396014 -0.15408772885571331 0 -0.36554542654456429 -0.16945206744667471 0 -0.37696591512674532 -0.1609827341034305 0 -0.37016556171889331 -0.18126023377528719 0 -0.3536864721015115 -0.18284124587119119 0 -0.37235342842372432 -0.19838340983925429 0 -0.36554542654456429 -0.16945206744667471 0 -0.37016556171889331 -0.18126023377528719 0 -0.38426477739238413 -0.17192867897072969 0 -0.37016556171889331 -0.18126023377528719 0 -0.3536864721015115 -0.18284124587119119 0 -0.35788001493839611 -0.17576831496813999 0 -0.36554542654456429 -0.16945206744667471 0 -0.37016556171889331 -0.18126023377528719 0 -0.35788001493839611 -0.17576831496813999 0 -0.3536864721015115 -0.18284124587119119 0 -0.33501951577929873 -0.16729908190312789 0 -0.3536864721015115 -0.18284124587119119 0 -0.35788001493839611 -0.17576831496813999 0 -0.33501951577929873 -0.16729908190312789 0 -0.3536864721015115 -0.18284124587119119 0 -0.32945708373588178 -0.18448348783091689 0 -0.33501951577929873 -0.16729908190312789 0 -0.31722412851074311 -0.15248258895007169 0 -0.33813688440009898 -0.15615522653291031 0 -0.33501951577929873 -0.16729908190312789 0 -0.33813688440009898 -0.15615522653291031 0 -0.34648545334868369 -0.16311147615285329 0 -0.33501951577929873 -0.16729908190312789 0 -0.31722412851074311 -0.15248258895007169 0 -0.33501951577929873 -0.16729908190312789 0 -0.31722412851074311 -0.15248258895007169 0 -0.33501951577929873 -0.16729908190312789 0 -0.31498630483336881 -0.15987728715749039 0 -0.31220508881165993 -0.16846949012138551 0 -0.33501951577929873 -0.16729908190312789 0 -0.31498630483336881 -0.15987728715749039 0 -0.33501951577929873 -0.16729908190312789 0 -0.31498630483336881 -0.15987728715749039 0 -0.31220508881165993 -0.16846949012138551 0 -0.32945708373588178 -0.18448348783091689 0 -0.31489114071409963 -0.18333745750317351 0 -0.31220508881165993 -0.16846949012138551 0 -0.32945708373588178 -0.18448348783091689 0 -0.31220508881165993 -0.16846949012138551 0 -0.32945708373588178 -0.18448348783091689 0 -0.33501951577929873 -0.16729908190312789 0 -0.32945708373588178 -0.18448348783091689 0 -0.31489114071409963 -0.18333745750317351 0 -0.32010675552350842 -0.19230926195043291 0 -0.30717411826112789 -0.1920401195635244 0 -0.32010675552350842 -0.19230926195043291 0 -0.3129652712195421 -0.2114706657937139 0 -0.32945708373588178 -0.18448348783091689 0 -0.32010675552350842 -0.19230926195043291 0 -0.32566449460190838 -0.20326261146105551 0 -0.32010675552350842 -0.19230926195043291 0 -0.3129652712195421 -0.2114706657937139 0 -0.32566449460190838 -0.20326261146105551 0 -0.30717411826112789 -0.1920401195635244 0 -0.31489114071409963 -0.18333745750317351 0 -0.32010675552350842 -0.19230926195043291 0 -0.3129652712195421 -0.2114706657937139 0 -0.32566449460190838 -0.20326261146105551 0 -0.33208474862113468 -0.21873250337862821 0 -0.33208474862113468 -0.21873250337862821 0 -0.34670907866010381 -0.20049748554044841 0 -0.34896881396179619 -0.22434135344573131 0 -0.32566449460190838 -0.20326261146105551 0 -0.33208474862113468 -0.21873250337862821 0 -0.34670907866010381 -0.20049748554044841 0 -0.3536864721015115 -0.18284124587119119 0 -0.32945708373588178 -0.18448348783091689 0 -0.34670907866010381 -0.20049748554044841 0 -0.32945708373588178 -0.18448348783091689 0 -0.32566449460190838 -0.20326261146105551 0 -0.34670907866010381 -0.20049748554044841 0 -0.32945708373588178 -0.18448348783091689 0 -0.34670907866010381 -0.20049748554044841 0 -0.3536864721015115 -0.18284124587119119 0 -0.35917751319241631 -0.19955840612521841 0 -0.34670907866010381 -0.20049748554044841 0 -0.3536864721015115 -0.18284124587119119 0 -0.37235342842372432 -0.19838340983925429 0 -0.3536864721015115 -0.18284124587119119 0 -0.35917751319241631 -0.19955840612521841 0 -0.37235342842372432 -0.19838340983925429 0 -0.37235342842372432 -0.19838340983925429 0 -0.36396107358432572 -0.21651148324997979 0 -0.37772562505684643 -0.22219038377974651 0 -0.35917751319241631 -0.19955840612521841 0 -0.37235342842372432 -0.19838340983925429 0 -0.36396107358432572 -0.21651148324997979 0 -0.34670907866010381 -0.20049748554044841 0 -0.36396107358432572 -0.21651148324997979 0 -0.34896881396179619 -0.22434135344573131 0 -0.34670907866010381 -0.20049748554044841 0 -0.36396107358432572 -0.21651148324997979 0 -0.35917751319241631 -0.19955840612521841 0 -0.34670907866010381 -0.20049748554044841 0 -0.36396107358432572 -0.21651148324997979 0 -0.34896881396179619 -0.22434135344573131 0 -0.36764811873304098 -0.23322730847002751 0 -0.35305879752332059 -0.24486073726717009 0 -0.36396107358432572 -0.21651148324997979 0 -0.36764811873304098 -0.23322730847002751 0 -0.37772562505684643 -0.22219038377974651 0 -0.36396107358432572 -0.21651148324997979 0 -0.34896881396179619 -0.22434135344573131 0 -0.36764811873304098 -0.23322730847002751 0 -0.37533687834285862 -0.25417213976024849 0 -0.36764811873304098 -0.23322730847002751 0 -0.35305879752332059 -0.24486073726717009 0 -0.34896881396179619 -0.22434135344573131 0 -0.35305879752332059 -0.24486073726717009 0 -0.33568364413539042 -0.23615154195274179 0 -0.33623326073948312 -0.25365348176558788 0 -0.33568364413539042 -0.23615154195274179 0 -0.32213598881581812 -0.2442700999577708 0 -0.33623326073948312 -0.25365348176558788 0 -0.35305879752332059 -0.24486073726717009 0 -0.33568364413539042 -0.23615154195274179 0 -0.33208474862113468 -0.21873250337862821 0 -0.33568364413539042 -0.23615154195274179 0 -0.32219037366776621 -0.22897372759534659 0 -0.33208474862113468 -0.21873250337862821 0 -0.34896881396179619 -0.22434135344573131 0 -0.33568364413539042 -0.23615154195274179 0 -0.30829656048542242 -0.23127198481015249 0 -0.3129652712195421 -0.2114706657937139 0 -0.32219037366776621 -0.22897372759534659 0 -0.3129652712195421 -0.2114706657937139 0 -0.33208474862113468 -0.21873250337862821 0 -0.32219037366776621 -0.22897372759534659 0 -0.30769212114973271 -0.24578220261295139 0 -0.30829656048542242 -0.23127198481015249 0 -0.32213598881581812 -0.2442700999577708 0 -0.30829656048542242 -0.23127198481015249 0 -0.32219037366776621 -0.22897372759534659 0 -0.32213598881581812 -0.2442700999577708 0 -0.31968345090478489 -0.25798973640781447 0 -0.30769212114973271 -0.24578220261295139 0 -0.32213598881581812 -0.2442700999577708 0 -0.33568364413539042 -0.23615154195274179 0 -0.32219037366776621 -0.22897372759534659 0 -0.32213598881581812 -0.2442700999577708 0 -0.43598079583492633 -0.24721882136819351 0 -0.42311134176242837 -0.2304528026464861 0 -0.41615383063077721 -0.2466412503256647 0 -0.43598079583492633 -0.24721882136819351 0 -0.42311134176242837 -0.2304528026464861 0 -0.43908324849522451 -0.2287046610080686 0 -0.42311134176242837 -0.2304528026464861 0 -0.41411505562058892 -0.2091502018577929 0 -0.42948217154750851 -0.21815887616964899 0 -0.42311134176242837 -0.2304528026464861 0 -0.42948217154750851 -0.21815887616964899 0 -0.43908324849522451 -0.2287046610080686 0 -0.42948217154750851 -0.21815887616964899 0 -0.43955036875351089 -0.21658504913102711 0 -0.43908324849522451 -0.2287046610080686 0 -0.40619246279161347 -0.2313797712556602 0 -0.41411505562058892 -0.2091502018577929 0 -0.42311134176242837 -0.2304528026464861 0 -0.40619246279161347 -0.2313797712556602 0 -0.41411505562058892 -0.2091502018577929 0 -0.39826986996263802 -0.25360934065352753 0 -0.41615383063077721 -0.2466412503256647 0 -0.40619246279161347 -0.2313797712556602 0 -0.42311134176242837 -0.2304528026464861 0 -0.41615383063077721 -0.2466412503256647 0 -0.40619246279161347 -0.2313797712556602 0 -0.39826986996263802 -0.25360934065352753 0 -0.38632210934187061 -0.2364082567837591 0 -0.40619246279161347 -0.2313797712556602 0 -0.39826986996263802 -0.25360934065352753 0 -0.40619246279161347 -0.2313797712556602 0 -0.37533687834285862 -0.25417213976024849 0 -0.36764811873304098 -0.23322730847002751 0 -0.38632210934187061 -0.2364082567837591 0 -0.37533687834285862 -0.25417213976024849 0 -0.39826986996263802 -0.25360934065352753 0 -0.38632210934187061 -0.2364082567837591 0 -0.36764811873304098 -0.23322730847002751 0 -0.38632210934187061 -0.2364082567837591 0 -0.37772562505684643 -0.22219038377974651 0 -0.38632210934187061 -0.2364082567837591 0 -0.37772562505684643 -0.22219038377974651 0 -0.39102038474593709 -0.2139255738073175 0 -0.38632210934187061 -0.2364082567837591 0 -0.40619246279161347 -0.2313797712556602 0 -0.39102038474593709 -0.2139255738073175 0 -0.39102038474593709 -0.2139255738073175 0 -0.40351751052996843 -0.1957217498792192 0 -0.41411505562058892 -0.2091502018577929 0 -0.40619246279161347 -0.2313797712556602 0 -0.39102038474593709 -0.2139255738073175 0 -0.41411505562058892 -0.2091502018577929 0 -0.37235342842372432 -0.19838340983925429 0 -0.39102038474593709 -0.2139255738073175 0 -0.37235342842372432 -0.19838340983925429 0 -0.37772562505684643 -0.22219038377974651 0 -0.39102038474593709 -0.2139255738073175 0 -0.37016556171889331 -0.18126023377528719 0 -0.37235342842372432 -0.19838340983925429 0 -0.38726325091278008 -0.18918768555573329 0 -0.37235342842372432 -0.19838340983925429 0 -0.39102038474593709 -0.2139255738073175 0 -0.38726325091278008 -0.18918768555573329 0 -0.38726325091278008 -0.18918768555573329 0 -0.40351751052996843 -0.1957217498792192 0 -0.40315121292097328 -0.17942465571532731 0 -0.39102038474593709 -0.2139255738073175 0 -0.38726325091278008 -0.18918768555573329 0 -0.40351751052996843 -0.1957217498792192 0 -0.41411505562058892 -0.2091502018577929 0 -0.42203764844956237 -0.18692063245992491 0 -0.40351751052996843 -0.1957217498792192 0 -0.41411505562058892 -0.2091502018577929 0 -0.42203764844956237 -0.18692063245992491 0 -0.41411505562058892 -0.2091502018577929 0 -0.42948217154750851 -0.21815887616964899 0 -0.43155084310578928 -0.2059016662048701 0 -0.42948217154750851 -0.21815887616964899 0 -0.43155084310578928 -0.2059016662048701 0 -0.43955036875351089 -0.21658504913102711 0 -0.42203764844956237 -0.18692063245992491 0 -0.44484374680150301 -0.19597231310248839 0 -0.41411505562058892 -0.2091502018577929 0 -0.43155084310578928 -0.2059016662048701 0 -0.42203764844956237 -0.18692063245992491 0 -0.43155084310578928 -0.2059016662048701 0 -0.42203764844956237 -0.18692063245992491 0 -0.44484374680150301 -0.19597231310248839 0 -0.42203764844956237 -0.18692063245992491 0 -0.44134853753678083 -0.18159229851429221 0 -0.44484374680150301 -0.19597231310248839 0 -0.42203764844956237 -0.18692063245992491 0 -0.42880774722037651 -0.1679247830322266 0 -0.42203764844956237 -0.18692063245992491 0 -0.42880774722037651 -0.1679247830322266 0 -0.44134853753678083 -0.18159229851429221 0 -0.42880774722037651 -0.1679247830322266 0 -0.43557784599118871 -0.14892893360452769 0 -0.44631139980808621 -0.1631836851414229 0 -0.42880774722037651 -0.1679247830322266 0 -0.43557784599118871 -0.14892893360452769 0 -0.42880774722037651 -0.1679247830322266 0 -0.41236960909879722 -0.16540507401591409 0 -0.42079860369606048 -0.15043713941075901 0 -0.42203764844956237 -0.18692063245992491 0 -0.42880774722037651 -0.1679247830322266 0 -0.41236960909879722 -0.16540507401591409 0 -0.40351751052996843 -0.1957217498792192 0 -0.42203764844956237 -0.18692063245992491 0 -0.40315121292097328 -0.17942465571532731 0 -0.42203764844956237 -0.18692063245992491 0 -0.40315121292097328 -0.17942465571532731 0 -0.42203764844956237 -0.18692063245992491 0 -0.41236960909879722 -0.16540507401591409 0 -0.40315121292097328 -0.17942465571532731 0 -0.38726325091278008 -0.18918768555573329 0 -0.40315121292097328 -0.17942465571532731 0 -0.38426477739238413 -0.17192867897072969 0 -0.40315121292097328 -0.17942465571532731 0 -0.38426477739238413 -0.17192867897072969 0 -0.37016556171889331 -0.18126023377528719 0 -0.38726325091278008 -0.18918768555573329 0 -0.38426477739238413 -0.17192867897072969 0 -0.36554542654456429 -0.16945206744667471 0 -0.38426477739238413 -0.17192867897072969 0 -0.37696591512674532 -0.1609827341034305 0 -0.38426477739238413 -0.17192867897072969 0 -0.37696591512674532 -0.1609827341034305 0 -0.39230106084837368 -0.15838844905994759 0 -0.40315121292097328 -0.17942465571532731 0 -0.38426477739238413 -0.17192867897072969 0 -0.39230106084837368 -0.15838844905994759 0 -0.41236960909879722 -0.16540507401591409 0 -0.39230106084837368 -0.15838844905994759 0 -0.40587711449475489 -0.1449624873806776 0 -0.41236960909879722 -0.16540507401591409 0 -0.40315121292097328 -0.17942465571532731 0 -0.39230106084837368 -0.15838844905994759 0 -0.39230106084837368 -0.15838844905994759 0 -0.39162863389564362 -0.14105630786861159 0 -0.40587711449475489 -0.1449624873806776 0 -0.39230106084837368 -0.15838844905994759 0 -0.39162863389564362 -0.14105630786861159 0 -0.3777566452334315 -0.14913711856379011 0 -0.37696591512674532 -0.1609827341034305 0 -0.39230106084837368 -0.15838844905994759 0 -0.3777566452334315 -0.14913711856379011 0 -0.36893450279197471 -0.1249528869149899 0 -0.39162863389564362 -0.14105630786861159 0 -0.3777566452334315 -0.14913711856379011 0 -0.36893450279197471 -0.1249528869149899 0 -0.39162863389564362 -0.14105630786861159 0 -0.39514760223357998 -0.1249586529677193 0 -0.39162863389564362 -0.14105630786861159 0 -0.40587711449475489 -0.1449624873806776 0 -0.39514760223357998 -0.1249586529677193 0 -0.40587711449475489 -0.1449624873806776 0 -0.39514760223357998 -0.1249586529677193 0 -0.42136070167518519 -0.1249644190204488 0 -0.40587711449475489 -0.1449624873806776 0 -0.42079860369606048 -0.15043713941075901 0 -0.42136070167518519 -0.1249644190204488 0 -0.41236960909879722 -0.16540507401591409 0 -0.40587711449475489 -0.1449624873806776 0 -0.42079860369606048 -0.15043713941075901 0 -0.42079860369606048 -0.15043713941075901 0 -0.43557784599118871 -0.14892893360452769 0 -0.42136070167518519 -0.1249644190204488 0 -0.42880774722037651 -0.1679247830322266 0 -0.42079860369606048 -0.15043713941075901 0 -0.43557784599118871 -0.14892893360452769 0 -0.43557784599118871 -0.14892893360452769 0 -0.42136070167518519 -0.1249644190204488 0 -0.44757380111679052 -0.12497018507317829 0 -0.43557784599118871 -0.14892893360452769 0 -0.45596445488588 -0.14427568033770541 0 -0.44757380111679052 -0.12497018507317829 0 -0.43557784599118871 -0.14892893360452769 0 -0.45596445488588 -0.14427568033770541 0 -0.44631139980808621 -0.1631836851414229 0 -0.45596445488588 -0.14427568033770541 0 -0.46278066629215481 -0.1610158872753634 0 -0.44631139980808621 -0.1631836851414229 0 -0.45596445488588 -0.14427568033770541 0 -0.47930750267908417 -0.1480635854121114 0 -0.46278066629215481 -0.1610158872753634 0 -0.45596445488588 -0.14427568033770541 0 -0.44757380111679052 -0.12497018507317829 0 -0.47378690055839578 -0.1249759511259078 0 -0.48827360080937021 -0.13531742911399189 0 -0.47930750267908417 -0.1480635854121114 0 -0.47378690055839578 -0.1249759511259078 0 -0.45596445488588 -0.14427568033770541 0 -0.47930750267908417 -0.1480635854121114 0 -0.47378690055839578 -0.1249759511259078 0 -0.48827360080937021 -0.13531742911399189 0 -0.5 -0.14324846273931111 0 -0.50000000000000111 -0.12498171717863731 0 -0.48827360080937021 -0.13531742911399189 0 -0.47378690055839578 -0.1249759511259078 0 -0.50000000000000111 -0.12498171717863731 0 -0.5 -0.14324846273931111 0 -0.47930750267908417 -0.1480635854121114 0 -0.49999999999999961 -0.161515208299985 0 -0.48827360080937021 -0.13531742911399189 0 -0.5 -0.14324846273931111 0 -0.47930750267908417 -0.1480635854121114 0 -0.47930750267908417 -0.1480635854121114 0 -0.47738728335761421 -0.1682509267597351 0 -0.46278066629215481 -0.1610158872753634 0 -0.47738728335761421 -0.1682509267597351 0 -0.49999999999999961 -0.161515208299985 0 -0.48839409620634278 -0.18039624849769001 0 -0.49999999999999961 -0.161515208299985 0 -0.48839409620634278 -0.18039624849769001 0 -0.47930750267908417 -0.1480635854121114 0 -0.47738728335761421 -0.1682509267597351 0 -0.49999999999999961 -0.161515208299985 0 -0.49999999999999961 -0.161515208299985 0 -0.5 -0.18618779176616679 0 -0.48839409620634278 -0.18039624849769001 0 -0.5 -0.18618779176616679 0 -0.48839409620634278 -0.18039624849769001 0 -0.48957789370491162 -0.19386933705848941 0 -0.47738728335761421 -0.1682509267597351 0 -0.48839409620634278 -0.18039624849769001 0 -0.47328693949397721 -0.18411760774338479 0 -0.47738728335761421 -0.1682509267597351 0 -0.47328693949397721 -0.18411760774338479 0 -0.45860677246597031 -0.17520894370368309 0 -0.47328693949397721 -0.18411760774338479 0 -0.45860677246597031 -0.17520894370368309 0 -0.45906836497473352 -0.19043479360484361 0 -0.47738728335761421 -0.1682509267597351 0 -0.45860677246597031 -0.17520894370368309 0 -0.46278066629215481 -0.1610158872753634 0 -0.45860677246597031 -0.17520894370368309 0 -0.46278066629215481 -0.1610158872753634 0 -0.44631139980808621 -0.1631836851414229 0 -0.42880774722037651 -0.1679247830322266 0 -0.44631139980808621 -0.1631836851414229 0 -0.44134853753678083 -0.18159229851429221 0 -0.45860677246597031 -0.17520894370368309 0 -0.44631139980808621 -0.1631836851414229 0 -0.44134853753678083 -0.18159229851429221 0 -0.45860677246597031 -0.17520894370368309 0 -0.44134853753678083 -0.18159229851429221 0 -0.45906836497473352 -0.19043479360484361 0 -0.44134853753678083 -0.18159229851429221 0 -0.45906836497473352 -0.19043479360484361 0 -0.44134853753678083 -0.18159229851429221 0 -0.44484374680150301 -0.19597231310248839 0 -0.45906836497473352 -0.19043479360484361 0 -0.43155084310578928 -0.2059016662048701 0 -0.44484374680150301 -0.19597231310248839 0 -0.44343463088850471 -0.20721188330797369 0 -0.43155084310578928 -0.2059016662048701 0 -0.44343463088850471 -0.20721188330797369 0 -0.43955036875351089 -0.21658504913102711 0 -0.44343463088850471 -0.20721188330797369 0 -0.43955036875351089 -0.21658504913102711 0 -0.44966782191270221 -0.21345696714665749 0 -0.44966782191270221 -0.21345696714665749 0 -0.45691127413918359 -0.218140336649912 0 -0.44903912237987481 -0.22310222333220869 0 -0.43955036875351089 -0.21658504913102711 0 -0.44966782191270221 -0.21345696714665749 0 -0.44903912237987481 -0.22310222333220869 0 -0.44484374680150301 -0.19597231310248839 0 -0.44343463088850471 -0.20721188330797369 0 -0.45285363365211462 -0.2065344908709397 0 -0.44343463088850471 -0.20721188330797369 0 -0.44966782191270221 -0.21345696714665749 0 -0.45285363365211462 -0.2065344908709397 0 -0.45285363365211462 -0.2065344908709397 0 -0.4586721235044201 -0.2110072970525271 0 -0.46764984515344349 -0.20502399374505181 0 -0.44966782191270221 -0.21345696714665749 0 -0.45285363365211462 -0.2065344908709397 0 -0.4586721235044201 -0.2110072970525271 0 -0.44966782191270221 -0.21345696714665749 0 -0.4586721235044201 -0.2110072970525271 0 -0.45691127413918359 -0.218140336649912 0 -0.4586721235044201 -0.2110072970525271 0 -0.45691127413918359 -0.218140336649912 0 -0.46757130244775341 -0.21427176676618889 0 -0.4586721235044201 -0.2110072970525271 0 -0.46757130244775341 -0.21427176676618889 0 -0.46764984515344349 -0.20502399374505181 0 -0.44484374680150301 -0.19597231310248839 0 -0.46764984515344349 -0.20502399374505181 0 -0.45906836497473352 -0.19043479360484361 0 -0.44484374680150301 -0.19597231310248839 0 -0.45285363365211462 -0.2065344908709397 0 -0.46764984515344349 -0.20502399374505181 0 -0.45906836497473352 -0.19043479360484361 0 -0.47678819241268611 -0.1992772886953951 0 -0.44484374680150301 -0.19597231310248839 0 -0.46764984515344349 -0.20502399374505181 0 -0.46764984515344349 -0.20502399374505181 0 -0.45906836497473352 -0.19043479360484361 0 -0.47678819241268611 -0.1992772886953951 0 -0.47328693949397721 -0.18411760774338479 0 -0.45906836497473352 -0.19043479360484361 0 -0.47678819241268611 -0.1992772886953951 0 -0.48839409620634278 -0.18039624849769001 0 -0.47328693949397721 -0.18411760774338479 0 -0.47678819241268611 -0.1992772886953951 0 -0.48839409620634278 -0.18039624849769001 0 -0.47678819241268611 -0.1992772886953951 0 -0.47678819241268611 -0.1992772886953951 0 -0.48957789370491162 -0.19386933705848941 0 -0.50000000000000222 -0.21086037523234849 0 -0.48839409620634278 -0.18039624849769001 0 -0.47678819241268611 -0.1992772886953951 0 -0.48957789370491162 -0.19386933705848941 0 -0.5 -0.18618779176616679 0 -0.48957789370491162 -0.19386933705848941 0 -0.50000000000000222 -0.21086037523234849 0 -0.50000000000000222 -0.21086037523234849 0 -0.48101414991814051 -0.21220490785157131 0 -0.4775447229854059 -0.22535576830415929 0 -0.47678819241268611 -0.1992772886953951 0 -0.50000000000000222 -0.21086037523234849 0 -0.47678819241268611 -0.1992772886953951 0 -0.50000000000000222 -0.21086037523234849 0 -0.48101414991814051 -0.21220490785157131 0 -0.46757130244775341 -0.21427176676618889 0 -0.47678819241268611 -0.1992772886953951 0 -0.48101414991814051 -0.21220490785157131 0 -0.46757130244775341 -0.21427176676618889 0 -0.47678819241268611 -0.1992772886953951 0 -0.46757130244775341 -0.21427176676618889 0 -0.46764984515344349 -0.20502399374505181 0 -0.47678819241268611 -0.1992772886953951 0 -0.46757130244775341 -0.21427176676618889 0 -0.48101414991814051 -0.21220490785157131 0 -0.4775447229854059 -0.22535576830415929 0 -0.46757130244775341 -0.21427176676618889 0 -0.4775447229854059 -0.22535576830415929 0 -0.46571952953094348 -0.22577651025912229 0 -0.4775447229854059 -0.22535576830415929 0 -0.4726071657750785 -0.240360200228666 0 -0.45676275941016609 -0.23628729483617639 0 -0.50000000000000222 -0.21086037523234849 0 -0.4775447229854059 -0.22535576830415929 0 -0.48548116721245049 -0.23774912910784329 0 -0.50000000000000222 -0.21086037523234849 0 -0.5 -0.2401545466321974 0 -0.48548116721245049 -0.23774912910784329 0 -0.48050148842732221 -0.25523221810557922 0 -0.5 -0.2401545466321974 0 -0.48548116721245049 -0.23774912910784329 0 -0.48050148842732221 -0.25523221810557922 0 -0.4726071657750785 -0.240360200228666 0 -0.46267023581878858 -0.24817136713935201 0 -0.48050148842732221 -0.25523221810557922 0 -0.48548116721245049 -0.23774912910784329 0 -0.4726071657750785 -0.240360200228666 0 -0.4775447229854059 -0.22535576830415929 0 -0.48548116721245049 -0.23774912910784329 0 -0.4726071657750785 -0.240360200228666 0 -0.4726071657750785 -0.240360200228666 0 -0.46267023581878858 -0.24817136713935201 0 -0.45676275941016609 -0.23628729483617639 0 -0.46267023581878858 -0.24817136713935201 0 -0.45676275941016609 -0.23628729483617639 0 -0.45139902778349827 -0.24711062934306771 0 -0.4775447229854059 -0.22535576830415929 0 -0.45676275941016609 -0.23628729483617639 0 -0.46571952953094348 -0.22577651025912229 0 -0.4775447229854059 -0.22535576830415929 0 -0.45676275941016609 -0.23628729483617639 0 -0.46757130244775341 -0.21427176676618889 0 -0.45835441248282049 -0.22926624483698249 0 -0.45691127413918359 -0.218140336649912 0 -0.46757130244775341 -0.21427176676618889 0 -0.45835441248282049 -0.22926624483698249 0 -0.46757130244775341 -0.21427176676618889 0 -0.46571952953094348 -0.22577651025912229 0 -0.45835441248282049 -0.22926624483698249 0 -0.45691127413918359 -0.218140336649912 0 -0.45835441248282049 -0.22926624483698249 0 -0.44903912237987481 -0.22310222333220869 0 -0.45676275941016609 -0.23628729483617639 0 -0.46571952953094348 -0.22577651025912229 0 -0.45835441248282049 -0.22926624483698249 0 -0.45676275941016609 -0.23628729483617639 0 -0.45835441248282049 -0.22926624483698249 0 -0.44784406772060242 -0.23291584907632601 0 -0.45835441248282049 -0.22926624483698249 0 -0.44784406772060242 -0.23291584907632601 0 -0.44903912237987481 -0.22310222333220869 0 -0.44784406772060242 -0.23291584907632601 0 -0.44903912237987481 -0.22310222333220869 0 -0.43908324849522451 -0.2287046610080686 0 -0.43955036875351089 -0.21658504913102711 0 -0.44903912237987481 -0.22310222333220869 0 -0.43908324849522451 -0.2287046610080686 0 -0.43598079583492633 -0.24721882136819351 0 -0.44784406772060242 -0.23291584907632601 0 -0.43908324849522451 -0.2287046610080686 0 -0.43598079583492633 -0.24721882136819351 0 -0.45676275941016609 -0.23628729483617639 0 -0.45139902778349827 -0.24711062934306771 0 -0.43598079583492633 -0.24721882136819351 0 -0.45676275941016609 -0.23628729483617639 0 -0.44784406772060242 -0.23291584907632601 0 -0.43598079583492633 -0.24721882136819351 0 -0.45676275941016609 -0.23628729483617639 0 -0.41513049604948221 -0.033942569896895612 0 -0.42680670243505803 -0.034615113076212713 0 -0.40073055052989021 -0.025701474464423758 0 -0.41513049604948221 -0.033942569896895612 0 -0.42462943043776058 -0.041038039404546971 0 -0.40237332615973681 -0.030676944162886681 0 -0.42462943043776058 -0.041038039404546971 0 -0.40237332615973681 -0.030676944162886681 0 -0.41105872637709778 -0.041104419315527559 0 -0.42462943043776058 -0.041038039404546971 0 -0.40237332615973681 -0.030676944162886681 0 -0.41795689190558921 -0.046390941043723911 0 -0.41105872637709778 -0.041104419315527559 0 -0.42462943043776058 -0.041038039404546971 0 -0.41513049604948221 -0.033942569896895612 0 -0.42462943043776058 -0.041038039404546971 0 -0.4243569293735685 -0.037306081984415762 0 -0.41105872637709778 -0.041104419315527559 0 -0.4050251302254127 -0.045922345921936697 0 -0.40306291723554027 -0.039039715031688543 0 -0.41795689190558921 -0.046390941043723911 0 -0.41105872637709778 -0.041104419315527559 0 -0.41174405323292163 -0.047949206462353358 0 -0.41105872637709778 -0.041104419315527559 0 -0.41174405323292163 -0.047949206462353358 0 -0.4050251302254127 -0.045922345921936697 0 -0.41174405323292163 -0.047949206462353358 0 -0.4050251302254127 -0.045922345921936697 0 -0.40603099279739802 -0.054788986838451827 0 -0.41174405323292163 -0.047949206462353358 0 -0.4187470457232762 -0.053937065845881961 0 -0.40603099279739802 -0.054788986838451827 0 -0.4187470457232762 -0.053937065845881961 0 -0.40603099279739802 -0.054788986838451827 0 -0.41284572228237681 -0.064006668923108523 0 -0.4187470457232762 -0.053937065845881961 0 -0.41284572228237681 -0.064006668923108523 0 -0.42746868386642678 -0.066478460468227696 0 -0.41795689190558921 -0.046390941043723911 0 -0.41174405323292163 -0.047949206462353358 0 -0.4187470457232762 -0.053937065845881961 0 -0.41795689190558921 -0.046390941043723911 0 -0.4187470457232762 -0.053937065845881961 0 -0.42320145590089769 -0.048540393412862697 0 -0.42320145590089769 -0.048540393412862697 0 -0.43147245553696489 -0.05279552735729795 0 -0.42462943043776058 -0.041038039404546971 0 -0.4187470457232762 -0.053937065845881961 0 -0.42320145590089769 -0.048540393412862697 0 -0.43147245553696489 -0.05279552735729795 0 -0.43147245553696489 -0.05279552735729795 0 -0.42462943043776058 -0.041038039404546971 0 -0.44688553471578463 -0.051399134646207288 0 -0.4187470457232762 -0.053937065845881961 0 -0.43147245553696489 -0.05279552735729795 0 -0.42746868386642678 -0.066478460468227696 0 -0.43147245553696489 -0.05279552735729795 0 -0.42746868386642678 -0.066478460468227696 0 -0.43950717444435422 -0.063784996514660589 0 -0.42818951741271921 -0.038310772776573528 0 -0.43628267576141971 -0.035329403205585218 0 -0.44688553471578463 -0.051399134646207288 0 -0.42462943043776058 -0.041038039404546971 0 -0.42818951741271921 -0.038310772776573528 0 -0.44688553471578463 -0.051399134646207288 0 -0.42462943043776058 -0.041038039404546971 0 -0.44688553471578463 -0.051399134646207288 0 -0.41795689190558921 -0.046390941043723911 0 -0.42320145590089769 -0.048540393412862697 0 -0.42462943043776058 -0.041038039404546971 0 -0.41513049604948221 -0.033942569896895612 0 -0.4243569293735685 -0.037306081984415762 0 -0.42680670243505803 -0.034615113076212713 0 -0.42462943043776058 -0.041038039404546971 0 -0.4243569293735685 -0.037306081984415762 0 -0.42818951741271921 -0.038310772776573528 0 -0.42818951741271921 -0.038310772776573528 0 -0.42680670243505803 -0.034615113076212713 0 -0.4243569293735685 -0.037306081984415762 0 -0.42818951741271921 -0.038310772776573528 0 -0.42680670243505803 -0.034615113076212713 0 -0.42818951741271921 -0.038310772776573528 0 -0.42680670243505803 -0.034615113076212713 0 -0.42995577540377822 -0.032900560567165532 0 -0.42818951741271921 -0.038310772776573528 0 -0.42995577540377822 -0.032900560567165532 0 -0.43628267576141971 -0.035329403205585218 0 -0.42995577540377822 -0.032900560567165532 0 -0.43628267576141971 -0.035329403205585218 0 -0.4327931004709421 -0.029092843067932112 0 -0.42680670243505803 -0.034615113076212713 0 -0.4285090787839364 -0.025262373234060161 0 -0.41794895562780338 -0.01094222954485795 0 -0.42680670243505803 -0.034615113076212713 0 -0.41794895562780338 -0.01094222954485795 0 -0.43628267576141971 -0.035329403205585218 0 -0.4327931004709421 -0.029092843067932112 0 -0.43710875721387199 -0.026668229939385779 0 -0.42995577540377822 -0.032900560567165532 0 -0.4327931004709421 -0.029092843067932112 0 -0.4285090787839364 -0.025262373234060161 0 -0.43210921519170409 -0.025303648393463829 0 -0.43710875721387199 -0.026668229939385779 0 -0.43108579893039811 -0.01948839847471974 0 -0.4327931004709421 -0.029092843067932112 0 -0.43210921519170409 -0.025303648393463829 0 -0.4285090787839364 -0.025262373234060161 0 -0.4327931004709421 -0.029092843067932112 0 -0.43210921519170409 -0.025303648393463829 0 -0.43710875721387199 -0.026668229939385779 0 -0.43108579893039811 -0.01948839847471974 0 -0.43397544616601241 -0.014244232554068349 0 -0.43928417642389239 -0.017661557407765791 0 -0.43710875721387199 -0.026668229939385779 0 -0.43108579893039811 -0.01948839847471974 0 -0.43928417642389239 -0.017661557407765791 0 -0.43210921519170409 -0.025303648393463829 0 -0.43108579893039811 -0.01948839847471974 0 -0.4285090787839364 -0.025262373234060161 0 -0.43108579893039811 -0.01948839847471974 0 -0.4285090787839364 -0.025262373234060161 0 -0.41794895562780338 -0.01094222954485795 0 -0.42680670243505803 -0.034615113076212713 0 -0.42995577540377822 -0.032900560567165532 0 -0.4285090787839364 -0.025262373234060161 0 -0.43591977417237449 -0.008065469867085449 0 -0.42907061680018699 -0.010664914002041091 0 -0.42583279771702431 0.00046528033667210148 0 -0.43108579893039811 -0.01948839847471974 0 -0.43397544616601241 -0.014244232554068349 0 -0.42907061680018699 -0.010664914002041091 0 -0.43591977417237449 -0.008065469867085449 0 -0.43397544616601241 -0.014244232554068349 0 -0.43928417642389239 -0.017661557407765791 0 -0.43591977417237449 -0.008065469867085449 0 -0.43397544616601241 -0.014244232554068349 0 -0.42907061680018699 -0.010664914002041091 0 -0.43108579893039811 -0.01948839847471974 0 -0.42907061680018699 -0.010664914002041091 0 -0.41794895562780338 -0.01094222954485795 0 -0.42907061680018699 -0.010664914002041091 0 -0.41794895562780338 -0.01094222954485795 0 -0.42583279771702431 0.00046528033667210148 0 -0.41794895562780338 -0.01094222954485795 0 -0.4102220184461346 -0.019351118920435541 0 -0.40021295305484711 -0.013852611056198059 0 -0.41794895562780338 -0.01094222954485795 0 -0.40352261506359649 -0.001038070178381474 0 -0.40021295305484711 -0.013852611056198059 0 -0.42680670243505803 -0.034615113076212713 0 -0.41794895562780338 -0.01094222954485795 0 -0.4102220184461346 -0.019351118920435541 0 -0.42680670243505803 -0.034615113076212713 0 -0.4102220184461346 -0.019351118920435541 0 -0.40073055052989021 -0.025701474464423758 0 -0.42680670243505803 -0.034615113076212713 0 -0.40073055052989021 -0.025701474464423758 0 -0.41513049604948221 -0.033942569896895612 0 -0.40073055052989021 -0.025701474464423758 0 -0.40237332615973681 -0.030676944162886681 0 -0.40073055052989021 -0.025701474464423758 0 -0.40237332615973681 -0.030676944162886681 0 -0.38011722188171299 -0.020315848921226409 0 -0.40237332615973681 -0.030676944162886681 0 -0.38011722188171299 -0.020315848921226409 0 -0.4102220184461346 -0.019351118920435541 0 -0.40073055052989021 -0.025701474464423758 0 -0.40021295305484711 -0.013852611056198059 0 -0.40073055052989021 -0.025701474464423758 0 -0.40021295305484711 -0.013852611056198059 0 -0.38745402304870558 -0.01483805838738575 0 -0.40352261506359649 -0.001038070178381474 0 -0.40021295305484711 -0.013852611056198059 0 -0.39408165103759368 -0.0019794594859314238 0 -0.40021295305484711 -0.013852611056198059 0 -0.39408165103759368 -0.0019794594859314238 0 -0.39005949432245718 -0.0085411321607220259 0 -0.40021295305484711 -0.013852611056198059 0 -0.39005949432245718 -0.0085411321607220259 0 -0.38745402304870558 -0.01483805838738575 0 -0.39408165103759368 -0.0019794594859314238 0 -0.3848191179490616 -0.0027051675553946518 0 -0.39005949432245718 -0.0085411321607220259 0 -0.3848191179490616 -0.0027051675553946518 0 -0.38372972652207787 -0.0093303643187002475 0 -0.39005949432245718 -0.0085411321607220259 0 -0.38372972652207787 -0.0093303643187002475 0 -0.38745402304870558 -0.01483805838738575 0 -0.3791207175096093 -0.01135650732177081 0 -0.38372972652207787 -0.0093303643187002475 0 -0.39005949432245718 -0.0085411321607220259 0 -0.38745402304870558 -0.01483805838738575 0 -0.37465439862472261 -0.016787835852634068 0 -0.37464851222799189 -0.0076089195940836872 0 -0.3791207175096093 -0.01135650732177081 0 -0.37465439862472261 -0.016787835852634068 0 -0.38745402304870558 -0.01483805838738575 0 -0.3791207175096093 -0.01135650732177081 0 -0.37464851222799189 -0.0076089195940836872 0 -0.3791207175096093 -0.01135650732177081 0 -0.37960876280762101 -0.0064231604720931881 0 -0.38372972652207787 -0.0093303643187002475 0 -0.3791207175096093 -0.01135650732177081 0 -0.37960876280762101 -0.0064231604720931881 0 -0.3848191179490616 -0.0027051675553946518 0 -0.38372972652207787 -0.0093303643187002475 0 -0.37960876280762101 -0.0064231604720931881 0 -0.37464851222799189 -0.0076089195940836872 0 -0.37960876280762101 -0.0064231604720931881 0 -0.37774077980655368 -0.001289555558904682 0 -0.3848191179490616 -0.0027051675553946518 0 -0.37960876280762101 -0.0064231604720931881 0 -0.37774077980655368 -0.001289555558904682 0 -0.37465439862472261 -0.016787835852634068 0 -0.40073055052989021 -0.025701474464423758 0 -0.38745402304870558 -0.01483805838738575 0 -0.40237332615973681 -0.030676944162886681 0 -0.38781453024876661 -0.02996800237218563 0 -0.38011722188171299 -0.020315848921226409 0 -0.37465439862472261 -0.016787835852634068 0 -0.40073055052989021 -0.025701474464423758 0 -0.38011722188171299 -0.020315848921226409 0 -0.37465439862472261 -0.016787835852634068 0 -0.40073055052989021 -0.025701474464423758 0 -0.37402384376206249 -0.023759624541515059 0 -0.37465439862472261 -0.016787835852634068 0 -0.38011722188171299 -0.020315848921226409 0 -0.37402384376206249 -0.023759624541515059 0 -0.38011722188171299 -0.020315848921226409 0 -0.37866743010551202 -0.02906954498465647 0 -0.38781453024876661 -0.02996800237218563 0 -0.38011722188171299 -0.020315848921226409 0 -0.37866743010551202 -0.02906954498465647 0 -0.37439980638912518 -0.038891661293645137 0 -0.37866743010551202 -0.02906954498465647 0 -0.38394575501216083 -0.036535335565972972 0 -0.37439980638912518 -0.038891661293645137 0 -0.37993408630244868 -0.045501240077299353 0 -0.38394575501216083 -0.036535335565972972 0 -0.37085155020467431 -0.050438611479832557 0 -0.37439980638912518 -0.038891661293645137 0 -0.37993408630244868 -0.045501240077299353 0 -0.37993408630244868 -0.045501240077299353 0 -0.38895054345211377 -0.045335196083553769 0 -0.38394575501216083 -0.036535335565972972 0 -0.38895054345211377 -0.045335196083553769 0 -0.38394575501216083 -0.036535335565972972 0 -0.39396365166307989 -0.03445798481758762 0 -0.38781453024876661 -0.02996800237218563 0 -0.38394575501216083 -0.036535335565972972 0 -0.39396365166307989 -0.03445798481758762 0 -0.38781453024876661 -0.02996800237218563 0 -0.37866743010551202 -0.02906954498465647 0 -0.38394575501216083 -0.036535335565972972 0 -0.40237332615973681 -0.030676944162886681 0 -0.38781453024876661 -0.02996800237218563 0 -0.39396365166307989 -0.03445798481758762 0 -0.39396365166307989 -0.03445798481758762 0 -0.39750411751227832 -0.042292212187568533 0 -0.39928834571923882 -0.035924112998793431 0 -0.38895054345211377 -0.045335196083553769 0 -0.39396365166307989 -0.03445798481758762 0 -0.39750411751227832 -0.042292212187568533 0 -0.39750411751227832 -0.042292212187568533 0 -0.4050251302254127 -0.045922345921936697 0 -0.40306291723554027 -0.039039715031688543 0 -0.39750411751227832 -0.042292212187568533 0 -0.40306291723554027 -0.039039715031688543 0 -0.39928834571923882 -0.035924112998793431 0 -0.40237332615973681 -0.030676944162886681 0 -0.39396365166307989 -0.03445798481758762 0 -0.39928834571923882 -0.035924112998793431 0 -0.41105872637709778 -0.041104419315527559 0 -0.40237332615973681 -0.030676944162886681 0 -0.40306291723554027 -0.039039715031688543 0 -0.40237332615973681 -0.030676944162886681 0 -0.40306291723554027 -0.039039715031688543 0 -0.39928834571923882 -0.035924112998793431 0 -0.40603099279739802 -0.054788986838451827 0 -0.39527915405366182 -0.064437672488960096 0 -0.41284572228237681 -0.064006668923108523 0 -0.40603099279739802 -0.054788986838451827 0 -0.39443592701229091 -0.053019652188425637 0 -0.39527915405366182 -0.064437672488960096 0 -0.4050251302254127 -0.045922345921936697 0 -0.40603099279739802 -0.054788986838451827 0 -0.39443592701229091 -0.053019652188425637 0 -0.39750411751227832 -0.042292212187568533 0 -0.4050251302254127 -0.045922345921936697 0 -0.39443592701229091 -0.053019652188425637 0 -0.38895054345211377 -0.045335196083553769 0 -0.39750411751227832 -0.042292212187568533 0 -0.39443592701229091 -0.053019652188425637 0 -0.39443592701229091 -0.053019652188425637 0 -0.38221605892473098 -0.056125323053866277 0 -0.39527915405366182 -0.064437672488960096 0 -0.36608399240098949 -0.063120758007335118 0 -0.38221605892473098 -0.056125323053866277 0 -0.37978412082390189 -0.068029865631836883 0 -0.38895054345211377 -0.045335196083553769 0 -0.39443592701229091 -0.053019652188425637 0 -0.38221605892473098 -0.056125323053866277 0 -0.37993408630244868 -0.045501240077299353 0 -0.38895054345211377 -0.045335196083553769 0 -0.38221605892473098 -0.056125323053866277 0 -0.37085155020467431 -0.050438611479832557 0 -0.37993408630244868 -0.045501240077299353 0 -0.38221605892473098 -0.056125323053866277 0 -0.36843110820579178 -0.075527255856609146 0 -0.37978412082390189 -0.068029865631836883 0 -0.38691029053433551 -0.080938318752413793 0 -0.37978412082390189 -0.068029865631836883 0 -0.38691029053433551 -0.080938318752413793 0 -0.39527915405366182 -0.064437672488960096 0 -0.38221605892473098 -0.056125323053866277 0 -0.37978412082390189 -0.068029865631836883 0 -0.39527915405366182 -0.064437672488960096 0 -0.37380044498630338 -0.100392191664622 0 -0.36747037526515469 -0.088210616938563927 0 -0.38691029053433551 -0.080938318752413793 0 -0.36843110820579178 -0.075527255856609146 0 -0.38691029053433551 -0.080938318752413793 0 -0.40007542381043809 -0.086939242353532731 0 -0.39460333317738627 -0.1006873657273652 0 -0.41352047356827321 -0.0909948847898496 0 -0.38691029053433551 -0.080938318752413793 0 -0.40007542381043809 -0.086939242353532731 0 -0.40767355229219521 -0.074626636544090755 0 -0.38691029053433551 -0.080938318752413793 0 -0.40007542381043809 -0.086939242353532731 0 -0.39460333317738627 -0.1006873657273652 0 -0.38691029053433551 -0.080938318752413793 0 -0.39527915405366182 -0.064437672488960096 0 -0.40767355229219521 -0.074626636544090755 0 -0.39527915405366182 -0.064437672488960096 0 -0.41284572228237681 -0.064006668923108523 0 -0.40767355229219521 -0.074626636544090755 0 -0.36893450279197471 -0.1249528869149899 0 -0.3789649235099295 -0.11270856972454819 0 -0.39514760223357998 -0.1249586529677193 0 -0.36893450279197471 -0.1249528869149899 0 -0.39514760223357998 -0.1249586529677193 0 -0.3789649235099295 -0.11270856972454819 0 -0.39460333317738627 -0.1006873657273652 0 -0.39514760223357998 -0.1249586529677193 0 -0.37380044498630338 -0.100392191664622 0 -0.38691029053433551 -0.080938318752413793 0 -0.39460333317738627 -0.1006873657273652 0 -0.37380044498630338 -0.100392191664622 0 -0.3789649235099295 -0.11270856972454819 0 -0.39460333317738627 -0.1006873657273652 0 -0.39460333317738627 -0.1006873657273652 0 -0.39514760223357998 -0.1249586529677193 0 -0.4114708495464785 -0.1093321351213095 0 -0.42136070167518519 -0.1249644190204488 0 -0.4114708495464785 -0.1093321351213095 0 -0.43272213707796769 -0.1050553531011644 0 -0.39514760223357998 -0.1249586529677193 0 -0.42136070167518519 -0.1249644190204488 0 -0.39514760223357998 -0.1249586529677193 0 -0.42136070167518519 -0.1249644190204488 0 -0.4114708495464785 -0.1093321351213095 0 -0.39460333317738627 -0.1006873657273652 0 -0.4114708495464785 -0.1093321351213095 0 -0.41352047356827321 -0.0909948847898496 0 -0.4114708495464785 -0.1093321351213095 0 -0.43272213707796769 -0.1050553531011644 0 -0.41352047356827321 -0.0909948847898496 0 -0.42136070167518519 -0.1249644190204488 0 -0.43272213707796769 -0.1050553531011644 0 -0.44757380111679052 -0.12497018507317829 0 -0.42136070167518519 -0.1249644190204488 0 -0.44757380111679052 -0.12497018507317829 0 -0.42023793718526542 -0.076451056482049876 0 -0.41284572228237681 -0.064006668923108523 0 -0.42746868386642678 -0.066478460468227696 0 -0.42023793718526542 -0.076451056482049876 0 -0.41284572228237681 -0.064006668923108523 0 -0.40767355229219521 -0.074626636544090755 0 -0.42023793718526542 -0.076451056482049876 0 -0.40767355229219521 -0.074626636544090755 0 -0.41352047356827321 -0.0909948847898496 0 -0.40007542381043809 -0.086939242353532731 0 -0.40767355229219521 -0.074626636544090755 0 -0.41352047356827321 -0.0909948847898496 0 -0.42023793718526542 -0.076451056482049876 0 -0.41352047356827321 -0.0909948847898496 0 -0.43051036701793649 -0.083964229305721505 0 -0.43272213707796769 -0.1050553531011644 0 -0.41352047356827321 -0.0909948847898496 0 -0.43051036701793649 -0.083964229305721505 0 -0.43272213707796769 -0.1050553531011644 0 -0.43051036701793649 -0.083964229305721505 0 -0.44869793539396702 -0.090613631575090198 0 -0.43051036701793649 -0.083964229305721505 0 -0.42746868386642678 -0.066478460468227696 0 -0.43938561630945938 -0.075374003134316428 0 -0.42023793718526542 -0.076451056482049876 0 -0.43051036701793649 -0.083964229305721505 0 -0.42746868386642678 -0.066478460468227696 0 -0.42746868386642678 -0.066478460468227696 0 -0.43950717444435422 -0.063784996514660589 0 -0.43938561630945938 -0.075374003134316428 0 -0.43950717444435422 -0.063784996514660589 0 -0.45074392082461212 -0.072028697807882153 0 -0.43938561630945938 -0.075374003134316428 0 -0.43051036701793649 -0.083964229305721505 0 -0.43938561630945938 -0.075374003134316428 0 -0.44869793539396702 -0.090613631575090198 0 -0.45074392082461212 -0.072028697807882153 0 -0.43938561630945938 -0.075374003134316428 0 -0.44869793539396702 -0.090613631575090198 0 -0.45074392082461212 -0.072028697807882153 0 -0.44869793539396702 -0.090613631575090198 0 -0.4647336852437608 -0.080388630180202481 0 -0.44869793539396702 -0.090613631575090198 0 -0.4647336852437608 -0.080388630180202481 0 -0.47380622041468068 -0.096022360055862885 0 -0.4647336852437608 -0.080388630180202481 0 -0.46264955769922828 -0.069236149835977229 0 -0.47254815090776853 -0.069469283055039688 0 -0.45074392082461212 -0.072028697807882153 0 -0.46264955769922828 -0.069236149835977229 0 -0.44688553471578463 -0.051399134646207288 0 -0.46264955769922828 -0.069236149835977229 0 -0.47254815090776853 -0.069469283055039688 0 -0.46914163899380801 -0.061760229887868598 0 -0.45074392082461212 -0.072028697807882153 0 -0.4647336852437608 -0.080388630180202481 0 -0.46264955769922828 -0.069236149835977229 0 -0.43272213707796769 -0.1050553531011644 0 -0.44757380111679052 -0.12497018507317829 0 -0.46022938895027038 -0.10869066194517669 0 -0.43272213707796769 -0.1050553531011644 0 -0.44869793539396702 -0.090613631575090198 0 -0.46022938895027038 -0.10869066194517669 0 -0.44869793539396702 -0.090613631575090198 0 -0.46022938895027038 -0.10869066194517669 0 -0.47380622041468068 -0.096022360055862885 0 -0.44757380111679052 -0.12497018507317829 0 -0.47378690055839578 -0.1249759511259078 0 -0.44757380111679052 -0.12497018507317829 0 -0.46022938895027038 -0.10869066194517669 0 -0.47378690055839578 -0.1249759511259078 0 -0.46022938895027038 -0.10869066194517669 0 -0.47378690055839578 -0.1249759511259078 0 -0.48374478807960558 -0.1092121363906397 0 -0.46022938895027038 -0.10869066194517669 0 -0.48374478807960558 -0.1092121363906397 0 -0.47380622041468068 -0.096022360055862885 0 -0.48374478807960558 -0.1092121363906397 0 -0.47380622041468068 -0.096022360055862885 0 -0.48832582805197727 -0.092109142267116931 0 -0.48374478807960558 -0.1092121363906397 0 -0.5 -0.10055386622176241 0 -0.48832582805197727 -0.092109142267116931 0 -0.47378690055839578 -0.1249759511259078 0 -0.48374478807960558 -0.1092121363906397 0 -0.50000000000000111 -0.12498171717863731 0 -0.48374478807960558 -0.1092121363906397 0 -0.5 -0.10055386622176241 0 -0.50000000000000111 -0.12498171717863731 0 -0.47378690055839578 -0.1249759511259078 0 -0.50000000000000111 -0.12498171717863731 0 -0.47254815090776853 -0.069469283055039688 0 -0.47913967023945842 -0.082463322467565006 0 -0.48457081949690362 -0.068943122576377761 0 -0.47913967023945842 -0.082463322467565006 0 -0.48808502354595151 -0.080031310268457945 0 -0.48457081949690362 -0.068943122576377761 0 -0.48457081949690362 -0.068943122576377761 0 -0.46914163899380801 -0.061760229887868598 0 -0.48457081949690362 -0.068943122576377761 0 -0.48230491698392047 -0.057318093012348498 0 -0.46914163899380801 -0.061760229887868598 0 -0.47254815090776853 -0.069469283055039688 0 -0.48457081949690362 -0.068943122576377761 0 -0.46914163899380801 -0.061760229887868598 0 -0.47254815090776853 -0.069469283055039688 0 -0.46914163899380801 -0.061760229887868598 0 -0.4647336852437608 -0.080388630180202481 0 -0.47254815090776853 -0.069469283055039688 0 -0.47913967023945842 -0.082463322467565006 0 -0.4647336852437608 -0.080388630180202481 0 -0.47380622041468068 -0.096022360055862885 0 -0.47913967023945842 -0.082463322467565006 0 -0.47380622041468068 -0.096022360055862885 0 -0.47913967023945842 -0.082463322467565006 0 -0.48832582805197727 -0.092109142267116931 0 -0.5 -0.10055386622176241 0 -0.48832582805197727 -0.092109142267116931 0 -0.499999999999999 -0.07612601526488752 0 -0.48808502354595151 -0.080031310268457945 0 -0.48832582805197727 -0.092109142267116931 0 -0.499999999999999 -0.07612601526488752 0 -0.47913967023945842 -0.082463322467565006 0 -0.48808502354595151 -0.080031310268457945 0 -0.48832582805197727 -0.092109142267116931 0 -0.499999999999999 -0.07612601526488752 0 -0.48457081949690362 -0.068943122576377761 0 -0.499999999999999 -0.07612601526488752 0 -0.48457081949690362 -0.068943122576377761 0 -0.5 -0.055081012739928707 0 -0.48808502354595151 -0.080031310268457945 0 -0.499999999999999 -0.07612601526488752 0 -0.48457081949690362 -0.068943122576377761 0 -0.48457081949690362 -0.068943122576377761 0 -0.5 -0.055081012739928707 0 -0.48230491698392047 -0.057318093012348498 0 -0.5 -0.055081012739928707 0 -0.48157039955536241 -0.044558511477442143 0 -0.48230491698392047 -0.057318093012348498 0 -0.5 -0.055081012739928707 0 -0.500000000000004 -0.034036010214970061 0 -0.48157039955536241 -0.044558511477442143 0 -0.500000000000004 -0.034036010214970061 0 -0.48157039955536241 -0.044558511477442143 0 -0.48148290990478199 -0.029591545163434652 0 -0.48157039955536241 -0.044558511477442143 0 -0.45768975774058179 -0.035844230274481748 0 -0.48148290990478199 -0.029591545163434652 0 -0.48157039955536241 -0.044558511477442143 0 -0.46914163899380801 -0.061760229887868598 0 -0.45768975774058179 -0.035844230274481748 0 -0.48157039955536241 -0.044558511477442143 0 -0.48230491698392047 -0.057318093012348498 0 -0.46914163899380801 -0.061760229887868598 0 -0.46914163899380801 -0.061760229887868598 0 -0.45768975774058179 -0.035844230274481748 0 -0.44688553471578463 -0.051399134646207288 0 -0.46914163899380801 -0.061760229887868598 0 -0.45768975774058179 -0.035844230274481748 0 -0.46264955769922828 -0.069236149835977229 0 -0.46914163899380801 -0.061760229887868598 0 -0.44688553471578463 -0.051399134646207288 0 -0.46914163899380801 -0.061760229887868598 0 -0.44688553471578463 -0.051399134646207288 0 -0.43628267576141971 -0.035329403205585218 0 -0.44354830351403418 -0.034418653902415733 0 -0.44688553471578463 -0.051399134646207288 0 -0.45768975774058179 -0.035844230274481748 0 -0.44354830351403418 -0.034418653902415733 0 -0.44688553471578463 -0.051399134646207288 0 -0.45768975774058179 -0.035844230274481748 0 -0.44354830351403418 -0.034418653902415733 0 -0.44312252706978628 -0.024928407146411868 0 -0.43628267576141971 -0.035329403205585218 0 -0.43710875721387199 -0.026668229939385779 0 -0.44354830351403418 -0.034418653902415733 0 -0.43950717444435422 -0.063784996514660589 0 -0.45074392082461212 -0.072028697807882153 0 -0.44688553471578463 -0.051399134646207288 0 -0.43147245553696489 -0.05279552735729795 0 -0.43950717444435422 -0.063784996514660589 0 -0.44688553471578463 -0.051399134646207288 0 -0.43591977417237449 -0.008065469867085449 0 -0.44623787648735791 -0.0099282306610938807 0 -0.43740981058492812 0.01004998492246997 0 -0.43591977417237449 -0.008065469867085449 0 -0.44623787648735791 -0.0099282306610938807 0 -0.43928417642389239 -0.017661557407765791 0 -0.43591977417237449 -0.008065469867085449 0 -0.44623787648735791 -0.0099282306610938807 0 -0.43710875721387199 -0.026668229939385779 0 -0.43928417642389239 -0.017661557407765791 0 -0.44312252706978628 -0.024928407146411868 0 -0.45768975774058179 -0.035844230274481748 0 -0.44623787648735791 -0.0099282306610938807 0 -0.44312252706978628 -0.024928407146411868 0 -0.45768975774058179 -0.035844230274481748 0 -0.44623787648735791 -0.0099282306610938807 0 -0.44623787648735791 -0.0099282306610938807 0 -0.43928417642389239 -0.017661557407765791 0 -0.44312252706978628 -0.024928407146411868 0 -0.43710875721387199 -0.026668229939385779 0 -0.44354830351403418 -0.034418653902415733 0 -0.44312252706978628 -0.024928407146411868 0 -0.45768975774058179 -0.035844230274481748 0 -0.44623787648735791 -0.0099282306610938807 0 -0.47146408957177099 -0.01448240150379307 0 -0.44623787648735791 -0.0099282306610938807 0 -0.47146408957177099 -0.01448240150379307 0 -0.44623787648735791 -0.0099282306610938807 0 -0.47146408957177099 -0.01448240150379307 0 -0.46048772545436639 0.0043098071123656434 0 -0.47146408957177099 -0.01448240150379307 0 -0.47882554305316488 -0.0018417715126103191 0 -0.46048772545436639 0.0043098071123656434 0 -0.47146408957177099 -0.01448240150379307 0 -0.47882554305316488 -0.0018417715126103191 0 -0.49669030265618502 -0.01903657234648758 0 -0.47146408957177099 -0.01448240150379307 0 -0.49669030265618502 -0.01903657234648758 0 -0.47146408957177099 -0.01448240150379307 0 -0.48148290990478199 -0.029591545163434652 0 -0.49669030265618502 -0.01903657234648758 0 -0.45768975774058179 -0.035844230274481748 0 -0.47146408957177099 -0.01448240150379307 0 -0.48148290990478199 -0.029591545163434652 0 -0.500000000000004 -0.034036010214970061 0 -0.48148290990478199 -0.029591545163434652 0 -0.49669030265618502 -0.01903657234648758 0 -0.49669030265618502 -0.01903657234648758 0 -0.50000000000000056 -0.019634082844440681 0 -0.500000000000004 -0.034036010214970061 0 -0.49669030265618502 -0.01903657234648758 0 -0.500000000000004 -0.034036010214970061 0 -0.49669030265618502 -0.01903657234648758 0 -0.50000000000000056 -0.019634082844440681 0 -0.47882554305316488 -0.0018417715126103191 0 -0.49669030265618502 -0.01903657234648758 0 -0.49160980924365538 0.0039880541876541054 0 -0.49669030265618502 -0.01903657234648758 0 -0.49160980924365538 0.0039880541876541054 0 -0.49669030265618502 -0.01903657234648758 0 -0.50000000000000056 -0.019634082844440681 0 -0.49160980924365538 0.0039880541876541054 0 -0.50000000000000056 -0.019634082844440681 0 -0.49160980924365538 0.0039880541876541054 0 -0.50000000000000033 0.009303662189531537 0 -0.49160980924365538 0.0039880541876541054 0 -0.48652931583112352 0.027012680721795381 0 -0.49160980924365538 0.0039880541876541054 0 -0.50000000000000033 0.009303662189531537 0 -0.48652931583112352 0.027012680721795381 0 -0.50000000000000033 0.009303662189531537 0 -0.5 0.03611151152349279 0 -0.49175907743105379 0.031398254416965428 0 -0.50000000000000033 0.009303662189531537 0 -0.49175907743105379 0.031398254416965428 0 -0.50000000000000033 0.009303662189531537 0 -0.48652931583112352 0.027012680721795381 0 -0.49175907743105379 0.031398254416965428 0 -0.48652931583112352 0.027012680721795381 0 -0.47387578833984401 0.016012254987208822 0 -0.46815351836101687 0.031449839152918539 0 -0.49160980924365538 0.0039880541876541054 0 -0.48652931583112352 0.027012680721795381 0 -0.47387578833984401 0.016012254987208822 0 -0.47882554305316488 -0.0018417715126103191 0 -0.49160980924365538 0.0039880541876541054 0 -0.47387578833984401 0.016012254987208822 0 -0.47882554305316488 -0.0018417715126103191 0 -0.47387578833984401 0.016012254987208822 0 -0.46048772545436639 0.0043098071123656434 0 -0.49282352307895688 0.045257754500502748 0 -0.5 0.03611151152349279 0 -0.5 0.062919360857453976 0 -0.49282352307895688 0.045257754500502748 0 -0.48351815486210709 0.053492846644399093 0 -0.5 0.062919360857453976 0 -0.49175907743105379 0.031398254416965428 0 -0.48144882241859149 0.050037307255936581 0 -0.48351815486210709 0.053492846644399093 0 -0.48652931583112352 0.027012680721795381 0 -0.49175907743105379 0.031398254416965428 0 -0.48144882241859149 0.050037307255936581 0 -0.49175907743105379 0.031398254416965428 0 -0.48351815486210709 0.053492846644399093 0 -0.49282352307895688 0.045257754500502748 0 -0.49175907743105379 0.031398254416965428 0 -0.48351815486210709 0.053492846644399093 0 -0.49282352307895688 0.045257754500502748 0 -0.5 0.03611151152349279 0 -0.49175907743105379 0.031398254416965428 0 -0.48144882241859149 0.050037307255936581 0 -0.4639696453013944 0.043374392403556838 0 -0.46815351836101687 0.031449839152918539 0 -0.48652931583112352 0.027012680721795381 0 -0.48144882241859149 0.050037307255936581 0 -0.48652931583112352 0.027012680721795381 0 -0.48144882241859149 0.050037307255936581 0 -0.46815351836101687 0.031449839152918539 0 -0.48144882241859149 0.050037307255936581 0 -0.45709786057011947 0.055708105081253657 0 -0.47636832900606041 0.073061933790077832 0 -0.48144882241859149 0.050037307255936581 0 -0.48351815486210709 0.053492846644399093 0 -0.47636832900606041 0.073061933790077832 0 -0.48144882241859149 0.050037307255936581 0 -0.47636832900606041 0.073061933790077832 0 -0.48144882241859149 0.050037307255936581 0 -0.45709786057011947 0.055708105081253657 0 -0.4639696453013944 0.043374392403556838 0 -0.45709786057011947 0.055708105081253657 0 -0.4639696453013944 0.043374392403556838 0 -0.45299045524759751 0.034902057762674861 0 -0.4639696453013944 0.043374392403556838 0 -0.46815351836101687 0.031449839152918539 0 -0.45299045524759751 0.034902057762674861 0 -0.46815351836101687 0.031449839152918539 0 -0.45299045524759751 0.034902057762674861 0 -0.45709786057011947 0.055708105081253657 0 -0.45299045524759751 0.034902057762674861 0 -0.43782739213417787 0.038354276372430232 0 -0.45299045524759751 0.034902057762674861 0 -0.43782739213417787 0.038354276372430232 0 -0.45299045524759751 0.034902057762674861 0 -0.43782739213417787 0.038354276372430232 0 -0.44297011017848281 0.02707887027054981 0 -0.45709786057011947 0.055708105081253657 0 -0.43782739213417787 0.038354276372430232 0 -0.43187248081207541 0.055496176207803817 0 -0.45709786057011947 0.055708105081253657 0 -0.43782739213417787 0.038354276372430232 0 -0.45709786057011947 0.055708105081253657 0 -0.43187248081207541 0.055496176207803817 0 -0.43763284036668942 0.072255399145110422 0 -0.47387578833984401 0.016012254987208822 0 -0.46048772545436639 0.0043098071123656434 0 -0.45598123469437257 0.020633802368031268 0 -0.47387578833984401 0.016012254987208822 0 -0.46815351836101687 0.031449839152918539 0 -0.45598123469437257 0.020633802368031268 0 -0.46815351836101687 0.031449839152918539 0 -0.45299045524759751 0.034902057762674861 0 -0.45598123469437257 0.020633802368031268 0 -0.45598123469437257 0.020633802368031268 0 -0.44297011017848281 0.02707887027054981 0 -0.43740981058492812 0.01004998492246997 0 -0.45299045524759751 0.034902057762674861 0 -0.45598123469437257 0.020633802368031268 0 -0.44297011017848281 0.02707887027054981 0 -0.46048772545436639 0.0043098071123656434 0 -0.45598123469437257 0.020633802368031268 0 -0.43740981058492812 0.01004998492246997 0 -0.44623787648735791 -0.0099282306610938807 0 -0.46048772545436639 0.0043098071123656434 0 -0.43740981058492812 0.01004998492246997 0 -0.44623787648735791 -0.0099282306610938807 0 -0.43740981058492812 0.01004998492246997 0 -0.43591977417237449 -0.008065469867085449 0 -0.43740981058492812 0.01004998492246997 0 -0.42583279771702431 0.00046528033667210148 0 -0.43740981058492812 0.01004998492246997 0 -0.42292027786463471 0.01349413118407828 0 -0.42583279771702431 0.00046528033667210148 0 -0.41794895562780338 -0.01094222954485795 0 -0.40909120882054839 0.01273065398649661 0 -0.41794895562780338 -0.01094222954485795 0 -0.40352261506359649 -0.001038070178381474 0 -0.40909120882054839 0.01273065398649661 0 -0.42292027786463471 0.01349413118407828 0 -0.42583279771702431 0.00046528033667210148 0 -0.40909120882054839 0.01273065398649661 0 -0.41794895562780338 -0.01094222954485795 0 -0.42583279771702431 0.00046528033667210148 0 -0.40909120882054839 0.01273065398649661 0 -0.40909120882054839 0.01273065398649661 0 -0.41494363987246979 0.023236645495722939 0 -0.40023346201329341 0.036403537517851137 0 -0.41494363987246979 0.023236645495722939 0 -0.41436175989852531 0.033604495869393458 0 -0.40023346201329341 0.036403537517851137 0 -0.42292027786463471 0.01349413118407828 0 -0.41494363987246979 0.023236645495722939 0 -0.424969395700869 0.026775135554755129 0 -0.42292027786463471 0.01349413118407828 0 -0.40909120882054839 0.01273065398649661 0 -0.41494363987246979 0.023236645495722939 0 -0.41494363987246979 0.023236645495722939 0 -0.41896391809246269 0.029132761591660509 0 -0.41436175989852531 0.033604495869393458 0 -0.41494363987246979 0.023236645495722939 0 -0.41896391809246269 0.029132761591660509 0 -0.424969395700869 0.026775135554755129 0 -0.41896391809246269 0.029132761591660509 0 -0.424969395700869 0.026775135554755129 0 -0.42158087689798668 0.032914769446770492 0 -0.424969395700869 0.026775135554755129 0 -0.42858174468249838 0.030028200506033911 0 -0.42158087689798668 0.032914769446770492 0 -0.44297011017848281 0.02707887027054981 0 -0.43740981058492812 0.01004998492246997 0 -0.42858174468249838 0.030028200506033911 0 -0.43740981058492812 0.01004998492246997 0 -0.42292027786463471 0.01349413118407828 0 -0.424969395700869 0.026775135554755129 0 -0.43740981058492812 0.01004998492246997 0 -0.42858174468249838 0.030028200506033911 0 -0.43740981058492812 0.01004998492246997 0 -0.424969395700869 0.026775135554755129 0 -0.42858174468249838 0.030028200506033911 0 -0.424969395700869 0.026775135554755129 0 -0.42858174468249838 0.030028200506033911 0 -0.43782739213417787 0.038354276372430232 0 -0.44297011017848281 0.02707887027054981 0 -0.42858174468249838 0.030028200506033911 0 -0.43782739213417787 0.038354276372430232 0 -0.42858174468249838 0.030028200506033911 0 -0.42345682706553001 0.041626064651069543 0 -0.43782739213417787 0.038354276372430232 0 -0.42345682706553001 0.041626064651069543 0 -0.43187248081207541 0.055496176207803817 0 -0.43782739213417787 0.038354276372430232 0 -0.42858174468249838 0.030028200506033911 0 -0.43782739213417787 0.038354276372430232 0 -0.42345682706553001 0.041626064651069543 0 -0.42858174468249838 0.030028200506033911 0 -0.42345682706553001 0.041626064651069543 0 -0.42158087689798668 0.032914769446770492 0 -0.42858174468249838 0.030028200506033911 0 -0.42345682706553001 0.041626064651069543 0 -0.42345682706553001 0.041626064651069543 0 -0.43187248081207541 0.055496176207803817 0 -0.4177568865966339 0.054525225210098782 0 -0.43187248081207541 0.055496176207803817 0 -0.4177568865966339 0.054525225210098782 0 -0.41753301535116211 0.067129086497859855 0 -0.42345682706553001 0.041626064651069543 0 -0.4177568865966339 0.054525225210098782 0 -0.40276573021624068 0.046336866753853997 0 -0.4177568865966339 0.054525225210098782 0 -0.40750332447406851 0.057375884956624552 0 -0.41753301535116211 0.067129086497859855 0 -0.42345682706553001 0.041626064651069543 0 -0.4177568865966339 0.054525225210098782 0 -0.4177568865966339 0.054525225210098782 0 -0.40750332447406851 0.057375884956624552 0 -0.40276573021624068 0.046336866753853997 0 -0.42345682706553001 0.041626064651069543 0 -0.40276573021624068 0.046336866753853997 0 -0.42345682706553001 0.041626064651069543 0 -0.41020444479839763 0.039492741198042178 0 -0.40276573021624068 0.046336866753853997 0 -0.42345682706553001 0.041626064651069543 0 -0.41436175989852531 0.033604495869393458 0 -0.42158087689798668 0.032914769446770492 0 -0.42345682706553001 0.041626064651069543 0 -0.41436175989852531 0.033604495869393458 0 -0.41020444479839763 0.039492741198042178 0 -0.41896391809246269 0.029132761591660509 0 -0.41436175989852531 0.033604495869393458 0 -0.42158087689798668 0.032914769446770492 0 -0.41436175989852531 0.033604495869393458 0 -0.41020444479839763 0.039492741198042178 0 -0.40023346201329341 0.036403537517851137 0 -0.40276573021624068 0.046336866753853997 0 -0.38207463336695202 0.051047668856640811 0 -0.38772007791329738 0.03985096685417347 0 -0.41020444479839763 0.039492741198042178 0 -0.40023346201329341 0.036403537517851137 0 -0.40276573021624068 0.046336866753853997 0 -0.40023346201329341 0.036403537517851137 0 -0.40276573021624068 0.046336866753853997 0 -0.38772007791329738 0.03985096685417347 0 -0.40023346201329341 0.036403537517851137 0 -0.38772007791329738 0.03985096685417347 0 -0.38925836826538629 0.030805614435688099 0 -0.40276573021624068 0.046336866753853997 0 -0.38207463336695202 0.051047668856640811 0 -0.40276573021624068 0.046336866753853997 0 -0.39689466156197101 0.057407184083191301 0 -0.38207463336695202 0.051047668856640811 0 -0.40750332447406851 0.057375884956624552 0 -0.39689466156197101 0.057407184083191301 0 -0.40210564328563447 0.066115584712721373 0 -0.40750332447406851 0.057375884956624552 0 -0.40276573021624068 0.046336866753853997 0 -0.39689466156197101 0.057407184083191301 0 -0.38207463336695202 0.051047668856640811 0 -0.38848633305814179 0.065600711414542545 0 -0.36891219827968119 0.060077996683558232 0 -0.39689466156197101 0.057407184083191301 0 -0.38207463336695202 0.051047668856640811 0 -0.38848633305814179 0.065600711414542545 0 -0.38772007791329738 0.03985096685417347 0 -0.37937813184432773 0.031366277704107569 0 -0.38925836826538629 0.030805614435688099 0 -0.38207463336695202 0.051047668856640811 0 -0.38772007791329738 0.03985096685417347 0 -0.37261014177358448 0.043145835856899219 0 -0.38772007791329738 0.03985096685417347 0 -0.37937813184432773 0.031366277704107569 0 -0.37261014177358448 0.043145835856899219 0 -0.37937813184432773 0.031366277704107569 0 -0.38391758338059062 0.022870450659759161 0 -0.37479293228070759 0.022502646493578662 0 -0.37937813184432773 0.031366277704107569 0 -0.38925836826538629 0.030805614435688099 0 -0.38391758338059062 0.022870450659759161 0 -0.38925836826538629 0.030805614435688099 0 -0.38391758338059062 0.022870450659759161 0 -0.3946160130735708 0.021551959563878339 0 -0.38391758338059062 0.022870450659759161 0 -0.38667067902898572 0.013842153393714489 0 -0.3946160130735708 0.021551959563878339 0 -0.38391758338059062 0.022870450659759161 0 -0.3778438638662554 0.014761087644765769 0 -0.38667067902898572 0.013842153393714489 0 -0.38391758338059062 0.022870450659759161 0 -0.3778438638662554 0.014761087644765769 0 -0.37479293228070759 0.022502646493578662 0 -0.3778438638662554 0.014761087644765769 0 -0.38165634421242611 0.0056742618597281089 0 -0.38667067902898572 0.013842153393714489 0 -0.3778438638662554 0.014761087644765769 0 -0.38165634421242611 0.0056742618597281089 0 -0.37464316483836829 0.0066416053135349984 0 -0.37774077980655368 -0.001289555558904682 0 -0.38165634421242611 0.0056742618597281089 0 -0.37464316483836829 0.0066416053135349984 0 -0.3848191179490616 -0.0027051675553946518 0 -0.37774077980655368 -0.001289555558904682 0 -0.38165634421242611 0.0056742618597281089 0 -0.3848191179490616 -0.0027051675553946518 0 -0.38165634421242611 0.0056742618597281089 0 -0.38845980705381639 0.0057813395070211177 0 -0.39408165103759368 -0.0019794594859314238 0 -0.3848191179490616 -0.0027051675553946518 0 -0.38845980705381639 0.0057813395070211177 0 -0.38845980705381639 0.0057813395070211177 0 -0.38667067902898572 0.013842153393714489 0 -0.39627830677719 0.008853295208583448 0 -0.38165634421242611 0.0056742618597281089 0 -0.38845980705381639 0.0057813395070211177 0 -0.38667067902898572 0.013842153393714489 0 -0.38667067902898572 0.013842153393714489 0 -0.39627830677719 0.008853295208583448 0 -0.3946160130735708 0.021551959563878339 0 -0.39408165103759368 -0.0019794594859314238 0 -0.38845980705381639 0.0057813395070211177 0 -0.39627830677719 0.008853295208583448 0 -0.40352261506359649 -0.001038070178381474 0 -0.39408165103759368 -0.0019794594859314238 0 -0.39627830677719 0.008853295208583448 0 -0.40352261506359649 -0.001038070178381474 0 -0.40909120882054839 0.01273065398649661 0 -0.39627830677719 0.008853295208583448 0 -0.40909120882054839 0.01273065398649661 0 -0.39627830677719 0.008853295208583448 0 -0.3946160130735708 0.021551959563878339 0 -0.40909120882054839 0.01273065398649661 0 -0.40023346201329341 0.036403537517851137 0 -0.3946160130735708 0.021551959563878339 0 -0.40909120882054839 0.01273065398649661 0 -0.40023346201329341 0.036403537517851137 0 -0.40023346201329341 0.036403537517851137 0 -0.38925836826538629 0.030805614435688099 0 -0.3946160130735708 0.021551959563878339 0 -0.38696142946532958 0.1003701901717608 0 -0.40164011277457379 0.081352107660276216 0 -0.40864304721671202 0.1107171055473533 0 -0.38750957741872682 0.11885909540365321 0 -0.40864304721671202 0.1107171055473533 0 -0.39401402549175851 0.1361747599337243 0 -0.38750957741872682 0.11885909540365321 0 -0.38696142946532958 0.1003701901717608 0 -0.40864304721671202 0.1107171055473533 0 -0.38750957741872682 0.11885909540365321 0 -0.38696142946532958 0.1003701901717608 0 -0.36904533532088801 0.1177582563576956 0 -0.38696142946532958 0.1003701901717608 0 -0.37090825683648998 0.098456277756480637 0 -0.36904533532088801 0.1177582563576956 0 -0.37929074908003868 0.077603726490867345 0 -0.40164011277457379 0.081352107660276216 0 -0.38696142946532958 0.1003701901717608 0 -0.37929074908003868 0.077603726490867345 0 -0.40164011277457379 0.081352107660276216 0 -0.38696142946532958 0.1003701901717608 0 -0.37929074908003868 0.077603726490867345 0 -0.37090825683648998 0.098456277756480637 0 -0.37929074908003868 0.077603726490867345 0 -0.38848633305814179 0.065600711414542545 0 -0.36891219827968119 0.060077996683558232 0 -0.37929074908003868 0.077603726490867345 0 -0.38848633305814179 0.065600711414542545 0 -0.40164011277457379 0.081352107660276216 0 -0.38848633305814179 0.065600711414542545 0 -0.40210564328563447 0.066115584712721373 0 -0.40164011277457379 0.081352107660276216 0 -0.39689466156197101 0.057407184083191301 0 -0.38848633305814179 0.065600711414542545 0 -0.40210564328563447 0.066115584712721373 0 -0.40164011277457379 0.081352107660276216 0 -0.42398947646910912 0.085100488829685086 0 -0.40164011277457379 0.081352107660276216 0 -0.42398947646910912 0.085100488829685086 0 -0.40864304721671202 0.1107171055473533 0 -0.40210564328563447 0.066115584712721373 0 -0.40164011277457379 0.081352107660276216 0 -0.41753301535116211 0.067129086497859855 0 -0.40164011277457379 0.081352107660276216 0 -0.41753301535116211 0.067129086497859855 0 -0.42398947646910912 0.085100488829685086 0 -0.40750332447406851 0.057375884956624552 0 -0.40210564328563447 0.066115584712721373 0 -0.41753301535116211 0.067129086497859855 0 -0.41753301535116211 0.067129086497859855 0 -0.42398947646910912 0.085100488829685086 0 -0.43763284036668942 0.072255399145110422 0 -0.43187248081207541 0.055496176207803817 0 -0.41753301535116211 0.067129086497859855 0 -0.43763284036668942 0.072255399145110422 0 -0.42398947646910912 0.085100488829685086 0 -0.44633884016364428 0.088848869999093971 0 -0.42398947646910912 0.085100488829685086 0 -0.43763284036668942 0.072255399145110422 0 -0.44633884016364428 0.088848869999093971 0 -0.42398947646910912 0.085100488829685086 0 -0.42906186480059683 0.10519001099972999 0 -0.44633884016364428 0.088848869999093971 0 -0.42398947646910912 0.085100488829685086 0 -0.42906186480059683 0.10519001099972999 0 -0.40864304721671202 0.1107171055473533 0 -0.40864304721671202 0.1107171055473533 0 -0.43267942878230348 0.12559175737704789 0 -0.42906186480059683 0.10519001099972999 0 -0.40864304721671202 0.1107171055473533 0 -0.43267942878230348 0.12559175737704789 0 -0.42906186480059683 0.10519001099972999 0 -0.4489383204882843 0.11104189391905871 0 -0.43267942878230348 0.12559175737704789 0 -0.4489383204882843 0.11104189391905871 0 -0.45289828098281221 0.1241297055338681 0 -0.43267942878230348 0.12559175737704789 0 -0.4489383204882843 0.11104189391905871 0 -0.43267942878230348 0.12559175737704789 0 -0.42906186480059683 0.10519001099972999 0 -0.4489383204882843 0.11104189391905871 0 -0.44633884016364428 0.088848869999093971 0 -0.4489383204882843 0.11104189391905871 0 -0.44633884016364428 0.088848869999093971 0 -0.47121921728662652 0.096397536200283296 0 -0.46607010556719342 0.11973313861048911 0 -0.47121921728662652 0.096397536200283296 0 -0.4489383204882843 0.11104189391905871 0 -0.46607010556719342 0.11973313861048911 0 -0.47121921728662652 0.096397536200283296 0 -0.4489383204882843 0.11104189391905871 0 -0.45289828098281221 0.1241297055338681 0 -0.46607010556719342 0.11973313861048911 0 -0.45709786057011947 0.055708105081253657 0 -0.43763284036668942 0.072255399145110422 0 -0.45544766770060358 0.07348919590478746 0 -0.43763284036668942 0.072255399145110422 0 -0.44633884016364428 0.088848869999093971 0 -0.45544766770060358 0.07348919590478746 0 -0.44633884016364428 0.088848869999093971 0 -0.45544766770060358 0.07348919590478746 0 -0.47121921728662652 0.096397536200283296 0 -0.45544766770060358 0.07348919590478746 0 -0.47636832900606041 0.073061933790077832 0 -0.47121921728662652 0.096397536200283296 0 -0.45709786057011947 0.055708105081253657 0 -0.47636832900606041 0.073061933790077832 0 -0.45709786057011947 0.055708105081253657 0 -0.45544766770060358 0.07348919590478746 0 -0.47636832900606041 0.073061933790077832 0 -0.48351815486210709 0.053492846644399093 0 -0.47636832900606041 0.073061933790077832 0 -0.49140909277123612 0.074197219851226057 0 -0.47636832900606041 0.073061933790077832 0 -0.48274454235378189 0.091705374172880549 0 -0.47121921728662652 0.096397536200283296 0 -0.47636832900606041 0.073061933790077832 0 -0.47121921728662652 0.096397536200283296 0 -0.47636832900606041 0.073061933790077832 0 -0.49715897998801373 0.091784747772784503 0 -0.5 0.089727210191415163 0 -0.49715897998801373 0.091784747772784503 0 -0.49140909277123612 0.074197219851226057 0 -0.47636832900606041 0.073061933790077832 0 -0.48274454235378189 0.091705374172880549 0 -0.49715897998801373 0.091784747772784503 0 -0.47636832900606041 0.073061933790077832 0 -0.49715897998801373 0.091784747772784503 0 -0.49140909277123612 0.074197219851226057 0 -0.5 0.089727210191415163 0 -0.5 0.062919360857453976 0 -0.49140909277123612 0.074197219851226057 0 -0.48351815486210709 0.053492846644399093 0 -0.5 0.062919360857453976 0 -0.49140909277123612 0.074197219851226057 0 -0.46607010556719342 0.11973313861048911 0 -0.48623164313442779 0.1055772789283768 0 -0.48453668432005692 0.123143207324586 0 -0.46607010556719342 0.11973313861048911 0 -0.47121921728662652 0.096397536200283296 0 -0.48623164313442779 0.1055772789283768 0 -0.48274454235378189 0.091705374172880549 0 -0.47121921728662652 0.096397536200283296 0 -0.48623164313442779 0.1055772789283768 0 -0.5 0.089727210191415163 0 -0.49715897998801373 0.091784747772784503 0 -0.5 0.1165350595253765 0 -0.49715897998801373 0.091784747772784503 0 -0.48623164313442779 0.1055772789283768 0 -0.5 0.1165350595253765 0 -0.48274454235378189 0.091705374172880549 0 -0.49715897998801373 0.091784747772784503 0 -0.48623164313442779 0.1055772789283768 0 -0.48623164313442779 0.1055772789283768 0 -0.5 0.1165350595253765 0 -0.48453668432005692 0.123143207324586 0 -0.5 0.1165350595253765 0 -0.48453668432005692 0.123143207324586 0 -0.5 0.1433429088593379 0 -0.48453668432005692 0.123143207324586 0 -0.48049738108946538 0.1379484740379 0 -0.5 0.1433429088593379 0 -0.46607010556719342 0.11973313861048911 0 -0.48453668432005692 0.123143207324586 0 -0.48049738108946538 0.1379484740379 0 -0.46607010556719342 0.11973313861048911 0 -0.48049738108946538 0.1379484740379 0 -0.46092099384776192 0.14306874102069511 0 -0.48464943840857888 0.15775282940309851 0 -0.46990863904630059 0.1670362475492525 0 -0.46092099384776192 0.14306874102069511 0 -0.48464943840857888 0.15775282940309851 0 -0.46092099384776192 0.14306874102069511 0 -0.48049738108946538 0.1379484740379 0 -0.48464943840857888 0.15775282940309851 0 -0.46092099384776192 0.14306874102069511 0 -0.48049738108946538 0.1379484740379 0 -0.5 0.1433429088593379 0 -0.48464943840857888 0.15775282940309851 0 -0.48464943840857888 0.15775282940309851 0 -0.5 0.17015075819329931 0 -0.4898809761324775 0.17912292006808481 0 -0.5 0.1433429088593379 0 -0.48464943840857888 0.15775282940309851 0 -0.5 0.17015075819329931 0 -0.48464943840857888 0.15775282940309851 0 -0.4898809761324775 0.17912292006808481 0 -0.47865635922375932 0.17909963177513319 0 -0.5 0.17015075819329931 0 -0.4898809761324775 0.17912292006808481 0 -0.5 0.19695860752726069 0 -0.4898809761324775 0.17912292006808481 0 -0.47865635922375932 0.17909963177513319 0 -0.48609908303004917 0.1916527734416324 0 -0.47865635922375932 0.17909963177513319 0 -0.47279817792341111 0.1948006201282925 0 -0.47865635922375932 0.17909963177513319 0 -0.46589335310649882 0.18744802338852329 0 -0.47279817792341111 0.1948006201282925 0 -0.47865635922375932 0.17909963177513319 0 -0.46927870962167312 0.17493875400548389 0 -0.46990863904630059 0.1670362475492525 0 -0.47865635922375932 0.17909963177513319 0 -0.46927870962167312 0.17493875400548389 0 -0.46555461593459269 0.18128722400797501 0 -0.47865635922375932 0.17909963177513319 0 -0.46589335310649882 0.18744802338852329 0 -0.46555461593459269 0.18128722400797501 0 -0.48464943840857888 0.15775282940309851 0 -0.47865635922375932 0.17909963177513319 0 -0.46990863904630059 0.1670362475492525 0 -0.45742932361540911 0.15889287394486271 0 -0.45393765338305497 0.17471700686903011 0 -0.46990863904630059 0.1670362475492525 0 -0.45742932361540911 0.15889287394486271 0 -0.46092099384776192 0.14306874102069511 0 -0.45742932361540911 0.15889287394486271 0 -0.46299522428203971 0.17233191268957501 0 -0.45393765338305497 0.17471700686903011 0 -0.46927870962167312 0.17493875400548389 0 -0.46990863904630059 0.1670362475492525 0 -0.46299522428203971 0.17233191268957501 0 -0.46990863904630059 0.1670362475492525 0 -0.45742932361540911 0.15889287394486271 0 -0.46299522428203971 0.17233191268957501 0 -0.46589335310649882 0.18744802338852329 0 -0.46555461593459269 0.18128722400797501 0 -0.45393765338305497 0.17471700686903011 0 -0.46589335310649882 0.18744802338852329 0 -0.46555461593459269 0.18128722400797501 0 -0.46927870962167312 0.17493875400548389 0 -0.46555461593459269 0.18128722400797501 0 -0.46299522428203971 0.17233191268957501 0 -0.46555461593459269 0.18128722400797501 0 -0.46299522428203971 0.17233191268957501 0 -0.45393765338305497 0.17471700686903011 0 -0.46589335310649882 0.18744802338852329 0 -0.45393765338305497 0.17471700686903011 0 -0.45393765338305497 0.17471700686903011 0 -0.44047241453070329 0.18324079402305421 0 -0.44820564853932793 0.20069426145875721 0 -0.45393765338305497 0.17471700686903011 0 -0.44047241453070329 0.18324079402305421 0 -0.44174290600336708 0.16173144065936321 0 -0.45742932361540911 0.15889287394486271 0 -0.44174290600336708 0.16173144065936321 0 -0.44616928685712581 0.1494742970518641 0 -0.45742932361540911 0.15889287394486271 0 -0.45393765338305497 0.17471700686903011 0 -0.44174290600336708 0.16173144065936321 0 -0.45393765338305497 0.17471700686903011 0 -0.44174290600336708 0.16173144065936321 0 -0.44174290600336708 0.16173144065936321 0 -0.44616928685712581 0.1494742970518641 0 -0.43187713239064979 0.1573343508491826 0 -0.44616928685712581 0.1494742970518641 0 -0.43700896048386301 0.14249666109927989 0 -0.43187713239064979 0.1573343508491826 0 -0.44616928685712581 0.1494742970518641 0 -0.44680021131503311 0.13433024919887079 0 -0.46092099384776192 0.14306874102069511 0 -0.44616928685712581 0.1494742970518641 0 -0.44680021131503311 0.13433024919887079 0 -0.43700896048386301 0.14249666109927989 0 -0.45289828098281221 0.1241297055338681 0 -0.44680021131503311 0.13433024919887079 0 -0.43267942878230348 0.12559175737704789 0 -0.44680021131503311 0.13433024919887079 0 -0.43267942878230348 0.12559175737704789 0 -0.43700896048386301 0.14249666109927989 0 -0.44680021131503311 0.13433024919887079 0 -0.43267942878230348 0.12559175737704789 0 -0.45289828098281221 0.1241297055338681 0 -0.44680021131503311 0.13433024919887079 0 -0.46092099384776192 0.14306874102069511 0 -0.46607010556719342 0.11973313861048911 0 -0.46092099384776192 0.14306874102069511 0 -0.45289828098281221 0.1241297055338681 0 -0.46607010556719342 0.11973313861048911 0 -0.46092099384776192 0.14306874102069511 0 -0.44680021131503311 0.13433024919887079 0 -0.46092099384776192 0.14306874102069511 0 -0.45742932361540911 0.15889287394486271 0 -0.46092099384776192 0.14306874102069511 0 -0.45742932361540911 0.15889287394486271 0 -0.44616928685712581 0.1494742970518641 0 -0.46092099384776192 0.14306874102069511 0 -0.46853242371352971 0.23544625301742969 0 -0.46993231893463527 0.26090691788180947 0 -0.48177750529808522 0.24619974485466931 0 -0.46853242371352971 0.23544625301742969 0 -0.46993231893463527 0.26090691788180947 0 -0.48177750529808522 0.24619974485466931 0 -0.48375626182904402 0.22755154475287301 0 -0.46853242371352971 0.23544625301742969 0 -0.48177750529808522 0.24619974485466931 0 -0.5 0.2461359573144368 0 -0.48375626182904402 0.22755154475287301 0 -0.5 0.2461359573144368 0 -0.48375626182904402 0.22755154475287301 0 -0.49999999999999978 0.22376645686122221 0 -0.48375626182904402 0.22755154475287301 0 -0.48639908896170481 0.20928353849475789 0 -0.5 0.2461359573144368 0 -0.49999999999999978 0.22376645686122221 0 -0.48375626182904402 0.22755154475287301 0 -0.47173343442327142 0.22048762952866541 0 -0.46713252849242448 0.20998558815304991 0 -0.46853242371352971 0.23544625301742969 0 -0.48375626182904402 0.22755154475287301 0 -0.47173343442327142 0.22048762952866541 0 -0.4670472636537164 0.20843482960316059 0 -0.48375626182904402 0.22755154475287301 0 -0.47173343442327142 0.22048762952866541 0 -0.46853242371352971 0.23544625301742969 0 -0.48375626182904402 0.22755154475287301 0 -0.4670472636537164 0.20843482960316059 0 -0.48639908896170481 0.20928353849475789 0 -0.47279817792341111 0.1948006201282925 0 -0.4670472636537164 0.20843482960316059 0 -0.48375626182904402 0.22755154475287301 0 -0.48639908896170481 0.20928353849475789 0 -0.4670472636537164 0.20843482960316059 0 -0.49999999999999978 0.22376645686122221 0 -0.48639908896170481 0.20928353849475789 0 -0.5 0.19695860752726069 0 -0.49999999999999978 0.22376645686122221 0 -0.48639908896170481 0.20928353849475789 0 -0.48639908896170481 0.20928353849475789 0 -0.5 0.19695860752726069 0 -0.48609908303004917 0.1916527734416324 0 -0.4898809761324775 0.17912292006808481 0 -0.5 0.19695860752726069 0 -0.48609908303004917 0.1916527734416324 0 -0.48639908896170481 0.20928353849475789 0 -0.48609908303004917 0.1916527734416324 0 -0.47279817792341111 0.1948006201282925 0 -0.47865635922375932 0.17909963177513319 0 -0.48609908303004917 0.1916527734416324 0 -0.47279817792341111 0.1948006201282925 0 -0.48639908896170481 0.20928353849475789 0 -0.47279817792341111 0.1948006201282925 0 -0.47279817792341111 0.1948006201282925 0 -0.4670472636537164 0.20843482960316059 0 -0.46589335310649882 0.18744802338852329 0 -0.47279817792341111 0.1948006201282925 0 -0.46589335310649882 0.18744802338852329 0 -0.4603250720810298 0.20074399020462361 0 -0.4670472636537164 0.20843482960316059 0 -0.46589335310649882 0.18744802338852329 0 -0.45393765338305497 0.17471700686903011 0 -0.44820564853932793 0.20069426145875721 0 -0.46589335310649882 0.18744802338852329 0 -0.4603250720810298 0.20074399020462361 0 -0.44820564853932793 0.20069426145875721 0 -0.46589335310649882 0.18744802338852329 0 -0.47279817792341111 0.1948006201282925 0 -0.4670472636537164 0.20843482960316059 0 -0.46589335310649882 0.18744802338852329 0 -0.4670472636537164 0.20843482960316059 0 -0.45393765338305497 0.17471700686903011 0 -0.44820564853932793 0.20069426145875721 0 -0.44820564853932793 0.20069426145875721 0 -0.45427794118362658 0.21265328965042851 0 -0.44247364369559788 0.22667151604848371 0 -0.44820564853932793 0.20069426145875721 0 -0.44247364369559788 0.22667151604848371 0 -0.44820564853932793 0.20069426145875721 0 -0.44247364369559788 0.22667151604848371 0 -0.42336320141575168 0.21609666274764849 0 -0.45880341375183131 0.2186303689721085 0 -0.45427794118362658 0.21265328965042851 0 -0.46188137931700068 0.21002659871962689 0 -0.45880341375183131 0.2186303689721085 0 -0.45427794118362658 0.21265328965042851 0 -0.4536201791639074 0.2236252940046442 0 -0.4603250720810298 0.20074399020462361 0 -0.45427794118362658 0.21265328965042851 0 -0.46188137931700068 0.21002659871962689 0 -0.4603250720810298 0.20074399020462361 0 -0.44820564853932793 0.20069426145875721 0 -0.45427794118362658 0.21265328965042851 0 -0.4603250720810298 0.20074399020462361 0 -0.46188137931700068 0.21002659871962689 0 -0.4670472636537164 0.20843482960316059 0 -0.4603250720810298 0.20074399020462361 0 -0.4670472636537164 0.20843482960316059 0 -0.46188137931700068 0.21002659871962689 0 -0.4670472636537164 0.20843482960316059 0 -0.46713252849242448 0.20998558815304991 0 -0.4670472636537164 0.20843482960316059 0 -0.46713252849242448 0.20998558815304991 0 -0.47173343442327142 0.22048762952866541 0 -0.4670472636537164 0.20843482960316059 0 -0.46713252849242448 0.20998558815304991 0 -0.45880341375183131 0.2186303689721085 0 -0.46188137931700068 0.21002659871962689 0 -0.46713252849242448 0.20998558815304991 0 -0.46713252849242448 0.20998558815304991 0 -0.45710504060219709 0.23686107433279269 0 -0.46713252849242448 0.20998558815304991 0 -0.45710504060219709 0.23686107433279269 0 -0.46853242371352971 0.23544625301742969 0 -0.45880341375183131 0.2186303689721085 0 -0.46713252849242448 0.20998558815304991 0 -0.45710504060219709 0.23686107433279269 0 -0.45880341375183131 0.2186303689721085 0 -0.4536201791639074 0.2236252940046442 0 -0.45710504060219709 0.23686107433279269 0 -0.46713252849242448 0.20998558815304991 0 -0.46853242371352971 0.23544625301742969 0 -0.45427794118362658 0.21265328965042851 0 -0.4536201791639074 0.2236252940046442 0 -0.44247364369559788 0.22667151604848371 0 -0.4536201791639074 0.2236252940046442 0 -0.44247364369559788 0.22667151604848371 0 -0.45710504060219709 0.23686107433279269 0 -0.44247364369559788 0.22667151604848371 0 -0.4367416388518679 0.25264877063821017 0 -0.44247364369559788 0.22667151604848371 0 -0.45710504060219709 0.23686107433279269 0 -0.4367416388518679 0.25264877063821017 0 -0.45710504060219709 0.23686107433279269 0 -0.46853242371352971 0.23544625301742969 0 -0.46993231893463527 0.26090691788180947 0 -0.41931835140954682 0.23739665832436521 0 -0.40367044579520373 0.24132688110038639 0 -0.41175872593851298 0.2549478601346914 0 -0.41931835140954682 0.23739665832436521 0 -0.40790513800462019 0.22799805468035339 0 -0.40367044579520373 0.24132688110038639 0 -0.41931835140954682 0.23739665832436521 0 -0.4367416388518679 0.25264877063821017 0 -0.41175872593851298 0.2549478601346914 0 -0.44247364369559788 0.22667151604848371 0 -0.41931835140954682 0.23739665832436521 0 -0.4367416388518679 0.25264877063821017 0 -0.44247364369559788 0.22667151604848371 0 -0.41931835140954682 0.23739665832436521 0 -0.42336320141575168 0.21609666274764849 0 -0.41931835140954682 0.23739665832436521 0 -0.40790513800462019 0.22799805468035339 0 -0.42336320141575168 0.21609666274764849 0 -0.40790513800462019 0.22799805468035339 0 -0.42336320141575168 0.21609666274764849 0 -0.40538393777915788 0.2123952851453417 0 -0.42336320141575168 0.21609666274764849 0 -0.42071240458675369 0.1920614743917832 0 -0.40538393777915788 0.2123952851453417 0 -0.44820564853932793 0.20069426145875721 0 -0.42336320141575168 0.21609666274764849 0 -0.42071240458675369 0.1920614743917832 0 -0.44047241453070329 0.18324079402305421 0 -0.44820564853932793 0.20069426145875721 0 -0.42071240458675369 0.1920614743917832 0 -0.42071240458675369 0.1920614743917832 0 -0.40538393777915788 0.2123952851453417 0 -0.42071240458675369 0.1920614743917832 0 -0.4022878927449296 0.1970928012265635 0 -0.40298680868332198 0.18508216307238631 0 -0.42071240458675369 0.1920614743917832 0 -0.4022878927449296 0.1970928012265635 0 -0.40538393777915788 0.2123952851453417 0 -0.4022878927449296 0.1970928012265635 0 -0.39286614404695941 0.1920732104686422 0 -0.40298680868332198 0.18508216307238631 0 -0.4022878927449296 0.1970928012265635 0 -0.39286614404695941 0.1920732104686422 0 -0.39380007669083689 0.206464460861051 0 -0.38422654444444693 0.2008322729754812 0 -0.38088029112643113 0.1825210369279657 0 -0.38422654444444693 0.2008322729754812 0 -0.38088029112643113 0.1825210369279657 0 -0.36802074197771562 0.19700904511440151 0 -0.38422654444444693 0.2008322729754812 0 -0.37368745339656201 0.20924711939208951 0 -0.36802074197771562 0.19700904511440151 0 -0.39286614404695941 0.1920732104686422 0 -0.38422654444444693 0.2008322729754812 0 -0.38088029112643113 0.1825210369279657 0 -0.39286614404695941 0.1920732104686422 0 -0.38422654444444693 0.2008322729754812 0 -0.39380007669083689 0.206464460861051 0 -0.38422654444444693 0.2008322729754812 0 -0.38757279776246373 0.21914350902299659 0 -0.38757279776246373 0.21914350902299659 0 -0.36800338097472479 0.22147713987588341 0 -0.37368745339656201 0.20924711939208951 0 -0.38422654444444693 0.2008322729754812 0 -0.39380007669083689 0.206464460861051 0 -0.38757279776246373 0.21914350902299659 0 -0.38422654444444693 0.2008322729754812 0 -0.38757279776246373 0.21914350902299659 0 -0.37368745339656201 0.20924711939208951 0 -0.39141353052387118 0.2186855059784025 0 -0.39380007669083689 0.206464460861051 0 -0.38757279776246373 0.21914350902299659 0 -0.39141353052387118 0.2186855059784025 0 -0.39380007669083689 0.206464460861051 0 -0.40538393777915788 0.2123952851453417 0 -0.4022878927449296 0.1970928012265635 0 -0.39380007669083689 0.206464460861051 0 -0.40538393777915788 0.2123952851453417 0 -0.40790513800462019 0.22799805468035339 0 -0.39005547097156312 0.23272909589890109 0 -0.40367044579520373 0.24132688110038639 0 -0.39141353052387118 0.2186855059784025 0 -0.40538393777915788 0.2123952851453417 0 -0.39005547097156312 0.23272909589890109 0 -0.40790513800462019 0.22799805468035339 0 -0.40538393777915788 0.2123952851453417 0 -0.39005547097156312 0.23272909589890109 0 -0.40538393777915788 0.2123952851453417 0 -0.39005547097156312 0.23272909589890109 0 -0.38757279776246373 0.21914350902299659 0 -0.39005547097156312 0.23272909589890109 0 -0.38757279776246373 0.21914350902299659 0 -0.36800338097472479 0.22147713987588341 0 -0.39141353052387118 0.2186855059784025 0 -0.38757279776246373 0.21914350902299659 0 -0.39005547097156312 0.23272909589890109 0 -0.38757279776246373 0.21914350902299659 0 -0.37939186114838758 0.22424627805714001 0 -0.36800338097472479 0.22147713987588341 0 -0.38757279776246373 0.21914350902299659 0 -0.37939186114838758 0.22424627805714001 0 -0.39005547097156312 0.23272909589890109 0 -0.39141353052387118 0.2186855059784025 0 -0.38757279776246373 0.21914350902299659 0 -0.37939186114838758 0.22424627805714001 0 -0.37477717689163992 0.25299635056682518 0 -0.39005547097156312 0.23272909589890109 0 -0.39384597734802013 0.25347135609337229 0 -0.37477717689163992 0.25299635056682518 0 -0.37939186114838758 0.22424627805714001 0 -0.39005547097156312 0.23272909589890109 0 -0.37477717689163992 0.25299635056682518 0 -0.39005547097156312 0.23272909589890109 0 -0.37477717689163992 0.25299635056682518 0 -0.40367044579520373 0.24132688110038639 0 -0.41175872593851298 0.2549478601346914 0 -0.39384597734802013 0.25347135609337229 0 -0.39005547097156312 0.23272909589890109 0 -0.39384597734802013 0.25347135609337229 0 -0.39005547097156312 0.23272909589890109 0 -0.40367044579520373 0.24132688110038639 0 -0.39384597734802013 0.25347135609337229 0 -0.41485942150404181 0.14153864215909739 0 -0.41553858058260518 0.15317901213210369 0 -0.42574561826610652 0.14613969243370301 0 -0.41553858058260518 0.15317901213210369 0 -0.42574561826610652 0.14613969243370301 0 -0.42127399236650492 0.15770626544657529 0 -0.41485942150404181 0.14153864215909739 0 -0.41553858058260518 0.15317901213210369 0 -0.4044664398419977 0.15594807455379561 0 -0.40864304721671202 0.1107171055473533 0 -0.41485942150404181 0.14153864215909739 0 -0.43267942878230348 0.12559175737704789 0 -0.41485942150404181 0.14153864215909739 0 -0.43267942878230348 0.12559175737704789 0 -0.42574561826610652 0.14613969243370301 0 -0.43267942878230348 0.12559175737704789 0 -0.43700896048386301 0.14249666109927989 0 -0.42574561826610652 0.14613969243370301 0 -0.41485942150404181 0.14153864215909739 0 -0.43267942878230348 0.12559175737704789 0 -0.42574561826610652 0.14613969243370301 0 -0.43187713239064979 0.1573343508491826 0 -0.42127399236650492 0.15770626544657529 0 -0.43700896048386301 0.14249666109927989 0 -0.42574561826610652 0.14613969243370301 0 -0.43187713239064979 0.1573343508491826 0 -0.43187713239064979 0.1573343508491826 0 -0.42946357341586749 0.17496324995209989 0 -0.4216380035134229 0.16659483191912641 0 -0.44174290600336708 0.16173144065936321 0 -0.43187713239064979 0.1573343508491826 0 -0.42946357341586749 0.17496324995209989 0 -0.43187713239064979 0.1573343508491826 0 -0.42127399236650492 0.15770626544657529 0 -0.4216380035134229 0.16659483191912641 0 -0.44047241453070329 0.18324079402305421 0 -0.44174290600336708 0.16173144065936321 0 -0.42946357341586749 0.17496324995209989 0 -0.44047241453070329 0.18324079402305421 0 -0.42071240458675369 0.1920614743917832 0 -0.42946357341586749 0.17496324995209989 0 -0.42071240458675369 0.1920614743917832 0 -0.42946357341586749 0.17496324995209989 0 -0.41235879422937732 0.17543682721938669 0 -0.42071240458675369 0.1920614743917832 0 -0.41235879422937732 0.17543682721938669 0 -0.40298680868332198 0.18508216307238631 0 -0.42946357341586749 0.17496324995209989 0 -0.41235879422937732 0.17543682721938669 0 -0.4216380035134229 0.16659483191912641 0 -0.41553858058260518 0.15317901213210369 0 -0.42127399236650492 0.15770626544657529 0 -0.41302135350813218 0.1630654313638546 0 -0.42127399236650492 0.15770626544657529 0 -0.4216380035134229 0.16659483191912641 0 -0.41302135350813218 0.1630654313638546 0 -0.41235879422937732 0.17543682721938669 0 -0.4216380035134229 0.16659483191912641 0 -0.41302135350813218 0.1630654313638546 0 -0.41235879422937732 0.17543682721938669 0 -0.41302135350813218 0.1630654313638546 0 -0.40449990094882532 0.16792382984329149 0 -0.41302135350813218 0.1630654313638546 0 -0.40449990094882532 0.16792382984329149 0 -0.4044664398419977 0.15594807455379561 0 -0.41553858058260518 0.15317901213210369 0 -0.41302135350813218 0.1630654313638546 0 -0.4044664398419977 0.15594807455379561 0 -0.3926733654842145 0.1692345557408807 0 -0.4044664398419977 0.15594807455379561 0 -0.40449990094882532 0.16792382984329149 0 -0.3926733654842145 0.1692345557408807 0 -0.40078474618547688 0.17571320347163299 0 -0.40449990094882532 0.16792382984329149 0 -0.3926733654842145 0.1692345557408807 0 -0.4044664398419977 0.15594807455379561 0 -0.3926733654842145 0.1692345557408807 0 -0.39703941422577987 0.15748552694114659 0 -0.4044664398419977 0.15594807455379561 0 -0.40298680868332198 0.18508216307238631 0 -0.40078474618547688 0.17571320347163299 0 -0.39301525059178999 0.18044652774840561 0 -0.41235879422937732 0.17543682721938669 0 -0.40298680868332198 0.18508216307238631 0 -0.40078474618547688 0.17571320347163299 0 -0.41235879422937732 0.17543682721938669 0 -0.40449990094882532 0.16792382984329149 0 -0.40078474618547688 0.17571320347163299 0 -0.3926733654842145 0.1692345557408807 0 -0.40078474618547688 0.17571320347163299 0 -0.39301525059178999 0.18044652774840561 0 -0.39286614404695941 0.1920732104686422 0 -0.40298680868332198 0.18508216307238631 0 -0.39301525059178999 0.18044652774840561 0 -0.39286614404695941 0.1920732104686422 0 -0.39301525059178999 0.18044652774840561 0 -0.38088029112643113 0.1825210369279657 0 -0.3926733654842145 0.1692345557408807 0 -0.38088029112643113 0.1825210369279657 0 -0.3926733654842145 0.1692345557408807 0 -0.39301525059178999 0.18044652774840561 0 -0.38088029112643113 0.1825210369279657 0 -0.3926733654842145 0.1692345557408807 0 -0.37921940694751782 0.17343241172319571 0 -0.38088029112643113 0.1825210369279657 0 -0.37921940694751782 0.17343241172319571 0 -0.38088029112643113 0.1825210369279657 0 -0.37921940694751782 0.17343241172319571 0 -0.38088029112643113 0.1825210369279657 0 -0.37283571032282492 0.1791450959532255 0 -0.3784015845151173 0.16895715591276281 0 -0.37283571032282492 0.1791450959532255 0 -0.37921940694751782 0.17343241172319571 0 -0.3784015845151173 0.16895715591276281 0 -0.37283571032282492 0.1791450959532255 0 -0.37921940694751782 0.17343241172319571 0 -0.37283571032282492 0.1791450959532255 0 -0.39703941422577987 0.15748552694114659 0 -0.37921940694751782 0.17343241172319571 0 -0.38193020105096481 0.16249827228531991 0 -0.3784015845151173 0.16895715591276281 0 -0.38193020105096481 0.16249827228531991 0 -0.37372345991800282 0.14335770613522919 0 -0.39703941422577987 0.15748552694114659 0 -0.37921940694751782 0.17343241172319571 0 -0.3926733654842145 0.1692345557408807 0 -0.39703941422577987 0.15748552694114659 0 -0.37921940694751782 0.17343241172319571 0 -0.39703941422577987 0.15748552694114659 0 -0.38193020105096481 0.16249827228531991 0 -0.38598126975628672 0.1494316781992327 0 -0.37921940694751782 0.17343241172319571 0 -0.3784015845151173 0.16895715591276281 0 -0.38193020105096481 0.16249827228531991 0 -0.3784015845151173 0.16895715591276281 0 -0.38193020105096481 0.16249827228531991 0 -0.37921940694751782 0.17343241172319571 0 -0.3784015845151173 0.16895715591276281 0 -0.38598126975628672 0.1494316781992327 0 -0.39401402549175851 0.1361747599337243 0 -0.37372345991800282 0.14335770613522919 0 -0.38193020105096481 0.16249827228531991 0 -0.38598126975628672 0.1494316781992327 0 -0.37372345991800282 0.14335770613522919 0 -0.3784015845151173 0.16895715591276281 0 -0.37372345991800282 0.14335770613522919 0 -0.39703941422577987 0.15748552694114659 0 -0.38598126975628672 0.1494316781992327 0 -0.39401402549175851 0.1361747599337243 0 -0.41485942150404181 0.14153864215909739 0 -0.39703941422577987 0.15748552694114659 0 -0.39401402549175851 0.1361747599337243 0 -0.41485942150404181 0.14153864215909739 0 -0.39703941422577987 0.15748552694114659 0 -0.4044664398419977 0.15594807455379561 0 -0.41485942150404181 0.14153864215909739 0 -0.39703941422577987 0.15748552694114659 0 -0.40864304721671202 0.1107171055473533 0 -0.41485942150404181 0.14153864215909739 0 -0.39401402549175851 0.1361747599337243 0 -0.38750957741872682 0.11885909540365321 0 -0.37372345991800282 0.14335770613522919 0 -0.36904533532088801 0.1177582563576956 0 -0.38750957741872682 0.11885909540365321 0 -0.39401402549175851 0.1361747599337243 0 -0.37372345991800282 0.14335770613522919 0 -0.35823941519022368 0.13573745574644491 0 -0.37372345991800282 0.14335770613522919 0 -0.36904533532088801 0.1177582563576956 0 -0.37372345991800282 0.14335770613522919 0 -0.36904533532088801 0.1177582563576956 0 -0.35823941519022368 0.13573745574644491 0 -0.34455851703438989 0.13305210298766909 0 -0.35158166360451942 0.11704707172714621 0 -0.35823941519022368 0.13573745574644491 0 -0.34455851703438989 0.13305210298766909 0 -0.34873147585397152 0.15030858297792049 0 -0.35823941519022368 0.13573745574644491 0 -0.34873147585397152 0.15030858297792049 0 -0.36179603940957061 0.15290101429300901 0 -0.34873147585397152 0.15030858297792049 0 -0.34720568730415252 0.1616956217090188 0 -0.33647431770126862 0.14798842126345041 0 -0.34873147585397152 0.15030858297792049 0 -0.36179603940957061 0.15290101429300901 0 -0.35552330674067661 0.16014073544654131 0 -0.35823941519022368 0.13573745574644491 0 -0.36179603940957061 0.15290101429300901 0 -0.37372345991800282 0.14335770613522919 0 -0.3784015845151173 0.16895715591276281 0 -0.36179603940957061 0.15290101429300901 0 -0.37372345991800282 0.14335770613522919 0 -0.3784015845151173 0.16895715591276281 0 -0.36179603940957061 0.15290101429300901 0 -0.3628088848288224 0.16705289795690309 0 -0.3784015845151173 0.16895715591276281 0 -0.3628088848288224 0.16705289795690309 0 -0.36959790597703868 0.17377317275203899 0 -0.36179603940957061 0.15290101429300901 0 -0.3628088848288224 0.16705289795690309 0 -0.35552330674067661 0.16014073544654131 0 -0.38088029112643113 0.1825210369279657 0 -0.37283571032282492 0.1791450959532255 0 -0.36802074197771562 0.19700904511440151 0 -0.37283571032282492 0.1791450959532255 0 -0.36399845157591232 0.19532107462703119 0 -0.37283571032282492 0.1791450959532255 0 -0.36261880381503758 0.18828806813974089 0 -0.3784015845151173 0.16895715591276281 0 -0.36959790597703868 0.17377317275203899 0 -0.37283571032282492 0.1791450959532255 0 -0.36959790597703868 0.17377317275203899 0 -0.37283571032282492 0.1791450959532255 0 -0.36409588864576692 0.17933358541092431 0 -0.3628088848288224 0.16705289795690309 0 -0.36959790597703868 0.17377317275203899 0 -0.36409588864576692 0.17933358541092431 0 -0.3628088848288224 0.16705289795690309 0 -0.36409588864576692 0.17933358541092431 0 -0.35614161380151321 0.17761165346375071 0 -0.36409588864576692 0.17933358541092431 0 -0.35797279878738592 0.18411861580098379 0 -0.35614161380151321 0.17761165346375071 0 -0.36409588864576692 0.17933358541092431 0 -0.35797279878738592 0.18411861580098379 0 -0.36261880381503758 0.18828806813974089 0 -0.37283571032282492 0.1791450959532255 0 -0.36409588864576692 0.17933358541092431 0 -0.36261880381503758 0.18828806813974089 0 -0.35797279878738592 0.18411861580098379 0 -0.35614161380151321 0.17761165346375071 0 -0.35065229879255438 0.18593262723135329 0 -0.35797279878738592 0.18411861580098379 0 -0.35065229879255438 0.18593262723135329 0 -0.35645772166264922 0.19211102842263869 0 -0.35614161380151321 0.17761165346375071 0 -0.34811061985946878 0.17434540014992381 0 -0.35436851446084039 0.1683048517912053 0 -0.35614161380151321 0.17761165346375071 0 -0.34811061985946878 0.17434540014992381 0 -0.35065229879255438 0.18593262723135329 0 -0.35065229879255438 0.18593262723135329 0 -0.34227569468909552 0.1811403169530669 0 -0.33993633525554889 0.19055096072852831 0 -0.34811061985946878 0.17434540014992381 0 -0.35065229879255438 0.18593262723135329 0 -0.34227569468909552 0.1811403169530669 0 -0.35552330674067661 0.16014073544654131 0 -0.35436851446084039 0.1683048517912053 0 -0.34720568730415252 0.1616956217090188 0 -0.3628088848288224 0.16705289795690309 0 -0.35614161380151321 0.17761165346375071 0 -0.35436851446084039 0.1683048517912053 0 -0.3628088848288224 0.16705289795690309 0 -0.35552330674067661 0.16014073544654131 0 -0.35436851446084039 0.1683048517912053 0 -0.34811061985946878 0.17434540014992381 0 -0.34720568730415252 0.1616956217090188 0 -0.33801991010865667 0.17138732975114751 0 -0.34811061985946878 0.17434540014992381 0 -0.35436851446084039 0.1683048517912053 0 -0.34720568730415252 0.1616956217090188 0 -0.34873147585397152 0.15030858297792049 0 -0.35552330674067661 0.16014073544654131 0 -0.34720568730415252 0.1616956217090188 0 -0.34720568730415252 0.1616956217090188 0 -0.33801991010865667 0.17138732975114751 0 -0.33092539158612982 0.1609515407851054 0 -0.34720568730415252 0.1616956217090188 0 -0.33092539158612982 0.1609515407851054 0 -0.33647431770126862 0.14798842126345041 0 -0.33801991010865667 0.17138732975114751 0 -0.33092539158612982 0.1609515407851054 0 -0.3265778886375873 0.17202186172735501 0 -0.34227569468909552 0.1811403169530669 0 -0.33183788287013261 0.1831818366374682 0 -0.33993633525554889 0.19055096072852831 0 -0.34811061985946878 0.17434540014992381 0 -0.33801991010865667 0.17138732975114751 0 -0.34227569468909552 0.1811403169530669 0 -0.33801991010865667 0.17138732975114751 0 -0.34227569468909552 0.1811403169530669 0 -0.33183788287013261 0.1831818366374682 0 -0.33801991010865667 0.17138732975114751 0 -0.33183788287013261 0.1831818366374682 0 -0.3265778886375873 0.17202186172735501 0 -0.3265778886375873 0.17202186172735501 0 -0.31632076704925127 0.18575639557221951 0 -0.3167678101826048 0.16359462978275929 0 -0.33183788287013261 0.1831818366374682 0 -0.3265778886375873 0.17202186172735501 0 -0.31632076704925127 0.18575639557221951 0 -0.33092539158612982 0.1609515407851054 0 -0.3167678101826048 0.16359462978275929 0 -0.32050673558250908 0.1490213804769015 0 -0.33092539158612982 0.1609515407851054 0 -0.3265778886375873 0.17202186172735501 0 -0.3167678101826048 0.16359462978275929 0 -0.32050673558250908 0.1490213804769015 0 -0.30739524272803709 0.15185112365938391 0 -0.31211500736378339 0.1240031522641292 0 -0.3167678101826048 0.16359462978275929 0 -0.32050673558250908 0.1490213804769015 0 -0.30739524272803709 0.15185112365938391 0 -0.32050673558250908 0.1490213804769015 0 -0.30739524272803709 0.15185112365938391 0 -0.32919359534549508 0.13424827028365749 0 -0.31211500736378339 0.1240031522641292 0 -0.33231339904552459 0.1171762944261375 0 -0.32050673558250908 0.1490213804769015 0 -0.32919359534549508 0.13424827028365749 0 -0.31211500736378339 0.1240031522641292 0 -0.34455851703438989 0.13305210298766909 0 -0.32919359534549508 0.13424827028365749 0 -0.33231339904552459 0.1171762944261375 0 -0.34455851703438989 0.13305210298766909 0 -0.32919359534549508 0.13424827028365749 0 -0.33647431770126862 0.14798842126345041 0 -0.32050673558250908 0.1490213804769015 0 -0.32919359534549508 0.13424827028365749 0 -0.33647431770126862 0.14798842126345041 0 -0.33092539158612982 0.1609515407851054 0 -0.32050673558250908 0.1490213804769015 0 -0.33647431770126862 0.14798842126345041 0 -0.34455851703438989 0.13305210298766909 0 -0.34873147585397152 0.15030858297792049 0 -0.33647431770126862 0.14798842126345041 0 -0.35416421148584648 0.23888623464626721 0 -0.34843396418698602 0.22381077072877051 0 -0.33845336435013867 0.242079554605789 0 -0.35416421148584648 0.23888623464626721 0 -0.33845336435013867 0.242079554605789 0 -0.35464358931248319 0.25491115920099722 0 -0.37939186114838758 0.22424627805714001 0 -0.37013679196984273 0.23750613219799629 0 -0.37477717689163992 0.25299635056682518 0 -0.37013679196984273 0.23750613219799629 0 -0.35464358931248319 0.25491115920099722 0 -0.37477717689163992 0.25299635056682518 0 -0.35416421148584648 0.23888623464626721 0 -0.37013679196984273 0.23750613219799629 0 -0.35464358931248319 0.25491115920099722 0 -0.35416421148584648 0.23888623464626721 0 -0.37013679196984273 0.23750613219799629 0 -0.36148561266771267 0.2305011068434443 0 -0.36148561266771267 0.2305011068434443 0 -0.36975441169016687 0.228432664243616 0 -0.36800338097472479 0.22147713987588341 0 -0.37013679196984273 0.23750613219799629 0 -0.36148561266771267 0.2305011068434443 0 -0.36975441169016687 0.228432664243616 0 -0.37939186114838758 0.22424627805714001 0 -0.37013679196984273 0.23750613219799629 0 -0.36975441169016687 0.228432664243616 0 -0.37939186114838758 0.22424627805714001 0 -0.36975441169016687 0.228432664243616 0 -0.36800338097472479 0.22147713987588341 0 -0.36800338097472479 0.22147713987588341 0 -0.34843396418698602 0.22381077072877051 0 -0.35516119282899983 0.21149705330083701 0 -0.36148561266771267 0.2305011068434443 0 -0.36800338097472479 0.22147713987588341 0 -0.34843396418698602 0.22381077072877051 0 -0.36800338097472479 0.22147713987588341 0 -0.34843396418698602 0.22381077072877051 0 -0.35416421148584648 0.23888623464626721 0 -0.36148561266771267 0.2305011068434443 0 -0.34843396418698602 0.22381077072877051 0 -0.34843396418698602 0.22381077072877051 0 -0.34802604401402371 0.21953575615482759 0 -0.33982416592956399 0.21665757569738961 0 -0.34802604401402371 0.21953575615482759 0 -0.34581283434165899 0.20861347152532789 0 -0.33982416592956399 0.21665757569738961 0 -0.34802604401402371 0.21953575615482759 0 -0.34581283434165899 0.20861347152532789 0 -0.35516119282899983 0.21149705330083701 0 -0.34843396418698602 0.22381077072877051 0 -0.34802604401402371 0.21953575615482759 0 -0.35516119282899983 0.21149705330083701 0 -0.34581283434165899 0.20861347152532789 0 -0.35516119282899983 0.21149705330083701 0 -0.35389383475621161 0.20092716755479181 0 -0.34802604401402371 0.21953575615482759 0 -0.35516119282899983 0.21149705330083701 0 -0.34843396418698602 0.22381077072877051 0 -0.35516119282899983 0.21149705330083701 0 -0.36800338097472479 0.22147713987588341 0 -0.35516119282899983 0.21149705330083701 0 -0.37368745339656201 0.20924711939208951 0 -0.35516119282899983 0.21149705330083701 0 -0.37368745339656201 0.20924711939208951 0 -0.36802074197771562 0.19700904511440151 0 -0.35516119282899983 0.21149705330083701 0 -0.36399845157591232 0.19532107462703119 0 -0.35516119282899983 0.21149705330083701 0 -0.36802074197771562 0.19700904511440151 0 -0.37283571032282492 0.1791450959532255 0 -0.36399845157591232 0.19532107462703119 0 -0.36261880381503758 0.18828806813974089 0 -0.37283571032282492 0.1791450959532255 0 -0.36399845157591232 0.19532107462703119 0 -0.36802074197771562 0.19700904511440151 0 -0.35516119282899983 0.21149705330083701 0 -0.36399845157591232 0.19532107462703119 0 -0.36802074197771562 0.19700904511440151 0 -0.38088029112643113 0.1825210369279657 0 -0.36802074197771562 0.19700904511440151 0 -0.36399845157591232 0.19532107462703119 0 -0.36261880381503758 0.18828806813974089 0 -0.35645772166264922 0.19211102842263869 0 -0.35797279878738592 0.18411861580098379 0 -0.36261880381503758 0.18828806813974089 0 -0.35645772166264922 0.19211102842263869 0 -0.35065229879255438 0.18593262723135329 0 -0.35645772166264922 0.19211102842263869 0 -0.34803897337183792 0.19709320989812409 0 -0.35516119282899983 0.21149705330083701 0 -0.36399845157591232 0.19532107462703119 0 -0.35389383475621161 0.20092716755479181 0 -0.35645772166264922 0.19211102842263869 0 -0.35389383475621161 0.20092716755479181 0 -0.34803897337183792 0.19709320989812409 0 -0.36399845157591232 0.19532107462703119 0 -0.35645772166264922 0.19211102842263869 0 -0.35389383475621161 0.20092716755479181 0 -0.34581283434165899 0.20861347152532789 0 -0.35389383475621161 0.20092716755479181 0 -0.34803897337183792 0.19709320989812409 0 -0.34581283434165899 0.20861347152532789 0 -0.34803897337183792 0.19709320989812409 0 -0.33933674095816863 0.19971543786353729 0 -0.35065229879255438 0.18593262723135329 0 -0.34803897337183792 0.19709320989812409 0 -0.33993633525554889 0.19055096072852831 0 -0.33993633525554889 0.19055096072852831 0 -0.33933674095816863 0.19971543786353729 0 -0.33069942903629101 0.19625725860753851 0 -0.34803897337183792 0.19709320989812409 0 -0.33993633525554889 0.19055096072852831 0 -0.33933674095816863 0.19971543786353729 0 -0.33933674095816863 0.19971543786353729 0 -0.33069942903629101 0.19625725860753851 0 -0.33422481296465362 0.2080963853910347 0 -0.33183788287013261 0.1831818366374682 0 -0.33993633525554889 0.19055096072852831 0 -0.33069942903629101 0.19625725860753851 0 -0.31632076704925127 0.18575639557221951 0 -0.33069942903629101 0.19625725860753851 0 -0.32036655352850157 0.2095523693350691 0 -0.33183788287013261 0.1831818366374682 0 -0.31632076704925127 0.18575639557221951 0 -0.33069942903629101 0.19625725860753851 0 -0.32036655352850157 0.2095523693350691 0 -0.32458589997660492 0.2266546254550818 0 -0.30779163400160159 0.21927945841494459 0 -0.32036655352850157 0.2095523693350691 0 -0.32934906837639222 0.21536895119528529 0 -0.32458589997660492 0.2266546254550818 0 -0.32036655352850157 0.2095523693350691 0 -0.32934906837639222 0.21536895119528529 0 -0.33422481296465362 0.2080963853910347 0 -0.32934906837639222 0.21536895119528529 0 -0.33422481296465362 0.2080963853910347 0 -0.33982416592956399 0.21665757569738961 0 -0.33069942903629101 0.19625725860753851 0 -0.32036655352850157 0.2095523693350691 0 -0.33422481296465362 0.2080963853910347 0 -0.34581283434165899 0.20861347152532789 0 -0.33933674095816863 0.19971543786353729 0 -0.33422481296465362 0.2080963853910347 0 -0.34581283434165899 0.20861347152532789 0 -0.33422481296465362 0.2080963853910347 0 -0.33982416592956399 0.21665757569738961 0 -0.34843396418698602 0.22381077072877051 0 -0.33982416592956399 0.21665757569738961 0 -0.32458589997660492 0.2266546254550818 0 -0.34843396418698602 0.22381077072877051 0 -0.32458589997660492 0.2266546254550818 0 -0.34843396418698602 0.22381077072877051 0 -0.32458589997660492 0.2266546254550818 0 -0.33845336435013867 0.242079554605789 0 -0.34843396418698602 0.22381077072877051 0 -0.33845336435013867 0.242079554605789 0 -0.32934906837639222 0.21536895119528529 0 -0.33982416592956399 0.21665757569738961 0 -0.32458589997660492 0.2266546254550818 0 -0.32458589997660492 0.2266546254550818 0 -0.30073783576622393 0.22949848018139329 0 -0.32458589997660492 0.2266546254550818 0 -0.32455092720978362 0.24357057421839101 0 -0.31122576982003303 0.23714335435801151 0 -0.32455092720978362 0.24357057421839101 0 -0.311575650220281 0.24878047680599949 0 -0.31122576982003303 0.23714335435801151 0 -0.32458589997660492 0.2266546254550818 0 -0.32455092720978362 0.24357057421839101 0 -0.33845336435013867 0.242079554605789 0 -0.32455092720978362 0.24357057421839101 0 -0.33845336435013867 0.242079554605789 0 -0.32847276451329022 0.26034833848280681 0 -0.29310990672191722 0.23613872254877591 0 -0.29467853592727078 0.23721261512919359 0 -0.28985028671148488 0.25537141990030859 0 -0.29310990672191722 0.23613872254877591 0 -0.27131573767068418 0.22826101281380451 0 -0.28058301219108422 0.24181621635705669 0 -0.29310990672191722 0.23613872254877591 0 -0.28985028671148488 0.25537141990030859 0 -0.29310990672191722 0.23613872254877591 0 -0.28058301219108422 0.24181621635705669 0 -0.28985028671148488 0.25537141990030859 0 -0.28058301219108422 0.24181621635705669 0 -0.28985028671148488 0.25537141990030859 0 -0.29310990672191722 0.23613872254877591 0 -0.29467853592727078 0.23721261512919359 0 -0.29467853592727078 0.23721261512919359 0 -0.31122576982003303 0.23714335435801151 0 -0.30073783576622393 0.22949848018139329 0 -0.29467853592727078 0.23721261512919359 0 -0.311575650220281 0.24878047680599949 0 -0.31122576982003303 0.23714335435801151 0 -0.29467853592727078 0.23721261512919359 0 -0.311575650220281 0.24878047680599949 0 -0.29467853592727078 0.23721261512919359 0 -0.311575650220281 0.24878047680599949 0 -0.29523766041035199 0.26325150879709891 0 -0.32458589997660492 0.2266546254550818 0 -0.30073783576622393 0.22949848018139329 0 -0.30779163400160159 0.21927945841494459 0 -0.32458589997660492 0.2266546254550818 0 -0.31122576982003303 0.23714335435801151 0 -0.30073783576622393 0.22949848018139329 0 -0.30073783576622393 0.22949848018139329 0 -0.30779163400160159 0.21927945841494459 0 -0.29448167989639912 0.22804486553003031 0 -0.29310990672191722 0.23613872254877591 0 -0.29448167989639912 0.22804486553003031 0 -0.27369133376421262 0.22284465576077489 0 -0.29448167989639912 0.22804486553003031 0 -0.2838712618875629 0.21479465795795599 0 -0.27369133376421262 0.22284465576077489 0 -0.29448167989639912 0.22804486553003031 0 -0.29413635243235581 0.21196267741475219 0 -0.29310990672191722 0.23613872254877591 0 -0.27369133376421262 0.22284465576077489 0 -0.29467853592727078 0.23721261512919359 0 -0.30073783576622393 0.22949848018139329 0 -0.29448167989639912 0.22804486553003031 0 -0.29310990672191722 0.23613872254877591 0 -0.29467853592727078 0.23721261512919359 0 -0.29448167989639912 0.22804486553003031 0 -0.29467853592727078 0.23721261512919359 0 -0.29448167989639912 0.22804486553003031 0 -0.29310990672191722 0.23613872254877591 0 -0.29448167989639912 0.22804486553003031 0 -0.29413635243235581 0.21196267741475219 0 -0.29878620084027852 0.20264695157314819 0 -0.29379102496831272 0.19588048929947419 0 -0.29448167989639912 0.22804486553003031 0 -0.29413635243235581 0.21196267741475219 0 -0.29878620084027852 0.20264695157314819 0 -0.29448167989639912 0.22804486553003031 0 -0.29878620084027852 0.20264695157314819 0 -0.29413635243235581 0.21196267741475219 0 -0.29379102496831272 0.19588048929947419 0 -0.28522308967114912 0.20452327137286261 0 -0.29413635243235581 0.21196267741475219 0 -0.29379102496831272 0.19588048929947419 0 -0.29448167989639912 0.22804486553003031 0 -0.2838712618875629 0.21479465795795599 0 -0.29413635243235581 0.21196267741475219 0 -0.2838712618875629 0.21479465795795599 0 -0.28522308967114912 0.20452327137286261 0 -0.29413635243235581 0.21196267741475219 0 -0.32036655352850157 0.2095523693350691 0 -0.30779163400160159 0.21927945841494459 0 -0.29878620084027852 0.20264695157314819 0 -0.30779163400160159 0.21927945841494459 0 -0.29448167989639912 0.22804486553003031 0 -0.29878620084027852 0.20264695157314819 0 -0.29878620084027852 0.20264695157314819 0 -0.29379102496831272 0.19588048929947419 0 -0.30309072178415769 0.17724903761626601 0 -0.31632076704925127 0.18575639557221951 0 -0.29878620084027852 0.20264695157314819 0 -0.30309072178415769 0.17724903761626601 0 -0.31632076704925127 0.18575639557221951 0 -0.32036655352850157 0.2095523693350691 0 -0.29878620084027852 0.20264695157314819 0 -0.29878620084027852 0.20264695157314819 0 -0.30309072178415769 0.17724903761626601 0 -0.28522308967114912 0.20452327137286261 0 -0.29379102496831272 0.19588048929947419 0 -0.28124953787461371 0.1935735916895788 0 -0.29379102496831272 0.19588048929947419 0 -0.28124953787461371 0.1935735916895788 0 -0.28752446549241689 0.1832489647230989 0 -0.28124953787461371 0.1935735916895788 0 -0.2659766044530758 0.19238405035351089 0 -0.27494974420821611 0.1793112011395637 0 -0.28522308967114912 0.20452327137286261 0 -0.28124953787461371 0.1935735916895788 0 -0.27431068871210279 0.20621206129374381 0 -0.28124953787461371 0.1935735916895788 0 -0.2659766044530758 0.19238405035351089 0 -0.27431068871210279 0.20621206129374381 0 -0.25427276080650663 0.20955058897277601 0 -0.24947341468037071 0.1874691479585941 0 -0.2659766044530758 0.19238405035351089 0 -0.25427276080650663 0.20955058897277601 0 -0.24947341468037071 0.1874691479585941 0 -0.2659766044530758 0.19238405035351089 0 -0.25427276080650663 0.20955058897277601 0 -0.27431068871210279 0.20621206129374381 0 -0.25427276080650663 0.20955058897277601 0 -0.27369133376421262 0.22284465576077489 0 -0.25427276080650663 0.20955058897277601 0 -0.25977281016601761 0.2185578892770178 0 -0.27369133376421262 0.22284465576077489 0 -0.25427276080650663 0.20955058897277601 0 -0.25561524088587501 0.21572724177218369 0 -0.25977281016601761 0.2185578892770178 0 -0.25427276080650663 0.20955058897277601 0 -0.25561524088587501 0.21572724177218369 0 -0.24333230173327219 0.21221501244476959 0 -0.25427276080650663 0.20955058897277601 0 -0.25561524088587501 0.21572724177218369 0 -0.25427276080650663 0.20955058897277601 0 -0.27431068871210279 0.20621206129374381 0 -0.27369133376421262 0.22284465576077489 0 -0.2838712618875629 0.21479465795795599 0 -0.27431068871210279 0.20621206129374381 0 -0.27369133376421262 0.22284465576077489 0 -0.2838712618875629 0.21479465795795599 0 -0.28522308967114912 0.20452327137286261 0 -0.27431068871210279 0.20621206129374381 0 -0.29310990672191722 0.23613872254877591 0 -0.27369133376421262 0.22284465576077489 0 -0.27131573767068418 0.22826101281380451 0 -0.27131573767068418 0.22826101281380451 0 -0.26439065681250729 0.2289784260688752 0 -0.26819560602517328 0.23507842756581021 0 -0.27131573767068418 0.22826101281380451 0 -0.26675876456119929 0.22568570462696191 0 -0.26439065681250729 0.2289784260688752 0 -0.27369133376421262 0.22284465576077489 0 -0.26675876456119929 0.22568570462696191 0 -0.26371349664181459 0.22286429712754721 0 -0.25977281016601761 0.2185578892770178 0 -0.27369133376421262 0.22284465576077489 0 -0.26371349664181459 0.22286429712754721 0 -0.27369133376421262 0.22284465576077489 0 -0.27131573767068418 0.22826101281380451 0 -0.26675876456119929 0.22568570462696191 0 -0.26675876456119929 0.22568570462696191 0 -0.26371349664181459 0.22286429712754721 0 -0.26068259791677789 0.22548013136380779 0 -0.26068259791677789 0.22548013136380779 0 -0.25678634991227811 0.22260498734460241 0 -0.2574101570832959 0.22971939663687391 0 -0.26371349664181459 0.22286429712754721 0 -0.26068259791677789 0.22548013136380779 0 -0.25678634991227811 0.22260498734460241 0 -0.25977281016601761 0.2185578892770178 0 -0.26371349664181459 0.22286429712754721 0 -0.25678634991227811 0.22260498734460241 0 -0.25561524088587501 0.21572724177218369 0 -0.25977281016601761 0.2185578892770178 0 -0.25678634991227811 0.22260498734460241 0 -0.25678634991227811 0.22260498734460241 0 -0.249817319625419 0.2274340479663062 0 -0.24904636230289101 0.22050689045355901 0 -0.25561524088587501 0.21572724177218369 0 -0.25678634991227811 0.22260498734460241 0 -0.24904636230289101 0.22050689045355901 0 -0.25109603964961891 0.234366577265785 0 -0.2574101570832959 0.22971939663687391 0 -0.249817319625419 0.2274340479663062 0 -0.25678634991227811 0.22260498734460241 0 -0.2574101570832959 0.22971939663687391 0 -0.249817319625419 0.2274340479663062 0 -0.2574101570832959 0.22971939663687391 0 -0.26439065681250729 0.2289784260688752 0 -0.26193406046231932 0.2344272911270443 0 -0.26068259791677789 0.22548013136380779 0 -0.2574101570832959 0.22971939663687391 0 -0.26439065681250729 0.2289784260688752 0 -0.26675876456119929 0.22568570462696191 0 -0.26068259791677789 0.22548013136380779 0 -0.26439065681250729 0.2289784260688752 0 -0.26439065681250729 0.2289784260688752 0 -0.26193406046231932 0.2344272911270443 0 -0.26819560602517328 0.23507842756581021 0 -0.26193406046231932 0.2344272911270443 0 -0.26614348890836192 0.24293385421211869 0 -0.26819560602517328 0.23507842756581021 0 -0.2574101570832959 0.22971939663687391 0 -0.26193406046231932 0.2344272911270443 0 -0.25699538715464082 0.23905233796863981 0 -0.26193406046231932 0.2344272911270443 0 -0.25699538715464082 0.23905233796863981 0 -0.26614348890836192 0.24293385421211869 0 -0.25109603964961891 0.234366577265785 0 -0.25699538715464082 0.23905233796863981 0 -0.2470081454867771 0.2422065880623451 0 -0.25109603964961891 0.234366577265785 0 -0.2574101570832959 0.22971939663687391 0 -0.25699538715464082 0.23905233796863981 0 -0.25699538715464082 0.23905233796863981 0 -0.25693865295534157 0.25278860643768353 0 -0.2470081454867771 0.2422065880623451 0 -0.25699538715464082 0.23905233796863981 0 -0.26614348890836192 0.24293385421211869 0 -0.25693865295534157 0.25278860643768353 0 -0.26614348890836192 0.24293385421211869 0 -0.2724296921133022 0.25217156250687062 0 -0.25693865295534157 0.25278860643768353 0 -0.26614348890836192 0.24293385421211869 0 -0.28058301219108422 0.24181621635705669 0 -0.2724296921133022 0.25217156250687062 0 -0.28058301219108422 0.24181621635705669 0 -0.28985028671148488 0.25537141990030859 0 -0.2724296921133022 0.25217156250687062 0 -0.26614348890836192 0.24293385421211869 0 -0.26819560602517328 0.23507842756581021 0 -0.28058301219108422 0.24181621635705669 0 -0.27131573767068418 0.22826101281380451 0 -0.26819560602517328 0.23507842756581021 0 -0.28058301219108422 0.24181621635705669 0 -0.27131573767068418 0.22826101281380451 0 -0.28058301219108422 0.24181621635705669 0 -0.29326612220823411 0.13512644163735801 0 -0.28648818467010168 0.15636331808772699 0 -0.27141175194646833 0.1445184244171912 0 -0.29326612220823411 0.13512644163735801 0 -0.30739524272803709 0.15185112365938391 0 -0.28648818467010168 0.15636331808772699 0 -0.30739524272803709 0.15185112365938391 0 -0.31211500736378339 0.1240031522641292 0 -0.29326612220823411 0.13512644163735801 0 -0.30739524272803709 0.15185112365938391 0 -0.31211500736378339 0.1240031522641292 0 -0.30739524272803709 0.15185112365938391 0 -0.28648818467010168 0.15636331808772699 0 -0.30739524272803709 0.15185112365938391 0 -0.30309072178415769 0.17724903761626601 0 -0.3167678101826048 0.16359462978275929 0 -0.30739524272803709 0.15185112365938391 0 -0.30309072178415769 0.17724903761626601 0 -0.30739524272803709 0.15185112365938391 0 -0.30309072178415769 0.17724903761626601 0 -0.28648818467010168 0.15636331808772699 0 -0.31632076704925127 0.18575639557221951 0 -0.3167678101826048 0.16359462978275929 0 -0.30309072178415769 0.17724903761626601 0 -0.30309072178415769 0.17724903761626601 0 -0.28752446549241689 0.1832489647230989 0 -0.28381669143151822 0.17107272026056419 0 -0.29379102496831272 0.19588048929947419 0 -0.30309072178415769 0.17724903761626601 0 -0.28752446549241689 0.1832489647230989 0 -0.28752446549241689 0.1832489647230989 0 -0.28381669143151822 0.17107272026056419 0 -0.27494974420821611 0.1793112011395637 0 -0.30309072178415769 0.17724903761626601 0 -0.28648818467010168 0.15636331808772699 0 -0.28381669143151822 0.17107272026056419 0 -0.28648818467010168 0.15636331808772699 0 -0.28381669143151822 0.17107272026056419 0 -0.26558112661216632 0.16087551251606999 0 -0.28381669143151822 0.17107272026056419 0 -0.27494974420821611 0.1793112011395637 0 -0.26558112661216632 0.16087551251606999 0 -0.28648818467010168 0.15636331808772699 0 -0.26558112661216632 0.16087551251606999 0 -0.27494974420821611 0.1793112011395637 0 -0.26084394980388648 0.17618123618614701 0 -0.26558112661216632 0.16087551251606999 0 -0.2659766044530758 0.19238405035351089 0 -0.27494974420821611 0.1793112011395637 0 -0.26084394980388648 0.17618123618614701 0 -0.28124953787461371 0.1935735916895788 0 -0.28752446549241689 0.1832489647230989 0 -0.27494974420821611 0.1793112011395637 0 -0.2659766044530758 0.19238405035351089 0 -0.26084394980388648 0.17618123618614701 0 -0.24947341468037071 0.1874691479585941 0 -0.26084394980388648 0.17618123618614701 0 -0.24467406855423091 0.1653877069444131 0 -0.24947341468037071 0.1874691479585941 0 -0.26558112661216632 0.16087551251606999 0 -0.24467406855423091 0.1653877069444131 0 -0.26558112661216632 0.16087551251606999 0 -0.2543915534089356 0.15018751405662761 0 -0.24467406855423091 0.1653877069444131 0 -0.26084394980388648 0.17618123618614701 0 -0.26558112661216632 0.16087551251606999 0 -0.24467406855423091 0.1653877069444131 0 -0.26558112661216632 0.16087551251606999 0 -0.2543915534089356 0.15018751405662761 0 -0.27141175194646833 0.1445184244171912 0 -0.2543915534089356 0.15018751405662761 0 -0.27141175194646833 0.1445184244171912 0 -0.25477231595188199 0.13792181725732239 0 -0.28648818467010168 0.15636331808772699 0 -0.26558112661216632 0.16087551251606999 0 -0.27141175194646833 0.1445184244171912 0 -0.29326612220823411 0.13512644163735801 0 -0.27141175194646833 0.1445184244171912 0 -0.27545980130109921 0.1239996051278405 0 -0.27141175194646833 0.1445184244171912 0 -0.25477231595188199 0.13792181725732239 0 -0.27545980130109921 0.1239996051278405 0 -0.25477231595188199 0.13792181725732239 0 -0.27545980130109921 0.1239996051278405 0 -0.25477231595188199 0.13792181725732239 0 -0.27545980130109921 0.1239996051278405 0 -0.2495823492922267 0.12121763785839371 0 -0.25610310449345419 0.1041046972302731 0 -0.27545980130109921 0.1239996051278405 0 -0.2495823492922267 0.12121763785839371 0 -0.25610310449345419 0.1041046972302731 0 -0.25413031243694739 0.089521027236778197 0 -0.2427234934652894 0.090762762990284518 0 -0.25610310449345419 0.1041046972302731 0 -0.26471001572300679 0.091779207982481292 0 -0.25413031243694739 0.089521027236778197 0 -0.25610310449345419 0.1041046972302731 0 -0.27632390472144541 0.10600366135062909 0 -0.26471001572300679 0.091779207982481292 0 -0.27632390472144541 0.10600366135062909 0 -0.27815219556391091 0.091433986845849968 0 -0.26471001572300679 0.091779207982481292 0 -0.27632390472144541 0.10600366135062909 0 -0.28783094919658059 0.096999283795453681 0 -0.27815219556391091 0.091433986845849968 0 -0.25610310449345419 0.1041046972302731 0 -0.27632390472144541 0.10600366135062909 0 -0.27545980130109921 0.1239996051278405 0 -0.27545980130109921 0.1239996051278405 0 -0.29614728665031642 0.1100773929983587 0 -0.29326612220823411 0.13512644163735801 0 -0.27545980130109921 0.1239996051278405 0 -0.29614728665031642 0.1100773929983587 0 -0.27632390472144541 0.10600366135062909 0 -0.27545980130109921 0.1239996051278405 0 -0.29614728665031642 0.1100773929983587 0 -0.27632390472144541 0.10600366135062909 0 -0.29614728665031642 0.1100773929983587 0 -0.28783094919658059 0.096999283795453681 0 -0.29614728665031642 0.1100773929983587 0 -0.28783094919658059 0.096999283795453681 0 -0.29903425758953422 0.090155638130954882 0 -0.29614728665031642 0.1100773929983587 0 -0.29903425758953422 0.090155638130954882 0 -0.31683477199953253 0.096155180868875256 0 -0.29614728665031642 0.1100773929983587 0 -0.31683477199953253 0.096155180868875256 0 -0.29614728665031642 0.1100773929983587 0 -0.31211500736378339 0.1240031522641292 0 -0.31683477199953253 0.096155180868875256 0 -0.29326612220823411 0.13512644163735801 0 -0.29614728665031642 0.1100773929983587 0 -0.31211500736378339 0.1240031522641292 0 -0.30635830999651792 0.07761242167179265 0 -0.30189037325813839 0.060543452134012458 0 -0.32146679815367007 0.068824891797761426 0 -0.30635830999651792 0.07761242167179265 0 -0.29256534898171721 0.072382945427359638 0 -0.30189037325813839 0.060543452134012458 0 -0.30635830999651792 0.07761242167179265 0 -0.29903425758953422 0.090155638130954882 0 -0.29256534898171721 0.072382945427359638 0 -0.30635830999651792 0.07761242167179265 0 -0.29903425758953422 0.090155638130954882 0 -0.31683477199953253 0.096155180868875256 0 -0.29903425758953422 0.090155638130954882 0 -0.28572263353681682 0.08337299634339973 0 -0.29256534898171721 0.072382945427359638 0 -0.28783094919658059 0.096999283795453681 0 -0.29903425758953422 0.090155638130954882 0 -0.28572263353681682 0.08337299634339973 0 -0.28783094919658059 0.096999283795453681 0 -0.28572263353681682 0.08337299634339973 0 -0.27815219556391091 0.091433986845849968 0 -0.28572263353681682 0.08337299634339973 0 -0.29256534898171721 0.072382945427359638 0 -0.28059357561043269 0.073644623599786935 0 -0.29256534898171721 0.072382945427359638 0 -0.29088471103165969 0.062671374321780771 0 -0.30189037325813839 0.060543452134012458 0 -0.29256534898171721 0.072382945427359638 0 -0.29088471103165969 0.062671374321780771 0 -0.28261649390190829 0.064291953838756216 0 -0.29256534898171721 0.072382945427359638 0 -0.28261649390190829 0.064291953838756216 0 -0.28059357561043269 0.073644623599786935 0 -0.28261649390190829 0.064291953838756216 0 -0.27678196032587499 0.069585006034529676 0 -0.27195195811963518 0.06635492754641531 0 -0.26855373331756138 0.063547936276670339 0 -0.27195195811963518 0.06635492754641531 0 -0.25743728825439521 0.07924270920583569 0 -0.28261649390190829 0.064291953838756216 0 -0.27678196032587499 0.069585006034529676 0 -0.28059357561043269 0.073644623599786935 0 -0.27678196032587499 0.069585006034529676 0 -0.27196581367152378 0.074048519153160283 0 -0.27195195811963518 0.06635492754641531 0 -0.27678196032587499 0.069585006034529676 0 -0.28059357561043269 0.073644623599786935 0 -0.27196581367152378 0.074048519153160283 0 -0.28059357561043269 0.073644623599786935 0 -0.27196581367152378 0.074048519153160283 0 -0.27303575277029413 0.081855029780232597 0 -0.27196581367152378 0.074048519153160283 0 -0.27195195811963518 0.06635492754641531 0 -0.25743728825439521 0.07924270920583569 0 -0.28572263353681682 0.08337299634339973 0 -0.27815219556391091 0.091433986845849968 0 -0.27303575277029413 0.081855029780232597 0 -0.28572263353681682 0.08337299634339973 0 -0.28059357561043269 0.073644623599786935 0 -0.27303575277029413 0.081855029780232597 0 -0.27196581367152378 0.074048519153160283 0 -0.27303575277029413 0.081855029780232597 0 -0.25743728825439521 0.07924270920583569 0 -0.27815219556391091 0.091433986845849968 0 -0.27303575277029413 0.081855029780232597 0 -0.26471001572300679 0.091779207982481292 0 -0.26471001572300679 0.091779207982481292 0 -0.25743728825439521 0.07924270920583569 0 -0.25413031243694739 0.089521027236778197 0 -0.27303575277029413 0.081855029780232597 0 -0.26471001572300679 0.091779207982481292 0 -0.25743728825439521 0.07924270920583569 0 -0.25743728825439521 0.07924270920583569 0 -0.25064083865024739 0.073628726666345984 0 -0.24857020570659841 0.081659589420377987 0 -0.25743728825439521 0.07924270920583569 0 -0.25413031243694739 0.089521027236778197 0 -0.24857020570659841 0.081659589420377987 0 -0.26855373331756138 0.063547936276670339 0 -0.25743728825439521 0.07924270920583569 0 -0.25064083865024739 0.073628726666345984 0 -0.26855373331756138 0.063547936276670339 0 -0.25064083865024739 0.073628726666345984 0 -0.2562734301216873 0.062061687155910393 0 -0.26855373331756138 0.063547936276670339 0 -0.25064083865024739 0.073628726666345984 0 -0.27195195811963518 0.06635492754641531 0 -0.25743728825439521 0.07924270920583569 0 -0.25064083865024739 0.073628726666345984 0 -0.2562734301216873 0.062061687155910393 0 -0.24829977196364941 0.065213336215906109 0 -0.2623477931936597 0.053657636987073307 0 -0.25116276906762952 0.054241108780248931 0 -0.26153642505613889 0.036367366133998442 0 -0.2562734301216873 0.062061687155910393 0 -0.2623477931936597 0.053657636987073307 0 -0.25116276906762952 0.054241108780248931 0 -0.2562734301216873 0.062061687155910393 0 -0.25116276906762952 0.054241108780248931 0 -0.24829977196364941 0.065213336215906109 0 -0.26855373331756138 0.063547936276670339 0 -0.2562734301216873 0.062061687155910393 0 -0.2623477931936597 0.053657636987073307 0 -0.25116276906762952 0.054241108780248931 0 -0.26153642505613889 0.036367366133998442 0 -0.239388393447095 0.04766651035075449 0 -0.2623477931936597 0.053657636987073307 0 -0.26153642505613889 0.036367366133998442 0 -0.27323710809808138 0.049716314049096537 0 -0.26153642505613889 0.036367366133998442 0 -0.28732673365434691 0.040933413293477772 0 -0.26153642505613889 0.036367366133998442 0 -0.2825074511423824 0.030310297232740709 0 -0.28732673365434691 0.040933413293477772 0 -0.26153642505613889 0.036367366133998442 0 -0.27323710809808138 0.049716314049096537 0 -0.28732673365434691 0.040933413293477772 0 -0.26855373331756138 0.063547936276670339 0 -0.27195195811963518 0.06635492754641531 0 -0.28646662798487532 0.053467145886994819 0 -0.26855373331756138 0.063547936276670339 0 -0.28646662798487532 0.053467145886994819 0 -0.26855373331756138 0.063547936276670339 0 -0.27323710809808138 0.049716314049096537 0 -0.28646662798487532 0.053467145886994819 0 -0.27195195811963518 0.06635492754641531 0 -0.28646662798487532 0.053467145886994819 0 -0.28261649390190829 0.064291953838756216 0 -0.27195195811963518 0.06635492754641531 0 -0.28646662798487532 0.053467145886994819 0 -0.26855373331756138 0.063547936276670339 0 -0.2623477931936597 0.053657636987073307 0 -0.27323710809808138 0.049716314049096537 0 -0.26176261374782622 0.0098260211376069873 0 -0.24854849079604721 0.020569936005881421 0 -0.24598119983726671 0.0037338506766126851 0 -0.26003022337954462 -0.0038093911555793728 0 -0.26176261374782622 0.0098260211376069873 0 -0.24598119983726671 0.0037338506766126851 0 -0.26003022337954462 -0.0038093911555793728 0 -0.27433688946420332 -0.0007833753365484626 0 -0.26176261374782622 0.0098260211376069873 0 -0.26153642505613889 0.036367366133998442 0 -0.26176261374782622 0.0098260211376069873 0 -0.24854849079604721 0.020569936005881421 0 -0.26153642505613889 0.036367366133998442 0 -0.26176261374782622 0.0098260211376069873 0 -0.27684491432135683 0.017453585025194441 0 -0.26153642505613889 0.036367366133998442 0 -0.27684491432135683 0.017453585025194441 0 -0.2825074511423824 0.030310297232740709 0 -0.27433688946420332 -0.0007833753365484626 0 -0.26176261374782622 0.0098260211376069873 0 -0.27684491432135683 0.017453585025194441 0 -0.27433688946420332 -0.0007833753365484626 0 -0.27684491432135683 0.017453585025194441 0 -0.28842838408131971 0.0076205693905790281 0 -0.28842838408131971 0.0076205693905790281 0 -0.29131927560690712 0.022062190579302341 0 -0.29989828236451899 0.011495108916467369 0 -0.27684491432135683 0.017453585025194441 0 -0.29131927560690712 0.022062190579302341 0 -0.2825074511423824 0.030310297232740709 0 -0.27684491432135683 0.017453585025194441 0 -0.28842838408131971 0.0076205693905790281 0 -0.29131927560690712 0.022062190579302341 0 -0.29131927560690712 0.022062190579302341 0 -0.2825074511423824 0.030310297232740709 0 -0.29550990707316249 0.034734931131730561 0 -0.29131927560690712 0.022062190579302341 0 -0.30587597075389272 0.02137954460474218 0 -0.29550990707316249 0.034734931131730561 0 -0.30587597075389272 0.02137954460474218 0 -0.29550990707316249 0.034734931131730561 0 -0.30859873922341308 0.03381572977126493 0 -0.29131927560690712 0.022062190579302341 0 -0.30587597075389272 0.02137954460474218 0 -0.29989828236451899 0.011495108916467369 0 -0.3025805037907468 -0.0027432771802810229 0 -0.3204068892458079 -0.0014125807301150939 0 -0.31128727758972891 0.0091565171879943417 0 -0.30587597075389272 0.02137954460474218 0 -0.29989828236451899 0.011495108916467369 0 -0.31128727758972891 0.0091565171879943417 0 -0.3025805037907468 -0.0027432771802810229 0 -0.29989828236451899 0.011495108916467369 0 -0.31128727758972891 0.0091565171879943417 0 -0.3025805037907468 -0.0027432771802810229 0 -0.28842838408131971 0.0076205693905790281 0 -0.29989828236451899 0.011495108916467369 0 -0.28646662798487532 0.053467145886994819 0 -0.304010183261538 0.043594207608826187 0 -0.29088471103165969 0.062671374321780771 0 -0.28646662798487532 0.053467145886994819 0 -0.30189037325813839 0.060543452134012458 0 -0.29088471103165969 0.062671374321780771 0 -0.28261649390190829 0.064291953838756216 0 -0.28646662798487532 0.053467145886994819 0 -0.27323710809808138 0.049716314049096537 0 -0.28646662798487532 0.053467145886994819 0 -0.28732673365434691 0.040933413293477772 0 -0.28646662798487532 0.053467145886994819 0 -0.29550990707316249 0.034734931131730561 0 -0.30859873922341308 0.03381572977126493 0 -0.28646662798487532 0.053467145886994819 0 -0.28732673365434691 0.040933413293477772 0 -0.29550990707316249 0.034734931131730561 0 -0.2825074511423824 0.030310297232740709 0 -0.28732673365434691 0.040933413293477772 0 -0.29550990707316249 0.034734931131730561 0 -0.28646662798487532 0.053467145886994819 0 -0.30859873922341308 0.03381572977126493 0 -0.28646662798487532 0.053467145886994819 0 -0.304010183261538 0.043594207608826187 0 -0.30859873922341308 0.03381572977126493 0 -0.304010183261538 0.043594207608826187 0 -0.30859873922341308 0.03381572977126493 0 -0.32155373853820057 0.033721269330657687 0 -0.304010183261538 0.043594207608826187 0 -0.3137915997446068 0.051476736654279882 0 -0.31549181974187701 0.042926529004151233 0 -0.28646662798487532 0.053467145886994819 0 -0.304010183261538 0.043594207608826187 0 -0.30189037325813839 0.060543452134012458 0 -0.30189037325813839 0.060543452134012458 0 -0.3137915997446068 0.051476736654279882 0 -0.32146679815367007 0.068824891797761426 0 -0.304010183261538 0.043594207608826187 0 -0.30189037325813839 0.060543452134012458 0 -0.3137915997446068 0.051476736654279882 0 -0.3137915997446068 0.051476736654279882 0 -0.32609882430781029 0.041494602726648067 0 -0.32146679815367007 0.068824891797761426 0 -0.32609882430781029 0.041494602726648067 0 -0.32146679815367007 0.068824891797761426 0 -0.3137915997446068 0.051476736654279882 0 -0.31549181974187701 0.042926529004151233 0 -0.32609882430781029 0.041494602726648067 0 -0.304010183261538 0.043594207608826187 0 -0.31549181974187701 0.042926529004151233 0 -0.32155373853820057 0.033721269330657687 0 -0.304010183261538 0.043594207608826187 0 -0.32155373853820057 0.033721269330657687 0 -0.31549181974187701 0.042926529004151233 0 -0.32155373853820057 0.033721269330657687 0 -0.32609882430781029 0.041494602726648067 0 -0.32609882430781029 0.041494602726648067 0 -0.34385517732675519 0.031131612817745031 0 -0.35163198926140088 0.046228739452983239 0 -0.32609882430781029 0.041494602726648067 0 -0.338272543408071 0.060603673933957783 0 -0.32146679815367007 0.068824891797761426 0 -0.32609882430781029 0.041494602726648067 0 -0.338272543408071 0.060603673933957783 0 -0.35163198926140088 0.046228739452983239 0 -0.3204068892458079 -0.0014125807301150939 0 -0.31128727758972891 0.0091565171879943417 0 -0.33073085046195078 0.01416431365553468 0 -0.30587597075389272 0.02137954460474218 0 -0.31128727758972891 0.0091565171879943417 0 -0.33073085046195078 0.01416431365553468 0 -0.30859873922341308 0.03381572977126493 0 -0.33073085046195078 0.01416431365553468 0 -0.30587597075389272 0.02137954460474218 0 -0.30859873922341308 0.03381572977126493 0 -0.33073085046195078 0.01416431365553468 0 -0.32155373853820057 0.033721269330657687 0 -0.32609882430781029 0.041494602726648067 0 -0.33073085046195078 0.01416431365553468 0 -0.30859873922341308 0.03381572977126493 0 -0.32155373853820057 0.033721269330657687 0 -0.33073085046195078 0.01416431365553468 0 -0.32609882430781029 0.041494602726648067 0 -0.33073085046195078 0.01416431365553468 0 -0.33073085046195078 0.01416431365553468 0 -0.34385517732675519 0.031131612817745031 0 -0.35381837275022032 0.01853105722209741 0 -0.32609882430781029 0.041494602726648067 0 -0.33073085046195078 0.01416431365553468 0 -0.34385517732675519 0.031131612817745031 0 -0.33540629353460438 -0.01342214774580049 0 -0.33073085046195078 0.01416431365553468 0 -0.35221409618436439 -0.0049109655465913588 0 -0.33073085046195078 0.01416431365553468 0 -0.35221409618436439 -0.0049109655465913588 0 -0.34857824671955512 -0.007874197240844389 0 -0.33073085046195078 0.01416431365553468 0 -0.35221409618436439 -0.0049109655465913588 0 -0.33073085046195078 0.01416431365553468 0 -0.34939877662876639 0.0070576099193848619 0 -0.33073085046195078 0.01416431365553468 0 -0.34939877662876639 0.0070576099193848619 0 -0.35381837275022032 0.01853105722209741 0 -0.35900139338342918 0.0020097317905480609 0 -0.34939877662876639 0.0070576099193848619 0 -0.35834074471334648 0.0096788928264882005 0 -0.35509488683577939 -0.0004162838960613095 0 -0.35900139338342918 0.0020097317905480609 0 -0.34939877662876639 0.0070576099193848619 0 -0.35509488683577939 -0.0004162838960613095 0 -0.35221409618436439 -0.0049109655465913588 0 -0.34939877662876639 0.0070576099193848619 0 -0.34939877662876639 0.0070576099193848619 0 -0.35834074471334648 0.0096788928264882005 0 -0.35381837275022032 0.01853105722209741 0 -0.34385517732675519 0.031131612817745031 0 -0.35381837275022032 0.01853105722209741 0 -0.36551724687399623 0.028318485711261141 0 -0.37937813184432773 0.031366277704107569 0 -0.36551724687399623 0.028318485711261141 0 -0.37479293228070759 0.022502646493578662 0 -0.36551724687399623 0.028318485711261141 0 -0.37479293228070759 0.022502646493578662 0 -0.36730783543836809 0.01519693074799966 0 -0.3778438638662554 0.014761087644765769 0 -0.37479293228070759 0.022502646493578662 0 -0.36730783543836809 0.01519693074799966 0 -0.35381837275022032 0.01853105722209741 0 -0.36551724687399623 0.028318485711261141 0 -0.36730783543836809 0.01519693074799966 0 -0.35834074471334648 0.0096788928264882005 0 -0.36730783543836809 0.01519693074799966 0 -0.36603012090457948 0.0050917054244422654 0 -0.35834074471334648 0.0096788928264882005 0 -0.35381837275022032 0.01853105722209741 0 -0.36730783543836809 0.01519693074799966 0 -0.36730783543836809 0.01519693074799966 0 -0.37464316483836829 0.0066416053135349984 0 -0.36603012090457948 0.0050917054244422654 0 -0.3778438638662554 0.014761087644765769 0 -0.36730783543836809 0.01519693074799966 0 -0.37464316483836829 0.0066416053135349984 0 -0.37126952376897032 -0.00085078512189483576 0 -0.37774077980655368 -0.001289555558904682 0 -0.37464316483836829 0.0066416053135349984 0 -0.37126952376897032 -0.00085078512189483576 0 -0.37464316483836829 0.0066416053135349984 0 -0.36603012090457948 0.0050917054244422654 0 -0.37126952376897032 -0.00085078512189483576 0 -0.36494834593608783 -0.001298186014321303 0 -0.36603012090457948 0.0050917054244422654 0 -0.36494834593608783 -0.001298186014321303 0 -0.35900139338342918 0.0020097317905480609 0 -0.36603012090457948 0.0050917054244422654 0 -0.35900139338342918 0.0020097317905480609 0 -0.35834074471334648 0.0096788928264882005 0 -0.36603012090457948 0.0050917054244422654 0 -0.35163198926140088 0.046228739452983239 0 -0.36891219827968119 0.060077996683558232 0 -0.35298131256760962 0.063034912088641357 0 -0.338272543408071 0.060603673933957783 0 -0.35163198926140088 0.046228739452983239 0 -0.35298131256760962 0.063034912088641357 0 -0.34385517732675519 0.031131612817745031 0 -0.36551724687399623 0.028318485711261141 0 -0.35163198926140088 0.046228739452983239 0 -0.36551724687399623 0.028318485711261141 0 -0.35163198926140088 0.046228739452983239 0 -0.37261014177358448 0.043145835856899219 0 -0.37937813184432773 0.031366277704107569 0 -0.36551724687399623 0.028318485711261141 0 -0.37261014177358448 0.043145835856899219 0 -0.35163198926140088 0.046228739452983239 0 -0.37261014177358448 0.043145835856899219 0 -0.36891219827968119 0.060077996683558232 0 -0.38207463336695202 0.051047668856640811 0 -0.37261014177358448 0.043145835856899219 0 -0.36891219827968119 0.060077996683558232 0 -0.37929074908003868 0.077603726490867345 0 -0.35694138538550352 0.073855345321458488 0 -0.37929074908003868 0.077603726490867345 0 -0.36891219827968119 0.060077996683558232 0 -0.35694138538550352 0.073855345321458488 0 -0.36891219827968119 0.060077996683558232 0 -0.35298131256760962 0.063034912088641357 0 -0.35694138538550352 0.073855345321458488 0 -0.35298131256760962 0.063034912088641357 0 -0.35694138538550352 0.073855345321458488 0 -0.34914844650339177 0.074408805051249083 0 -0.35694138538550352 0.073855345321458488 0 -0.34914844650339177 0.074408805051249083 0 -0.35387282561504041 0.085789381247760657 0 -0.338272543408071 0.060603673933957783 0 -0.35298131256760962 0.063034912088641357 0 -0.34914844650339177 0.074408805051249083 0 -0.34914844650339177 0.074408805051249083 0 -0.35387282561504041 0.085789381247760657 0 -0.33299160925146271 0.085281992960062933 0 -0.35694138538550352 0.073855345321458488 0 -0.35387282561504041 0.085789381247760657 0 -0.36438159895332511 0.085691586513687634 0 -0.35387282561504041 0.085789381247760657 0 -0.36438159895332511 0.085691586513687634 0 -0.35579278546844412 0.098564625017930646 0 -0.37929074908003868 0.077603726490867345 0 -0.35694138538550352 0.073855345321458488 0 -0.36438159895332511 0.085691586513687634 0 -0.37929074908003868 0.077603726490867345 0 -0.36438159895332511 0.085691586513687634 0 -0.37090825683648998 0.098456277756480637 0 -0.37090825683648998 0.098456277756480637 0 -0.36904533532088801 0.1177582563576956 0 -0.35579278546844412 0.098564625017930646 0 -0.36438159895332511 0.085691586513687634 0 -0.37090825683648998 0.098456277756480637 0 -0.35579278546844412 0.098564625017930646 0 -0.35823941519022368 0.13573745574644491 0 -0.36904533532088801 0.1177582563576956 0 -0.35158166360451942 0.11704707172714621 0 -0.36904533532088801 0.1177582563576956 0 -0.35158166360451942 0.11704707172714621 0 -0.35579278546844412 0.098564625017930646 0 -0.35158166360451942 0.11704707172714621 0 -0.35579278546844412 0.098564625017930646 0 -0.34047962299512569 0.099373871294989508 0 -0.35387282561504041 0.085789381247760657 0 -0.35579278546844412 0.098564625017930646 0 -0.34047962299512569 0.099373871294989508 0 -0.34047962299512569 0.099373871294989508 0 -0.33231339904552459 0.1171762944261375 0 -0.31683477199953253 0.096155180868875256 0 -0.34455851703438989 0.13305210298766909 0 -0.35158166360451942 0.11704707172714621 0 -0.33231339904552459 0.1171762944261375 0 -0.35158166360451942 0.11704707172714621 0 -0.34047962299512569 0.099373871294989508 0 -0.33231339904552459 0.1171762944261375 0 -0.31211500736378339 0.1240031522641292 0 -0.31683477199953253 0.096155180868875256 0 -0.31211500736378339 0.1240031522641292 0 -0.33231339904552459 0.1171762944261375 0 -0.31683477199953253 0.096155180868875256 0 -0.30635830999651792 0.07761242167179265 0 -0.31683477199953253 0.096155180868875256 0 -0.32146679815367007 0.068824891797761426 0 -0.31683477199953253 0.096155180868875256 0 -0.32146679815367007 0.068824891797761426 0 -0.33299160925146271 0.085281992960062933 0 -0.31683477199953253 0.096155180868875256 0 -0.32146679815367007 0.068824891797761426 0 -0.31683477199953253 0.096155180868875256 0 -0.33299160925146271 0.085281992960062933 0 -0.338272543408071 0.060603673933957783 0 -0.32146679815367007 0.068824891797761426 0 -0.33576809196089219 0.072507027900731907 0 -0.32146679815367007 0.068824891797761426 0 -0.33576809196089219 0.072507027900731907 0 -0.33299160925146271 0.085281992960062933 0 -0.34914844650339177 0.074408805051249083 0 -0.33576809196089219 0.072507027900731907 0 -0.33299160925146271 0.085281992960062933 0 -0.338272543408071 0.060603673933957783 0 -0.34914844650339177 0.074408805051249083 0 -0.33576809196089219 0.072507027900731907 0 -0.35387282561504041 0.085789381247760657 0 -0.34047962299512569 0.099373871294989508 0 -0.33299160925146271 0.085281992960062933 0 -0.34914844650339177 0.074408805051249083 0 -0.33299160925146271 0.085281992960062933 0 -0.34047962299512569 0.099373871294989508 0 -0.31683477199953253 0.096155180868875256 0 -0.33299160925146271 0.085281992960062933 0 -0.3938434845513461 0.48000301234504228 0 -0.4154786193197833 0.47000451851756458 0 -0.40908183102320411 0.4845696213484928 0 -0.3938434845513461 0.48000301234504228 0 -0.40110135887996978 0.47332954189399812 0 -0.4154786193197833 0.47000451851756458 0 -0.3938434845513461 0.48000301234504228 0 -0.4154786193197833 0.47000451851756458 0 -0.3938434845513461 0.48000301234504228 0 -0.40110135887996978 0.47332954189399812 0 -0.38930270813857232 0.46778113184491188 0 -0.3938434845513461 0.48000301234504228 0 -0.39546946259238258 0.49128185561313598 0 -0.40908183102320411 0.4845696213484928 0 -0.40521342881326272 0.5 0 -0.39546946259238258 0.49128185561313598 0 -0.37789332191386737 0.5 0 -0.40521342881326272 0.5 0 -0.39546946259238258 0.49128185561313598 0 -0.40908183102320411 0.4845696213484928 0 -0.3938434845513461 0.48000301234504228 0 -0.39546946259238258 0.49128185561313598 0 -0.38517353549973538 0.49039659604947999 0 -0.3938434845513461 0.48000301234504228 0 -0.37220834978290879 0.49000150617251997 0 -0.39546946259238258 0.49128185561313598 0 -0.38517353549973538 0.49039659604947999 0 -0.37789332191386737 0.5 0 -0.3938434845513461 0.48000301234504228 0 -0.38517353549973538 0.49039659604947999 0 -0.37220834978290879 0.49000150617251997 0 -0.38517353549973538 0.49039659604947999 0 -0.37789332191386737 0.5 0 -0.37220834978290879 0.49000150617251997 0 -0.3938434845513461 0.48000301234504228 0 -0.37805640255927542 0.47903421333972468 0 -0.3842367001720054 0.47454362448235632 0 -0.3938434845513461 0.48000301234504228 0 -0.37805640255927542 0.47903421333972468 0 -0.37220834978290879 0.49000150617251997 0 -0.3842367001720054 0.47454362448235632 0 -0.37701653082709469 0.46900635458093531 0 -0.38930270813857232 0.46778113184491188 0 -0.3938434845513461 0.48000301234504228 0 -0.3842367001720054 0.47454362448235632 0 -0.38930270813857232 0.46778113184491188 0 -0.37805640255927542 0.47903421333972468 0 -0.3842367001720054 0.47454362448235632 0 -0.37701653082709469 0.46900635458093531 0 -0.37701653082709469 0.46900635458093531 0 -0.38677844954541418 0.45747132953460651 0 -0.37376195539900242 0.45249759326054367 0 -0.37701653082709469 0.46900635458093531 0 -0.38677844954541418 0.45747132953460651 0 -0.38930270813857232 0.46778113184491188 0 -0.38473584783684761 0.44354080077547992 0 -0.36778315087773072 0.43214877602771662 0 -0.37376195539900242 0.45249759326054367 0 -0.38677844954541418 0.45747132953460651 0 -0.38473584783684761 0.44354080077547992 0 -0.37376195539900242 0.45249759326054367 0 -0.38677844954541418 0.45747132953460651 0 -0.38473584783684761 0.44354080077547992 0 -0.39843898125590987 0.45231631840454728 0 -0.39843898125590987 0.45231631840454728 0 -0.4072920944712265 0.44499890251068641 0 -0.39856520721893041 0.43647578570475237 0 -0.38473584783684761 0.44354080077547992 0 -0.39843898125590987 0.45231631840454728 0 -0.39856520721893041 0.43647578570475237 0 -0.39843898125590987 0.45231631840454728 0 -0.39841490533913748 0.46178879282826651 0 -0.41709791082295028 0.45456801136960878 0 -0.40110135887996978 0.47332954189399812 0 -0.39841490533913748 0.46178879282826651 0 -0.41709791082295028 0.45456801136960878 0 -0.38677844954541418 0.45747132953460651 0 -0.38930270813857232 0.46778113184491188 0 -0.39841490533913748 0.46178879282826651 0 -0.40110135887996978 0.47332954189399812 0 -0.38930270813857232 0.46778113184491188 0 -0.39841490533913748 0.46178879282826651 0 -0.38677844954541418 0.45747132953460651 0 -0.39843898125590987 0.45231631840454728 0 -0.39841490533913748 0.46178879282826651 0 -0.40110135887996978 0.47332954189399812 0 -0.41709791082295028 0.45456801136960878 0 -0.4154786193197833 0.47000451851756458 0 -0.40110135887996978 0.47332954189399812 0 -0.41709791082295028 0.45456801136960878 0 -0.41709791082295028 0.45456801136960878 0 -0.42692569345801529 0.46340213249295897 0 -0.4154786193197833 0.47000451851756458 0 -0.41709791082295028 0.45456801136960878 0 -0.43309446276593089 0.43580648084521972 0 -0.41506627858711548 0.4366354945638371 0 -0.39843898125590987 0.45231631840454728 0 -0.41709791082295028 0.45456801136960878 0 -0.4072920944712265 0.44499890251068641 0 -0.4072920944712265 0.44499890251068641 0 -0.41506627858711548 0.4366354945638371 0 -0.39856520721893041 0.43647578570475237 0 -0.41709791082295028 0.45456801136960878 0 -0.4072920944712265 0.44499890251068641 0 -0.41506627858711548 0.4366354945638371 0 -0.41709791082295028 0.45456801136960878 0 -0.43251943231727258 0.45189802077753072 0 -0.43309446276593089 0.43580648084521972 0 -0.41709791082295028 0.45456801136960878 0 -0.43309446276593089 0.43580648084521972 0 -0.43251943231727258 0.45189802077753072 0 -0.44285055445462801 0.44408738363144917 0 -0.43309446276593089 0.43580648084521972 0 -0.43251943231727258 0.45189802077753072 0 -0.42692569345801529 0.46340213249295897 0 -0.44262854008483871 0.46162609554841733 0 -0.42692569345801529 0.46340213249295897 0 -0.43014133963940671 0.47900644757454591 0 -0.44262854008483871 0.46162609554841733 0 -0.41709791082295028 0.45456801136960878 0 -0.43251943231727258 0.45189802077753072 0 -0.42692569345801529 0.46340213249295897 0 -0.42692569345801529 0.46340213249295897 0 -0.43014133963940671 0.47900644757454591 0 -0.4154786193197833 0.47000451851756458 0 -0.43014133963940671 0.47900644757454591 0 -0.4154786193197833 0.47000451851756458 0 -0.40908183102320411 0.4845696213484928 0 -0.40521342881326272 0.5 0 -0.40908183102320411 0.4845696213484928 0 -0.43253353571265801 0.5 0 -0.43014133963940671 0.47900644757454591 0 -0.40908183102320411 0.4845696213484928 0 -0.43253353571265801 0.5 0 -0.43014133963940671 0.47900644757454591 0 -0.43253353571265801 0.5 0 -0.44984012809851409 0.48033494727474779 0 -0.43253353571265801 0.5 0 -0.44984012809851409 0.48033494727474779 0 -0.45985364261205308 0.50000000000000111 0 -0.43014133963940671 0.47900644757454591 0 -0.44984012809851409 0.48033494727474779 0 -0.44262854008483871 0.46162609554841733 0 -0.44984012809851409 0.48033494727474779 0 -0.47312811744354261 0.47395110078869013 0 -0.45820768181792781 0.46325373185340701 0 -0.45985364261205308 0.50000000000000111 0 -0.47312811744354261 0.47395110078869013 0 -0.44984012809851409 0.48033494727474779 0 -0.45985364261205308 0.50000000000000111 0 -0.47312811744354261 0.47395110078869013 0 -0.5 0.5 0 -0.47312811744354261 0.47395110078869013 0 -0.49999999999999972 0.44664233614409321 0 -0.45985364261205308 0.50000000000000111 0 -0.5 0.5 0 -0.47312811744354261 0.47395110078869013 0 -0.48640259227503152 0.44790220157737892 0 -0.49999999999999972 0.44664233614409321 0 -0.47883616718389621 0.43347798499105172 0 -0.49999999999999972 0.44664233614409321 0 -0.47883616718389621 0.43347798499105172 0 -0.47312811744354261 0.47395110078869013 0 -0.48640259227503152 0.44790220157737892 0 -0.49999999999999972 0.44664233614409321 0 -0.47312811744354261 0.47395110078869013 0 -0.48640259227503152 0.44790220157737892 0 -0.47312811744354261 0.47395110078869013 0 -0.48640259227503152 0.44790220157737892 0 -0.46932328621444303 0.45009797021529852 0 -0.46932328621444303 0.45009797021529852 0 -0.46288197751253979 0.435741310408158 0 -0.47883616718389621 0.43347798499105172 0 -0.48640259227503152 0.44790220157737892 0 -0.46932328621444303 0.45009797021529852 0 -0.47883616718389621 0.43347798499105172 0 -0.46932328621444303 0.45009797021529852 0 -0.45653044061400749 0.44574373859450739 0 -0.46288197751253979 0.435741310408158 0 -0.46932328621444303 0.45009797021529852 0 -0.45653044061400749 0.44574373859450739 0 -0.45820768181792781 0.46325373185340701 0 -0.45653044061400749 0.44574373859450739 0 -0.44988321330808601 0.43264183945635343 0 -0.46288197751253979 0.435741310408158 0 -0.47312811744354261 0.47395110078869013 0 -0.46932328621444303 0.45009797021529852 0 -0.45820768181792781 0.46325373185340701 0 -0.45653044061400749 0.44574373859450739 0 -0.45820768181792781 0.46325373185340701 0 -0.44262854008483871 0.46162609554841733 0 -0.44984012809851409 0.48033494727474779 0 -0.45820768181792781 0.46325373185340701 0 -0.44262854008483871 0.46162609554841733 0 -0.43251943231727258 0.45189802077753072 0 -0.44262854008483871 0.46162609554841733 0 -0.44285055445462801 0.44408738363144917 0 -0.45653044061400749 0.44574373859450739 0 -0.44262854008483871 0.46162609554841733 0 -0.44285055445462801 0.44408738363144917 0 -0.44285055445462801 0.44408738363144917 0 -0.44988321330808601 0.43264183945635343 0 -0.43309446276593089 0.43580648084521972 0 -0.45653044061400749 0.44574373859450739 0 -0.44285055445462801 0.44408738363144917 0 -0.44988321330808601 0.43264183945635343 0 -0.44909101470891138 0.41704495032083061 0 -0.43309446276593089 0.43580648084521972 0 -0.44988321330808601 0.43264183945635343 0 -0.44909101470891138 0.41704495032083061 0 -0.43309446276593089 0.43580648084521972 0 -0.44988321330808601 0.43264183945635343 0 -0.44909101470891138 0.41704495032083061 0 -0.45767233436779298 0.42031363383801013 0 -0.44909101470891138 0.41704495032083061 0 -0.43642708593841462 0.41129790334070748 0 -0.43309446276593089 0.43580648084521972 0 -0.44909101470891138 0.41704495032083061 0 -0.44923652684218601 0.40651161443480333 0 -0.43642708593841462 0.41129790334070748 0 -0.44909101470891138 0.41704495032083061 0 -0.46310762304278369 0.4136785712167641 0 -0.46508756665189233 0.39828341979644161 0 -0.44909101470891138 0.41704495032083061 0 -0.46508756665189233 0.39828341979644161 0 -0.44909101470891138 0.41704495032083061 0 -0.44923652684218601 0.40651161443480333 0 -0.46508756665189233 0.39828341979644161 0 -0.44909101470891138 0.41704495032083061 0 -0.45767233436779298 0.42031363383801013 0 -0.46310762304278369 0.4136785712167641 0 -0.45767233436779298 0.42031363383801013 0 -0.46310762304278369 0.4136785712167641 0 -0.4689935185142321 0.42014913325858988 0 -0.46310762304278369 0.4136785712167641 0 -0.47635794946245552 0.41312634298853379 0 -0.46508756665189233 0.39828341979644161 0 -0.45767233436779298 0.42031363383801013 0 -0.47883616718389621 0.43347798499105172 0 -0.4689935185142321 0.42014913325858988 0 -0.45767233436779298 0.42031363383801013 0 -0.46288197751253979 0.435741310408158 0 -0.47883616718389621 0.43347798499105172 0 -0.45767233436779298 0.42031363383801013 0 -0.47883616718389621 0.43347798499105172 0 -0.44988321330808601 0.43264183945635343 0 -0.45767233436779298 0.42031363383801013 0 -0.46288197751253979 0.435741310408158 0 -0.47883616718389621 0.43347798499105172 0 -0.47635794946245552 0.41312634298853379 0 -0.48714440641974271 0.42351608680749347 0 -0.47883616718389621 0.43347798499105172 0 -0.4689935185142321 0.42014913325858988 0 -0.47635794946245552 0.41312634298853379 0 -0.46310762304278369 0.4136785712167641 0 -0.4689935185142321 0.42014913325858988 0 -0.47635794946245552 0.41312634298853379 0 -0.47635794946245552 0.41312634298853379 0 -0.48901457958177968 0.41012265573874179 0 -0.48254378332594611 0.39722493186941499 0 -0.47635794946245552 0.41312634298853379 0 -0.48901457958177968 0.41012265573874179 0 -0.48714440641974271 0.42351608680749347 0 -0.48901457958177968 0.41012265573874179 0 -0.5 0.42140439004324071 0 -0.49999999999999978 0.39616644394238798 0 -0.48901457958177968 0.41012265573874179 0 -0.5 0.42140439004324071 0 -0.48714440641974271 0.42351608680749347 0 -0.49999999999999972 0.44664233614409321 0 -0.47883616718389621 0.43347798499105172 0 -0.48714440641974271 0.42351608680749347 0 -0.49999999999999972 0.44664233614409321 0 -0.5 0.42140439004324071 0 -0.48714440641974271 0.42351608680749347 0 -0.49007778645481631 0.38142997617552599 0 -0.49999999999999978 0.39616644394238798 0 -0.50000000000000311 0.3685517992903854 0 -0.49007778645481631 0.38142997617552599 0 -0.47611467569506138 0.38535029247959018 0 -0.48714178473823078 0.37241716516273898 0 -0.49999999999999978 0.39616644394238798 0 -0.48254378332594611 0.39722493186941499 0 -0.48901457958177968 0.41012265573874179 0 -0.49999999999999978 0.39616644394238798 0 -0.48254378332594611 0.39722493186941499 0 -0.49007778645481631 0.38142997617552599 0 -0.49999999999999978 0.39616644394238798 0 -0.48254378332594611 0.39722493186941499 0 -0.48254378332594611 0.39722493186941499 0 -0.46508756665189233 0.39828341979644161 0 -0.47635794946245552 0.41312634298853379 0 -0.48254378332594611 0.39722493186941499 0 -0.46508756665189233 0.39828341979644161 0 -0.48254378332594611 0.39722493186941499 0 -0.47611467569506138 0.38535029247959018 0 -0.46508756665189233 0.39828341979644161 0 -0.47611467569506138 0.38535029247959018 0 -0.46508756665189233 0.39828341979644161 0 -0.49007778645481631 0.38142997617552599 0 -0.48254378332594611 0.39722493186941499 0 -0.47611467569506138 0.38535029247959018 0 -0.47611467569506138 0.38535029247959018 0 -0.47397397291215421 0.37493689296344251 0 -0.48714178473823078 0.37241716516273898 0 -0.47611467569506138 0.38535029247959018 0 -0.48714178473823078 0.37241716516273898 0 -0.46871814716203669 0.37906981455344119 0 -0.46360543106569913 0.37231654924431878 0 -0.47397397291215421 0.37493689296344251 0 -0.47611467569506138 0.38535029247959018 0 -0.46871814716203669 0.37906981455344119 0 -0.47397397291215421 0.37493689296344251 0 -0.46871814716203669 0.37906981455344119 0 -0.46117850897523233 0.38367552352641338 0 -0.46360543106569913 0.37231654924431878 0 -0.47611467569506138 0.38535029247959018 0 -0.46871814716203669 0.37906981455344119 0 -0.46117850897523233 0.38367552352641338 0 -0.47611467569506138 0.38535029247959018 0 -0.46117850897523233 0.38367552352641338 0 -0.46508756665189233 0.39828341979644161 0 -0.46117850897523233 0.38367552352641338 0 -0.45400385251667602 0.39093091030285698 0 -0.45110956684876158 0.38402681738971201 0 -0.46117850897523233 0.38367552352641338 0 -0.45110956684876158 0.38402681738971201 0 -0.44813402172652672 0.37354371539476261 0 -0.46117850897523233 0.38367552352641338 0 -0.44813402172652672 0.37354371539476261 0 -0.46360543106569913 0.37231654924431878 0 -0.44923652684218601 0.40651161443480333 0 -0.46508756665189233 0.39828341979644161 0 -0.44634044006952572 0.39942018428123321 0 -0.46508756665189233 0.39828341979644161 0 -0.45400385251667602 0.39093091030285698 0 -0.44634044006952572 0.39942018428123321 0 -0.46508756665189233 0.39828341979644161 0 -0.44634044006952572 0.39942018428123321 0 -0.46117850897523233 0.38367552352641338 0 -0.46508756665189233 0.39828341979644161 0 -0.45400385251667602 0.39093091030285698 0 -0.45400385251667602 0.39093091030285698 0 -0.44634044006952572 0.39942018428123321 0 -0.44518347515021223 0.38837251913440451 0 -0.44634044006952572 0.39942018428123321 0 -0.44518347515021223 0.38837251913440451 0 -0.43728617553129168 0.39370672697544878 0 -0.44923652684218601 0.40651161443480333 0 -0.44634044006952572 0.39942018428123321 0 -0.43642708593841462 0.41129790334070748 0 -0.45110956684876158 0.38402681738971201 0 -0.44480856609964842 0.38185924381796288 0 -0.44813402172652672 0.37354371539476261 0 -0.45400385251667602 0.39093091030285698 0 -0.45110956684876158 0.38402681738971201 0 -0.44518347515021223 0.38837251913440451 0 -0.45110956684876158 0.38402681738971201 0 -0.44518347515021223 0.38837251913440451 0 -0.44480856609964842 0.38185924381796288 0 -0.44518347515021223 0.38837251913440451 0 -0.43913693036841173 0.38484964203092692 0 -0.43002747341826991 0.3864772557201327 0 -0.44518347515021223 0.38837251913440451 0 -0.43002747341826991 0.3864772557201327 0 -0.44518347515021223 0.38837251913440451 0 -0.43913693036841173 0.38484964203092692 0 -0.44480856609964842 0.38185924381796288 0 -0.44480856609964842 0.38185924381796288 0 -0.4393591315165738 0.37762743775392832 0 -0.44813402172652672 0.37354371539476261 0 -0.43913693036841173 0.38484964203092692 0 -0.44480856609964842 0.38185924381796288 0 -0.4393591315165738 0.37762743775392832 0 -0.43913693036841173 0.38484964203092692 0 -0.43173797726570751 0.37658334167695551 0 -0.43913693036841173 0.38484964203092692 0 -0.43173797726570751 0.37658334167695551 0 -0.43002747341826991 0.3864772557201327 0 -0.43913693036841173 0.38484964203092692 0 -0.4393591315165738 0.37762743775392832 0 -0.43173797726570751 0.37658334167695551 0 -0.4393591315165738 0.37762743775392832 0 -0.43173797726570751 0.37658334167695551 0 -0.4325639091043616 0.37180597819459837 0 -0.43173797726570751 0.37658334167695551 0 -0.43002747341826991 0.3864772557201327 0 -0.44518347515021223 0.38837251913440451 0 -0.43002747341826991 0.3864772557201327 0 -0.43728617553129168 0.39370672697544878 0 -0.43002747341826991 0.3864772557201327 0 -0.41472776448615789 0.38456402166930481 0 -0.42117367656598032 0.39254991666010941 0 -0.43002747341826991 0.3864772557201327 0 -0.41472776448615789 0.38456402166930481 0 -0.43002747341826991 0.3864772557201327 0 -0.42328890360694349 0.38021744503538613 0 -0.41472776448615789 0.38456402166930481 0 -0.43173797726570751 0.37658334167695551 0 -0.43002747341826991 0.3864772557201327 0 -0.42328890360694349 0.38021744503538613 0 -0.43173797726570751 0.37658334167695551 0 -0.42328890360694349 0.38021744503538613 0 -0.42689564018809201 0.37117335838025439 0 -0.40881671944059661 0.37920357314115732 0 -0.42689564018809201 0.37117335838025439 0 -0.42328890360694349 0.38021744503538613 0 -0.40881671944059661 0.37920357314115732 0 -0.42689564018809201 0.37117335838025439 0 -0.42328890360694349 0.38021744503538613 0 -0.41472776448615789 0.38456402166930481 0 -0.40881671944059661 0.37920357314115732 0 -0.41472776448615789 0.38456402166930481 0 -0.40724106840129259 0.39428871981441299 0 -0.42117367656598032 0.39254991666010941 0 -0.41472776448615789 0.38456402166930481 0 -0.40826438028753348 0.3817067557430866 0 -0.39942805555404642 0.38265078761847338 0 -0.41472776448615789 0.38456402166930481 0 -0.40724106840129259 0.39428871981441299 0 -0.39942805555404642 0.38265078761847338 0 -0.41472776448615789 0.38456402166930481 0 -0.39942805555404642 0.38265078761847338 0 -0.40881671944059661 0.37920357314115732 0 -0.39942805555404642 0.38265078761847338 0 -0.41098055992701871 0.3693971202961519 0 -0.40826438028753348 0.3817067557430866 0 -0.40881671944059661 0.37920357314115732 0 -0.41472776448615789 0.38456402166930481 0 -0.40826438028753348 0.3817067557430866 0 -0.40881671944059661 0.37920357314115732 0 -0.40724106840129259 0.39428871981441299 0 -0.4157685575788832 0.40127396331749671 0 -0.40157856791931718 0.40704460823596672 0 -0.42117367656598032 0.39254991666010941 0 -0.4157685575788832 0.40127396331749671 0 -0.42759331348715912 0.40055694876602499 0 -0.40724106840129259 0.39428871981441299 0 -0.42117367656598032 0.39254991666010941 0 -0.4157685575788832 0.40127396331749671 0 -0.4157685575788832 0.40127396331749671 0 -0.42759331348715912 0.40055694876602499 0 -0.44634044006952572 0.39942018428123321 0 -0.42759331348715912 0.40055694876602499 0 -0.44634044006952572 0.39942018428123321 0 -0.42759331348715912 0.40055694876602499 0 -0.43728617553129168 0.39370672697544878 0 -0.44634044006952572 0.39942018428123321 0 -0.42759331348715912 0.40055694876602499 0 -0.43642708593841462 0.41129790334070748 0 -0.43002747341826991 0.3864772557201327 0 -0.42117367656598032 0.39254991666010941 0 -0.42759331348715912 0.40055694876602499 0 -0.43002747341826991 0.3864772557201327 0 -0.42759331348715912 0.40055694876602499 0 -0.43002747341826991 0.3864772557201327 0 -0.42759331348715912 0.40055694876602499 0 -0.43728617553129168 0.39370672697544878 0 -0.43642708593841462 0.41129790334070748 0 -0.42449994900394461 0.41844961959922572 0 -0.43309446276593089 0.43580648084521972 0 -0.42759331348715912 0.40055694876602499 0 -0.43642708593841462 0.41129790334070748 0 -0.42449994900394461 0.41844961959922572 0 -0.4157685575788832 0.40127396331749671 0 -0.42759331348715912 0.40055694876602499 0 -0.42449994900394461 0.41844961959922572 0 -0.42759331348715912 0.40055694876602499 0 -0.42449994900394461 0.41844961959922572 0 -0.42449994900394461 0.41844961959922572 0 -0.43309446276593089 0.43580648084521972 0 -0.41506627858711548 0.4366354945638371 0 -0.42449994900394461 0.41844961959922572 0 -0.41506627858711548 0.4366354945638371 0 -0.40746949035714619 0.42222882353716701 0 -0.41506627858711548 0.4366354945638371 0 -0.40746949035714619 0.42222882353716701 0 -0.39856520721893041 0.43647578570475237 0 -0.42449994900394461 0.41844961959922572 0 -0.40746949035714619 0.42222882353716701 0 -0.41232914121482278 0.41224925367246401 0 -0.4157685575788832 0.40127396331749671 0 -0.42449994900394461 0.41844961959922572 0 -0.41232914121482278 0.41224925367246401 0 -0.4157685575788832 0.40127396331749671 0 -0.41232914121482278 0.41224925367246401 0 -0.40157856791931718 0.40704460823596672 0 -0.40746949035714619 0.42222882353716701 0 -0.41232914121482278 0.41224925367246401 0 -0.40157856791931718 0.40704460823596672 0 -0.40746949035714619 0.42222882353716701 0 -0.40157856791931718 0.40704460823596672 0 -0.39298749241221759 0.42119507937603923 0 -0.40746949035714619 0.42222882353716701 0 -0.39298749241221759 0.42119507937603923 0 -0.39856520721893041 0.43647578570475237 0 -0.39298749241221759 0.42119507937603923 0 -0.39856520721893041 0.43647578570475237 0 -0.38373994498284608 0.43043669407259588 0 -0.38373994498284608 0.43043669407259588 0 -0.37668454372729859 0.41206883315114529 0 -0.36778315087773072 0.43214877602771662 0 -0.38473584783684761 0.44354080077547992 0 -0.38373994498284608 0.43043669407259588 0 -0.36778315087773072 0.43214877602771662 0 -0.38473584783684761 0.44354080077547992 0 -0.39856520721893041 0.43647578570475237 0 -0.38373994498284608 0.43043669407259588 0 -0.40157856791931718 0.40704460823596672 0 -0.39298749241221759 0.42119507937603923 0 -0.37668454372729859 0.41206883315114529 0 -0.39298749241221759 0.42119507937603923 0 -0.38373994498284608 0.43043669407259588 0 -0.37668454372729859 0.41206883315114529 0 -0.40157856791931718 0.40704460823596672 0 -0.37668454372729859 0.41206883315114529 0 -0.37668454372729859 0.41206883315114529 0 -0.37844474563582792 0.390355182046278 0 -0.39076978830337122 0.39764902138512792 0 -0.40157856791931718 0.40704460823596672 0 -0.37668454372729859 0.41206883315114529 0 -0.39076978830337122 0.39764902138512792 0 -0.38141148745950948 0.38039780936179463 0 -0.39942805555404642 0.38265078761847338 0 -0.37844474563582792 0.390355182046278 0 -0.39942805555404642 0.38265078761847338 0 -0.38141148745950948 0.38039780936179463 0 -0.37844474563582792 0.390355182046278 0 -0.39942805555404642 0.38265078761847338 0 -0.37844474563582792 0.390355182046278 0 -0.39942805555404642 0.38265078761847338 0 -0.39076978830337122 0.39764902138512792 0 -0.38141148745950948 0.38039780936179463 0 -0.39942805555404642 0.38265078761847338 0 -0.39128338495032239 0.36719877308275878 0 -0.40826438028753348 0.3817067557430866 0 -0.40881671944059661 0.37920357314115732 0 -0.39942805555404642 0.38265078761847338 0 -0.40881671944059661 0.37920357314115732 0 -0.39942805555404642 0.38265078761847338 0 -0.40724106840129259 0.39428871981441299 0 -0.40157856791931718 0.40704460823596672 0 -0.39076978830337122 0.39764902138512792 0 -0.40724106840129259 0.39428871981441299 0 -0.39942805555404642 0.38265078761847338 0 -0.39076978830337122 0.39764902138512792 0 -0.39259889148010241 0.34864188780489069 0 -0.39999637464883392 0.35559476271013252 0 -0.38966798311544332 0.35610238881872369 0 -0.39259889148010241 0.34864188780489069 0 -0.39999637464883392 0.35559476271013252 0 -0.40046159691170069 0.34164056661102238 0 -0.39999637464883392 0.35559476271013252 0 -0.40046159691170069 0.34164056661102238 0 -0.41381361947694889 0.35655778899711688 0 -0.39999637464883392 0.35559476271013252 0 -0.40397412088998857 0.3623881668075713 0 -0.41381361947694889 0.35655778899711688 0 -0.39128338495032239 0.36719877308275878 0 -0.41098055992701871 0.3693971202961519 0 -0.40397412088998857 0.3623881668075713 0 -0.39128338495032239 0.36719877308275878 0 -0.41098055992701871 0.3693971202961519 0 -0.39942805555404642 0.38265078761847338 0 -0.39128338495032239 0.36719877308275878 0 -0.41098055992701871 0.3693971202961519 0 -0.39999637464883392 0.35559476271013252 0 -0.39128338495032239 0.36719877308275878 0 -0.38966798311544332 0.35610238881872369 0 -0.39999637464883392 0.35559476271013252 0 -0.40397412088998857 0.3623881668075713 0 -0.39128338495032239 0.36719877308275878 0 -0.39128338495032239 0.36719877308275878 0 -0.38070440212728118 0.35956436367519867 0 -0.38966798311544332 0.35610238881872369 0 -0.39128338495032239 0.36719877308275878 0 -0.38070440212728118 0.35956436367519867 0 -0.37158620997362618 0.36500042586936587 0 -0.39128338495032239 0.36719877308275878 0 -0.37158620997362618 0.36500042586936587 0 -0.38141148745950948 0.38039780936179463 0 -0.39128338495032239 0.36719877308275878 0 -0.37158620997362618 0.36500042586936587 0 -0.38070440212728118 0.35956436367519867 0 -0.38259242285128608 0.34975193996759602 0 -0.36960199921418602 0.35731180584905542 0 -0.38259242285128608 0.34975193996759602 0 -0.37580907906339922 0.33647878059299557 0 -0.36960199921418602 0.35731180584905542 0 -0.38070440212728118 0.35956436367519867 0 -0.38966798311544332 0.35610238881872369 0 -0.38259242285128608 0.34975193996759602 0 -0.39259889148010241 0.34864188780489069 0 -0.38966798311544332 0.35610238881872369 0 -0.38259242285128608 0.34975193996759602 0 -0.39259889148010241 0.34864188780489069 0 -0.38259242285128608 0.34975193996759602 0 -0.38794720083446621 0.34059934721089508 0 -0.38259242285128608 0.34975193996759602 0 -0.37580907906339922 0.33647878059299557 0 -0.38794720083446621 0.34059934721089508 0 -0.37580907906339922 0.33647878059299557 0 -0.38794720083446621 0.34059934721089508 0 -0.38710957434645199 0.32672334422492838 0 -0.37580907906339922 0.33647878059299557 0 -0.38201615891261242 0.31564575533693578 0 -0.38201615891261242 0.31564575533693578 0 -0.38336946241093189 0.30974931290420182 0 -0.36531193472093021 0.32454274932608829 0 -0.37580907906339922 0.33647878059299557 0 -0.38201615891261242 0.31564575533693578 0 -0.38710957434645199 0.32672334422492838 0 -0.38201615891261242 0.31564575533693578 0 -0.39350880394476312 0.31593875705230262 0 -0.38336946241093189 0.30974931290420182 0 -0.38201615891261242 0.31564575533693578 0 -0.38710957434645199 0.32672334422492838 0 -0.39350880394476312 0.31593875705230262 0 -0.38710957434645199 0.32672334422492838 0 -0.39350880394476312 0.31593875705230262 0 -0.39921774374196328 0.327754485124091 0 -0.39350880394476312 0.31593875705230262 0 -0.39921774374196328 0.327754485124091 0 -0.40602554896887638 0.32011992980008452 0 -0.39921774374196328 0.327754485124091 0 -0.40602554896887638 0.32011992980008452 0 -0.40814721749945931 0.33505042297199122 0 -0.38794720083446621 0.34059934721089508 0 -0.38710957434645199 0.32672334422492838 0 -0.40046159691170069 0.34164056661102238 0 -0.39259889148010241 0.34864188780489069 0 -0.38794720083446621 0.34059934721089508 0 -0.40046159691170069 0.34164056661102238 0 -0.38710957434645199 0.32672334422492838 0 -0.39921774374196328 0.327754485124091 0 -0.40046159691170069 0.34164056661102238 0 -0.38710957434645199 0.32672334422492838 0 -0.40046159691170069 0.34164056661102238 0 -0.39921774374196328 0.327754485124091 0 -0.40046159691170069 0.34164056661102238 0 -0.40814721749945931 0.33505042297199122 0 -0.40814721749945931 0.33505042297199122 0 -0.41954562432067788 0.33058053440738988 0 -0.41381361947694889 0.35655778899711688 0 -0.41954562432067788 0.33058053440738988 0 -0.41381361947694889 0.35655778899711688 0 -0.40602554896887638 0.32011992980008452 0 -0.40814721749945931 0.33505042297199122 0 -0.41954562432067788 0.33058053440738988 0 -0.40602554896887638 0.32011992980008452 0 -0.41954562432067788 0.33058053440738988 0 -0.42527762916440792 0.30460327981766322 0 -0.41954562432067788 0.33058053440738988 0 -0.42527762916440792 0.30460327981766322 0 -0.41954562432067788 0.33058053440738988 0 -0.44001701522470671 0.31606260091672289 0 -0.42527762916440792 0.30460327981766322 0 -0.41954562432067788 0.33058053440738988 0 -0.42420657124029282 0.3485159257420361 0 -0.43843079740841773 0.33787066219507811 0 -0.41954562432067788 0.33058053440738988 0 -0.43843079740841773 0.33787066219507811 0 -0.44001701522470671 0.31606260091672289 0 -0.42420657124029282 0.3485159257420361 0 -0.43459164588172849 0.36007712215754689 0 -0.43843079740841773 0.33787066219507811 0 -0.42420657124029282 0.3485159257420361 0 -0.41381361947694889 0.35655778899711688 0 -0.43459164588172849 0.36007712215754689 0 -0.41381361947694889 0.35655778899711688 0 -0.43459164588172849 0.36007712215754689 0 -0.43459164588172849 0.36007712215754689 0 -0.43843079740841773 0.33787066219507811 0 -0.40046159691170069 0.34164056661102238 0 -0.40814721749945931 0.33505042297199122 0 -0.41381361947694889 0.35655778899711688 0 -0.41954562432067788 0.33058053440738988 0 -0.42420657124029282 0.3485159257420361 0 -0.41381361947694889 0.35655778899711688 0 -0.39999637464883392 0.35559476271013252 0 -0.41381361947694889 0.35655778899711688 0 -0.40046159691170069 0.34164056661102238 0 -0.41381361947694889 0.35655778899711688 0 -0.41381361947694889 0.35655778899711688 0 -0.41098055992701871 0.3693971202961519 0 -0.42689564018809201 0.37117335838025439 0 -0.41098055992701871 0.3693971202961519 0 -0.42689564018809201 0.37117335838025439 0 -0.40881671944059661 0.37920357314115732 0 -0.41098055992701871 0.3693971202961519 0 -0.42689564018809201 0.37117335838025439 0 -0.40881671944059661 0.37920357314115732 0 -0.41098055992701871 0.3693971202961519 0 -0.40397412088998857 0.3623881668075713 0 -0.41381361947694889 0.35655778899711688 0 -0.41098055992701871 0.3693971202961519 0 -0.41381361947694889 0.35655778899711688 0 -0.41098055992701871 0.3693971202961519 0 -0.41381361947694889 0.35655778899711688 0 -0.42689564018809201 0.37117335838025439 0 -0.41381361947694889 0.35655778899711688 0 -0.42907199843085347 0.36486274908666949 0 -0.43459164588172849 0.36007712215754689 0 -0.42689564018809201 0.37117335838025439 0 -0.42907199843085347 0.36486274908666949 0 -0.42980351636605002 0.37149789839679431 0 -0.43173797726570751 0.37658334167695551 0 -0.42689564018809201 0.37117335838025439 0 -0.43173797726570751 0.37658334167695551 0 -0.42689564018809201 0.37117335838025439 0 -0.42980351636605002 0.37149789839679431 0 -0.42689564018809201 0.37117335838025439 0 -0.42980351636605002 0.37149789839679431 0 -0.41381361947694889 0.35655778899711688 0 -0.42689564018809201 0.37117335838025439 0 -0.42907199843085347 0.36486274908666949 0 -0.43459164588172849 0.36007712215754689 0 -0.4325639091043616 0.37180597819459837 0 -0.42907199843085347 0.36486274908666949 0 -0.43459164588172849 0.36007712215754689 0 -0.4325639091043616 0.37180597819459837 0 -0.43173797726570751 0.37658334167695551 0 -0.4325639091043616 0.37180597819459837 0 -0.43173797726570751 0.37658334167695551 0 -0.4325639091043616 0.37180597819459837 0 -0.42980351636605002 0.37149789839679431 0 -0.4325639091043616 0.37180597819459837 0 -0.42980351636605002 0.37149789839679431 0 -0.42907199843085347 0.36486274908666949 0 -0.4325639091043616 0.37180597819459837 0 -0.42980351636605002 0.37149789839679431 0 -0.4393591315165738 0.37762743775392832 0 -0.4325639091043616 0.37180597819459837 0 -0.44813402172652672 0.37354371539476261 0 -0.4325639091043616 0.37180597819459837 0 -0.44813402172652672 0.37354371539476261 0 -0.4325639091043616 0.37180597819459837 0 -0.44813402172652672 0.37354371539476261 0 -0.45404419213644692 0.3625975043188554 0 -0.43459164588172849 0.36007712215754689 0 -0.45404419213644692 0.3625975043188554 0 -0.43459164588172849 0.36007712215754689 0 -0.4325639091043616 0.37180597819459837 0 -0.45404419213644692 0.3625975043188554 0 -0.4325639091043616 0.37180597819459837 0 -0.45404419213644692 0.3625975043188554 0 -0.43459164588172849 0.36007712215754689 0 -0.44549025602952702 0.35300777224981977 0 -0.45404419213644692 0.3625975043188554 0 -0.44549025602952702 0.35300777224981977 0 -0.45575207180717081 0.34762579988211101 0 -0.43843079740841773 0.33787066219507811 0 -0.43459164588172849 0.36007712215754689 0 -0.44549025602952702 0.35300777224981977 0 -0.43843079740841773 0.33787066219507811 0 -0.44549025602952702 0.35300777224981977 0 -0.45575207180717081 0.34762579988211101 0 -0.45404419213644692 0.3625975043188554 0 -0.45575207180717081 0.34762579988211101 0 -0.46674234051517471 0.35793515390827568 0 -0.45404419213644692 0.3625975043188554 0 -0.45575207180717081 0.34762579988211101 0 -0.46674234051517471 0.35793515390827568 0 -0.46933267881425472 0.34565439271282838 0 -0.45404419213644692 0.3625975043188554 0 -0.47441064506165659 0.36523629740895902 0 -0.46674234051517471 0.35793515390827568 0 -0.45404419213644692 0.3625975043188554 0 -0.47441064506165659 0.36523629740895902 0 -0.45404419213644692 0.3625975043188554 0 -0.46360543106569913 0.37231654924431878 0 -0.47441064506165659 0.36523629740895902 0 -0.44813402172652672 0.37354371539476261 0 -0.45404419213644692 0.3625975043188554 0 -0.46360543106569913 0.37231654924431878 0 -0.46674234051517471 0.35793515390827568 0 -0.45404419213644692 0.3625975043188554 0 -0.46360543106569913 0.37231654924431878 0 -0.47397397291215421 0.37493689296344251 0 -0.47441064506165659 0.36523629740895902 0 -0.47441064506165659 0.36523629740895902 0 -0.48058358620238051 0.35168401037216412 0 -0.49477709798686631 0.36787509049906381 0 -0.47397397291215421 0.37493689296344251 0 -0.47441064506165659 0.36523629740895902 0 -0.48714178473823078 0.37241716516273898 0 -0.46674234051517471 0.35793515390827568 0 -0.47441064506165659 0.36523629740895902 0 -0.48058358620238051 0.35168401037216412 0 -0.46674234051517471 0.35793515390827568 0 -0.46933267881425472 0.34565439271282838 0 -0.48058358620238051 0.35168401037216412 0 -0.46933267881425472 0.34565439271282838 0 -0.48058358620238051 0.35168401037216412 0 -0.48121002056386808 0.3369363626790518 0 -0.48058358620238051 0.35168401037216412 0 -0.49703354506598713 0.34759711953555122 0 -0.48121002056386808 0.3369363626790518 0 -0.49703354506598713 0.34759711953555122 0 -0.5 0.34812631329607491 0 -0.49477709798686631 0.36787509049906381 0 -0.48058358620238051 0.35168401037216412 0 -0.49703354506598713 0.34759711953555122 0 -0.49477709798686631 0.36787509049906381 0 -0.49703354506598713 0.34759711953555122 0 -0.49477709798686631 0.36787509049906381 0 -0.5 0.34812631329607491 0 -0.50000000000000311 0.3685517992903854 0 -0.49477709798686631 0.36787509049906381 0 -0.47441064506165659 0.36523629740895902 0 -0.49477709798686631 0.36787509049906381 0 -0.48714178473823078 0.37241716516273898 0 -0.47441064506165659 0.36523629740895902 0 -0.49477709798686631 0.36787509049906381 0 -0.49007778645481631 0.38142997617552599 0 -0.50000000000000311 0.3685517992903854 0 -0.49477709798686631 0.36787509049906381 0 -0.50000000000000311 0.3685517992903854 0 -0.49477709798686631 0.36787509049906381 0 -0.49007778645481631 0.38142997617552599 0 -0.49477709798686631 0.36787509049906381 0 -0.48714178473823078 0.37241716516273898 0 -0.4992899921451075 0.32731914857203848 0 -0.47890896772952718 0.31636292681222472 0 -0.4992899921451075 0.32731914857203848 0 -0.48121002056386808 0.3369363626790518 0 -0.47890896772952718 0.31636292681222472 0 -0.49999999999999989 0.32093853419885771 0 -0.47890896772952718 0.31636292681222472 0 -0.48920120729889771 0.30786362236022019 0 -0.49999999999999989 0.32093853419885771 0 -0.4992899921451075 0.32731914857203848 0 -0.47890896772952718 0.31636292681222472 0 -0.49999999999999989 0.32093853419885771 0 -0.4992899921451075 0.32731914857203848 0 -0.49703354506598713 0.34759711953555122 0 -0.4992899921451075 0.32731914857203848 0 -0.49703354506598713 0.34759711953555122 0 -0.4992899921451075 0.32731914857203848 0 -0.48121002056386808 0.3369363626790518 0 -0.49703354506598713 0.34759711953555122 0 -0.5 0.34812631329607491 0 -0.4992899921451075 0.32731914857203848 0 -0.46933267881425472 0.34565439271282838 0 -0.48121002056386808 0.3369363626790518 0 -0.46237537498267961 0.3340906367225393 0 -0.48121002056386808 0.3369363626790518 0 -0.47890896772952718 0.31636292681222472 0 -0.46237537498267961 0.3340906367225393 0 -0.47890896772952718 0.31636292681222472 0 -0.45636509730576869 0.32029680939338251 0 -0.45852794331394758 0.30540670505240958 0 -0.47890896772952718 0.31636292681222472 0 -0.45636509730576869 0.32029680939338251 0 -0.46237537498267961 0.3340906367225393 0 -0.45575207180717081 0.34762579988211101 0 -0.46933267881425472 0.34565439271282838 0 -0.46237537498267961 0.3340906367225393 0 -0.45575207180717081 0.34762579988211101 0 -0.46237537498267961 0.3340906367225393 0 -0.43843079740841773 0.33787066219507811 0 -0.45636509730576869 0.32029680939338251 0 -0.46237537498267961 0.3340906367225393 0 -0.43843079740841773 0.33787066219507811 0 -0.45636509730576869 0.32029680939338251 0 -0.43843079740841773 0.33787066219507811 0 -0.44001701522470671 0.31606260091672289 0 -0.45636509730576869 0.32029680939338251 0 -0.44001701522470671 0.31606260091672289 0 -0.45852794331394758 0.30540670505240958 0 -0.4381469188983681 0.2944504832925946 0 -0.45852794331394758 0.30540670505240958 0 -0.44001701522470671 0.31606260091672289 0 -0.4381469188983681 0.2944504832925946 0 -0.45852794331394758 0.30540670505240958 0 -0.4381469188983681 0.2944504832925946 0 -0.4447805513699985 0.27737231294201392 0 -0.43100963400813791 0.27862602522793672 0 -0.4381469188983681 0.2944504832925946 0 -0.45724976864254441 0.28334965182257721 0 -0.4447805513699985 0.27737231294201392 0 -0.4381469188983681 0.2944504832925946 0 -0.45724976864254441 0.28334965182257721 0 -0.45852794331394758 0.30540670505240958 0 -0.45724976864254441 0.28334965182257721 0 -0.45852794331394758 0.30540670505240958 0 -0.47789586146606378 0.29814868652574811 0 -0.47890896772952718 0.31636292681222472 0 -0.45852794331394758 0.30540670505240958 0 -0.47890896772952718 0.31636292681222472 0 -0.47789586146606378 0.29814868652574811 0 -0.48920120729889771 0.30786362236022019 0 -0.47890896772952718 0.31636292681222472 0 -0.45852794331394758 0.30540670505240958 0 -0.47789586146606378 0.29814868652574811 0 -0.45724976864254441 0.28334965182257721 0 -0.47789586146606378 0.29814868652574811 0 -0.48102565218130672 0.27929705551177292 0 -0.5 0.29600434190405073 0 -0.5 0.27107014960924369 0 -0.48102565218130672 0.27929705551177292 0 -0.47789586146606378 0.29814868652574811 0 -0.5 0.29600434190405073 0 -0.48102565218130672 0.27929705551177292 0 -0.47789586146606378 0.29814868652574811 0 -0.5 0.29600434190405073 0 -0.48920120729889771 0.30786362236022019 0 -0.49999999999999989 0.32093853419885771 0 -0.5 0.29600434190405073 0 -0.48920120729889771 0.30786362236022019 0 -0.48177750529808522 0.24619974485466931 0 -0.5 0.2461359573144368 0 -0.48654709528280549 0.26072196503438649 0 -0.5 0.2461359573144368 0 -0.48654709528280549 0.26072196503438649 0 -0.5 0.27107014960924369 0 -0.48654709528280549 0.26072196503438649 0 -0.5 0.27107014960924369 0 -0.48102565218130672 0.27929705551177292 0 -0.48654709528280549 0.26072196503438649 0 -0.48102565218130672 0.27929705551177292 0 -0.46993231893463527 0.26090691788180947 0 -0.45724976864254441 0.28334965182257721 0 -0.48102565218130672 0.27929705551177292 0 -0.46993231893463527 0.26090691788180947 0 -0.48177750529808522 0.24619974485466931 0 -0.48654709528280549 0.26072196503438649 0 -0.46993231893463527 0.26090691788180947 0 -0.45710504060219709 0.23686107433279269 0 -0.46993231893463527 0.26090691788180947 0 -0.44707755271196942 0.2637365605125353 0 -0.45724976864254441 0.28334965182257721 0 -0.46993231893463527 0.26090691788180947 0 -0.44707755271196942 0.2637365605125353 0 -0.45724976864254441 0.28334965182257721 0 -0.4447805513699985 0.27737231294201392 0 -0.44707755271196942 0.2637365605125353 0 -0.4447805513699985 0.27737231294201392 0 -0.44707755271196942 0.2637365605125353 0 -0.43100963400813791 0.27862602522793672 0 -0.45710504060219709 0.23686107433279269 0 -0.44707755271196942 0.2637365605125353 0 -0.44707755271196942 0.2637365605125353 0 -0.4367416388518679 0.25264877063821017 0 -0.43100963400813791 0.27862602522793672 0 -0.45710504060219709 0.23686107433279269 0 -0.44707755271196942 0.2637365605125353 0 -0.4367416388518679 0.25264877063821017 0 -0.4367416388518679 0.25264877063821017 0 -0.41175872593851298 0.2549478601346914 0 -0.41885046316002428 0.26850948483906401 0 -0.41175872593851298 0.2549478601346914 0 -0.41885046316002428 0.26850948483906401 0 -0.3976364837244763 0.27421361628784369 0 -0.41885046316002428 0.26850948483906401 0 -0.41710583327712653 0.28211115190663788 0 -0.3976364837244763 0.27421361628784369 0 -0.41885046316002428 0.26850948483906401 0 -0.43100963400813791 0.27862602522793672 0 -0.41710583327712653 0.28211115190663788 0 -0.4367416388518679 0.25264877063821017 0 -0.43100963400813791 0.27862602522793672 0 -0.4367416388518679 0.25264877063821017 0 -0.41885046316002428 0.26850948483906401 0 -0.43100963400813791 0.27862602522793672 0 -0.4381469188983681 0.2944504832925946 0 -0.43100963400813791 0.27862602522793672 0 -0.42527762916440792 0.30460327981766322 0 -0.43100963400813791 0.27862602522793672 0 -0.42527762916440792 0.30460327981766322 0 -0.41710583327712653 0.28211115190663788 0 -0.43100963400813791 0.27862602522793672 0 -0.42527762916440792 0.30460327981766322 0 -0.44001701522470671 0.31606260091672289 0 -0.4381469188983681 0.2944504832925946 0 -0.42527762916440792 0.30460327981766322 0 -0.40602554896887638 0.32011992980008452 0 -0.42527762916440792 0.30460327981766322 0 -0.4014269901009333 0.29495587648231503 0 -0.41710583327712653 0.28211115190663788 0 -0.4014269901009333 0.29495587648231503 0 -0.42527762916440792 0.30460327981766322 0 -0.41710583327712653 0.28211115190663788 0 -0.4014269901009333 0.29495587648231503 0 -0.41710583327712653 0.28211115190663788 0 -0.4014269901009333 0.29495587648231503 0 -0.3976364837244763 0.27421361628784369 0 -0.4014269901009333 0.29495587648231503 0 -0.38389766901197209 0.2919764357376447 0 -0.3976364837244763 0.27421361628784369 0 -0.4014269901009333 0.29495587648231503 0 -0.3976364837244763 0.27421361628784369 0 -0.39350880394476312 0.31593875705230262 0 -0.40602554896887638 0.32011992980008452 0 -0.4014269901009333 0.29495587648231503 0 -0.4014269901009333 0.29495587648231503 0 -0.38336946241093189 0.30974931290420182 0 -0.40602554896887638 0.32011992980008452 0 -0.4014269901009333 0.29495587648231503 0 -0.39350880394476312 0.31593875705230262 0 -0.4014269901009333 0.29495587648231503 0 -0.38336946241093189 0.30974931290420182 0 -0.38336946241093189 0.30974931290420182 0 -0.38389766901197209 0.2919764357376447 0 -0.36596935852520629 0.30787018431111951 0 -0.4014269901009333 0.29495587648231503 0 -0.38336946241093189 0.30974931290420182 0 -0.38389766901197209 0.2919764357376447 0 -0.38389766901197209 0.2919764357376447 0 -0.3839238193794226 0.27871888045260418 0 -0.3976364837244763 0.27421361628784369 0 -0.38389766901197209 0.2919764357376447 0 -0.3839238193794226 0.27871888045260418 0 -0.3703732677084236 0.2804332674389724 0 -0.3839238193794226 0.27871888045260418 0 -0.38378785707281859 0.2682522023459562 0 -0.3703732677084236 0.2804332674389724 0 -0.38378785707281859 0.2682522023459562 0 -0.37477717689163992 0.25299635056682518 0 -0.3703732677084236 0.2804332674389724 0 -0.3839238193794226 0.27871888045260418 0 -0.38378785707281859 0.2682522023459562 0 -0.3976364837244763 0.27421361628784369 0 -0.38378785707281859 0.2682522023459562 0 -0.39384597734802013 0.25347135609337229 0 -0.37477717689163992 0.25299635056682518 0 -0.39384597734802013 0.25347135609337229 0 -0.3976364837244763 0.27421361628784369 0 -0.41175872593851298 0.2549478601346914 0 -0.39384597734802013 0.25347135609337229 0 -0.3976364837244763 0.27421361628784369 0 -0.38378785707281859 0.2682522023459562 0 -0.39384597734802013 0.25347135609337229 0 -0.3976364837244763 0.27421361628784369 0 -0.35834524103505527 0.27479395617319979 0 -0.34490227433735798 0.27909378963084902 0 -0.35045174428906722 0.28677843618767362 0 -0.35834524103505527 0.27479395617319979 0 -0.34490227433735798 0.27909378963084902 0 -0.34728570068091402 0.2661688508290645 0 -0.34728570068091402 0.2661688508290645 0 -0.35464358931248319 0.25491115920099722 0 -0.34150965816976359 0.25817059719828012 0 -0.33845336435013867 0.242079554605789 0 -0.35464358931248319 0.25491115920099722 0 -0.34150965816976359 0.25817059719828012 0 -0.35834524103505527 0.27479395617319979 0 -0.34728570068091402 0.2661688508290645 0 -0.35464358931248319 0.25491115920099722 0 -0.35834524103505527 0.27479395617319979 0 -0.37477717689163992 0.25299635056682518 0 -0.35834524103505527 0.27479395617319979 0 -0.35464358931248319 0.25491115920099722 0 -0.37477717689163992 0.25299635056682518 0 -0.37477717689163992 0.25299635056682518 0 -0.3703732677084236 0.2804332674389724 0 -0.35834524103505527 0.27479395617319979 0 -0.37477717689163992 0.25299635056682518 0 -0.3703732677084236 0.2804332674389724 0 -0.3703732677084236 0.2804332674389724 0 -0.36596935852520629 0.30787018431111951 0 -0.38389766901197209 0.2919764357376447 0 -0.3703732677084236 0.2804332674389724 0 -0.36596935852520629 0.30787018431111951 0 -0.35834524103505527 0.27479395617319979 0 -0.3703732677084236 0.2804332674389724 0 -0.35925388220638338 0.290827281626163 0 -0.3703732677084236 0.2804332674389724 0 -0.36596935852520629 0.30787018431111951 0 -0.35925388220638338 0.290827281626163 0 -0.36596935852520629 0.30787018431111951 0 -0.35645499353340299 0.30154574554434233 0 -0.35925388220638338 0.290827281626163 0 -0.36596935852520629 0.30787018431111951 0 -0.35645499353340299 0.30154574554434233 0 -0.35774913989266272 0.31391262040183171 0 -0.35645499353340299 0.30154574554434233 0 -0.35013945535461871 0.3105838988596446 0 -0.35774913989266272 0.31391262040183171 0 -0.35645499353340299 0.30154574554434233 0 -0.34780240298166087 0.30288468022079579 0 -0.35285886900803182 0.29452238055293539 0 -0.34780240298166087 0.30288468022079579 0 -0.34622635383862083 0.29383585221412489 0 -0.33932813284697128 0.29730713825443927 0 -0.34780240298166087 0.30288468022079579 0 -0.35285886900803182 0.29452238055293539 0 -0.34622635383862083 0.29383585221412489 0 -0.34780240298166087 0.30288468022079579 0 -0.34514961405368982 0.30758965292055213 0 -0.33997231501418312 0.30473657218964828 0 -0.35645499353340299 0.30154574554434233 0 -0.34780240298166087 0.30288468022079579 0 -0.35013945535461871 0.3105838988596446 0 -0.34780240298166087 0.30288468022079579 0 -0.34514961405368982 0.30758965292055213 0 -0.35013945535461871 0.3105838988596446 0 -0.34514961405368982 0.30758965292055213 0 -0.35013945535461871 0.3105838988596446 0 -0.34268428286429659 0.31215346041211978 0 -0.35834524103505527 0.27479395617319979 0 -0.35925388220638338 0.290827281626163 0 -0.35045174428906722 0.28677843618767362 0 -0.35645499353340299 0.30154574554434233 0 -0.35925388220638338 0.290827281626163 0 -0.35285886900803182 0.29452238055293539 0 -0.35925388220638338 0.290827281626163 0 -0.35285886900803182 0.29452238055293539 0 -0.35045174428906722 0.28677843618767362 0 -0.35285886900803182 0.29452238055293539 0 -0.34622635383862083 0.29383585221412489 0 -0.35045174428906722 0.28677843618767362 0 -0.34622635383862083 0.29383585221412489 0 -0.35045174428906722 0.28677843618767362 0 -0.34088660642111013 0.2879281286912172 0 -0.34490227433735798 0.27909378963084902 0 -0.35045174428906722 0.28677843618767362 0 -0.34088660642111013 0.2879281286912172 0 -0.34490227433735798 0.27909378963084902 0 -0.34088660642111013 0.2879281286912172 0 -0.33262910378125132 0.278293493462413 0 -0.34088660642111013 0.2879281286912172 0 -0.33227483086849752 0.29261385498347509 0 -0.33932813284697128 0.29730713825443927 0 -0.34622635383862083 0.29383585221412489 0 -0.34088660642111013 0.2879281286912172 0 -0.33932813284697128 0.29730713825443927 0 -0.33227483086849752 0.29261385498347509 0 -0.32398535199451511 0.28524421774589648 0 -0.33262910378125132 0.278293493462413 0 -0.34088660642111013 0.2879281286912172 0 -0.33227483086849752 0.29261385498347509 0 -0.33262910378125132 0.278293493462413 0 -0.33718535734333338 0.30882123026638569 0 -0.34268428286429659 0.31215346041211978 0 -0.33477104767585758 0.31524888829805342 0 -0.33718535734333338 0.30882123026638569 0 -0.34268428286429659 0.31215346041211978 0 -0.33997231501418312 0.30473657218964828 0 -0.34514961405368982 0.30758965292055213 0 -0.34268428286429659 0.31215346041211978 0 -0.33997231501418312 0.30473657218964828 0 -0.33718535734333338 0.30882123026638569 0 -0.33997231501418312 0.30473657218964828 0 -0.33396296217470239 0.30554582684384218 0 -0.33997231501418312 0.30473657218964828 0 -0.33932813284697128 0.29730713825443927 0 -0.33396296217470239 0.30554582684384218 0 -0.34780240298166087 0.30288468022079579 0 -0.33997231501418312 0.30473657218964828 0 -0.33932813284697128 0.29730713825443927 0 -0.33227483086849752 0.29261385498347509 0 -0.33396296217470239 0.30554582684384218 0 -0.32251037119006698 0.3031431883822347 0 -0.33227483086849752 0.29261385498347509 0 -0.33932813284697128 0.29730713825443927 0 -0.33396296217470239 0.30554582684384218 0 -0.33718535734333338 0.30882123026638569 0 -0.33396296217470239 0.30554582684384218 0 -0.33477104767585758 0.31524888829805342 0 -0.33396296217470239 0.30554582684384218 0 -0.32251037119006698 0.3031431883822347 0 -0.33219148171911272 0.31730370811833031 0 -0.32251037119006698 0.3031431883822347 0 -0.31456388983813333 0.31636814557902659 0 -0.33219148171911272 0.31730370811833031 0 -0.32251037119006698 0.3031431883822347 0 -0.31282926066102218 0.28898266864613842 0 -0.30402337591517081 0.3051012194244167 0 -0.32251037119006698 0.3031431883822347 0 -0.30402337591517081 0.3051012194244167 0 -0.31456388983813333 0.31636814557902659 0 -0.32251037119006698 0.3031431883822347 0 -0.33219148171911272 0.31730370811833031 0 -0.33227483086849752 0.29261385498347509 0 -0.32251037119006698 0.3031431883822347 0 -0.32398535199451511 0.28524421774589648 0 -0.32251037119006698 0.3031431883822347 0 -0.32398535199451511 0.28524421774589648 0 -0.31282926066102218 0.28898266864613842 0 -0.32251037119006698 0.3031431883822347 0 -0.31282926066102218 0.28898266864613842 0 -0.31282926066102218 0.28898266864613842 0 -0.32065101258715689 0.274665503564473 0 -0.32398535199451511 0.28524421774589648 0 -0.31282926066102218 0.28898266864613842 0 -0.32065101258715689 0.274665503564473 0 -0.32065101258715689 0.274665503564473 0 -0.32847276451329022 0.26034833848280681 0 -0.31199410965335322 0.26463258327439948 0 -0.32065101258715689 0.274665503564473 0 -0.33262910378125132 0.278293493462413 0 -0.32847276451329022 0.26034833848280681 0 -0.31282926066102218 0.28898266864613842 0 -0.32065101258715689 0.274665503564473 0 -0.30403346053568642 0.27611708872161922 0 -0.32065101258715689 0.274665503564473 0 -0.32847276451329022 0.26034833848280681 0 -0.32398535199451511 0.28524421774589648 0 -0.32065101258715689 0.274665503564473 0 -0.33262910378125132 0.278293493462413 0 -0.33262910378125132 0.278293493462413 0 -0.33869287199199061 0.26734508287274228 0 -0.32847276451329022 0.26034833848280681 0 -0.34490227433735798 0.27909378963084902 0 -0.34728570068091402 0.2661688508290645 0 -0.33869287199199061 0.26734508287274228 0 -0.34490227433735798 0.27909378963084902 0 -0.33262910378125132 0.278293493462413 0 -0.33869287199199061 0.26734508287274228 0 -0.33845336435013867 0.242079554605789 0 -0.34150965816976359 0.25817059719828012 0 -0.32847276451329022 0.26034833848280681 0 -0.33845336435013867 0.242079554605789 0 -0.32847276451329022 0.26034833848280681 0 -0.34728570068091402 0.2661688508290645 0 -0.33869287199199061 0.26734508287274228 0 -0.34150965816976359 0.25817059719828012 0 -0.33869287199199061 0.26734508287274228 0 -0.34150965816976359 0.25817059719828012 0 -0.32847276451329022 0.26034833848280681 0 -0.33869287199199061 0.26734508287274228 0 -0.32847276451329022 0.26034833848280681 0 -0.311575650220281 0.24878047680599949 0 -0.32847276451329022 0.26034833848280681 0 -0.311575650220281 0.24878047680599949 0 -0.32847276451329022 0.26034833848280681 0 -0.31199410965335322 0.26463258327439948 0 -0.32455092720978362 0.24357057421839101 0 -0.311575650220281 0.24878047680599949 0 -0.32847276451329022 0.26034833848280681 0 -0.311575650220281 0.24878047680599949 0 -0.31199410965335322 0.26463258327439948 0 -0.29523766041035199 0.26325150879709891 0 -0.30403346053568642 0.27611708872161922 0 -0.29523766041035199 0.26325150879709891 0 -0.29574151564778611 0.28671646758259889 0 -0.31199410965335322 0.26463258327439948 0 -0.30403346053568642 0.27611708872161922 0 -0.29523766041035199 0.26325150879709891 0 -0.32065101258715689 0.274665503564473 0 -0.31199410965335322 0.26463258327439948 0 -0.30403346053568642 0.27611708872161922 0 -0.30403346053568642 0.27611708872161922 0 -0.29523766041035199 0.26325150879709891 0 -0.28985028671148488 0.25537141990030859 0 -0.26863301980023729 0.26794771562718522 0 -0.28534189936007232 0.28197220440765719 0 -0.29523766041035199 0.26325150879709891 0 -0.29574151564778611 0.28671646758259889 0 -0.29523766041035199 0.26325150879709891 0 -0.29574151564778611 0.28671646758259889 0 -0.28534189936007232 0.28197220440765719 0 -0.28985028671148488 0.25537141990030859 0 -0.29523766041035199 0.26325150879709891 0 -0.28534189936007232 0.28197220440765719 0 -0.28985028671148488 0.25537141990030859 0 -0.28534189936007232 0.28197220440765719 0 -0.29467853592727078 0.23721261512919359 0 -0.29523766041035199 0.26325150879709891 0 -0.29467853592727078 0.23721261512919359 0 -0.28985028671148488 0.25537141990030859 0 -0.29523766041035199 0.26325150879709891 0 -0.28985028671148488 0.25537141990030859 0 -0.29523766041035199 0.26325150879709891 0 -0.28985028671148488 0.25537141990030859 0 -0.2724296921133022 0.25217156250687062 0 -0.26863301980023729 0.26794771562718522 0 -0.2724296921133022 0.25217156250687062 0 -0.26863301980023729 0.26794771562718522 0 -0.25693865295534157 0.25278860643768353 0 -0.26863301980023729 0.26794771562718522 0 -0.26277913973510902 0.29023342414179659 0 -0.28534189936007232 0.28197220440765719 0 -0.26277913973510902 0.29023342414179659 0 -0.2447247674615598 0.2718938593685879 0 -0.26863301980023729 0.26794771562718522 0 -0.26277913973510902 0.29023342414179659 0 -0.2447247674615598 0.2718938593685879 0 -0.26863301980023729 0.26794771562718522 0 -0.25693865295534157 0.25278860643768353 0 -0.2447247674615598 0.2718938593685879 0 -0.26277913973510902 0.29023342414179659 0 -0.25757488899104952 0.31786411623381933 0 -0.2366570207200871 0.30010935915934539 0 -0.26277913973510902 0.29023342414179659 0 -0.28083351200865853 0.30857298891500562 0 -0.28534189936007232 0.28197220440765719 0 -0.26277913973510902 0.29023342414179659 0 -0.28083351200865853 0.30857298891500562 0 -0.26277913973510902 0.29023342414179659 0 -0.28083351200865853 0.30857298891500562 0 -0.25757488899104952 0.31786411623381933 0 -0.28083351200865853 0.30857298891500562 0 -0.29574151564778611 0.28671646758259889 0 -0.30402337591517081 0.3051012194244167 0 -0.28083351200865853 0.30857298891500562 0 -0.29574151564778611 0.28671646758259889 0 -0.28534189936007232 0.28197220440765719 0 -0.28083351200865853 0.30857298891500562 0 -0.28534189936007232 0.28197220440765719 0 -0.31282926066102218 0.28898266864613842 0 -0.29574151564778611 0.28671646758259889 0 -0.30402337591517081 0.3051012194244167 0 -0.31282926066102218 0.28898266864613842 0 -0.30403346053568642 0.27611708872161922 0 -0.29574151564778611 0.28671646758259889 0 -0.31282926066102218 0.28898266864613842 0 -0.30403346053568642 0.27611708872161922 0 -0.31282926066102218 0.28898266864613842 0 -0.30402337591517081 0.3051012194244167 0 -0.30402337591517081 0.3051012194244167 0 -0.29932851783868691 0.32736014762988469 0 -0.31456388983813333 0.31636814557902659 0 -0.29932851783868691 0.32736014762988469 0 -0.31400963374603508 0.33178692824556621 0 -0.31456388983813333 0.31636814557902659 0 -0.29582778577295937 0.3462701483728044 0 -0.31354931950312093 0.34747342072874071 0 -0.31400963374603508 0.33178692824556621 0 -0.29582778577295937 0.3462701483728044 0 -0.31400963374603508 0.33178692824556621 0 -0.29932851783868691 0.32736014762988469 0 -0.29582778577295937 0.3462701483728044 0 -0.31400963374603508 0.33178692824556621 0 -0.29932851783868691 0.32736014762988469 0 -0.27670802547122531 0.33291454828341721 0 -0.29582778577295937 0.3462701483728044 0 -0.27670802547122531 0.33291454828341721 0 -0.29582778577295937 0.3462701483728044 0 -0.28186865011063378 0.34863084123191301 0 -0.28083351200865853 0.30857298891500562 0 -0.30402337591517081 0.3051012194244167 0 -0.29932851783868691 0.32736014762988469 0 -0.28083351200865853 0.30857298891500562 0 -0.29932851783868691 0.32736014762988469 0 -0.28083351200865853 0.30857298891500562 0 -0.29932851783868691 0.32736014762988469 0 -0.27670802547122531 0.33291454828341721 0 -0.28083351200865853 0.30857298891500562 0 -0.27670802547122531 0.33291454828341721 0 -0.25757488899104952 0.31786411623381933 0 -0.28083351200865853 0.30857298891500562 0 -0.27670802547122531 0.33291454828341721 0 -0.27670802547122531 0.33291454828341721 0 -0.25757488899104952 0.31786411623381933 0 -0.25368472498167011 0.34420349485172652 0 -0.2613799420943046 0.36179346951182628 0 -0.25453646971320443 0.37462232419521813 0 -0.26689531734350652 0.36931705260985792 0 -0.2613799420943046 0.36179346951182628 0 -0.25453646971320443 0.37462232419521813 0 -0.24822911175635759 0.36217347122335058 0 -0.25368472498167011 0.34420349485172652 0 -0.27258253893379292 0.35725610765182902 0 -0.2613799420943046 0.36179346951182628 0 -0.25368472498167011 0.34420349485172652 0 -0.24822911175635759 0.36217347122335058 0 -0.2613799420943046 0.36179346951182628 0 -0.25368472498167011 0.34420349485172652 0 -0.27258253893379292 0.35725610765182902 0 -0.27670802547122531 0.33291454828341721 0 -0.27258253893379292 0.35725610765182902 0 -0.27670802547122531 0.33291454828341721 0 -0.27258253893379292 0.35725610765182902 0 -0.28186865011063378 0.34863084123191301 0 -0.27670802547122531 0.33291454828341721 0 -0.25368472498167011 0.34420349485172652 0 -0.27258253893379292 0.35725610765182902 0 -0.27258253893379292 0.35725610765182902 0 -0.27764593779988228 0.36075336850004069 0 -0.28186865011063378 0.34863084123191301 0 -0.27258253893379292 0.35725610765182902 0 -0.27764593779988228 0.36075336850004069 0 -0.27764593779988228 0.36075336850004069 0 -0.27110701654299552 0.36596211494311248 0 -0.28943519450698252 0.3688961411714532 0 -0.27110701654299552 0.36596211494311248 0 -0.28943519450698252 0.3688961411714532 0 -0.27110701654299552 0.36596211494311248 0 -0.28943519450698252 0.3688961411714532 0 -0.28084635904778937 0.37544065550995409 0 -0.27258253893379292 0.35725610765182902 0 -0.27764593779988228 0.36075336850004069 0 -0.27110701654299552 0.36596211494311248 0 -0.27764593779988228 0.36075336850004069 0 -0.27110701654299552 0.36596211494311248 0 -0.2613799420943046 0.36179346951182628 0 -0.27258253893379292 0.35725610765182902 0 -0.27110701654299552 0.36596211494311248 0 -0.2613799420943046 0.36179346951182628 0 -0.27110701654299552 0.36596211494311248 0 -0.26689531734350652 0.36931705260985792 0 -0.27258253893379292 0.35725610765182902 0 -0.27110701654299552 0.36596211494311248 0 -0.27110701654299552 0.36596211494311248 0 -0.26689531734350652 0.36931705260985792 0 -0.27110701654299552 0.36596211494311248 0 -0.28084635904778937 0.37544065550995409 0 -0.27663284499009211 0.37939207802828528 0 -0.28943519450698252 0.3688961411714532 0 -0.28685204816290072 0.37621819500323123 0 -0.28084635904778937 0.37544065550995409 0 -0.27764593779988228 0.36075336850004069 0 -0.28943519450698252 0.3688961411714532 0 -0.29551252006441958 0.37309371542857861 0 -0.28943519450698252 0.3688961411714532 0 -0.28685204816290072 0.37621819500323123 0 -0.29551252006441958 0.37309371542857861 0 -0.28943519450698252 0.3688961411714532 0 -0.27764593779988228 0.36075336850004069 0 -0.29582778577295937 0.3462701483728044 0 -0.27764593779988228 0.36075336850004069 0 -0.29582778577295937 0.3462701483728044 0 -0.28186865011063378 0.34863084123191301 0 -0.28943519450698252 0.3688961411714532 0 -0.29582778577295937 0.3462701483728044 0 -0.30300283950081008 0.36051339397403093 0 -0.27764593779988228 0.36075336850004069 0 -0.28943519450698252 0.3688961411714532 0 -0.29582778577295937 0.3462701483728044 0 -0.29582778577295937 0.3462701483728044 0 -0.30300283950081008 0.36051339397403093 0 -0.31354931950312093 0.34747342072874071 0 -0.28943519450698252 0.3688961411714532 0 -0.31408843612631249 0.37197903781600761 0 -0.28943519450698252 0.3688961411714532 0 -0.30300283950081008 0.36051339397403093 0 -0.31408843612631249 0.37197903781600761 0 -0.29551252006441958 0.37309371542857861 0 -0.28943519450698252 0.3688961411714532 0 -0.31408843612631249 0.37197903781600761 0 -0.30300283950081008 0.36051339397403093 0 -0.31408843612631249 0.37197903781600761 0 -0.32472866683278162 0.35786931268145811 0 -0.31408843612631249 0.37197903781600761 0 -0.32472866683278162 0.35786931268145811 0 -0.33874167774564268 0.3750619344605613 0 -0.31408843612631249 0.37197903781600761 0 -0.33874167774564268 0.3750619344605613 0 -0.33942470910854639 0.36092010030626542 0 -0.32472866683278162 0.35786931268145811 0 -0.33874167774564268 0.3750619344605613 0 -0.33942470910854639 0.36092010030626542 0 -0.3497530714632448 0.36534695126967459 0 -0.33874167774564268 0.3750619344605613 0 -0.33815763529499693 0.35089104021064632 0 -0.32472866683278162 0.35786931268145811 0 -0.33017767166301859 0.34092732036984391 0 -0.33815763529499693 0.35089104021064632 0 -0.33017767166301859 0.34092732036984391 0 -0.34251680356524339 0.34321741671518669 0 -0.33815763529499693 0.35089104021064632 0 -0.3460879504978186 0.35511096805544279 0 -0.34556584107983002 0.34849125976349993 0 -0.33815763529499693 0.35089104021064632 0 -0.34251680356524339 0.34321741671518669 0 -0.34556584107983002 0.34849125976349993 0 -0.33942470910854639 0.36092010030626542 0 -0.33815763529499693 0.35089104021064632 0 -0.3460879504978186 0.35511096805544279 0 -0.33942470910854639 0.36092010030626542 0 -0.33815763529499693 0.35089104021064632 0 -0.32472866683278162 0.35786931268145811 0 -0.31354931950312093 0.34747342072874071 0 -0.32472866683278162 0.35786931268145811 0 -0.33017767166301859 0.34092732036984391 0 -0.30300283950081008 0.36051339397403093 0 -0.31354931950312093 0.34747342072874071 0 -0.32472866683278162 0.35786931268145811 0 -0.31400963374603508 0.33178692824556621 0 -0.33219148171911272 0.31730370811833031 0 -0.33017767166301859 0.34092732036984391 0 -0.31354931950312093 0.34747342072874071 0 -0.31400963374603508 0.33178692824556621 0 -0.33017767166301859 0.34092732036984391 0 -0.31400963374603508 0.33178692824556621 0 -0.33219148171911272 0.31730370811833031 0 -0.31400963374603508 0.33178692824556621 0 -0.31456388983813333 0.31636814557902659 0 -0.33219148171911272 0.31730370811833031 0 -0.33477104767585758 0.31524888829805342 0 -0.33219148171911272 0.31730370811833031 0 -0.34795343649956839 0.3209401758966518 0 -0.33219148171911272 0.31730370811833031 0 -0.34725440703092858 0.33933618574797492 0 -0.34795343649956839 0.3209401758966518 0 -0.33396296217470239 0.30554582684384218 0 -0.33477104767585758 0.31524888829805342 0 -0.33219148171911272 0.31730370811833031 0 -0.33477104767585758 0.31524888829805342 0 -0.33219148171911272 0.31730370811833031 0 -0.34268428286429659 0.31215346041211978 0 -0.33477104767585758 0.31524888829805342 0 -0.34795343649956839 0.3209401758966518 0 -0.33219148171911272 0.31730370811833031 0 -0.34725440703092858 0.33933618574797492 0 -0.33219148171911272 0.31730370811833031 0 -0.33017767166301859 0.34092732036984391 0 -0.34725440703092858 0.33933618574797492 0 -0.33017767166301859 0.34092732036984391 0 -0.34251680356524339 0.34321741671518669 0 -0.34725440703092858 0.33933618574797492 0 -0.34725440703092858 0.33933618574797492 0 -0.34795343649956839 0.3209401758966518 0 -0.36531193472093021 0.32454274932608829 0 -0.34251680356524339 0.34321741671518669 0 -0.35002774160894051 0.34339273059465159 0 -0.34725440703092858 0.33933618574797492 0 -0.34725440703092858 0.33933618574797492 0 -0.35848812135385522 0.33902175933596412 0 -0.36531193472093021 0.32454274932608829 0 -0.34725440703092858 0.33933618574797492 0 -0.36531193472093021 0.32454274932608829 0 -0.34251680356524339 0.34321741671518669 0 -0.34725440703092858 0.33933618574797492 0 -0.35002774160894051 0.34339273059465159 0 -0.34725440703092858 0.33933618574797492 0 -0.35002774160894051 0.34339273059465159 0 -0.35848812135385522 0.33902175933596412 0 -0.35712059876301439 0.34740413424876382 0 -0.35002774160894051 0.34339273059465159 0 -0.34725440703092858 0.33933618574797492 0 -0.35848812135385522 0.33902175933596412 0 -0.34795343649956839 0.3209401758966518 0 -0.35774913989266272 0.31391262040183171 0 -0.36531193472093021 0.32454274932608829 0 -0.35013945535461871 0.3105838988596446 0 -0.34268428286429659 0.31215346041211978 0 -0.34795343649956839 0.3209401758966518 0 -0.35013945535461871 0.3105838988596446 0 -0.34795343649956839 0.3209401758966518 0 -0.35774913989266272 0.31391262040183171 0 -0.38336946241093189 0.30974931290420182 0 -0.36596935852520629 0.30787018431111951 0 -0.36531193472093021 0.32454274932608829 0 -0.36596935852520629 0.30787018431111951 0 -0.35774913989266272 0.31391262040183171 0 -0.36531193472093021 0.32454274932608829 0 -0.37580907906339922 0.33647878059299557 0 -0.38201615891261242 0.31564575533693578 0 -0.36531193472093021 0.32454274932608829 0 -0.38336946241093189 0.30974931290420182 0 -0.36531193472093021 0.32454274932608829 0 -0.35848812135385522 0.33902175933596412 0 -0.36629538785756799 0.33494858662202331 0 -0.36491865814174967 0.34450616947628299 0 -0.35848812135385522 0.33902175933596412 0 -0.36491865814174967 0.34450616947628299 0 -0.35712059876301439 0.34740413424876382 0 -0.35848812135385522 0.33902175933596412 0 -0.36531193472093021 0.32454274932608829 0 -0.36629538785756799 0.33494858662202331 0 -0.37580907906339922 0.33647878059299557 0 -0.36531193472093021 0.32454274932608829 0 -0.36629538785756799 0.33494858662202331 0 -0.37580907906339922 0.33647878059299557 0 -0.36629538785756799 0.33494858662202331 0 -0.36491865814174967 0.34450616947628299 0 -0.37580907906339922 0.33647878059299557 0 -0.36491865814174967 0.34450616947628299 0 -0.36960199921418602 0.35731180584905542 0 -0.37580907906339922 0.33647878059299557 0 -0.36960199921418602 0.35731180584905542 0 -0.36491865814174967 0.34450616947628299 0 -0.36204010283369881 0.35293053614415609 0 -0.35712059876301439 0.34740413424876382 0 -0.36491865814174967 0.34450616947628299 0 -0.36204010283369881 0.35293053614415609 0 -0.36960199921418602 0.35731180584905542 0 -0.36231373349064938 0.3583368008115923 0 -0.36204010283369881 0.35293053614415609 0 -0.35577634304253192 0.35617190760009498 0 -0.36231373349064938 0.3583368008115923 0 -0.36204010283369881 0.35293053614415609 0 -0.36960199921418602 0.35731180584905542 0 -0.36960199921418602 0.35731180584905542 0 -0.36339491936497281 0.37814483110511521 0 -0.36960199921418602 0.35731180584905542 0 -0.37158620997362618 0.36500042586936587 0 -0.36339491936497281 0.37814483110511521 0 -0.36960199921418602 0.35731180584905542 0 -0.36108579844600058 0.36545797327707619 0 -0.36339491936497281 0.37814483110511521 0 -0.38141148745950948 0.38039780936179463 0 -0.37158620997362618 0.36500042586936587 0 -0.36339491936497281 0.37814483110511521 0 -0.38070440212728118 0.35956436367519867 0 -0.36960199921418602 0.35731180584905542 0 -0.37158620997362618 0.36500042586936587 0 -0.36231373349064938 0.3583368008115923 0 -0.36108579844600058 0.36545797327707619 0 -0.35577634304253192 0.35617190760009498 0 -0.36231373349064938 0.3583368008115923 0 -0.36960199921418602 0.35731180584905542 0 -0.36108579844600058 0.36545797327707619 0 -0.36108579844600058 0.36545797327707619 0 -0.3497530714632448 0.36534695126967459 0 -0.35577634304253192 0.35617190760009498 0 -0.3497530714632448 0.36534695126967459 0 -0.36339491936497281 0.37814483110511521 0 -0.33874167774564268 0.3750619344605613 0 -0.36108579844600058 0.36545797327707619 0 -0.3497530714632448 0.36534695126967459 0 -0.36339491936497281 0.37814483110511521 0 -0.33942470910854639 0.36092010030626542 0 -0.3497530714632448 0.36534695126967459 0 -0.3460879504978186 0.35511096805544279 0 -0.3497530714632448 0.36534695126967459 0 -0.3460879504978186 0.35511096805544279 0 -0.35577634304253192 0.35617190760009498 0 -0.3460879504978186 0.35511096805544279 0 -0.35103907443215082 0.34984414324157243 0 -0.35577634304253192 0.35617190760009498 0 -0.3460879504978186 0.35511096805544279 0 -0.34556584107983002 0.34849125976349993 0 -0.35103907443215082 0.34984414324157243 0 -0.34251680356524339 0.34321741671518669 0 -0.35002774160894051 0.34339273059465159 0 -0.34556584107983002 0.34849125976349993 0 -0.35002774160894051 0.34339273059465159 0 -0.34556584107983002 0.34849125976349993 0 -0.35103907443215082 0.34984414324157243 0 -0.35103907443215082 0.34984414324157243 0 -0.35712059876301439 0.34740413424876382 0 -0.35577634304253192 0.35617190760009498 0 -0.35002774160894051 0.34339273059465159 0 -0.35103907443215082 0.34984414324157243 0 -0.35712059876301439 0.34740413424876382 0 -0.36204010283369881 0.35293053614415609 0 -0.35712059876301439 0.34740413424876382 0 -0.35577634304253192 0.35617190760009498 0 -0.35746143571760969 0.39805957647408341 0 -0.33700984602307921 0.4055687403903776 0 -0.35746143571760969 0.39805957647408341 0 -0.36339491936497281 0.37814483110511521 0 -0.33874167774564268 0.3750619344605613 0 -0.36339491936497281 0.37814483110511521 0 -0.33874167774564268 0.3750619344605613 0 -0.38141148745950948 0.38039780936179463 0 -0.37844474563582792 0.390355182046278 0 -0.36339491936497281 0.37814483110511521 0 -0.37844474563582792 0.390355182046278 0 -0.35746143571760969 0.39805957647408341 0 -0.36339491936497281 0.37814483110511521 0 -0.35746143571760969 0.39805957647408341 0 -0.36339491936497281 0.37814483110511521 0 -0.38141148745950948 0.38039780936179463 0 -0.36339491936497281 0.37814483110511521 0 -0.37668454372729859 0.41206883315114529 0 -0.37844474563582792 0.390355182046278 0 -0.35746143571760969 0.39805957647408341 0 -0.37844474563582792 0.390355182046278 0 -0.35746143571760969 0.39805957647408341 0 -0.37668454372729859 0.41206883315114529 0 -0.36778315087773072 0.43214877602771662 0 -0.35179051953527918 0.41709305806631919 0 -0.37668454372729859 0.41206883315114529 0 -0.35746143571760969 0.39805957647408341 0 -0.35179051953527918 0.41709305806631919 0 -0.37668454372729859 0.41206883315114529 0 -0.35179051953527918 0.41709305806631919 0 -0.36778315087773072 0.43214877602771662 0 -0.35179051953527918 0.41709305806631919 0 -0.34355933144160938 0.44471966407244162 0 -0.35179051953527918 0.41709305806631919 0 -0.34355933144160938 0.44471966407244162 0 -0.35746143571760969 0.39805957647408341 0 -0.35179051953527918 0.41709305806631919 0 -0.33700984602307921 0.4055687403903776 0 -0.35746143571760969 0.39805957647408341 0 -0.35179051953527918 0.41709305806631919 0 -0.35179051953527918 0.41709305806631919 0 -0.33092261172728182 0.42130471390500562 0 -0.33700984602307921 0.4055687403903776 0 -0.35179051953527918 0.41709305806631919 0 -0.33092261172728182 0.42130471390500562 0 -0.33092261172728182 0.42130471390500562 0 -0.31655825632854873 0.41307790430667191 0 -0.33700984602307921 0.4055687403903776 0 -0.35179051953527918 0.41709305806631919 0 -0.33092261172728182 0.42130471390500562 0 -0.34355933144160938 0.44471966407244162 0 -0.33092261172728182 0.42130471390500562 0 -0.32304151796324199 0.43794530689545591 0 -0.34355933144160938 0.44471966407244162 0 -0.33092261172728182 0.42130471390500562 0 -0.31005470391928353 0.42551636974368717 0 -0.32304151796324199 0.43794530689545591 0 -0.33092261172728182 0.42130471390500562 0 -0.31005470391928353 0.42551636974368717 0 -0.31005470391928353 0.42551636974368717 0 -0.30636015846579262 0.44081646755455739 0 -0.32304151796324199 0.43794530689545591 0 -0.31655825632854873 0.41307790430667191 0 -0.32178824989383492 0.40044082628072353 0 -0.33700984602307921 0.4055687403903776 0 -0.33092261172728182 0.42130471390500562 0 -0.31655825632854873 0.41307790430667191 0 -0.31005470391928353 0.42551636974368717 0 -0.31655825632854873 0.41307790430667191 0 -0.33700984602307921 0.4055687403903776 0 -0.31655825632854873 0.41307790430667191 0 -0.32178824989383492 0.40044082628072353 0 -0.30820761894760612 0.40180007281058999 0 -0.31589124725359768 0.39098578459502642 0 -0.32178824989383492 0.40044082628072353 0 -0.30820761894760612 0.40180007281058999 0 -0.31589124725359768 0.39098578459502642 0 -0.32178824989383492 0.40044082628072353 0 -0.33127428091634248 0.39077162930095188 0 -0.35746143571760969 0.39805957647408341 0 -0.33127428091634248 0.39077162930095188 0 -0.33700984602307921 0.4055687403903776 0 -0.32178824989383492 0.40044082628072353 0 -0.33127428091634248 0.39077162930095188 0 -0.33700984602307921 0.4055687403903776 0 -0.35746143571760969 0.39805957647408341 0 -0.33127428091634248 0.39077162930095188 0 -0.33874167774564268 0.3750619344605613 0 -0.31408843612631249 0.37197903781600761 0 -0.33127428091634248 0.39077162930095188 0 -0.33874167774564268 0.3750619344605613 0 -0.31408843612631249 0.37197903781600761 0 -0.31589124725359768 0.39098578459502642 0 -0.33127428091634248 0.39077162930095188 0 -0.29551252006441958 0.37309371542857861 0 -0.31408843612631249 0.37197903781600761 0 -0.30568017353146049 0.38157918508743732 0 -0.31408843612631249 0.37197903781600761 0 -0.31589124725359768 0.39098578459502642 0 -0.30568017353146049 0.38157918508743732 0 -0.31589124725359768 0.39098578459502642 0 -0.30568017353146049 0.38157918508743732 0 -0.30603649680964828 0.39194203915736708 0 -0.30568017353146049 0.38157918508743732 0 -0.29743858983336929 0.38628170497916159 0 -0.30603649680964828 0.39194203915736708 0 -0.29551252006441958 0.37309371542857861 0 -0.30568017353146049 0.38157918508743732 0 -0.29743858983336929 0.38628170497916159 0 -0.31589124725359768 0.39098578459502642 0 -0.30820761894760612 0.40180007281058999 0 -0.30603649680964828 0.39194203915736708 0 -0.30820761894760612 0.40180007281058999 0 -0.30603649680964828 0.39194203915736708 0 -0.29604813782321171 0.40003827384795049 0 -0.29743858983336929 0.38628170497916159 0 -0.30603649680964828 0.39194203915736708 0 -0.29604813782321171 0.40003827384795049 0 -0.30820761894760612 0.40180007281058999 0 -0.29604813782321171 0.40003827384795049 0 -0.2987408814332651 0.40933989620534528 0 -0.29604813782321171 0.40003827384795049 0 -0.28905057763704689 0.40562835892549581 0 -0.28392778011776681 0.39892722844600809 0 -0.29604813782321171 0.40003827384795049 0 -0.28905057763704689 0.40562835892549581 0 -0.2987408814332651 0.40933989620534528 0 -0.29604813782321171 0.40003827384795049 0 -0.28980128107673031 0.39400368344191522 0 -0.28392778011776681 0.39892722844600809 0 -0.29743858983336929 0.38628170497916159 0 -0.29604813782321171 0.40003827384795049 0 -0.28980128107673031 0.39400368344191522 0 -0.28980128107673031 0.39400368344191522 0 -0.28179061653257348 0.3907675264945405 0 -0.28392778011776681 0.39892722844600809 0 -0.28905057763704689 0.40562835892549581 0 -0.28392778011776681 0.39892722844600809 0 -0.27817781655911977 0.40726136879628272 0 -0.29743858983336929 0.38628170497916159 0 -0.28980128107673031 0.39400368344191522 0 -0.28179061653257348 0.3907675264945405 0 -0.29743858983336929 0.38628170497916159 0 -0.28179061653257348 0.3907675264945405 0 -0.28819376848868639 0.38228739672622841 0 -0.29743858983336929 0.38628170497916159 0 -0.28179061653257348 0.3907675264945405 0 -0.29551252006441958 0.37309371542857861 0 -0.29743858983336929 0.38628170497916159 0 -0.28819376848868639 0.38228739672622841 0 -0.29551252006441958 0.37309371542857861 0 -0.28819376848868639 0.38228739672622841 0 -0.28685204816290072 0.37621819500323123 0 -0.28179061653257348 0.3907675264945405 0 -0.28158428542699082 0.38279668863870758 0 -0.28819376848868639 0.38228739672622841 0 -0.28158428542699082 0.38279668863870758 0 -0.28819376848868639 0.38228739672622841 0 -0.28685204816290072 0.37621819500323123 0 -0.28158428542699082 0.38279668863870758 0 -0.28685204816290072 0.37621819500323123 0 -0.28084635904778937 0.37544065550995409 0 -0.27110701654299552 0.36596211494311248 0 -0.26614264323177789 0.39525334800991979 0 -0.27110701654299552 0.36596211494311248 0 -0.27663284499009211 0.37939207802828528 0 -0.27229768174870289 0.38438446135480281 0 -0.27110701654299552 0.36596211494311248 0 -0.27229768174870289 0.38438446135480281 0 -0.26614264323177789 0.39525334800991979 0 -0.27110701654299552 0.36596211494311248 0 -0.26689531734350652 0.36931705260985792 0 -0.26614264323177789 0.39525334800991979 0 -0.28158428542699082 0.38279668863870758 0 -0.28084635904778937 0.37544065550995409 0 -0.27663284499009211 0.37939207802828528 0 -0.27229768174870289 0.38438446135480281 0 -0.27641046434025379 0.38710393959788297 0 -0.26614264323177789 0.39525334800991979 0 -0.28179061653257348 0.3907675264945405 0 -0.28158428542699082 0.38279668863870758 0 -0.27641046434025379 0.38710393959788297 0 -0.27663284499009211 0.37939207802828528 0 -0.27229768174870289 0.38438446135480281 0 -0.27641046434025379 0.38710393959788297 0 -0.28158428542699082 0.38279668863870758 0 -0.27663284499009211 0.37939207802828528 0 -0.27641046434025379 0.38710393959788297 0 -0.28179061653257348 0.3907675264945405 0 -0.27641046434025379 0.38710393959788297 0 -0.26614264323177789 0.39525334800991979 0 -0.28179061653257348 0.3907675264945405 0 -0.27661435207820328 0.39472461325581981 0 -0.26614264323177789 0.39525334800991979 0 -0.28179061653257348 0.3907675264945405 0 -0.28392778011776681 0.39892722844600809 0 -0.27661435207820328 0.39472461325581981 0 -0.28179061653257348 0.3907675264945405 0 -0.26614264323177789 0.39525334800991979 0 -0.28392778011776681 0.39892722844600809 0 -0.27661435207820328 0.39472461325581981 0 -0.27572094251528112 0.40196054452149499 0 -0.28392778011776681 0.39892722844600809 0 -0.27572094251528112 0.40196054452149499 0 -0.27817781655911977 0.40726136879628272 0 -0.27572094251528112 0.40196054452149499 0 -0.26416382130603389 0.40692896758786917 0 -0.27817781655911977 0.40726136879628272 0 -0.27661435207820328 0.39472461325581981 0 -0.27572094251528112 0.40196054452149499 0 -0.26416382130603389 0.40692896758786917 0 -0.27661435207820328 0.39472461325581981 0 -0.26614264323177789 0.39525334800991979 0 -0.26416382130603389 0.40692896758786917 0 -0.27661435207820328 0.39472461325581981 0 -0.26416382130603389 0.40692896758786917 0 -0.26614264323177789 0.39525334800991979 0 -0.24781733580734391 0.38604582424895789 0 -0.24388213391773941 0.40163479241199579 0 -0.26614264323177789 0.39525334800991979 0 -0.25157066981256843 0.40894445920752592 0 -0.24388213391773941 0.40163479241199579 0 -0.26614264323177789 0.39525334800991979 0 -0.24388213391773941 0.40163479241199579 0 -0.26614264323177789 0.39525334800991979 0 -0.26416382130603389 0.40692896758786917 0 -0.26614264323177789 0.39525334800991979 0 -0.25157066981256843 0.40894445920752592 0 -0.26416382130603389 0.40692896758786917 0 -0.25453646971320443 0.37462232419521813 0 -0.26614264323177789 0.39525334800991979 0 -0.24781733580734391 0.38604582424895789 0 -0.25453646971320443 0.37462232419521813 0 -0.26689531734350652 0.36931705260985792 0 -0.26614264323177789 0.39525334800991979 0 -0.26107936510946472 0.42512814796255138 0 -0.25799490891289278 0.4433273283372331 0 -0.26107936510946472 0.42512814796255138 0 -0.27138668263498972 0.43431468825499642 0 -0.25799490891289278 0.4433273283372331 0 -0.26107936510946472 0.42512814796255138 0 -0.25799490891289278 0.4433273283372331 0 -0.24263019791012411 0.42803682032005991 0 -0.25799490891289278 0.4433273283372331 0 -0.24263019791012411 0.42803682032005991 0 -0.26107936510946472 0.42512814796255138 0 -0.26416382130603389 0.40692896758786917 0 -0.26107936510946472 0.42512814796255138 0 -0.26416382130603389 0.40692896758786917 0 -0.24263019791012411 0.42803682032005991 0 -0.26416382130603389 0.40692896758786917 0 -0.24263019791012411 0.42803682032005991 0 -0.25157066981256843 0.40894445920752592 0 -0.26416382130603389 0.40692896758786917 0 -0.24263019791012411 0.42803682032005991 0 -0.26107936510946472 0.42512814796255138 0 -0.26416382130603389 0.40692896758786917 0 -0.27370875903762831 0.41905129137381081 0 -0.26416382130603389 0.40692896758786917 0 -0.27817781655911977 0.40726136879628272 0 -0.27370875903762831 0.41905129137381081 0 -0.27817781655911977 0.40726136879628272 0 -0.27370875903762831 0.41905129137381081 0 -0.28647403122915938 0.41490769911839809 0 -0.27370875903762831 0.41905129137381081 0 -0.27138668263498972 0.43431468825499642 0 -0.28359142860916292 0.42646623900898489 0 -0.26107936510946472 0.42512814796255138 0 -0.27370875903762831 0.41905129137381081 0 -0.27138668263498972 0.43431468825499642 0 -0.27138668263498972 0.43431468825499642 0 -0.28359142860916292 0.42646623900898489 0 -0.28426041238301858 0.43930471826406531 0 -0.28359142860916292 0.42646623900898489 0 -0.29576073289665422 0.43347565529899762 0 -0.28426041238301858 0.43930471826406531 0 -0.28359142860916292 0.42646623900898489 0 -0.29576073289665422 0.43347565529899762 0 -0.29610666663401819 0.4205870682229661 0 -0.28905057763704689 0.40562835892549581 0 -0.27817781655911977 0.40726136879628272 0 -0.28647403122915938 0.41490769911839809 0 -0.27370875903762831 0.41905129137381081 0 -0.28359142860916292 0.42646623900898489 0 -0.28647403122915938 0.41490769911839809 0 -0.28359142860916292 0.42646623900898489 0 -0.28647403122915938 0.41490769911839809 0 -0.29610666663401819 0.4205870682229661 0 -0.28647403122915938 0.41490769911839809 0 -0.29610666663401819 0.4205870682229661 0 -0.2987408814332651 0.40933989620534528 0 -0.28905057763704689 0.40562835892549581 0 -0.28647403122915938 0.41490769911839809 0 -0.2987408814332651 0.40933989620534528 0 -0.31655825632854873 0.41307790430667191 0 -0.29610666663401819 0.4205870682229661 0 -0.2987408814332651 0.40933989620534528 0 -0.31655825632854873 0.41307790430667191 0 -0.29610666663401819 0.4205870682229661 0 -0.31005470391928353 0.42551636974368717 0 -0.31655825632854873 0.41307790430667191 0 -0.29610666663401819 0.4205870682229661 0 -0.31655825632854873 0.41307790430667191 0 -0.30820761894760612 0.40180007281058999 0 -0.2987408814332651 0.40933989620534528 0 -0.29576073289665422 0.43347565529899762 0 -0.31005470391928353 0.42551636974368717 0 -0.30636015846579262 0.44081646755455739 0 -0.29576073289665422 0.43347565529899762 0 -0.29610666663401819 0.4205870682229661 0 -0.31005470391928353 0.42551636974368717 0 -0.29576073289665422 0.43347565529899762 0 -0.30636015846579262 0.44081646755455739 0 -0.2944743431310044 0.45228094752776682 0 -0.30636015846579262 0.44081646755455739 0 -0.30512100021830008 0.46490456032657962 0 -0.30636015846579262 0.44081646755455739 0 -0.30512100021830008 0.46490456032657962 0 -0.2944743431310044 0.45228094752776682 0 -0.30636015846579262 0.44081646755455739 0 -0.30512100021830008 0.46490456032657962 0 -0.32381548421637429 0.45642326981327008 0 -0.30512100021830008 0.46490456032657962 0 -0.2944743431310044 0.45228094752776682 0 -0.28858619761816889 0.47377087817814589 0 -0.2944743431310044 0.45228094752776682 0 -0.27329055326553048 0.45854910325768988 0 -0.28858619761816889 0.47377087817814589 0 -0.2944743431310044 0.45228094752776682 0 -0.28426041238301858 0.43930471826406531 0 -0.27329055326553048 0.45854910325768988 0 -0.29576073289665422 0.43347565529899762 0 -0.2944743431310044 0.45228094752776682 0 -0.28426041238301858 0.43930471826406531 0 -0.27138668263498972 0.43431468825499642 0 -0.28426041238301858 0.43930471826406531 0 -0.27329055326553048 0.45854910325768988 0 -0.27138668263498972 0.43431468825499642 0 -0.27329055326553048 0.45854910325768988 0 -0.25799490891289278 0.4433273283372331 0 -0.27329055326553048 0.45854910325768988 0 -0.25799490891289278 0.4433273283372331 0 -0.27329055326553048 0.45854910325768988 0 -0.28858619761816889 0.47377087817814589 0 -0.27329055326553048 0.45854910325768988 0 -0.25438198006151169 0.46464464965965441 0 -0.25799490891289278 0.4433273283372331 0 -0.27329055326553048 0.45854910325768988 0 -0.25438198006151169 0.46464464965965441 0 -0.26859377699614329 0.4811575177290362 0 -0.25438198006151169 0.46464464965965441 0 -0.25799490891289278 0.4433273283372331 0 -0.25438198006151169 0.46464464965965441 0 -0.25799490891289278 0.4433273283372331 0 -0.24356894722331929 0.44821508210096461 0 -0.25080144613104921 0.5 0 -0.26859377699614329 0.4811575177290362 0 -0.2467553297522557 0.48147402383551691 0 -0.25080144613104921 0.5 0 -0.26859377699614329 0.4811575177290362 0 -0.27705851983630159 0.5 0 -0.25438198006151169 0.46464464965965441 0 -0.26859377699614329 0.4811575177290362 0 -0.2467553297522557 0.48147402383551691 0 -0.27329055326553048 0.45854910325768988 0 -0.26859377699614329 0.4811575177290362 0 -0.28858619761816889 0.47377087817814589 0 -0.26859377699614329 0.4811575177290362 0 -0.27705851983630159 0.5 0 -0.28830299895955541 0.48893487857068268 0 -0.27705851983630159 0.5 0 -0.28830299895955541 0.48893487857068268 0 -0.30331559354155391 0.49999999999999939 0 -0.26859377699614329 0.4811575177290362 0 -0.28830299895955541 0.48893487857068268 0 -0.28858619761816889 0.47377087817814589 0 -0.28830299895955541 0.48893487857068268 0 -0.28858619761816889 0.47377087817814589 0 -0.30388184197080759 0.48899265309860168 0 -0.28858619761816889 0.47377087817814589 0 -0.30388184197080759 0.48899265309860168 0 -0.30512100021830008 0.46490456032657962 0 -0.30388184197080759 0.48899265309860168 0 -0.30512100021830008 0.46490456032657962 0 -0.30388184197080759 0.48899265309860168 0 -0.31654611508668351 0.48621885406126381 0 -0.30512100021830008 0.46490456032657962 0 -0.28858619761816889 0.47377087817814589 0 -0.30388184197080759 0.48899265309860168 0 -0.30331559354155391 0.49999999999999939 0 -0.30388184197080759 0.48899265309860168 0 -0.28830299895955541 0.48893487857068268 0 -0.30331559354155391 0.49999999999999939 0 -0.30388184197080759 0.48899265309860168 0 -0.30388184197080759 0.48899265309860168 0 -0.31494260619507058 0.500000000000002 0 -0.31654611508668351 0.48621885406126381 0 -0.30331559354155391 0.49999999999999939 0 -0.30388184197080759 0.48899265309860168 0 -0.31494260619507058 0.500000000000002 0 -0.30388184197080759 0.48899265309860168 0 -0.31494260619507058 0.500000000000002 0 -0.31654611508668351 0.48621885406126381 0 -0.33275791060477139 0.5 0 -0.32602721644446891 0.47719705688113462 0 -0.31494260619507058 0.500000000000002 0 -0.31654611508668351 0.48621885406126381 0 -0.33275791060477139 0.5 0 -0.33275791060477139 0.5 0 -0.34200011506365208 0.48331572161184322 0 -0.32602721644446891 0.47719705688113462 0 -0.33275791060477139 0.5 0 -0.34200011506365208 0.48331572161184322 0 -0.35057321501447208 0.49999999999999872 0 -0.34200011506365208 0.48331572161184322 0 -0.32602721644446891 0.47719705688113462 0 -0.33593075250063148 0.46750731867274542 0 -0.34200011506365208 0.48331572161184322 0 -0.33593075250063148 0.46750731867274542 0 -0.35201810675435108 0.4676562019538536 0 -0.30512100021830008 0.46490456032657962 0 -0.31654611508668351 0.48621885406126381 0 -0.32602721644446891 0.47719705688113462 0 -0.30512100021830008 0.46490456032657962 0 -0.32602721644446891 0.47719705688113462 0 -0.32381548421637429 0.45642326981327008 0 -0.30636015846579262 0.44081646755455739 0 -0.32381548421637429 0.45642326981327008 0 -0.32304151796324199 0.43794530689545591 0 -0.32381548421637429 0.45642326981327008 0 -0.32304151796324199 0.43794530689545591 0 -0.34355933144160938 0.44471966407244162 0 -0.32381548421637429 0.45642326981327008 0 -0.34355933144160938 0.44471966407244162 0 -0.33593075250063148 0.46750731867274542 0 -0.32602721644446891 0.47719705688113462 0 -0.32381548421637429 0.45642326981327008 0 -0.33593075250063148 0.46750731867274542 0 -0.35201810675435108 0.4676562019538536 0 -0.36028404822733179 0.44939908513577981 0 -0.36566353784044697 0.46257036423753561 0 -0.34355933144160938 0.44471966407244162 0 -0.35201810675435108 0.4676562019538536 0 -0.36028404822733179 0.44939908513577981 0 -0.34355933144160938 0.44471966407244162 0 -0.33593075250063148 0.46750731867274542 0 -0.35201810675435108 0.4676562019538536 0 -0.36778315087773072 0.43214877602771662 0 -0.34355933144160938 0.44471966407244162 0 -0.36028404822733179 0.44939908513577981 0 -0.36778315087773072 0.43214877602771662 0 -0.36028404822733179 0.44939908513577981 0 -0.37376195539900242 0.45249759326054367 0 -0.37701653082709469 0.46900635458093531 0 -0.37376195539900242 0.45249759326054367 0 -0.36566353784044697 0.46257036423753561 0 -0.36028404822733179 0.44939908513577981 0 -0.37376195539900242 0.45249759326054367 0 -0.36566353784044697 0.46257036423753561 0 -0.36552159823955549 0.47691699748014749 0 -0.37220834978290879 0.49000150617251997 0 -0.35595833756876799 0.48470827593500232 0 -0.37701653082709469 0.46900635458093531 0 -0.36566353784044697 0.46257036423753561 0 -0.36552159823955549 0.47691699748014749 0 -0.37805640255927542 0.47903421333972468 0 -0.37701653082709469 0.46900635458093531 0 -0.36552159823955549 0.47691699748014749 0 -0.35201810675435108 0.4676562019538536 0 -0.36566353784044697 0.46257036423753561 0 -0.36552159823955549 0.47691699748014749 0 -0.37805640255927542 0.47903421333972468 0 -0.36552159823955549 0.47691699748014749 0 -0.37220834978290879 0.49000150617251997 0 -0.37220834978290879 0.49000150617251997 0 -0.35057321501447208 0.49999999999999872 0 -0.35595833756876799 0.48470827593500232 0 -0.37789332191386737 0.5 0 -0.37220834978290879 0.49000150617251997 0 -0.35057321501447208 0.49999999999999872 0 -0.37220834978290879 0.49000150617251997 0 -0.35057321501447208 0.49999999999999872 0 -0.34200011506365208 0.48331572161184322 0 -0.35057321501447208 0.49999999999999872 0 -0.35595833756876799 0.48470827593500232 0 -0.34200011506365208 0.48331572161184322 0 -0.35201810675435108 0.4676562019538536 0 -0.35595833756876799 0.48470827593500232 0 -0.35201810675435108 0.4676562019538536 0 -0.36552159823955549 0.47691699748014749 0 -0.35595833756876799 0.48470827593500232 0 -0.142080771754234 0.48212662116497451 0 -0.14744519938683801 0.47523243684594829 0 -0.1380962150490555 0.47248515407185221 0 -0.142080771754234 0.48212662116497451 0 -0.14744519938683801 0.47523243684594829 0 -0.15313912830386001 0.48632871978955722 0 -0.14744519938683801 0.47523243684594829 0 -0.1380962150490555 0.47248515407185221 0 -0.1446941887002707 0.46454185114692792 0 -0.14744519938683801 0.47523243684594829 0 -0.1446941887002707 0.46454185114692792 0 -0.15815775643206659 0.473198332503178 0 -0.14744519938683801 0.47523243684594829 0 -0.15313912830386001 0.48632871978955722 0 -0.15815775643206659 0.473198332503178 0 -0.142080771754234 0.48212662116497451 0 -0.15313912830386001 0.48632871978955722 0 -0.13803845513632401 0.5 0 -0.15313912830386001 0.48632871978955722 0 -0.13803845513632401 0.5 0 -0.1663114266205577 0.50000000000000011 0 -0.142080771754234 0.48212662116497451 0 -0.13803845513632401 0.5 0 -0.12908554574303099 0.47755934496718438 0 -0.13803845513632401 0.5 0 -0.12908554574303099 0.47755934496718438 0 -0.1160402402672886 0.48503019582547341 0 -0.142080771754234 0.48212662116497451 0 -0.12908554574303099 0.47755934496718438 0 -0.1380962150490555 0.47248515407185221 0 -0.12908554574303099 0.47755934496718438 0 -0.1380962150490555 0.47248515407185221 0 -0.13097929143795109 0.46459511115351071 0 -0.12908554574303099 0.47755934496718438 0 -0.13097929143795109 0.46459511115351071 0 -0.1176294132596279 0.46872710166108278 0 -0.13097929143795109 0.46459511115351071 0 -0.1351896940807357 0.45304119368279389 0 -0.1204057133641486 0.45504160574272429 0 -0.13097929143795109 0.46459511115351071 0 -0.1351896940807357 0.45304119368279389 0 -0.1446941887002707 0.46454185114692792 0 -0.1380962150490555 0.47248515407185221 0 -0.13097929143795109 0.46459511115351071 0 -0.1446941887002707 0.46454185114692792 0 -0.1351896940807357 0.45304119368279389 0 -0.13889501351409689 0.43598263237980822 0 -0.1242648033483075 0.43981492828754482 0 -0.1351896940807357 0.45304119368279389 0 -0.1242648033483075 0.43981492828754482 0 -0.1204057133641486 0.45504160574272429 0 -0.15017718620881049 0.45777983735391498 0 -0.13889501351409689 0.43598263237980822 0 -0.1351896940807357 0.45304119368279389 0 -0.15017718620881049 0.45777983735391498 0 -0.13889501351409689 0.43598263237980822 0 -0.15995177900170021 0.44572512983606088 0 -0.15376963845050121 0.4328235067909087 0 -0.13889501351409689 0.43598263237980822 0 -0.15017718620881049 0.45777983735391498 0 -0.15995177900170021 0.44572512983606088 0 -0.13889501351409689 0.43598263237980822 0 -0.15017718620881049 0.45777983735391498 0 -0.15995177900170021 0.44572512983606088 0 -0.1446941887002707 0.46454185114692792 0 -0.15017718620881049 0.45777983735391498 0 -0.1351896940807357 0.45304119368279389 0 -0.1446941887002707 0.46454185114692792 0 -0.15017718620881049 0.45777983735391498 0 -0.1446941887002707 0.46454185114692792 0 -0.15017718620881049 0.45777983735391498 0 -0.15815775643206659 0.473198332503178 0 -0.15017718620881049 0.45777983735391498 0 -0.15868634814382429 0.46531473325554851 0 -0.15815775643206659 0.473198332503178 0 -0.15017718620881049 0.45777983735391498 0 -0.15815775643206659 0.473198332503178 0 -0.160558198289461 0.46047642425523388 0 -0.1655661766345953 0.45099185016729298 0 -0.16585225164495951 0.46980433890986678 0 -0.1655661766345953 0.45099185016729298 0 -0.17867327812258871 0.46114583139567922 0 -0.16585225164495951 0.46980433890986678 0 -0.1655661766345953 0.45099185016729298 0 -0.16585225164495951 0.46980433890986678 0 -0.15868634814382429 0.46531473325554851 0 -0.160558198289461 0.46047642425523388 0 -0.16585225164495951 0.46980433890986678 0 -0.15017718620881049 0.45777983735391498 0 -0.15868634814382429 0.46531473325554851 0 -0.160558198289461 0.46047642425523388 0 -0.15017718620881049 0.45777983735391498 0 -0.160558198289461 0.46047642425523388 0 -0.15995177900170021 0.44572512983606088 0 -0.15995177900170021 0.44572512983606088 0 -0.1655661766345953 0.45099185016729298 0 -0.1697263717945888 0.43367042231820602 0 -0.160558198289461 0.46047642425523388 0 -0.15995177900170021 0.44572512983606088 0 -0.1655661766345953 0.45099185016729298 0 -0.15995177900170021 0.44572512983606088 0 -0.1697263717945888 0.43367042231820602 0 -0.1655661766345953 0.45099185016729298 0 -0.1926513277646352 0.45119866261047992 0 -0.1697263717945888 0.43367042231820602 0 -0.1926513277646352 0.45119866261047992 0 -0.1697263717945888 0.43367042231820602 0 -0.1926513277646352 0.45119866261047992 0 -0.18693863061853061 0.43491447939059907 0 -0.1697263717945888 0.43367042231820602 0 -0.1655661766345953 0.45099185016729298 0 -0.17867327812258871 0.46114583139567922 0 -0.1926513277646352 0.45119866261047992 0 -0.17867327812258871 0.46114583139567922 0 -0.17876854714149509 0.47093865696285842 0 -0.16585225164495951 0.46980433890986678 0 -0.17867327812258871 0.46114583139567922 0 -0.1899884502156329 0.46461586120334353 0 -0.1926513277646352 0.45119866261047992 0 -0.17867327812258871 0.46114583139567922 0 -0.17876854714149509 0.47093865696285842 0 -0.1899884502156329 0.46461586120334353 0 -0.17876854714149509 0.47093865696285842 0 -0.19138341924764241 0.47827032896460842 0 -0.1899884502156329 0.46461586120334353 0 -0.1757986315986971 0.48088398659212228 0 -0.17876854714149509 0.47093865696285842 0 -0.19138341924764241 0.47827032896460842 0 -0.1757986315986971 0.48088398659212228 0 -0.17876854714149509 0.47093865696285842 0 -0.16585225164495951 0.46980433890986678 0 -0.16585225164495951 0.46980433890986678 0 -0.16613832665532341 0.48861682765244069 0 -0.16585225164495951 0.46980433890986678 0 -0.15815775643206659 0.473198332503178 0 -0.16613832665532341 0.48861682765244069 0 -0.1757986315986971 0.48088398659212228 0 -0.16585225164495951 0.46980433890986678 0 -0.16613832665532341 0.48861682765244069 0 -0.15313912830386001 0.48632871978955722 0 -0.15815775643206659 0.473198332503178 0 -0.16613832665532341 0.48861682765244069 0 -0.15815775643206659 0.473198332503178 0 -0.16613832665532341 0.48861682765244069 0 -0.15868634814382429 0.46531473325554851 0 -0.16585225164495951 0.46980433890986678 0 -0.15815775643206659 0.473198332503178 0 -0.15313912830386001 0.48632871978955722 0 -0.16613832665532341 0.48861682765244069 0 -0.1663114266205577 0.50000000000000011 0 -0.16613832665532341 0.48861682765244069 0 -0.1720302250152923 0.50000000000000022 0 -0.16613832665532341 0.48861682765244069 0 -0.1663114266205577 0.50000000000000011 0 -0.1720302250152923 0.50000000000000022 0 -0.16613832665532341 0.48861682765244069 0 -0.1663114266205577 0.50000000000000011 0 -0.16613832665532341 0.48861682765244069 0 -0.17430115969348189 0.49501483184612438 0 -0.1720302250152923 0.50000000000000022 0 -0.17430115969348189 0.49501483184612438 0 -0.1720302250152923 0.50000000000000022 0 -0.1982872987205446 0.5 0 -0.1757986315986971 0.48088398659212228 0 -0.17430115969348189 0.49501483184612438 0 -0.19138341924764241 0.47827032896460842 0 -0.17430115969348189 0.49501483184612438 0 -0.19138341924764241 0.47827032896460842 0 -0.1757986315986971 0.48088398659212228 0 -0.16613832665532341 0.48861682765244069 0 -0.17430115969348189 0.49501483184612438 0 -0.17430115969348189 0.49501483184612438 0 -0.1982872987205446 0.5 0 -0.19138341924764241 0.47827032896460842 0 -0.1982872987205446 0.5 0 -0.19138341924764241 0.47827032896460842 0 -0.21217809917650449 0.48030286392854288 0 -0.19138341924764241 0.47827032896460842 0 -0.208465678801803 0.46152582608309223 0 -0.19138341924764241 0.47827032896460842 0 -0.21217809917650449 0.48030286392854288 0 -0.208465678801803 0.46152582608309223 0 -0.1982872987205446 0.5 0 -0.21217809917650449 0.48030286392854288 0 -0.22454437242579681 0.5 0 -0.22454437242579681 0.5 0 -0.2288960980978284 0.47674808914996208 0 -0.2467553297522557 0.48147402383551691 0 -0.21217809917650449 0.48030286392854288 0 -0.22454437242579681 0.5 0 -0.2288960980978284 0.47674808914996208 0 -0.21217809917650449 0.48030286392854288 0 -0.2288960980978284 0.47674808914996208 0 -0.22325063631842021 0.46203708915627778 0 -0.25438198006151169 0.46464464965965441 0 -0.2467553297522557 0.48147402383551691 0 -0.2372897108761052 0.46028528898629889 0 -0.2288960980978284 0.47674808914996208 0 -0.2467553297522557 0.48147402383551691 0 -0.2372897108761052 0.46028528898629889 0 -0.25080144613104921 0.5 0 -0.22454437242579681 0.5 0 -0.2467553297522557 0.48147402383551691 0 -0.24356894722331929 0.44821508210096461 0 -0.22554793835596351 0.44478132320157598 0 -0.24263019791012411 0.42803682032005991 0 -0.24356894722331929 0.44821508210096461 0 -0.2372897108761052 0.46028528898629889 0 -0.22554793835596351 0.44478132320157598 0 -0.25799490891289278 0.4433273283372331 0 -0.24356894722331929 0.44821508210096461 0 -0.24263019791012411 0.42803682032005991 0 -0.25438198006151169 0.46464464965965441 0 -0.24356894722331929 0.44821508210096461 0 -0.2372897108761052 0.46028528898629889 0 -0.2288960980978284 0.47674808914996208 0 -0.2372897108761052 0.46028528898629889 0 -0.22325063631842021 0.46203708915627778 0 -0.2372897108761052 0.46028528898629889 0 -0.22325063631842021 0.46203708915627778 0 -0.22554793835596351 0.44478132320157598 0 -0.22325063631842021 0.46203708915627778 0 -0.22554793835596351 0.44478132320157598 0 -0.208465678801803 0.46152582608309223 0 -0.22554793835596351 0.44478132320157598 0 -0.20785557032720109 0.44518798724498809 0 -0.21437917226951189 0.43588067273166847 0 -0.22554793835596351 0.44478132320157598 0 -0.20785557032720109 0.44518798724498809 0 -0.208465678801803 0.46152582608309223 0 -0.22554793835596351 0.44478132320157598 0 -0.208465678801803 0.46152582608309223 0 -0.21217809917650449 0.48030286392854288 0 -0.22325063631842021 0.46203708915627778 0 -0.208465678801803 0.46152582608309223 0 -0.19138341924764241 0.47827032896460842 0 -0.208465678801803 0.46152582608309223 0 -0.1899884502156329 0.46461586120334353 0 -0.208465678801803 0.46152582608309223 0 -0.1899884502156329 0.46461586120334353 0 -0.1926513277646352 0.45119866261047992 0 -0.20785557032720109 0.44518798724498809 0 -0.1926513277646352 0.45119866261047992 0 -0.18693863061853061 0.43491447939059907 0 -0.20785557032720109 0.44518798724498809 0 -0.208465678801803 0.46152582608309223 0 -0.1926513277646352 0.45119866261047992 0 -0.19176926968858449 0.42488004754311998 0 -0.20430089696141959 0.42856004989685992 0 -0.18693863061853061 0.43491447939059907 0 -0.20785557032720109 0.44518798724498809 0 -0.20430089696141959 0.42856004989685992 0 -0.18693863061853061 0.43491447939059907 0 -0.19176926968858449 0.42488004754311998 0 -0.19667758679306771 0.41738623802377928 0 -0.20430089696141959 0.42856004989685992 0 -0.19667758679306771 0.41738623802377928 0 -0.19460267291041519 0.40299123798476227 0 -0.182164522352502 0.41833083015148409 0 -0.19460267291041519 0.40299123798476227 0 -0.182164522352502 0.41833083015148409 0 -0.19176926968858449 0.42488004754311998 0 -0.19667758679306771 0.41738623802377928 0 -0.182164522352502 0.41833083015148409 0 -0.19667758679306771 0.41738623802377928 0 -0.2074030129404133 0.4163894186605448 0 -0.20430089696141959 0.42856004989685992 0 -0.19667758679306771 0.41738623802377928 0 -0.2074030129404133 0.4163894186605448 0 -0.19460267291041519 0.40299123798476227 0 -0.2074030129404133 0.4163894186605448 0 -0.21981228343346321 0.42499333058324978 0 -0.22162162460370111 0.40801623681407218 0 -0.2074030129404133 0.4163894186605448 0 -0.22162162460370111 0.40801623681407218 0 -0.19460267291041519 0.40299123798476227 0 -0.20785557032720109 0.44518798724498809 0 -0.20430089696141959 0.42856004989685992 0 -0.21437917226951189 0.43588067273166847 0 -0.2074030129404133 0.4163894186605448 0 -0.20430089696141959 0.42856004989685992 0 -0.21981228343346321 0.42499333058324978 0 -0.20430089696141959 0.42856004989685992 0 -0.21437917226951189 0.43588067273166847 0 -0.21981228343346321 0.42499333058324978 0 -0.22554793835596351 0.44478132320157598 0 -0.24263019791012411 0.42803682032005991 0 -0.22554793835596351 0.44478132320157598 0 -0.2313941741476824 0.42795323546389102 0 -0.24263019791012411 0.42803682032005991 0 -0.22554793835596351 0.44478132320157598 0 -0.21437917226951189 0.43588067273166847 0 -0.21981228343346321 0.42499333058324978 0 -0.22554793835596351 0.44478132320157598 0 -0.2313941741476824 0.42795323546389102 0 -0.21981228343346321 0.42499333058324978 0 -0.2313941741476824 0.42795323546389102 0 -0.21981228343346321 0.42499333058324978 0 -0.2301621318308705 0.41771135234831969 0 -0.2313941741476824 0.42795323546389102 0 -0.2301621318308705 0.41771135234831969 0 -0.23881831920799079 0.42424335086624981 0 -0.21981228343346321 0.42499333058324978 0 -0.22162162460370111 0.40801623681407218 0 -0.2301621318308705 0.41771135234831969 0 -0.22162162460370111 0.40801623681407218 0 -0.2301621318308705 0.41771135234831969 0 -0.241034552697166 0.41286836770778501 0 -0.25157066981256843 0.40894445920752592 0 -0.241034552697166 0.41286836770778501 0 -0.24263019791012411 0.42803682032005991 0 -0.241034552697166 0.41286836770778501 0 -0.24263019791012411 0.42803682032005991 0 -0.23881831920799079 0.42424335086624981 0 -0.22162162460370111 0.40801623681407218 0 -0.241034552697166 0.41286836770778501 0 -0.24388213391773941 0.40163479241199579 0 -0.2301621318308705 0.41771135234831969 0 -0.241034552697166 0.41286836770778501 0 -0.23881831920799079 0.42424335086624981 0 -0.25157066981256843 0.40894445920752592 0 -0.241034552697166 0.41286836770778501 0 -0.24388213391773941 0.40163479241199579 0 -0.2313941741476824 0.42795323546389102 0 -0.24263019791012411 0.42803682032005991 0 -0.23881831920799079 0.42424335086624981 0 -0.24263019791012411 0.42803682032005991 0 -0.23881831920799079 0.42424335086624981 0 -0.25453646971320443 0.37462232419521813 0 -0.24781733580734391 0.38604582424895789 0 -0.23735930512057779 0.37349779701461089 0 -0.2365264908337599 0.38834162546439549 0 -0.24781733580734391 0.38604582424895789 0 -0.23735930512057779 0.37349779701461089 0 -0.2365264908337599 0.38834162546439549 0 -0.24781733580734391 0.38604582424895789 0 -0.24388213391773941 0.40163479241199579 0 -0.22162162460370111 0.40801623681407218 0 -0.24388213391773941 0.40163479241199579 0 -0.22162162460370111 0.40801623681407218 0 -0.2365264908337599 0.38834162546439549 0 -0.2225569648072106 0.38059728391652659 0 -0.22162162460370111 0.40801623681407218 0 -0.2365264908337599 0.38834162546439549 0 -0.24388213391773941 0.40163479241199579 0 -0.2365264908337599 0.38834162546439549 0 -0.2225569648072106 0.38059728391652659 0 -0.23735930512057779 0.37349779701461089 0 -0.2225569648072106 0.38059728391652659 0 -0.20545957084956781 0.38789926664213359 0 -0.1994770785436861 0.36691897370504389 0 -0.22162162460370111 0.40801623681407218 0 -0.2225569648072106 0.38059728391652659 0 -0.20545957084956781 0.38789926664213359 0 -0.22162162460370111 0.40801623681407218 0 -0.20545957084956781 0.38789926664213359 0 -0.19460267291041519 0.40299123798476227 0 -0.20545957084956781 0.38789926664213359 0 -0.19460267291041519 0.40299123798476227 0 -0.18736095772118591 0.3836472042370111 0 -0.20545957084956781 0.38789926664213359 0 -0.18736095772118591 0.3836472042370111 0 -0.1994770785436861 0.36691897370504389 0 -0.18736095772118591 0.3836472042370111 0 -0.16248792359233191 0.38534127627451031 0 -0.17644948136236779 0.3976803029940168 0 -0.18736095772118591 0.3836472042370111 0 -0.16248792359233191 0.38534127627451031 0 -0.1741500565645078 0.37123080613525078 0 -0.16248792359233191 0.38534127627451031 0 -0.16330635783110381 0.4038062271485704 0 -0.14438589058212131 0.3948348353259919 0 -0.16248792359233191 0.38534127627451031 0 -0.16330635783110381 0.4038062271485704 0 -0.17644948136236779 0.3976803029940168 0 -0.19460267291041519 0.40299123798476227 0 -0.17644948136236779 0.3976803029940168 0 -0.17778078602166139 0.40821888849324761 0 -0.19460267291041519 0.40299123798476227 0 -0.18736095772118591 0.3836472042370111 0 -0.17644948136236779 0.3976803029940168 0 -0.16330635783110381 0.4038062271485704 0 -0.17644948136236779 0.3976803029940168 0 -0.17778078602166139 0.40821888849324761 0 -0.19460267291041519 0.40299123798476227 0 -0.182164522352502 0.41833083015148409 0 -0.17778078602166139 0.40821888849324761 0 -0.182164522352502 0.41833083015148409 0 -0.1723808956519178 0.41828584418740389 0 -0.17778078602166139 0.40821888849324761 0 -0.19176926968858449 0.42488004754311998 0 -0.182164522352502 0.41833083015148409 0 -0.18693863061853061 0.43491447939059907 0 -0.182164522352502 0.41833083015148409 0 -0.18693863061853061 0.43491447939059907 0 -0.1697263717945888 0.43367042231820602 0 -0.182164522352502 0.41833083015148409 0 -0.1697263717945888 0.43367042231820602 0 -0.182164522352502 0.41833083015148409 0 -0.1723808956519178 0.41828584418740389 0 -0.1697263717945888 0.43367042231820602 0 -0.15995177900170021 0.44572512983606088 0 -0.1697263717945888 0.43367042231820602 0 -0.15376963845050121 0.4328235067909087 0 -0.1697263717945888 0.43367042231820602 0 -0.14650538949161929 0.41591584262955861 0 -0.15376963845050121 0.4328235067909087 0 -0.1697263717945888 0.43367042231820602 0 -0.14650538949161929 0.41591584262955861 0 -0.1723808956519178 0.41828584418740389 0 -0.1697263717945888 0.43367042231820602 0 -0.14650538949161929 0.41591584262955861 0 -0.1723808956519178 0.41828584418740389 0 -0.14650538949161929 0.41591584262955861 0 -0.16330635783110381 0.4038062271485704 0 -0.1723808956519178 0.41828584418740389 0 -0.14650538949161929 0.41591584262955861 0 -0.16330635783110381 0.4038062271485704 0 -0.1723808956519178 0.41828584418740389 0 -0.17778078602166139 0.40821888849324761 0 -0.14650538949161929 0.41591584262955861 0 -0.15376963845050121 0.4328235067909087 0 -0.13889501351409689 0.43598263237980822 0 -0.13889501351409689 0.43598263237980822 0 -0.12761284081938409 0.41418542740570108 0 -0.14650538949161929 0.41591584262955861 0 -0.13889501351409689 0.43598263237980822 0 -0.12761284081938409 0.41418542740570108 0 -0.13889501351409689 0.43598263237980822 0 -0.12761284081938409 0.41418542740570108 0 -0.1242648033483075 0.43981492828754482 0 -0.14650538949161929 0.41591584262955861 0 -0.12761284081938409 0.41418542740570108 0 -0.12644786621320531 0.40058001872868543 0 -0.14650538949161929 0.41591584262955861 0 -0.12644786621320531 0.40058001872868543 0 -0.14650538949161929 0.41591584262955861 0 -0.12761284081938409 0.41418542740570108 0 -0.14650538949161929 0.41591584262955861 0 -0.12644786621320531 0.40058001872868543 0 -0.14438589058212131 0.3948348353259919 0 -0.12644786621320531 0.40058001872868543 0 -0.12826940643264259 0.38638828685515292 0 -0.14438589058212131 0.3948348353259919 0 -0.1399268433138337 0.37661104245066729 0 -0.12826940643264259 0.38638828685515292 0 -0.1198206075896991 0.37069234566290138 0 -0.1399268433138337 0.37661104245066729 0 -0.12826940643264259 0.38638828685515292 0 -0.14438589058212131 0.3948348353259919 0 -0.16248792359233191 0.38534127627451031 0 -0.1399268433138337 0.37661104245066729 0 -0.1571746455416145 0.36408416689185819 0 -0.16248792359233191 0.38534127627451031 0 -0.1399268433138337 0.37661104245066729 0 -0.14438589058212131 0.3948348353259919 0 -0.16330635783110381 0.4038062271485704 0 -0.14650538949161929 0.41591584262955861 0 -0.14438589058212131 0.3948348353259919 0 -0.1367685514822152 0.35851885971508118 0 -0.13367478836053351 0.33932016938713638 0 -0.15331730601663701 0.3395623532820784 0 -0.1367685514822152 0.35851885971508118 0 -0.15331730601663701 0.3395623532820784 0 -0.1571746455416145 0.36408416689185819 0 -0.1399268433138337 0.37661104245066729 0 -0.1367685514822152 0.35851885971508118 0 -0.1571746455416145 0.36408416689185819 0 -0.1399268433138337 0.37661104245066729 0 -0.1367685514822152 0.35851885971508118 0 -0.1198206075896991 0.37069234566290138 0 -0.1367685514822152 0.35851885971508118 0 -0.13367478836053351 0.33932016938713638 0 -0.1173066256070304 0.35104950557859033 0 -0.13367478836053351 0.33932016938713638 0 -0.1262409447270301 0.3211703831111522 0 -0.1175879007316586 0.33497855513245622 0 -0.13367478836053351 0.33932016938713638 0 -0.1262409447270301 0.3211703831111522 0 -0.14995133854557879 0.31573290008088639 0 -0.1262409447270301 0.3211703831111522 0 -0.14995133854557879 0.31573290008088639 0 -0.13170636281121431 0.30540396541675668 0 -0.13367478836053351 0.33932016938713638 0 -0.14995133854557879 0.31573290008088639 0 -0.15331730601663701 0.3395623532820784 0 -0.15331730601663701 0.3395623532820784 0 -0.17079439025487569 0.32494122108339912 0 -0.1763971922801616 0.3532406634935612 0 -0.14995133854557879 0.31573290008088639 0 -0.17079439025487569 0.32494122108339912 0 -0.167164841548782 0.29891422322321631 0 -0.14995133854557879 0.31573290008088639 0 -0.15331730601663701 0.3395623532820784 0 -0.17079439025487569 0.32494122108339912 0 -0.17079439025487569 0.32494122108339912 0 -0.19256976679114979 0.33165381796875049 0 -0.19699128312530151 0.30504565645142051 0 -0.17079439025487569 0.32494122108339912 0 -0.1763971922801616 0.3532406634935612 0 -0.19256976679114979 0.33165381796875049 0 -0.15331730601663701 0.3395623532820784 0 -0.1763971922801616 0.3532406634935612 0 -0.1571746455416145 0.36408416689185819 0 -0.15331730601663701 0.3395623532820784 0 -0.1763971922801616 0.3532406634935612 0 -0.1763971922801616 0.3532406634935612 0 -0.1571746455416145 0.36408416689185819 0 -0.1741500565645078 0.37123080613525078 0 -0.16248792359233191 0.38534127627451031 0 -0.1571746455416145 0.36408416689185819 0 -0.1741500565645078 0.37123080613525078 0 -0.18736095772118591 0.3836472042370111 0 -0.1741500565645078 0.37123080613525078 0 -0.1994770785436861 0.36691897370504389 0 -0.1763971922801616 0.3532406634935612 0 -0.1741500565645078 0.37123080613525078 0 -0.1994770785436861 0.36691897370504389 0 -0.1763971922801616 0.3532406634935612 0 -0.1994770785436861 0.36691897370504389 0 -0.1763971922801616 0.3532406634935612 0 -0.20127160642404629 0.34878804965207372 0 -0.19256976679114979 0.33165381796875049 0 -0.1763971922801616 0.3532406634935612 0 -0.1994770785436861 0.36691897370504389 0 -0.20127160642404629 0.34878804965207372 0 -0.1994770785436861 0.36691897370504389 0 -0.20127160642404629 0.34878804965207372 0 -0.22480168799342179 0.35512276170724633 0 -0.20127160642404629 0.34878804965207372 0 -0.22480168799342179 0.35512276170724633 0 -0.2131123065118124 0.33700403138576668 0 -0.2225569648072106 0.38059728391652659 0 -0.1994770785436861 0.36691897370504389 0 -0.2225569648072106 0.38059728391652659 0 -0.1994770785436861 0.36691897370504389 0 -0.22480168799342179 0.35512276170724633 0 -0.2225569648072106 0.38059728391652659 0 -0.22480168799342179 0.35512276170724633 0 -0.23735930512057779 0.37349779701461089 0 -0.25368472498167011 0.34420349485172652 0 -0.22480168799342179 0.35512276170724633 0 -0.24822911175635759 0.36217347122335058 0 -0.22480168799342179 0.35512276170724633 0 -0.24822911175635759 0.36217347122335058 0 -0.23735930512057779 0.37349779701461089 0 -0.25453646971320443 0.37462232419521813 0 -0.24822911175635759 0.36217347122335058 0 -0.23735930512057779 0.37349779701461089 0 -0.25757488899104952 0.31786411623381933 0 -0.23478691102954721 0.33115088205162452 0 -0.2366570207200871 0.30010935915934539 0 -0.25368472498167011 0.34420349485172652 0 -0.22480168799342179 0.35512276170724633 0 -0.23478691102954721 0.33115088205162452 0 -0.25368472498167011 0.34420349485172652 0 -0.23478691102954721 0.33115088205162452 0 -0.25757488899104952 0.31786411623381933 0 -0.25368472498167011 0.34420349485172652 0 -0.23478691102954721 0.33115088205162452 0 -0.23478691102954721 0.33115088205162452 0 -0.2158890970774244 0.31809826925152251 0 -0.2131123065118124 0.33700403138576668 0 -0.22480168799342179 0.35512276170724633 0 -0.23478691102954721 0.33115088205162452 0 -0.2131123065118124 0.33700403138576668 0 -0.23478691102954721 0.33115088205162452 0 -0.2158890970774244 0.31809826925152251 0 -0.2366570207200871 0.30010935915934539 0 -0.23478691102954721 0.33115088205162452 0 -0.2158890970774244 0.31809826925152251 0 -0.2158890970774244 0.31809826925152251 0 -0.2131123065118124 0.33700403138576668 0 -0.19256976679114979 0.33165381796875049 0 -0.20127160642404629 0.34878804965207372 0 -0.2131123065118124 0.33700403138576668 0 -0.19256976679114979 0.33165381796875049 0 -0.2158890970774244 0.31809826925152251 0 -0.19256976679114979 0.33165381796875049 0 -0.19699128312530151 0.30504565645142051 0 -0.19699128312530151 0.30504565645142051 0 -0.2044220976180971 0.2747921468301005 0 -0.18537993383704029 0.28397978744787411 0 -0.19699128312530151 0.30504565645142051 0 -0.21636901433909059 0.29447561219915308 0 -0.2044220976180971 0.2747921468301005 0 -0.2158890970774244 0.31809826925152251 0 -0.19699128312530151 0.30504565645142051 0 -0.21636901433909059 0.29447561219915308 0 -0.2158890970774244 0.31809826925152251 0 -0.19699128312530151 0.30504565645142051 0 -0.2158890970774244 0.31809826925152251 0 -0.21636901433909059 0.29447561219915308 0 -0.2366570207200871 0.30010935915934539 0 -0.21636901433909059 0.29447561219915308 0 -0.2366570207200871 0.30010935915934539 0 -0.2235041758045673 0.27405874977876837 0 -0.26277913973510902 0.29023342414179659 0 -0.2366570207200871 0.30010935915934539 0 -0.2447247674615598 0.2718938593685879 0 -0.2366570207200871 0.30010935915934539 0 -0.2447247674615598 0.2718938593685879 0 -0.2235041758045673 0.27405874977876837 0 -0.25693865295534157 0.25278860643768353 0 -0.2416444700809012 0.25186566196455601 0 -0.2447247674615598 0.2718938593685879 0 -0.2416444700809012 0.25186566196455601 0 -0.2447247674615598 0.2718938593685879 0 -0.22667039518801041 0.25355429459537898 0 -0.2447247674615598 0.2718938593685879 0 -0.22667039518801041 0.25355429459537898 0 -0.2447247674615598 0.2718938593685879 0 -0.2235041758045673 0.27405874977876837 0 -0.22667039518801041 0.25355429459537898 0 -0.2235041758045673 0.27405874977876837 0 -0.22667039518801041 0.25355429459537898 0 -0.21218175950055909 0.24952722652004439 0 -0.2044220976180971 0.2747921468301005 0 -0.1929026130837673 0.25762258695206858 0 -0.21218175950055909 0.24952722652004439 0 -0.2044220976180971 0.2747921468301005 0 -0.21218175950055909 0.24952722652004439 0 -0.2235041758045673 0.27405874977876837 0 -0.2044220976180971 0.2747921468301005 0 -0.21218175950055909 0.24952722652004439 0 -0.21636901433909059 0.29447561219915308 0 -0.2235041758045673 0.27405874977876837 0 -0.2044220976180971 0.2747921468301005 0 -0.2044220976180971 0.2747921468301005 0 -0.1929026130837673 0.25762258695206858 0 -0.18537993383704029 0.28397978744787411 0 -0.1929026130837673 0.25762258695206858 0 -0.16582228118094081 0.26466105519565358 0 -0.18651378479530609 0.23505073182760211 0 -0.1929026130837673 0.25762258695206858 0 -0.16582228118094081 0.26466105519565358 0 -0.18537993383704029 0.28397978744787411 0 -0.16582228118094081 0.26466105519565358 0 -0.167164841548782 0.29891422322321631 0 -0.14136362158270599 0.28508793949713551 0 -0.16582228118094081 0.26466105519565358 0 -0.18537993383704029 0.28397978744787411 0 -0.167164841548782 0.29891422322321631 0 -0.19699128312530151 0.30504565645142051 0 -0.18537993383704029 0.28397978744787411 0 -0.167164841548782 0.29891422322321631 0 -0.17079439025487569 0.32494122108339912 0 -0.19699128312530151 0.30504565645142051 0 -0.167164841548782 0.29891422322321631 0 -0.167164841548782 0.29891422322321631 0 -0.14136362158270599 0.28508793949713551 0 -0.14995133854557879 0.31573290008088639 0 -0.167164841548782 0.29891422322321631 0 -0.14136362158270599 0.28508793949713551 0 -0.14995133854557879 0.31573290008088639 0 -0.14136362158270599 0.28508793949713551 0 -0.13170636281121431 0.30540396541675668 0 -0.1262409447270301 0.3211703831111522 0 -0.13170636281121431 0.30540396541675668 0 -0.1173504618646501 0.30916380798395637 0 -0.14136362158270599 0.28508793949713551 0 -0.13170636281121431 0.30540396541675668 0 -0.1202787732923796 0.29457691953651272 0 -0.14136362158270599 0.28508793949713551 0 -0.1196693143642453 0.28329908912575552 0 -0.1202787732923796 0.29457691953651272 0 -0.14136362158270599 0.28508793949713551 0 -0.1155624016166297 0.27126165577105521 0 -0.1196693143642453 0.28329908912575552 0 -0.14136362158270599 0.28508793949713551 0 -0.1155624016166297 0.27126165577105521 0 -0.12872708527658799 0.25991420809329241 0 -0.1416417428525672 0.26777243923482702 0 -0.1155624016166297 0.27126165577105521 0 -0.14136362158270599 0.28508793949713551 0 -0.1416417428525672 0.26777243923482702 0 -0.1155624016166297 0.27126165577105521 0 -0.12872708527658799 0.25991420809329241 0 -0.14534546737678511 0.25129379472131641 0 -0.1416417428525672 0.26777243923482702 0 -0.12872708527658799 0.25991420809329241 0 -0.14534546737678511 0.25129379472131641 0 -0.12470300375741469 0.2457033751303839 0 -0.16582228118094081 0.26466105519565358 0 -0.14534546737678511 0.25129379472131641 0 -0.1416417428525672 0.26777243923482702 0 -0.16582228118094081 0.26466105519565358 0 -0.14136362158270599 0.28508793949713551 0 -0.1416417428525672 0.26777243923482702 0 -0.1083690905562489 0.27746201143443072 0 -0.10470287070229969 0.27376422074294909 0 -0.09206590757372593 0.27740472432850488 0 -0.099741497972773749 0.27068482051400677 0 -0.1098053558875477 0.27272524579145851 0 -0.092391857727521592 0.25884509119311472 0 -0.1155624016166297 0.27126165577105521 0 -0.1098053558875477 0.27272524579145851 0 -0.092391857727521592 0.25884509119311472 0 -0.099741497972773749 0.27068482051400677 0 -0.09206590757372593 0.27740472432850488 0 -0.092391857727521592 0.25884509119311472 0 -0.10470287070229969 0.27376422074294909 0 -0.099741497972773749 0.27068482051400677 0 -0.1098053558875477 0.27272524579145851 0 -0.1083690905562489 0.27746201143443072 0 -0.1098053558875477 0.27272524579145851 0 -0.1083690905562489 0.27746201143443072 0 -0.10470287070229969 0.27376422074294909 0 -0.1098053558875477 0.27272524579145851 0 -0.10470287070229969 0.27376422074294909 0 -0.099741497972773749 0.27068482051400677 0 -0.09206590757372593 0.27740472432850488 0 -0.1155624016166297 0.27126165577105521 0 -0.092391857727521592 0.25884509119311472 0 -0.11076524853809321 0.25238606884059173 0 -0.1155624016166297 0.27126165577105521 0 -0.092391857727521592 0.25884509119311472 0 -0.11076524853809321 0.25238606884059173 0 -0.1199394347971814 0.25731632695883078 0 -0.1155624016166297 0.27126165577105521 0 -0.12872708527658799 0.25991420809329241 0 -0.1199394347971814 0.25731632695883078 0 -0.12470300375741469 0.2457033751303839 0 -0.11076524853809321 0.25238606884059173 0 -0.1199394347971814 0.25731632695883078 0 -0.12470300375741469 0.2457033751303839 0 -0.12872708527658799 0.25991420809329241 0 -0.1199394347971814 0.25731632695883078 0 -0.1155624016166297 0.27126165577105521 0 -0.12872708527658799 0.25991420809329241 0 -0.1155624016166297 0.27126165577105521 0 -0.1083690905562489 0.27746201143443072 0 -0.1155624016166297 0.27126165577105521 0 -0.1196693143642453 0.28329908912575552 0 -0.1083690905562489 0.27746201143443072 0 -0.1155624016166297 0.27126165577105521 0 -0.1098053558875477 0.27272524579145851 0 -0.1083690905562489 0.27746201143443072 0 -0.1155624016166297 0.27126165577105521 0 -0.1083690905562489 0.27746201143443072 0 -0.1202787732923796 0.29457691953651272 0 -0.1003457715998239 0.30392270831765028 0 -0.1083690905562489 0.27746201143443072 0 -0.1196693143642453 0.28329908912575552 0 -0.1202787732923796 0.29457691953651272 0 -0.1202787732923796 0.29457691953651272 0 -0.1173504618646501 0.30916380798395637 0 -0.1003457715998239 0.30392270831765028 0 -0.13170636281121431 0.30540396541675668 0 -0.1202787732923796 0.29457691953651272 0 -0.1173504618646501 0.30916380798395637 0 -0.1173504618646501 0.30916380798395637 0 -0.1003457715998239 0.30392270831765028 0 -0.1081804568928026 0.32074506353771021 0 -0.1083690905562489 0.27746201143443072 0 -0.08834593029567378 0.29472120043351602 0 -0.09206590757372593 0.27740472432850488 0 -0.1083690905562489 0.27746201143443072 0 -0.1003457715998239 0.30392270831765028 0 -0.08834593029567378 0.29472120043351602 0 -0.1083690905562489 0.27746201143443072 0 -0.1003457715998239 0.30392270831765028 0 -0.1083690905562489 0.27746201143443072 0 -0.08834593029567378 0.29472120043351602 0 -0.08834593029567378 0.29472120043351602 0 -0.079344374197139078 0.28508182268507098 0 -0.09206590757372593 0.27740472432850488 0 -0.08834593029567378 0.29472120043351602 0 -0.072463929930227558 0.29930610977545041 0 -0.077617967212061698 0.29366907382828078 0 -0.08834593029567378 0.29472120043351602 0 -0.079344374197139078 0.28508182268507098 0 -0.077617967212061698 0.29366907382828078 0 -0.08834593029567378 0.29472120043351602 0 -0.087527931766016032 0.31235393694025021 0 -0.08121949171140587 0.31012908581564408 0 -0.08834593029567378 0.29472120043351602 0 -0.068322770035098762 0.31198038943260148 0 -0.1003457715998239 0.30392270831765028 0 -0.08834593029567378 0.29472120043351602 0 -0.087527931766016032 0.31235393694025021 0 -0.08834593029567378 0.29472120043351602 0 -0.08121949171140587 0.31012908581564408 0 -0.069852456288818351 0.31207980665071 0 -0.08834593029567378 0.29472120043351602 0 -0.068322770035098762 0.31198038943260148 0 -0.069852456288818351 0.31207980665071 0 -0.08834593029567378 0.29472120043351602 0 -0.072463929930227558 0.29930610977545041 0 -0.068322770035098762 0.31198038943260148 0 -0.072463929930227558 0.29930610977545041 0 -0.064179569528432873 0.29754197169583518 0 -0.063962500348327456 0.30379626580195229 0 -0.072463929930227558 0.29930610977545041 0 -0.063962500348327456 0.30379626580195229 0 -0.068322770035098762 0.31198038943260148 0 -0.068322770035098762 0.31198038943260148 0 -0.069852456288818351 0.31207980665071 0 -0.079344374197139078 0.28508182268507098 0 -0.070510141993048517 0.29225124769799787 0 -0.067485792004003509 0.28106498521306011 0 -0.079344374197139078 0.28508182268507098 0 -0.077617967212061698 0.29366907382828078 0 -0.070510141993048517 0.29225124769799787 0 -0.072463929930227558 0.29930610977545041 0 -0.077617967212061698 0.29366907382828078 0 -0.070510141993048517 0.29225124769799787 0 -0.064179569528432873 0.29754197169583518 0 -0.070510141993048517 0.29225124769799787 0 -0.059799020663136082 0.29068729405280619 0 -0.072463929930227558 0.29930610977545041 0 -0.064179569528432873 0.29754197169583518 0 -0.070510141993048517 0.29225124769799787 0 -0.070510141993048517 0.29225124769799787 0 -0.067485792004003509 0.28106498521306011 0 -0.059799020663136082 0.29068729405280619 0 -0.079344374197139078 0.28508182268507098 0 -0.077112635008727601 0.26938653581869981 0 -0.067485792004003509 0.28106498521306011 0 -0.077112635008727601 0.26938653581869981 0 -0.067485792004003509 0.28106498521306011 0 -0.060296114269721542 0.26705395206363342 0 -0.079344374197139078 0.28508182268507098 0 -0.077112635008727601 0.26938653581869981 0 -0.09206590757372593 0.27740472432850488 0 -0.077112635008727601 0.26938653581869981 0 -0.09206590757372593 0.27740472432850488 0 -0.092391857727521592 0.25884509119311472 0 -0.092391857727521592 0.25884509119311472 0 -0.069221313838413207 0.24642852661517459 0 -0.077112635008727601 0.26938653581869981 0 -0.092391857727521592 0.25884509119311472 0 -0.069221313838413207 0.24642852661517459 0 -0.077112635008727601 0.26938653581869981 0 -0.060296114269721542 0.26705395206363342 0 -0.069221313838413207 0.24642852661517459 0 -0.048126263350958612 0.25465777805589501 0 -0.060296114269721542 0.26705395206363342 0 -0.069221313838413207 0.24642852661517459 0 -0.048126263350958612 0.25465777805589501 0 -0.060296114269721542 0.26705395206363342 0 -0.041784573477856593 0.2719242686623195 0 -0.055384127889045079 0.27986410773994991 0 -0.060296114269721542 0.26705395206363342 0 -0.041784573477856593 0.2719242686623195 0 -0.055384127889045079 0.27986410773994991 0 -0.041784573477856593 0.2719242686623195 0 -0.044370237993260717 0.29032640624232281 0 -0.067485792004003509 0.28106498521306011 0 -0.055384127889045079 0.27986410773994991 0 -0.060296114269721542 0.26705395206363342 0 -0.041784573477856593 0.2719242686623195 0 -0.028053557715267439 0.25838243531431121 0 -0.02550209953536561 0.27186686885002359 0 -0.041784573477856593 0.2719242686623195 0 -0.02550209953536561 0.27186686885002359 0 -0.031040102747703489 0.28267752730564011 0 -0.048126263350958612 0.25465777805589501 0 -0.041784573477856593 0.2719242686623195 0 -0.028053557715267439 0.25838243531431121 0 -0.048126263350958612 0.25465777805589501 0 -0.028053557715267439 0.25838243531431121 0 -0.033382390283993792 0.24359412621706661 0 -0.028053557715267439 0.25838243531431121 0 -0.01504563196256534 0.26333196488375049 0 -0.01778818590069102 0.2421293126167848 0 -0.01504563196256534 0.26333196488375049 0 -0.01778818590069102 0.2421293126167848 0 -0.028053557715267439 0.25838243531431121 0 -0.02550209953536561 0.27186686885002359 0 -0.01504563196256534 0.26333196488375049 0 -0.028053557715267439 0.25838243531431121 0 -0.01504563196256534 0.26333196488375049 0 -0.02550209953536561 0.27186686885002359 0 -0.01214761008608776 0.28573653795517551 0 -0.031040102747703489 0.28267752730564011 0 -0.02550209953536561 0.27186686885002359 0 -0.01504563196256534 0.26333196488375049 0 -0.01214761008608776 0.28573653795517551 0 -0.001267499687089951 0.2776013217203892 0 -0.01504563196256534 0.26333196488375049 0 -0.01214761008608776 0.28573653795517551 0 -0.01504563196256534 0.26333196488375049 0 -0.01214761008608776 0.28573653795517551 0 -0.00067809962666212902 0.26216505597133072 0 -0.01504563196256534 0.26333196488375049 0 0.010965700908337589 0.27322930467739909 0 -0.001267499687089951 0.2776013217203892 0 -0.01504563196256534 0.26333196488375049 0 0.010965700908337589 0.27322930467739909 0 -0.01504563196256534 0.26333196488375049 0 0.010965700908337589 0.27322930467739909 0 -0.0087132352456033638 0.25173417187717928 0 -0.01504563196256534 0.26333196488375049 0 -0.01778818590069102 0.2421293126167848 0 -0.00067809962666212902 0.26216505597133072 0 -0.0087132352456033638 0.25173417187717928 0 0.0027594708259384838 0.25829047161104352 0 -0.00067809962666212902 0.26216505597133072 0 -0.0087132352456033638 0.25173417187717928 0 -0.01504563196256534 0.26333196488375049 0 -0.009249588209606344 0.30814111102660002 0 -0.01214761008608776 0.28573653795517551 0 0.0038021096493471361 0.29689124930627131 0 -0.009249588209606344 0.30814111102660002 0 -0.01214761008608776 0.28573653795517551 0 -0.01214761008608776 0.28573653795517551 0 0.002380999114604244 0.28599596302517022 0 0.0038021096493471361 0.29689124930627131 0 -0.001267499687089951 0.2776013217203892 0 -0.01214761008608776 0.28573653795517551 0 0.002380999114604244 0.28599596302517022 0 -0.009249588209606344 0.30814111102660002 0 -0.01214761008608776 0.28573653795517551 0 -0.02711874363180217 0.2953884665518679 0 -0.01214761008608776 0.28573653795517551 0 -0.031040102747703489 0.28267752730564011 0 -0.02711874363180217 0.2953884665518679 0 -0.009249588209606344 0.30814111102660002 0 -0.02711874363180217 0.2953884665518679 0 -0.038786179122352507 0.31006075022960111 0 -0.009249588209606344 0.30814111102660002 0 -0.038786179122352507 0.31006075022960111 0 -0.02711874363180217 0.2953884665518679 0 -0.038786179122352507 0.31006075022960111 0 -0.044370237993260717 0.29032640624232281 0 -0.038786179122352507 0.31006075022960111 0 -0.044370237993260717 0.29032640624232281 0 -0.054162254707424723 0.30166894115096898 0 -0.031040102747703489 0.28267752730564011 0 -0.02711874363180217 0.2953884665518679 0 -0.044370237993260717 0.29032640624232281 0 -0.041784573477856593 0.2719242686623195 0 -0.031040102747703489 0.28267752730564011 0 -0.044370237993260717 0.29032640624232281 0 -0.055384127889045079 0.27986410773994991 0 -0.044370237993260717 0.29032640624232281 0 -0.059799020663136082 0.29068729405280619 0 -0.044370237993260717 0.29032640624232281 0 -0.059799020663136082 0.29068729405280619 0 -0.054162254707424723 0.30166894115096898 0 -0.064179569528432873 0.29754197169583518 0 -0.059799020663136082 0.29068729405280619 0 -0.054162254707424723 0.30166894115096898 0 -0.067485792004003509 0.28106498521306011 0 -0.055384127889045079 0.27986410773994991 0 -0.059799020663136082 0.29068729405280619 0 -0.068322770035098762 0.31198038943260148 0 -0.038786179122352507 0.31006075022960111 0 -0.068322770035098762 0.31198038943260148 0 -0.038786179122352507 0.31006075022960111 0 -0.054162254707424723 0.30166894115096898 0 -0.064179569528432873 0.29754197169583518 0 -0.063962500348327456 0.30379626580195229 0 -0.054162254707424723 0.30166894115096898 0 -0.063962500348327456 0.30379626580195229 0 -0.068322770035098762 0.31198038943260148 0 -0.054162254707424723 0.30166894115096898 0 -0.068322770035098762 0.31198038943260148 0 -0.038786179122352507 0.31006075022960111 0 -0.053879496619987192 0.32442993198196868 0 -0.068322770035098762 0.31198038943260148 0 -0.053879496619987192 0.32442993198196868 0 -0.059045099567240703 0.33862263320968672 0 -0.059976501396798443 0.34640013057040159 0 -0.068046633572776155 0.34513696516333192 0 -0.053879496619987192 0.32442993198196868 0 -0.059045099567240703 0.33862263320968672 0 -0.06815446288386498 0.3263880450875648 0 -0.053879496619987192 0.32442993198196868 0 -0.059045099567240703 0.33862263320968672 0 -0.049717572699208172 0.33977374392884352 0 -0.053879496619987192 0.32442993198196868 0 -0.049717572699208172 0.33977374392884352 0 -0.039436223204876379 0.33687947453133682 0 -0.059045099567240703 0.33862263320968672 0 -0.049717572699208172 0.33977374392884352 0 -0.052933118771744558 0.34753778728834739 0 -0.049717572699208172 0.33977374392884352 0 -0.039436223204876379 0.33687947453133682 0 -0.045752302425533672 0.34929255203680049 0 -0.053879496619987192 0.32442993198196868 0 -0.039436223204876379 0.33687947453133682 0 -0.039359444206513459 0.32419621080282812 0 -0.053879496619987192 0.32442993198196868 0 -0.039436223204876379 0.33687947453133682 0 -0.039436223204876379 0.33687947453133682 0 -0.039359444206513459 0.32419621080282812 0 -0.02531264429424256 0.33765677836634578 0 -0.039436223204876379 0.33687947453133682 0 -0.02531264429424256 0.33765677836634578 0 -0.034795741464765127 0.3466441775467104 0 -0.038786179122352507 0.31006075022960111 0 -0.053879496619987192 0.32442993198196868 0 -0.039359444206513459 0.32419621080282812 0 -0.038786179122352507 0.31006075022960111 0 -0.039359444206513459 0.32419621080282812 0 -0.024068293084679539 0.32272721199300619 0 -0.009249588209606344 0.30814111102660002 0 -0.038786179122352507 0.31006075022960111 0 -0.024068293084679539 0.32272721199300619 0 -0.024068293084679539 0.32272721199300619 0 -0.02531264429424256 0.33765677836634578 0 -0.005758602284471958 0.33512988219008361 0 -0.039359444206513459 0.32419621080282812 0 -0.024068293084679539 0.32272721199300619 0 -0.02531264429424256 0.33765677836634578 0 -0.005758602284471958 0.33512988219008361 0 -0.0077202170519437719 0.34710906184019069 0 0.0082446038140756572 0.34376242611402219 0 -0.02531264429424256 0.33765677836634578 0 -0.005758602284471958 0.33512988219008361 0 -0.0077202170519437719 0.34710906184019069 0 -0.009249588209606344 0.30814111102660002 0 -0.005758602284471958 0.33512988219008361 0 0.0094307060340404689 0.32376070079746733 0 -0.009249588209606344 0.30814111102660002 0 -0.005758602284471958 0.33512988219008361 0 -0.009249588209606344 0.30814111102660002 0 -0.024068293084679539 0.32272721199300619 0 -0.005758602284471958 0.33512988219008361 0 -0.0045677851665312944 0.36532665559408428 0 -0.0087141207398781558 0.37710904293520409 0 0.0077169544749549623 0.36306791211952738 0 -0.0045677851665312944 0.36532665559408428 0 -0.019623601183504629 0.35541479533684739 0 -0.0087141207398781558 0.37710904293520409 0 -0.0087141207398781558 0.37710904293520409 0 0.0077169544749549623 0.36306791211952738 0 -0.0077202170519437719 0.34710906184019069 0 -0.019623601183504629 0.35541479533684739 0 0.0038095970876644218 0.35606187191015221 0 -0.019623601183504629 0.35541479533684739 0 0.0038095970876644218 0.35606187191015221 0 -0.0045677851665312944 0.36532665559408428 0 -0.019623601183504629 0.35541479533684739 0 0.0038095970876644218 0.35606187191015221 0 -0.02531264429424256 0.33765677836634578 0 -0.019623601183504629 0.35541479533684739 0 -0.034795741464765127 0.3466441775467104 0 -0.02531264429424256 0.33765677836634578 0 -0.0077202170519437719 0.34710906184019069 0 -0.019623601183504629 0.35541479533684739 0 -0.019623601183504629 0.35541479533684739 0 -0.034100997704691827 0.37295894625721099 0 -0.0087141207398781558 0.37710904293520409 0 -0.019623601183504629 0.35541479533684739 0 -0.034100997704691827 0.37295894625721099 0 -0.043056799454673583 0.35476771876354157 0 -0.034100997704691827 0.37295894625721099 0 -0.047131069669461997 0.36807368878450081 0 -0.054593457040109393 0.3822816536988497 0 -0.034100997704691827 0.37295894625721099 0 -0.043056799454673583 0.35476771876354157 0 -0.034100997704691827 0.37295894625721099 0 -0.043056799454673583 0.35476771876354157 0 -0.047131069669461997 0.36807368878450081 0 -0.019623601183504629 0.35541479533684739 0 -0.043056799454673583 0.35476771876354157 0 -0.019623601183504629 0.35541479533684739 0 -0.034795741464765127 0.3466441775467104 0 -0.043056799454673583 0.35476771876354157 0 -0.043056799454673583 0.35476771876354157 0 -0.045752302425533672 0.34929255203680049 0 -0.039436223204876379 0.33687947453133682 0 -0.034795741464765127 0.3466441775467104 0 -0.045752302425533672 0.34929255203680049 0 -0.034795741464765127 0.3466441775467104 0 -0.043056799454673583 0.35476771876354157 0 -0.045752302425533672 0.34929255203680049 0 -0.043056799454673583 0.35476771876354157 0 -0.052933118771744558 0.34753778728834739 0 -0.059881153675432383 0.35430313662024071 0 -0.043056799454673583 0.35476771876354157 0 -0.059881153675432383 0.35430313662024071 0 -0.051828064233363932 0.36038047858465339 0 -0.043056799454673583 0.35476771876354157 0 -0.059881153675432383 0.35430313662024071 0 -0.043056799454673583 0.35476771876354157 0 -0.045752302425533672 0.34929255203680049 0 -0.052933118771744558 0.34753778728834739 0 -0.049717572699208172 0.33977374392884352 0 -0.045752302425533672 0.34929255203680049 0 -0.052933118771744558 0.34753778728834739 0 -0.059881153675432383 0.35430313662024071 0 -0.051828064233363932 0.36038047858465339 0 -0.058626870601395778 0.36023180910453118 0 -0.059045099567240703 0.33862263320968672 0 -0.052933118771744558 0.34753778728834739 0 -0.059976501396798443 0.34640013057040159 0 -0.052933118771744558 0.34753778728834739 0 -0.059881153675432383 0.35430313662024071 0 -0.059976501396798443 0.34640013057040159 0 -0.047131069669461997 0.36807368878450081 0 -0.054116187566776573 0.36544526432200969 0 -0.058148679921659119 0.37186744297544022 0 -0.047131069669461997 0.36807368878450081 0 -0.058148679921659119 0.37186744297544022 0 -0.054593457040109393 0.3822816536988497 0 -0.043056799454673583 0.35476771876354157 0 -0.047131069669461997 0.36807368878450081 0 -0.051828064233363932 0.36038047858465339 0 -0.047131069669461997 0.36807368878450081 0 -0.051828064233363932 0.36038047858465339 0 -0.054116187566776573 0.36544526432200969 0 -0.054116187566776573 0.36544526432200969 0 -0.058626870601395778 0.36023180910453118 0 -0.058148679921659119 0.37186744297544022 0 -0.051828064233363932 0.36038047858465339 0 -0.054116187566776573 0.36544526432200969 0 -0.058626870601395778 0.36023180910453118 0 -0.058626870601395778 0.36023180910453118 0 -0.058148679921659119 0.37186744297544022 0 -0.076275814730551866 0.38330479896731001 0 -0.058626870601395778 0.36023180910453118 0 -0.071157696118109362 0.36170448025062218 0 -0.076275814730551866 0.38330479896731001 0 -0.071157696118109362 0.36170448025062218 0 -0.084299133686975572 0.35684410208409001 0 -0.076275814730551866 0.38330479896731001 0 -0.058626870601395778 0.36023180910453118 0 -0.076275814730551866 0.38330479896731001 0 -0.084299133686975572 0.35684410208409001 0 -0.089436666146690338 0.3774527594588406 0 -0.076275814730551866 0.38330479896731001 0 -0.084299133686975572 0.35684410208409001 0 -0.076275814730551866 0.38330479896731001 0 -0.093494049974744503 0.36523362229143391 0 -0.084299133686975572 0.35684410208409001 0 -0.089436666146690338 0.3774527594588406 0 -0.084299133686975572 0.35684410208409001 0 -0.076705507896191183 0.35383855447693902 0 -0.080753986599573127 0.33990497651870988 0 -0.084299133686975572 0.35684410208409001 0 -0.092322452643399749 0.33038340520087017 0 -0.095141502753968779 0.35097174187852381 0 -0.093494049974744503 0.36523362229143391 0 -0.084299133686975572 0.35684410208409001 0 -0.095141502753968779 0.35097174187852381 0 -0.059881153675432383 0.35430313662024071 0 -0.071157696118109362 0.36170448025062218 0 -0.076705507896191183 0.35383855447693902 0 -0.076705507896191183 0.35383855447693902 0 -0.068046633572776155 0.34513696516333192 0 -0.080753986599573127 0.33990497651870988 0 -0.059881153675432383 0.35430313662024071 0 -0.076705507896191183 0.35383855447693902 0 -0.068046633572776155 0.34513696516333192 0 -0.059881153675432383 0.35430313662024071 0 -0.076705507896191183 0.35383855447693902 0 -0.071157696118109362 0.36170448025062218 0 -0.084299133686975572 0.35684410208409001 0 -0.076705507896191183 0.35383855447693902 0 -0.059881153675432383 0.35430313662024071 0 -0.058626870601395778 0.36023180910453118 0 -0.071157696118109362 0.36170448025062218 0 -0.059881153675432383 0.35430313662024071 0 -0.059976501396798443 0.34640013057040159 0 -0.068046633572776155 0.34513696516333192 0 -0.06815446288386498 0.3263880450875648 0 -0.079151648495115301 0.32136139923810009 0 -0.080753986599573127 0.33990497651870988 0 -0.068046633572776155 0.34513696516333192 0 -0.06815446288386498 0.3263880450875648 0 -0.080753986599573127 0.33990497651870988 0 -0.059045099567240703 0.33862263320968672 0 -0.068046633572776155 0.34513696516333192 0 -0.06815446288386498 0.3263880450875648 0 -0.068322770035098762 0.31198038943260148 0 -0.069852456288818351 0.31207980665071 0 -0.06815446288386498 0.3263880450875648 0 -0.068322770035098762 0.31198038943260148 0 -0.053879496619987192 0.32442993198196868 0 -0.06815446288386498 0.3263880450875648 0 -0.08121949171140587 0.31012908581564408 0 -0.069852456288818351 0.31207980665071 0 -0.079151648495115301 0.32136139923810009 0 -0.069852456288818351 0.31207980665071 0 -0.06815446288386498 0.3263880450875648 0 -0.079151648495115301 0.32136139923810009 0 -0.087527931766016032 0.31235393694025021 0 -0.079151648495115301 0.32136139923810009 0 -0.092322452643399749 0.33038340520087017 0 -0.1003457715998239 0.30392270831765028 0 -0.087527931766016032 0.31235393694025021 0 -0.092322452643399749 0.33038340520087017 0 -0.087527931766016032 0.31235393694025021 0 -0.08121949171140587 0.31012908581564408 0 -0.079151648495115301 0.32136139923810009 0 -0.084299133686975572 0.35684410208409001 0 -0.092322452643399749 0.33038340520087017 0 -0.079151648495115301 0.32136139923810009 0 -0.092322452643399749 0.33038340520087017 0 -0.080753986599573127 0.33990497651870988 0 -0.084299133686975572 0.35684410208409001 0 -0.092322452643399749 0.33038340520087017 0 -0.080753986599573127 0.33990497651870988 0 -0.092322452643399749 0.33038340520087017 0 -0.10472406897533799 0.34168768652513631 0 -0.095141502753968779 0.35097174187852381 0 -0.092322452643399749 0.33038340520087017 0 -0.10472406897533799 0.34168768652513631 0 -0.1081804568928026 0.32074506353771021 0 -0.1003457715998239 0.30392270831765028 0 -0.092322452643399749 0.33038340520087017 0 -0.1003457715998239 0.30392270831765028 0 -0.092322452643399749 0.33038340520087017 0 -0.1081804568928026 0.32074506353771021 0 -0.1262409447270301 0.3211703831111522 0 -0.1173504618646501 0.30916380798395637 0 -0.1081804568928026 0.32074506353771021 0 -0.1262409447270301 0.3211703831111522 0 -0.1081804568928026 0.32074506353771021 0 -0.1175879007316586 0.33497855513245622 0 -0.13367478836053351 0.33932016938713638 0 -0.1175879007316586 0.33497855513245622 0 -0.1173066256070304 0.35104950557859033 0 -0.10472406897533799 0.34168768652513631 0 -0.1081804568928026 0.32074506353771021 0 -0.1175879007316586 0.33497855513245622 0 -0.10472406897533799 0.34168768652513631 0 -0.1175879007316586 0.33497855513245622 0 -0.1173066256070304 0.35104950557859033 0 -0.1173066256070304 0.35104950557859033 0 -0.1198206075896991 0.37069234566290138 0 -0.1030551893938276 0.35978992576853291 0 -0.1367685514822152 0.35851885971508118 0 -0.1173066256070304 0.35104950557859033 0 -0.1198206075896991 0.37069234566290138 0 -0.1198206075896991 0.37069234566290138 0 -0.1030551893938276 0.35978992576853291 0 -0.10026372758235801 0.37465761506622741 0 -0.093494049974744503 0.36523362229143391 0 -0.10026372758235801 0.37465761506622741 0 -0.089436666146690338 0.3774527594588406 0 -0.093494049974744503 0.36523362229143391 0 -0.1030551893938276 0.35978992576853291 0 -0.10026372758235801 0.37465761506622741 0 -0.10472406897533799 0.34168768652513631 0 -0.1030551893938276 0.35978992576853291 0 -0.095141502753968779 0.35097174187852381 0 -0.093494049974744503 0.36523362229143391 0 -0.1030551893938276 0.35978992576853291 0 -0.095141502753968779 0.35097174187852381 0 -0.10472406897533799 0.34168768652513631 0 -0.1173066256070304 0.35104950557859033 0 -0.1030551893938276 0.35978992576853291 0 -0.101128536279416 0.3977608810528192 0 -0.11378235269799521 0.38746486633725291 0 -0.11258596611237601 0.40408595479252452 0 -0.101128536279416 0.3977608810528192 0 -0.095244926421122186 0.38729621463576269 0 -0.11378235269799521 0.38746486633725291 0 -0.101128536279416 0.3977608810528192 0 -0.11258596611237601 0.40408595479252452 0 -0.097808874238227678 0.41145560844912898 0 -0.101128536279416 0.3977608810528192 0 -0.097808874238227678 0.41145560844912898 0 -0.087042344484389883 0.39738020370821953 0 -0.101128536279416 0.3977608810528192 0 -0.095244926421122186 0.38729621463576269 0 -0.087042344484389883 0.39738020370821953 0 -0.10026372758235801 0.37465761506622741 0 -0.095244926421122186 0.38729621463576269 0 -0.11378235269799521 0.38746486633725291 0 -0.10026372758235801 0.37465761506622741 0 -0.095244926421122186 0.38729621463576269 0 -0.089436666146690338 0.3774527594588406 0 -0.1198206075896991 0.37069234566290138 0 -0.10026372758235801 0.37465761506622741 0 -0.11378235269799521 0.38746486633725291 0 -0.12826940643264259 0.38638828685515292 0 -0.1198206075896991 0.37069234566290138 0 -0.11378235269799521 0.38746486633725291 0 -0.12644786621320531 0.40058001872868543 0 -0.12826940643264259 0.38638828685515292 0 -0.11378235269799521 0.38746486633725291 0 -0.12761284081938409 0.41418542740570108 0 -0.11378235269799521 0.38746486633725291 0 -0.12761284081938409 0.41418542740570108 0 -0.12644786621320531 0.40058001872868543 0 -0.11378235269799521 0.38746486633725291 0 -0.12761284081938409 0.41418542740570108 0 -0.11378235269799521 0.38746486633725291 0 -0.11258596611237601 0.40408595479252452 0 -0.12761284081938409 0.41418542740570108 0 -0.11258596611237601 0.40408595479252452 0 -0.097808874238227678 0.41145560844912898 0 -0.12761284081938409 0.41418542740570108 0 -0.1126245701039178 0.4308246085444013 0 -0.097808874238227678 0.41145560844912898 0 -0.12761284081938409 0.41418542740570108 0 -0.097808874238227678 0.41145560844912898 0 -0.12761284081938409 0.41418542740570108 0 -0.1126245701039178 0.4308246085444013 0 -0.1242648033483075 0.43981492828754482 0 -0.1126245701039178 0.4308246085444013 0 -0.096605527178418776 0.42311346390882398 0 -0.097170403390676049 0.43571281837191522 0 -0.1126245701039178 0.4308246085444013 0 -0.097170403390676049 0.43571281837191522 0 -0.10338783084247161 0.44098956532991213 0 -0.1126245701039178 0.4308246085444013 0 -0.097808874238227678 0.41145560844912898 0 -0.1126245701039178 0.4308246085444013 0 -0.096605527178418776 0.42311346390882398 0 -0.097808874238227678 0.41145560844912898 0 -0.096605527178418776 0.42311346390882398 0 -0.097808874238227678 0.41145560844912898 0 -0.090623427087895073 0.41079747558654428 0 -0.097808874238227678 0.41145560844912898 0 -0.090623427087895073 0.41079747558654428 0 -0.096605527178418776 0.42311346390882398 0 -0.090623427087895073 0.41079747558654428 0 -0.084800361071377284 0.4267768085921303 0 -0.090623427087895073 0.41079747558654428 0 -0.084347825254610875 0.40943513047528779 0 -0.084800361071377284 0.4267768085921303 0 -0.084800361071377284 0.4267768085921303 0 -0.074925168374781331 0.40278603401425761 0 -0.084347825254610875 0.40943513047528779 0 -0.084800361071377284 0.4267768085921303 0 -0.074925168374781331 0.40278603401425761 0 -0.097808874238227678 0.41145560844912898 0 -0.090623427087895073 0.41079747558654428 0 -0.087042344484389883 0.39738020370821953 0 -0.096605527178418776 0.42311346390882398 0 -0.097170403390676049 0.43571281837191522 0 -0.084800361071377284 0.4267768085921303 0 -0.084800361071377284 0.4267768085921303 0 -0.077689053426030094 0.43734830183904833 0 -0.073740177733494089 0.43015549729097768 0 -0.084800361071377284 0.4267768085921303 0 -0.077689053426030094 0.43734830183904833 0 -0.085627028266785254 0.44117175463919189 0 -0.077689053426030094 0.43734830183904833 0 -0.073740177733494089 0.43015549729097768 0 -0.069373851585076945 0.43677151010665521 0 -0.084800361071377284 0.4267768085921303 0 -0.073740177733494089 0.43015549729097768 0 -0.074963529381557356 0.42372471124402672 0 -0.084800361071377284 0.4267768085921303 0 -0.074963529381557356 0.42372471124402672 0 -0.074207610301873977 0.415826985147286 0 -0.073740177733494089 0.43015549729097768 0 -0.07134827269677288 0.42521816639912852 0 -0.067010261651664849 0.42692585223643509 0 -0.073740177733494089 0.43015549729097768 0 -0.074963529381557356 0.42372471124402672 0 -0.07134827269677288 0.42521816639912852 0 -0.074963529381557356 0.42372471124402672 0 -0.07134827269677288 0.42521816639912852 0 -0.069903249343569923 0.42035209495099629 0 -0.06803153127557314 0.42418340705062968 0 -0.063864341410284964 0.42423751461595932 0 -0.069903249343569923 0.42035209495099629 0 -0.07134827269677288 0.42521816639912852 0 -0.06803153127557314 0.42418340705062968 0 -0.067010261651664849 0.42692585223643509 0 -0.07134827269677288 0.42521816639912852 0 -0.06803153127557314 0.42418340705062968 0 -0.069903249343569923 0.42035209495099629 0 -0.06803153127557314 0.42418340705062968 0 -0.063864341410284964 0.42423751461595932 0 -0.067010261651664849 0.42692585223643509 0 -0.063864341410284964 0.42423751461595932 0 -0.067010261651664849 0.42692585223643509 0 -0.067010261651664849 0.42692585223643509 0 -0.06657591115514655 0.43192586875325267 0 -0.062357688865182517 0.42920641545622512 0 -0.063864341410284964 0.42423751461595932 0 -0.067010261651664849 0.42692585223643509 0 -0.062357688865182517 0.42920641545622512 0 -0.063864341410284964 0.42423751461595932 0 -0.062357688865182517 0.42920641545622512 0 -0.073740177733494089 0.43015549729097768 0 -0.067010261651664849 0.42692585223643509 0 -0.06657591115514655 0.43192586875325267 0 -0.073740177733494089 0.43015549729097768 0 -0.06657591115514655 0.43192586875325267 0 -0.069373851585076945 0.43677151010665521 0 -0.06657591115514655 0.43192586875325267 0 -0.062750456602468974 0.43554137489064498 0 -0.062357688865182517 0.42920641545622512 0 -0.06657591115514655 0.43192586875325267 0 -0.062750456602468974 0.43554137489064498 0 -0.069373851585076945 0.43677151010665521 0 -0.063864341410284964 0.42423751461595932 0 -0.069903249343569923 0.42035209495099629 0 -0.070070078070418332 0.40377115679163461 0 -0.074207610301873977 0.415826985147286 0 -0.069903249343569923 0.42035209495099629 0 -0.070070078070418332 0.40377115679163461 0 -0.063864341410284964 0.42423751461595932 0 -0.070070078070418332 0.40377115679163461 0 -0.058881304157308093 0.40804381518971672 0 -0.063864341410284964 0.42423751461595932 0 -0.070070078070418332 0.40377115679163461 0 -0.084800361071377284 0.4267768085921303 0 -0.074207610301873977 0.415826985147286 0 -0.074925168374781331 0.40278603401425761 0 -0.074207610301873977 0.415826985147286 0 -0.070070078070418332 0.40377115679163461 0 -0.074925168374781331 0.40278603401425761 0 -0.074963529381557356 0.42372471124402672 0 -0.074207610301873977 0.415826985147286 0 -0.069903249343569923 0.42035209495099629 0 -0.070070078070418332 0.40377115679163461 0 -0.064506344576777661 0.39145758865641178 0 -0.076275814730551866 0.38330479896731001 0 -0.070070078070418332 0.40377115679163461 0 -0.074925168374781331 0.40278603401425761 0 -0.076275814730551866 0.38330479896731001 0 -0.070070078070418332 0.40377115679163461 0 -0.076275814730551866 0.38330479896731001 0 -0.070070078070418332 0.40377115679163461 0 -0.064506344576777661 0.39145758865641178 0 -0.057086028466031037 0.39647274516785291 0 -0.074925168374781331 0.40278603401425761 0 -0.087042344484389883 0.39738020370821953 0 -0.076275814730551866 0.38330479896731001 0 -0.084347825254610875 0.40943513047528779 0 -0.074925168374781331 0.40278603401425761 0 -0.087042344484389883 0.39738020370821953 0 -0.097808874238227678 0.41145560844912898 0 -0.087042344484389883 0.39738020370821953 0 -0.090623427087895073 0.41079747558654428 0 -0.084347825254610875 0.40943513047528779 0 -0.087042344484389883 0.39738020370821953 0 -0.087042344484389883 0.39738020370821953 0 -0.089436666146690338 0.3774527594588406 0 -0.076275814730551866 0.38330479896731001 0 -0.095244926421122186 0.38729621463576269 0 -0.087042344484389883 0.39738020370821953 0 -0.089436666146690338 0.3774527594588406 0 -0.087042344484389883 0.39738020370821953 0 -0.076275814730551866 0.38330479896731001 0 -0.064506344576777661 0.39145758865641178 0 -0.076275814730551866 0.38330479896731001 0 -0.054593457040109393 0.3822816536988497 0 -0.058148679921659119 0.37186744297544022 0 -0.076275814730551866 0.38330479896731001 0 -0.054593457040109393 0.3822816536988497 0 -0.064506344576777661 0.39145758865641178 0 -0.054593457040109393 0.3822816536988497 0 -0.057086028466031037 0.39647274516785291 0 -0.054593457040109393 0.3822816536988497 0 -0.057086028466031037 0.39647274516785291 0 -0.042391572779214973 0.39096282696345341 0 -0.057086028466031037 0.39647274516785291 0 -0.042391572779214973 0.39096282696345341 0 -0.044504768682498037 0.40769384418342008 0 -0.070070078070418332 0.40377115679163461 0 -0.057086028466031037 0.39647274516785291 0 -0.058881304157308093 0.40804381518971672 0 -0.057086028466031037 0.39647274516785291 0 -0.044504768682498037 0.40769384418342008 0 -0.058881304157308093 0.40804381518971672 0 -0.02514519595471108 0.39115017375088101 0 -0.044504768682498037 0.40769384418342008 0 -0.042391572779214973 0.39096282696345341 0 -0.02514519595471108 0.39115017375088101 0 -0.044504768682498037 0.40769384418342008 0 -0.034100997704691827 0.37295894625721099 0 -0.054593457040109393 0.3822816536988497 0 -0.042391572779214973 0.39096282696345341 0 -0.034100997704691827 0.37295894625721099 0 -0.042391572779214973 0.39096282696345341 0 -0.02514519595471108 0.39115017375088101 0 -0.034100997704691827 0.37295894625721099 0 -0.02514519595471108 0.39115017375088101 0 -0.034100997704691827 0.37295894625721099 0 -0.02514519595471108 0.39115017375088101 0 -0.0087141207398781558 0.37710904293520409 0 -0.02514519595471108 0.39115017375088101 0 -0.0087141207398781558 0.37710904293520409 0 -0.02514519595471108 0.39115017375088101 0 -0.014810785045769751 0.41214166341376801 0 -0.02514519595471108 0.39115017375088101 0 -0.014810785045769751 0.41214166341376801 0 -0.044504768682498037 0.40769384418342008 0 -0.0068648610501423502 0.39382000907293813 0 -0.014810785045769751 0.41214166341376801 0 0.0046995574085186929 0.41194005205042061 0 -0.02514519595471108 0.39115017375088101 0 -0.0068648610501423502 0.39382000907293813 0 -0.014810785045769751 0.41214166341376801 0 -0.02514519595471108 0.39115017375088101 0 -0.0068648610501423502 0.39382000907293813 0 -0.0087141207398781558 0.37710904293520409 0 -0.0068648610501423502 0.39382000907293813 0 -0.0087141207398781558 0.37710904293520409 0 0.0053185270157129726 0.37689571945341471 0 -0.0044763741368290672 0.43313315307665529 0 -0.014810785045769751 0.41214166341376801 0 -0.0044763741368290672 0.43313315307665529 0 -0.014810785045769751 0.41214166341376801 0 -0.026116443713473419 0.4246575807879529 0 -0.0044763741368290672 0.43313315307665529 0 -0.014810785045769751 0.41214166341376801 0 0.0046995574085186929 0.41194005205042061 0 -0.014810785045769751 0.41214166341376801 0 -0.026116443713473419 0.4246575807879529 0 -0.044504768682498037 0.40769384418342008 0 -0.0044763741368290672 0.43313315307665529 0 -0.026116443713473419 0.4246575807879529 0 -0.02623027688729573 0.44118750916919391 0 -0.026116443713473419 0.4246575807879529 0 -0.040560013814974517 0.42913173409672722 0 -0.02623027688729573 0.44118750916919391 0 -0.040560013814974517 0.42913173409672722 0 -0.048293098329248912 0.43867666423002288 0 -0.039090066940739521 0.44352471403713711 0 -0.026116443713473419 0.4246575807879529 0 -0.040560013814974517 0.42913173409672722 0 -0.044504768682498037 0.40769384418342008 0 -0.040560013814974517 0.42913173409672722 0 -0.044504768682498037 0.40769384418342008 0 -0.051886787429848112 0.42350176277299723 0 -0.063864341410284964 0.42423751461595932 0 -0.044504768682498037 0.40769384418342008 0 -0.058881304157308093 0.40804381518971672 0 -0.063864341410284964 0.42423751461595932 0 -0.044504768682498037 0.40769384418342008 0 -0.051886787429848112 0.42350176277299723 0 -0.063864341410284964 0.42423751461595932 0 -0.044504768682498037 0.40769384418342008 0 -0.053936434918908913 0.43159717611494758 0 -0.057641003333182179 0.44086754716312743 0 -0.048293098329248912 0.43867666423002288 0 -0.040560013814974517 0.42913173409672722 0 -0.053936434918908913 0.43159717611494758 0 -0.048293098329248912 0.43867666423002288 0 -0.040560013814974517 0.42913173409672722 0 -0.053936434918908913 0.43159717611494758 0 -0.051886787429848112 0.42350176277299723 0 -0.053936434918908913 0.43159717611494758 0 -0.051886787429848112 0.42350176277299723 0 -0.062357688865182517 0.42920641545622512 0 -0.063864341410284964 0.42423751461595932 0 -0.051886787429848112 0.42350176277299723 0 -0.062357688865182517 0.42920641545622512 0 -0.062750456602468974 0.43554137489064498 0 -0.053936434918908913 0.43159717611494758 0 -0.062357688865182517 0.42920641545622512 0 -0.062750456602468974 0.43554137489064498 0 -0.053936434918908913 0.43159717611494758 0 -0.057641003333182179 0.44086754716312743 0 -0.062750456602468974 0.43554137489064498 0 -0.057641003333182179 0.44086754716312743 0 -0.065491549478626135 0.44200233464982802 0 -0.057641003333182179 0.44086754716312743 0 -0.062398417199954148 0.4499603094023914 0 -0.065491549478626135 0.44200233464982802 0 -0.057641003333182179 0.44086754716312743 0 -0.062398417199954148 0.4499603094023914 0 -0.050237972638439453 0.44826214973817502 0 -0.057641003333182179 0.44086754716312743 0 -0.050237972638439453 0.44826214973817502 0 -0.048293098329248912 0.43867666423002288 0 -0.062398417199954148 0.4499603094023914 0 -0.050230730183752688 0.46259696058471089 0 -0.064501224992871267 0.46542691543905351 0 -0.062398417199954148 0.4499603094023914 0 -0.050237972638439453 0.44826214973817502 0 -0.050230730183752688 0.46259696058471089 0 -0.050230730183752688 0.46259696058471089 0 -0.035748626011326709 0.45858167758110602 0 -0.046040344352481867 0.47841272498986082 0 -0.050237972638439453 0.44826214973817502 0 -0.050230730183752688 0.46259696058471089 0 -0.035748626011326709 0.45858167758110602 0 -0.035748626011326709 0.45858167758110602 0 -0.039090066940739521 0.44352471403713711 0 -0.02623027688729573 0.44118750916919391 0 -0.050237972638439453 0.44826214973817502 0 -0.048293098329248912 0.43867666423002288 0 -0.039090066940739521 0.44352471403713711 0 -0.050237972638439453 0.44826214973817502 0 -0.035748626011326709 0.45858167758110602 0 -0.039090066940739521 0.44352471403713711 0 -0.040560013814974517 0.42913173409672722 0 -0.039090066940739521 0.44352471403713711 0 -0.02623027688729573 0.44118750916919391 0 -0.035748626011326709 0.45858167758110602 0 -0.02623027688729573 0.44118750916919391 0 -0.01728298942402769 0.45556140426229003 0 -0.0044763741368290672 0.43313315307665529 0 -0.02623027688729573 0.44118750916919391 0 -0.01728298942402769 0.45556140426229003 0 -0.035748626011326709 0.45858167758110602 0 -0.01728298942402769 0.45556140426229003 0 -0.022784747477638551 0.4775754860453762 0 -0.01728298942402769 0.45556140426229003 0 -0.0062093312902834459 0.46527566221073008 0 0.006403582431216831 0.45126676372832991 0 -0.01728298942402769 0.45556140426229003 0 -0.0062093312902834459 0.46527566221073008 0 -0.022784747477638551 0.4775754860453762 0 -0.0044763741368290672 0.43313315307665529 0 -0.01728298942402769 0.45556140426229003 0 0.006403582431216831 0.45126676372832991 0 -0.0062093312902834459 0.46527566221073008 0 -0.022784747477638551 0.4775754860453762 0 0.0095498935665802413 0.47810272379952351 0 -0.022784747477638551 0.4775754860453762 0 -0.021427984417146221 0.5 0 0.0095498935665802413 0.47810272379952351 0 -0.021427984417146221 0.5 0 0.0095498935665802413 0.47810272379952351 0 0.0086042794582089632 0.5 0 -0.022784747477638551 0.4775754860453762 0 -0.021427984417146221 0.5 0 -0.046040344352481867 0.47841272498986082 0 -0.021427984417146221 0.5 0 -0.046040344352481867 0.47841272498986082 0 -0.051460248292501398 0.5 0 -0.035748626011326709 0.45858167758110602 0 -0.022784747477638551 0.4775754860453762 0 -0.046040344352481867 0.47841272498986082 0 -0.046040344352481867 0.47841272498986082 0 -0.067939054777113927 0.48291587414950521 0 -0.064501224992871267 0.46542691543905351 0 -0.050230730183752688 0.46259696058471089 0 -0.046040344352481867 0.47841272498986082 0 -0.064501224992871267 0.46542691543905351 0 -0.046040344352481867 0.47841272498986082 0 -0.051460248292501398 0.5 0 -0.067939054777113927 0.48291587414950521 0 -0.051460248292501398 0.5 0 -0.081492512167856565 0.50000000000000011 0 -0.067939054777113927 0.48291587414950521 0 -0.081492512167856565 0.50000000000000011 0 -0.085878896958769185 0.47675925450649242 0 -0.067939054777113927 0.48291587414950521 0 -0.081492512167856565 0.50000000000000011 0 -0.085878896958769185 0.47675925450649242 0 -0.099362977551805121 0.48745008538217821 0 -0.081492512167856565 0.50000000000000011 0 -0.085878896958769185 0.47675925450649242 0 -0.085878896958769185 0.47675925450649242 0 -0.075452149305044958 0.46933040044586682 0 -0.067939054777113927 0.48291587414950521 0 -0.075452149305044958 0.46933040044586682 0 -0.067939054777113927 0.48291587414950521 0 -0.064501224992871267 0.46542691543905351 0 -0.064501224992871267 0.46542691543905351 0 -0.075214053997903707 0.45912990264989012 0 -0.070315415620740368 0.45334812155980347 0 -0.062398417199954148 0.4499603094023914 0 -0.064501224992871267 0.46542691543905351 0 -0.070315415620740368 0.45334812155980347 0 -0.075214053997903707 0.45912990264989012 0 -0.070315415620740368 0.45334812155980347 0 -0.081419329692844739 0.44979703694502599 0 -0.075452149305044958 0.46933040044586682 0 -0.064501224992871267 0.46542691543905351 0 -0.075214053997903707 0.45912990264989012 0 -0.075452149305044958 0.46933040044586682 0 -0.075214053997903707 0.45912990264989012 0 -0.082509194984251868 0.46007906520350089 0 -0.069373851585076945 0.43677151010665521 0 -0.065491549478626135 0.44200233464982802 0 -0.073041418115067244 0.44511613748665291 0 -0.062750456602468974 0.43554137489064498 0 -0.069373851585076945 0.43677151010665521 0 -0.065491549478626135 0.44200233464982802 0 -0.062398417199954148 0.4499603094023914 0 -0.065491549478626135 0.44200233464982802 0 -0.073041418115067244 0.44511613748665291 0 -0.062398417199954148 0.4499603094023914 0 -0.070315415620740368 0.45334812155980347 0 -0.073041418115067244 0.44511613748665291 0 -0.070315415620740368 0.45334812155980347 0 -0.073041418115067244 0.44511613748665291 0 -0.081419329692844739 0.44979703694502599 0 -0.073041418115067244 0.44511613748665291 0 -0.07941018481149445 0.44345804230003222 0 -0.081419329692844739 0.44979703694502599 0 -0.077689053426030094 0.43734830183904833 0 -0.069373851585076945 0.43677151010665521 0 -0.073041418115067244 0.44511613748665291 0 -0.077689053426030094 0.43734830183904833 0 -0.073041418115067244 0.44511613748665291 0 -0.07941018481149445 0.44345804230003222 0 -0.097170403390676049 0.43571281837191522 0 -0.084800361071377284 0.4267768085921303 0 -0.094675553767973264 0.45076758317000298 0 -0.084800361071377284 0.4267768085921303 0 -0.094675553767973264 0.45076758317000298 0 -0.084800361071377284 0.4267768085921303 0 -0.085627028266785254 0.44117175463919189 0 -0.094675553767973264 0.45076758317000298 0 -0.085627028266785254 0.44117175463919189 0 -0.07941018481149445 0.44345804230003222 0 -0.081419329692844739 0.44979703694502599 0 -0.077689053426030094 0.43734830183904833 0 -0.085627028266785254 0.44117175463919189 0 -0.07941018481149445 0.44345804230003222 0 -0.085627028266785254 0.44117175463919189 0 -0.081419329692844739 0.44979703694502599 0 -0.088082484801868088 0.44854024150695748 0 -0.081419329692844739 0.44979703694502599 0 -0.086047819819581178 0.45134535453790131 0 -0.088082484801868088 0.44854024150695748 0 -0.085627028266785254 0.44117175463919189 0 -0.088082484801868088 0.44854024150695748 0 -0.094675553767973264 0.45076758317000298 0 -0.086047819819581178 0.45134535453790131 0 -0.088082484801868088 0.44854024150695748 0 -0.090265281749681819 0.45351850901298468 0 -0.088082484801868088 0.44854024150695748 0 -0.090265281749681819 0.45351850901298468 0 -0.094675553767973264 0.45076758317000298 0 -0.085878896958769185 0.47675925450649242 0 -0.075452149305044958 0.46933040044586682 0 -0.082509194984251868 0.46007906520350089 0 -0.085878896958769185 0.47675925450649242 0 -0.090265281749681819 0.45351850901298468 0 -0.085878896958769185 0.47675925450649242 0 -0.090265281749681819 0.45351850901298468 0 -0.093944937474792503 0.46462082789344678 0 -0.085878896958769185 0.47675925450649242 0 -0.082509194984251868 0.46007906520350089 0 -0.090265281749681819 0.45351850901298468 0 -0.081419329692844739 0.44979703694502599 0 -0.086047819819581178 0.45134535453790131 0 -0.082509194984251868 0.46007906520350089 0 -0.075214053997903707 0.45912990264989012 0 -0.081419329692844739 0.44979703694502599 0 -0.082509194984251868 0.46007906520350089 0 -0.090265281749681819 0.45351850901298468 0 -0.093944937474792503 0.46462082789344678 0 -0.094675553767973264 0.45076758317000298 0 -0.086047819819581178 0.45134535453790131 0 -0.082509194984251868 0.46007906520350089 0 -0.090265281749681819 0.45351850901298468 0 -0.093944937474792503 0.46462082789344678 0 -0.094675553767973264 0.45076758317000298 0 -0.1045507464645692 0.47475835774787573 0 -0.094675553767973264 0.45076758317000298 0 -0.1045507464645692 0.47475835774787573 0 -0.1087715055698807 0.4588247561088431 0 -0.094675553767973264 0.45076758317000298 0 -0.1045507464645692 0.47475835774787573 0 -0.1126245701039178 0.4308246085444013 0 -0.1090807961073193 0.44665325123332839 0 -0.10338783084247161 0.44098956532991213 0 -0.097170403390676049 0.43571281837191522 0 -0.094675553767973264 0.45076758317000298 0 -0.10338783084247161 0.44098956532991213 0 -0.1087715055698807 0.4588247561088431 0 -0.094675553767973264 0.45076758317000298 0 -0.1090807961073193 0.44665325123332839 0 -0.094675553767973264 0.45076758317000298 0 -0.1090807961073193 0.44665325123332839 0 -0.10338783084247161 0.44098956532991213 0 -0.1126245701039178 0.4308246085444013 0 -0.1090807961073193 0.44665325123332839 0 -0.1242648033483075 0.43981492828754482 0 -0.1090807961073193 0.44665325123332839 0 -0.1242648033483075 0.43981492828754482 0 -0.1204057133641486 0.45504160574272429 0 -0.1087715055698807 0.4588247561088431 0 -0.1176294132596279 0.46872710166108278 0 -0.1045507464645692 0.47475835774787573 0 -0.1087715055698807 0.4588247561088431 0 -0.1204057133641486 0.45504160574272429 0 -0.1176294132596279 0.46872710166108278 0 -0.1087715055698807 0.4588247561088431 0 -0.1090807961073193 0.44665325123332839 0 -0.1204057133641486 0.45504160574272429 0 -0.13097929143795109 0.46459511115351071 0 -0.1204057133641486 0.45504160574272429 0 -0.1176294132596279 0.46872710166108278 0 -0.12908554574303099 0.47755934496718438 0 -0.1176294132596279 0.46872710166108278 0 -0.1160402402672886 0.48503019582547341 0 -0.1176294132596279 0.46872710166108278 0 -0.1160402402672886 0.48503019582547341 0 -0.1045507464645692 0.47475835774787573 0 -0.13803845513632401 0.5 0 -0.1097654836520903 0.5 0 -0.1160402402672886 0.48503019582547341 0 -0.1097654836520903 0.5 0 -0.1160402402672886 0.48503019582547341 0 -0.099362977551805121 0.48745008538217821 0 -0.081492512167856565 0.50000000000000011 0 -0.1097654836520903 0.5 0 -0.099362977551805121 0.48745008538217821 0 -0.085878896958769185 0.47675925450649242 0 -0.093944937474792503 0.46462082789344678 0 -0.1045507464645692 0.47475835774787573 0 -0.085878896958769185 0.47675925450649242 0 -0.099362977551805121 0.48745008538217821 0 -0.1045507464645692 0.47475835774787573 0 -0.1160402402672886 0.48503019582547341 0 -0.099362977551805121 0.48745008538217821 0 -0.1045507464645692 0.47475835774787573 0 -0.15850742705232401 0.077073165420907211 0 -0.17832815471062741 0.080370175701138483 0 -0.15596223049933161 0.089669487892629185 0 -0.17128916945913089 0.092189477241546317 0 -0.17832815471062741 0.080370175701138483 0 -0.15596223049933161 0.089669487892629185 0 -0.17832815471062741 0.080370175701138483 0 -0.15596223049933161 0.089669487892629185 0 -0.15850742705232401 0.077073165420907211 0 -0.16907692184479731 0.071953328836937142 0 -0.17832815471062741 0.080370175701138483 0 -0.15850742705232401 0.077073165420907211 0 -0.15722519427174569 0.065058312825911402 0 -0.16907692184479731 0.071953328836937142 0 -0.16907692184479731 0.071953328836937142 0 -0.1809864334298861 0.069780609401686525 0 -0.17832815471062741 0.080370175701138483 0 -0.16907692184479731 0.071953328836937142 0 -0.1809864334298861 0.069780609401686525 0 -0.18167022033174851 0.056262687610226528 0 -0.1809864334298861 0.069780609401686525 0 -0.17832815471062741 0.080370175701138483 0 -0.20069407892192309 0.071070863509647808 0 -0.1809864334298861 0.069780609401686525 0 -0.18167022033174851 0.056262687610226528 0 -0.1876556690991136 0.063313821709693935 0 -0.17128916945913089 0.092189477241546317 0 -0.18444466814129201 0.081023499242751457 0 -0.17631468167186989 0.1066384650542631 0 -0.17128916945913089 0.092189477241546317 0 -0.18444466814129201 0.081023499242751457 0 -0.17832815471062741 0.080370175701138483 0 -0.18444466814129201 0.081023499242751457 0 -0.17631468167186989 0.1066384650542631 0 -0.19937405773042491 0.1071019237599893 0 -0.17631468167186989 0.1066384650542631 0 -0.16393492635195239 0.1245978723337525 0 -0.1795193575176991 0.1294692331289829 0 -0.17631468167186989 0.1066384650542631 0 -0.19937405773042491 0.1071019237599893 0 -0.1795193575176991 0.1294692331289829 0 -0.16393492635195239 0.1245978723337525 0 -0.16139611227253359 0.1032457583169494 0 -0.15311233888185891 0.1152965378839053 0 -0.17631468167186989 0.1066384650542631 0 -0.16393492635195239 0.1245978723337525 0 -0.16139611227253359 0.1032457583169494 0 -0.17128916945913089 0.092189477241546317 0 -0.17631468167186989 0.1066384650542631 0 -0.16139611227253359 0.1032457583169494 0 -0.17128916945913089 0.092189477241546317 0 -0.16139611227253359 0.1032457583169494 0 -0.15596223049933161 0.089669487892629185 0 -0.16139611227253359 0.1032457583169494 0 -0.13359630628803579 0.098968800084119873 0 -0.15596223049933161 0.089669487892629185 0 -0.16139611227253359 0.1032457583169494 0 -0.15311233888185891 0.1152965378839053 0 -0.13359630628803579 0.098968800084119873 0 -0.13359630628803579 0.098968800084119873 0 -0.15596223049933161 0.089669487892629185 0 -0.15311233888185891 0.1152965378839053 0 -0.13930859898956699 0.1145050369687237 0 -0.153752621985453 0.14073392350839439 0 -0.15311233888185891 0.1152965378839053 0 -0.13930859898956699 0.1145050369687237 0 -0.13359630628803579 0.098968800084119873 0 -0.13930859898956699 0.1145050369687237 0 -0.12607259725238279 0.11330641960449821 0 -0.12916618827146031 0.12390190950899049 0 -0.13930859898956699 0.1145050369687237 0 -0.12607259725238279 0.11330641960449821 0 -0.13359630628803579 0.098968800084119873 0 -0.13359630628803579 0.098968800084119873 0 -0.12697672020224329 0.087309090757334687 0 -0.14089006822782121 0.082531143958766096 0 -0.12697672020224329 0.087309090757334687 0 -0.14089006822782121 0.082531143958766096 0 -0.12697985749263241 0.07630636069427757 0 -0.15850742705232401 0.077073165420907211 0 -0.14089006822782121 0.082531143958766096 0 -0.15596223049933161 0.089669487892629185 0 -0.13359630628803579 0.098968800084119873 0 -0.14089006822782121 0.082531143958766096 0 -0.15596223049933161 0.089669487892629185 0 -0.15850742705232401 0.077073165420907211 0 -0.14089006822782121 0.082531143958766096 0 -0.14764327064684279 0.071644858797684771 0 -0.15722519427174569 0.065058312825911402 0 -0.14764327064684279 0.071644858797684771 0 -0.1471722955607111 0.059591957907519158 0 -0.15850742705232401 0.077073165420907211 0 -0.15722519427174569 0.065058312825911402 0 -0.14764327064684279 0.071644858797684771 0 -0.14089006822782121 0.082531143958766096 0 -0.14764327064684279 0.071644858797684771 0 -0.13666502121529681 0.069478967649866344 0 -0.14764327064684279 0.071644858797684771 0 -0.13666502121529681 0.069478967649866344 0 -0.1471722955607111 0.059591957907519158 0 -0.14089006822782121 0.082531143958766096 0 -0.13666502121529681 0.069478967649866344 0 -0.12697985749263241 0.07630636069427757 0 -0.13666502121529681 0.069478967649866344 0 -0.12697985749263241 0.07630636069427757 0 -0.12509646681095879 0.065597408261105467 0 -0.13666502121529681 0.069478967649866344 0 -0.12509646681095879 0.065597408261105467 0 -0.13233523162579211 0.057527865090889828 0 -0.13233523162579211 0.057527865090889828 0 -0.1197320338084647 0.057760070231756527 0 -0.1244920148619628 0.050381604022983993 0 -0.12509646681095879 0.065597408261105467 0 -0.13233523162579211 0.057527865090889828 0 -0.1197320338084647 0.057760070231756527 0 -0.13666502121529681 0.069478967649866344 0 -0.13233523162579211 0.057527865090889828 0 -0.1471722955607111 0.059591957907519158 0 -0.13233523162579211 0.057527865090889828 0 -0.131277092146349 0.043237905602295942 0 -0.1435202772377579 0.047601805401877667 0 -0.13233523162579211 0.057527865090889828 0 -0.131277092146349 0.043237905602295942 0 -0.1244920148619628 0.050381604022983993 0 -0.131277092146349 0.043237905602295942 0 -0.14194951185496399 0.035172378083737049 0 -0.12424451236807239 0.027069144312366941 0 -0.131277092146349 0.043237905602295942 0 -0.12424451236807239 0.027069144312366941 0 -0.12075472355362291 0.04122338309529356 0 -0.131277092146349 0.043237905602295942 0 -0.12075472355362291 0.04122338309529356 0 -0.1244920148619628 0.050381604022983993 0 -0.131277092146349 0.043237905602295942 0 -0.14194951185496399 0.035172378083737049 0 -0.1435202772377579 0.047601805401877667 0 -0.14194951185496399 0.035172378083737049 0 -0.15126073753592009 0.02487777788828089 0 -0.1637260562540532 0.045028253166508762 0 -0.14194951185496399 0.035172378083737049 0 -0.1435202772377579 0.047601805401877667 0 -0.1637260562540532 0.045028253166508762 0 -0.15722519427174569 0.065058312825911402 0 -0.1471722955607111 0.059591957907519158 0 -0.1637260562540532 0.045028253166508762 0 -0.1471722955607111 0.059591957907519158 0 -0.1435202772377579 0.047601805401877667 0 -0.1637260562540532 0.045028253166508762 0 -0.13233523162579211 0.057527865090889828 0 -0.1471722955607111 0.059591957907519158 0 -0.1435202772377579 0.047601805401877667 0 -0.1244522405185825 -0.00038769298458709092 0 -0.1310798501921922 0.016754836893075501 0 -0.12424451236807239 0.027069144312366941 0 -0.1244522405185825 -0.00038769298458709092 0 -0.13302987177733741 0.0072862060594841918 0 -0.1310798501921922 0.016754836893075501 0 -0.13796817939809339 -7.5853332940862265e-05 0 -0.13302987177733741 0.0072862060594841918 0 -0.13861921700048169 0.01285353366238922 0 -0.1244522405185825 -0.00038769298458709092 0 -0.13796817939809339 -7.5853332940862265e-05 0 -0.13302987177733741 0.0072862060594841918 0 -0.13302987177733741 0.0072862060594841918 0 -0.13861921700048169 0.01285353366238922 0 -0.1310798501921922 0.016754836893075501 0 -0.14194951185496399 0.035172378083737049 0 -0.1395360945068517 0.023372288850015029 0 -0.12424451236807239 0.027069144312366941 0 -0.13861921700048169 0.01285353366238922 0 -0.1395360945068517 0.023372288850015029 0 -0.1310798501921922 0.016754836893075501 0 -0.1395360945068517 0.023372288850015029 0 -0.1310798501921922 0.016754836893075501 0 -0.12424451236807239 0.027069144312366941 0 -0.14194951185496399 0.035172378083737049 0 -0.1395360945068517 0.023372288850015029 0 -0.15126073753592009 0.02487777788828089 0 -0.15126073753592009 0.02487777788828089 0 -0.15188271994169991 0.01786916074884114 0 -0.14657132146084931 0.01677767438903701 0 -0.15126073753592009 0.02487777788828089 0 -0.15837519066330749 0.018103177496080571 0 -0.1567842680697151 0.017821512483746641 0 -0.15126073753592009 0.02487777788828089 0 -0.15188271994169991 0.01786916074884114 0 -0.1567842680697151 0.017821512483746641 0 -0.1543123506052223 0.01567032783345056 0 -0.15188271994169991 0.01786916074884114 0 -0.1567842680697151 0.017821512483746641 0 -0.13861921700048169 0.01285353366238922 0 -0.1395360945068517 0.023372288850015029 0 -0.14657132146084931 0.01677767438903701 0 -0.1395360945068517 0.023372288850015029 0 -0.15126073753592009 0.02487777788828089 0 -0.14657132146084931 0.01677767438903701 0 -0.15381676672243971 -0.0048344028756085976 0 -0.13796817939809339 -7.5853332940862265e-05 0 -0.14598604308907309 0.0075397954886723484 0 -0.15381676672243971 -0.0048344028756085976 0 -0.15837519066330749 0.018103177496080571 0 -0.15381676672243971 -0.0048344028756085976 0 -0.15182406541376531 0.011854288846745499 0 -0.15837519066330749 0.018103177496080571 0 -0.15381676672243971 -0.0048344028756085976 0 -0.15182406541376531 0.011854288846745499 0 -0.14598604308907309 0.0075397954886723484 0 -0.13861921700048169 0.01285353366238922 0 -0.14657132146084931 0.01677767438903701 0 -0.14598604308907309 0.0075397954886723484 0 -0.14657132146084931 0.01677767438903701 0 -0.15182406541376531 0.011854288846745499 0 -0.14598604308907309 0.0075397954886723484 0 -0.15188271994169991 0.01786916074884114 0 -0.14657132146084931 0.01677767438903701 0 -0.15182406541376531 0.011854288846745499 0 -0.1543123506052223 0.01567032783345056 0 -0.15182406541376531 0.011854288846745499 0 -0.15837519066330749 0.018103177496080571 0 -0.1543123506052223 0.01567032783345056 0 -0.15188271994169991 0.01786916074884114 0 -0.15182406541376531 0.011854288846745499 0 -0.13796817939809339 -7.5853332940862265e-05 0 -0.13861921700048169 0.01285353366238922 0 -0.14598604308907309 0.0075397954886723484 0 -0.15381676672243971 -0.0048344028756085976 0 -0.16872927738725291 0.0066655648670224509 0 -0.15837519066330749 0.018103177496080571 0 -0.16872927738725291 0.0066655648670224509 0 -0.15837519066330749 0.018103177496080571 0 -0.17312315274812851 0.016956976572924821 0 -0.15837519066330749 0.018103177496080571 0 -0.17088268452158301 0.030303691123205939 0 -0.18416549926151529 0.022669224655560441 0 -0.15837519066330749 0.018103177496080571 0 -0.17088268452158301 0.030303691123205939 0 -0.1637260562540532 0.045028253166508762 0 -0.15126073753592009 0.02487777788828089 0 -0.15837519066330749 0.018103177496080571 0 -0.1637260562540532 0.045028253166508762 0 -0.15837519066330749 0.018103177496080571 0 -0.18416549926151529 0.022669224655560441 0 -0.1543123506052223 0.01567032783345056 0 -0.15837519066330749 0.018103177496080571 0 -0.1567842680697151 0.017821512483746641 0 -0.15837519066330749 0.018103177496080571 0 -0.1567842680697151 0.017821512483746641 0 -0.15837519066330749 0.018103177496080571 0 -0.18416549926151529 0.022669224655560441 0 -0.17312315274812851 0.016956976572924821 0 -0.17088268452158301 0.030303691123205939 0 -0.18416549926151529 0.022669224655560441 0 -0.1815242396402782 0.037713578252632912 0 -0.18416549926151529 0.022669224655560441 0 -0.17919408738426101 0.017592611389363012 0 -0.18518118592807509 0.0154377595936586 0 -0.18416549926151529 0.022669224655560441 0 -0.17312315274812851 0.016956976572924821 0 -0.17919408738426101 0.017592611389363012 0 -0.1785064095432054 -0.0066611219507198768 0 -0.16872927738725291 0.0066655648670224509 0 -0.193034969706537 0.00064734206737222756 0 -0.16872927738725291 0.0066655648670224509 0 -0.193034969706537 0.00064734206737222756 0 -0.16872927738725291 0.0066655648670224509 0 -0.18518118592807509 0.0154377595936586 0 -0.193034969706537 0.00064734206737222756 0 -0.16872927738725291 0.0066655648670224509 0 -0.17919408738426101 0.017592611389363012 0 -0.18518118592807509 0.0154377595936586 0 -0.16872927738725291 0.0066655648670224509 0 -0.17312315274812851 0.016956976572924821 0 -0.17919408738426101 0.017592611389363012 0 -0.16907692184479731 0.071953328836937142 0 -0.1637260562540532 0.045028253166508762 0 -0.18167022033174851 0.056262687610226528 0 -0.15722519427174569 0.065058312825911402 0 -0.16907692184479731 0.071953328836937142 0 -0.1637260562540532 0.045028253166508762 0 -0.16907692184479731 0.071953328836937142 0 -0.1637260562540532 0.045028253166508762 0 -0.15837519066330749 0.018103177496080571 0 -0.1637260562540532 0.045028253166508762 0 -0.17088268452158301 0.030303691123205939 0 -0.1637260562540532 0.045028253166508762 0 -0.1815242396402782 0.037713578252632912 0 -0.1815242396402782 0.037713578252632912 0 -0.18167022033174851 0.056262687610226528 0 -0.1948999673891425 0.045815662425189529 0 -0.1637260562540532 0.045028253166508762 0 -0.1815242396402782 0.037713578252632912 0 -0.18167022033174851 0.056262687610226528 0 -0.18416549926151529 0.022669224655560441 0 -0.1815242396402782 0.037713578252632912 0 -0.19539241544158811 0.034915353149486399 0 -0.19598386328254799 0.058823167906541372 0 -0.20873259774339259 0.055173182954087172 0 -0.20069407892192309 0.071070863509647808 0 -0.18167022033174851 0.056262687610226528 0 -0.19598386328254799 0.058823167906541372 0 -0.1876556690991136 0.063313821709693935 0 -0.19598386328254799 0.058823167906541372 0 -0.1948999673891425 0.045815662425189529 0 -0.20873259774339259 0.055173182954087172 0 -0.18167022033174851 0.056262687610226528 0 -0.19598386328254799 0.058823167906541372 0 -0.1948999673891425 0.045815662425189529 0 -0.1815242396402782 0.037713578252632912 0 -0.1948999673891425 0.045815662425189529 0 -0.19539241544158811 0.034915353149486399 0 -0.1948999673891425 0.045815662425189529 0 -0.19539241544158811 0.034915353149486399 0 -0.20641656305728129 0.041143028599009299 0 -0.20641656305728129 0.041143028599009299 0 -0.20995580785972329 0.027235271815039791 0 -0.22080882119384479 0.043900986742667819 0 -0.19539241544158811 0.034915353149486399 0 -0.20641656305728129 0.041143028599009299 0 -0.20995580785972329 0.027235271815039791 0 -0.20641656305728129 0.041143028599009299 0 -0.20873259774339259 0.055173182954087172 0 -0.22080882119384479 0.043900986742667819 0 -0.20873259774339259 0.055173182954087172 0 -0.2267202713125637 0.058975611642501508 0 -0.2176358721649875 0.072186860311035453 0 -0.1948999673891425 0.045815662425189529 0 -0.20641656305728129 0.041143028599009299 0 -0.20873259774339259 0.055173182954087172 0 -0.20993853639106591 -0.0035380738047605968 0 -0.2009137908539024 0.01431144198083124 0 -0.193034969706537 0.00064734206737222756 0 -0.18518118592807509 0.0154377595936586 0 -0.2009137908539024 0.01431144198083124 0 -0.193034969706537 0.00064734206737222756 0 -0.18518118592807509 0.0154377595936586 0 -0.193034969706537 0.00064734206737222756 0 -0.18416549926151529 0.022669224655560441 0 -0.20995580785972329 0.027235271815039791 0 -0.18416549926151529 0.022669224655560441 0 -0.18518118592807509 0.0154377595936586 0 -0.2009137908539024 0.01431144198083124 0 -0.18416549926151529 0.022669224655560441 0 -0.2009137908539024 0.01431144198083124 0 -0.20995580785972329 0.027235271815039791 0 -0.18416549926151529 0.022669224655560441 0 -0.19539241544158811 0.034915353149486399 0 -0.20995580785972329 0.027235271815039791 0 -0.2009137908539024 0.01431144198083124 0 -0.20995580785972329 0.027235271815039791 0 -0.21568563774484731 0.0082874278720449449 0 -0.20993853639106591 -0.0035380738047605968 0 -0.2009137908539024 0.01431144198083124 0 -0.21568563774484731 0.0082874278720449449 0 -0.22684210307559549 -0.0077234896768903086 0 -0.21568563774484731 0.0082874278720449449 0 -0.23077795054394901 0.01115198904600462 0 -0.22684210307559549 -0.0077234896768903086 0 -0.23077795054394901 0.01115198904600462 0 -0.20995580785972329 0.027235271815039791 0 -0.21568563774484731 0.0082874278720449449 0 -0.23077795054394901 0.01115198904600462 0 -0.20995580785972329 0.027235271815039791 0 -0.2357461164579312 0.03180131897451912 0 -0.20995580785972329 0.027235271815039791 0 -0.23077795054394901 0.01115198904600462 0 -0.2357461164579312 0.03180131897451912 0 -0.23077795054394901 0.01115198904600462 0 -0.24854849079604721 0.020569936005881421 0 -0.2357461164579312 0.03180131897451912 0 -0.26153642505613889 0.036367366133998442 0 -0.24854849079604721 0.020569936005881421 0 -0.2357461164579312 0.03180131897451912 0 -0.23077795054394901 0.01115198904600462 0 -0.24854849079604721 0.020569936005881421 0 -0.24598119983726671 0.0037338506766126851 0 -0.22684210307559549 -0.0077234896768903086 0 -0.23077795054394901 0.01115198904600462 0 -0.24598119983726671 0.0037338506766126851 0 -0.20873259774339259 0.055173182954087172 0 -0.2267202713125637 0.058975611642501508 0 -0.22080882119384479 0.043900986742667819 0 -0.2267202713125637 0.058975611642501508 0 -0.22080882119384479 0.043900986742667819 0 -0.239388393447095 0.04766651035075449 0 -0.22080882119384479 0.043900986742667819 0 -0.2357461164579312 0.03180131897451912 0 -0.239388393447095 0.04766651035075449 0 -0.20995580785972329 0.027235271815039791 0 -0.22080882119384479 0.043900986742667819 0 -0.2357461164579312 0.03180131897451912 0 -0.26153642505613889 0.036367366133998442 0 -0.2357461164579312 0.03180131897451912 0 -0.26153642505613889 0.036367366133998442 0 -0.2357461164579312 0.03180131897451912 0 -0.239388393447095 0.04766651035075449 0 -0.25116276906762952 0.054241108780248931 0 -0.239388393447095 0.04766651035075449 0 -0.24035595759446179 0.060712669830591162 0 -0.2267202713125637 0.058975611642501508 0 -0.239388393447095 0.04766651035075449 0 -0.24035595759446179 0.060712669830591162 0 -0.25116276906762952 0.054241108780248931 0 -0.24035595759446179 0.060712669830591162 0 -0.24829977196364941 0.065213336215906109 0 -0.2267202713125637 0.058975611642501508 0 -0.24035595759446179 0.060712669830591162 0 -0.23791909572611269 0.075142721002645518 0 -0.24035595759446179 0.060712669830591162 0 -0.24829977196364941 0.065213336215906109 0 -0.23791909572611269 0.075142721002645518 0 -0.25064083865024739 0.073628726666345984 0 -0.23791909572611269 0.075142721002645518 0 -0.24857020570659841 0.081659589420377987 0 -0.25064083865024739 0.073628726666345984 0 -0.24829977196364941 0.065213336215906109 0 -0.23791909572611269 0.075142721002645518 0 -0.23791909572611269 0.075142721002645518 0 -0.2427234934652894 0.090762762990284518 0 -0.22646138453880821 0.085461994072224837 0 -0.25413031243694739 0.089521027236778197 0 -0.2427234934652894 0.090762762990284518 0 -0.24857020570659841 0.081659589420377987 0 -0.23791909572611269 0.075142721002645518 0 -0.2427234934652894 0.090762762990284518 0 -0.24857020570659841 0.081659589420377987 0 -0.2267202713125637 0.058975611642501508 0 -0.23791909572611269 0.075142721002645518 0 -0.2176358721649875 0.072186860311035453 0 -0.23791909572611269 0.075142721002645518 0 -0.22646138453880821 0.085461994072224837 0 -0.2176358721649875 0.072186860311035453 0 -0.20873259774339259 0.055173182954087172 0 -0.2176358721649875 0.072186860311035453 0 -0.20069407892192309 0.071070863509647808 0 -0.2176358721649875 0.072186860311035453 0 -0.20525373999263671 0.08640341449760941 0 -0.20069407892192309 0.071070863509647808 0 -0.22646138453880821 0.085461994072224837 0 -0.2176358721649875 0.072186860311035453 0 -0.20525373999263671 0.08640341449760941 0 -0.22646138453880821 0.085461994072224837 0 -0.20525373999263671 0.08640341449760941 0 -0.2161514522581473 0.1006972439961434 0 -0.18444466814129201 0.081023499242751457 0 -0.20525373999263671 0.08640341449760941 0 -0.20069407892192309 0.071070863509647808 0 -0.18444466814129201 0.081023499242751457 0 -0.20525373999263671 0.08640341449760941 0 -0.19937405773042491 0.1071019237599893 0 -0.17832815471062741 0.080370175701138483 0 -0.20069407892192309 0.071070863509647808 0 -0.18444466814129201 0.081023499242751457 0 -0.17832815471062741 0.080370175701138483 0 -0.20069407892192309 0.071070863509647808 0 -0.1809864334298861 0.069780609401686525 0 -0.1876556690991136 0.063313821709693935 0 -0.20069407892192309 0.071070863509647808 0 -0.19598386328254799 0.058823167906541372 0 -0.1876556690991136 0.063313821709693935 0 -0.20069407892192309 0.071070863509647808 0 -0.19937405773042491 0.1071019237599893 0 -0.2161514522581473 0.1006972439961434 0 -0.21430344731955769 0.133180348277227 0 -0.19937405773042491 0.1071019237599893 0 -0.19727411993202021 0.1275714443648302 0 -0.1795193575176991 0.1294692331289829 0 -0.18444466814129201 0.081023499242751457 0 -0.19937405773042491 0.1071019237599893 0 -0.20525373999263671 0.08640341449760941 0 -0.19937405773042491 0.1071019237599893 0 -0.2161514522581473 0.1006972439961434 0 -0.19937405773042491 0.1071019237599893 0 -0.21430344731955769 0.133180348277227 0 -0.19937405773042491 0.1071019237599893 0 -0.19727411993202021 0.1275714443648302 0 -0.21430344731955769 0.133180348277227 0 -0.2161514522581473 0.1006972439961434 0 -0.23231730930006211 0.10853516007106349 0 -0.21430344731955769 0.133180348277227 0 -0.2427234934652894 0.090762762990284518 0 -0.22646138453880821 0.085461994072224837 0 -0.23231730930006211 0.10853516007106349 0 -0.22646138453880821 0.085461994072224837 0 -0.2161514522581473 0.1006972439961434 0 -0.23231730930006211 0.10853516007106349 0 -0.25610310449345419 0.1041046972302731 0 -0.2427234934652894 0.090762762990284518 0 -0.23231730930006211 0.10853516007106349 0 -0.25610310449345419 0.1041046972302731 0 -0.23231730930006211 0.10853516007106349 0 -0.2495823492922267 0.12121763785839371 0 -0.23231730930006211 0.10853516007106349 0 -0.2495823492922267 0.12121763785839371 0 -0.23849568892714909 0.13696143350773771 0 -0.23231730930006211 0.10853516007106349 0 -0.23849568892714909 0.13696143350773771 0 -0.25477231595188199 0.13792181725732239 0 -0.2495823492922267 0.12121763785839371 0 -0.23849568892714909 0.13696143350773771 0 -0.23231730930006211 0.10853516007106349 0 -0.23849568892714909 0.13696143350773771 0 -0.21430344731955769 0.133180348277227 0 -0.23849568892714909 0.13696143350773771 0 -0.22923283690869051 0.15925877279446471 0 -0.21430344731955769 0.133180348277227 0 -0.22923283690869051 0.15925877279446471 0 -0.21430344731955769 0.133180348277227 0 -0.2543915534089356 0.15018751405662761 0 -0.23849568892714909 0.13696143350773771 0 -0.24467406855423091 0.1653877069444131 0 -0.23849568892714909 0.13696143350773771 0 -0.24467406855423091 0.1653877069444131 0 -0.22923283690869051 0.15925877279446471 0 -0.2543915534089356 0.15018751405662761 0 -0.25477231595188199 0.13792181725732239 0 -0.23849568892714909 0.13696143350773771 0 -0.23849568892714909 0.13696143350773771 0 -0.24467406855423091 0.1653877069444131 0 -0.24467406855423091 0.1653877069444131 0 -0.2350219134637796 0.18103954803765679 0 -0.22379977898383499 0.16989282922580509 0 -0.24467406855423091 0.1653877069444131 0 -0.24947341468037071 0.1874691479585941 0 -0.2350219134637796 0.18103954803765679 0 -0.24467406855423091 0.1653877069444131 0 -0.24947341468037071 0.1874691479585941 0 -0.2350219134637796 0.18103954803765679 0 -0.22004124654446131 0.18611549732905991 0 -0.22379977898383499 0.16989282922580509 0 -0.24467406855423091 0.1653877069444131 0 -0.22379977898383499 0.16989282922580509 0 -0.22923283690869051 0.15925877279446471 0 -0.22379977898383499 0.16989282922580509 0 -0.22923283690869051 0.15925877279446471 0 -0.20989634202023699 0.1560844752241346 0 -0.24467406855423091 0.1653877069444131 0 -0.22379977898383499 0.16989282922580509 0 -0.22379977898383499 0.16989282922580509 0 -0.20292548941343971 0.17439795150720031 0 -0.20989634202023699 0.1560844752241346 0 -0.20292548941343971 0.17439795150720031 0 -0.20989634202023699 0.1560844752241346 0 -0.17833905569944569 0.15756593750779829 0 -0.22379977898383499 0.16989282922580509 0 -0.20292548941343971 0.17439795150720031 0 -0.22004124654446131 0.18611549732905991 0 -0.22379977898383499 0.16989282922580509 0 -0.20292548941343971 0.17439795150720031 0 -0.22004124654446131 0.18611549732905991 0 -0.20292548941343971 0.17439795150720031 0 -0.22004124654446131 0.18611549732905991 0 -0.20292548941343971 0.17439795150720031 0 -0.20568385543668641 0.19260324117033031 0 -0.20292548941343971 0.17439795150720031 0 -0.1757122088887666 0.1802711648698879 0 -0.20292548941343971 0.17439795150720031 0 -0.1897130520823497 0.19444680225630501 0 -0.1757122088887666 0.1802711648698879 0 -0.20292548941343971 0.17439795150720031 0 -0.20568385543668641 0.19260324117033031 0 -0.1897130520823497 0.19444680225630501 0 -0.20292548941343971 0.17439795150720031 0 -0.17833905569944569 0.15756593750779829 0 -0.19589961716039911 0.1405342722931214 0 -0.20989634202023699 0.1560844752241346 0 -0.17833905569944569 0.15756593750779829 0 -0.19727411993202021 0.1275714443648302 0 -0.19589961716039911 0.1405342722931214 0 -0.1795193575176991 0.1294692331289829 0 -0.19727411993202021 0.1275714443648302 0 -0.19589961716039911 0.1405342722931214 0 -0.21430344731955769 0.133180348277227 0 -0.22923283690869051 0.15925877279446471 0 -0.21430344731955769 0.133180348277227 0 -0.20989634202023699 0.1560844752241346 0 -0.19589961716039911 0.1405342722931214 0 -0.21430344731955769 0.133180348277227 0 -0.20989634202023699 0.1560844752241346 0 -0.23288038931281729 0.23888496135878451 0 -0.21994142138302111 0.22426230620998819 0 -0.21218175950055909 0.24952722652004439 0 -0.22667039518801041 0.25355429459537898 0 -0.23288038931281729 0.23888496135878451 0 -0.21218175950055909 0.24952722652004439 0 -0.2416444700809012 0.25186566196455601 0 -0.22667039518801041 0.25355429459537898 0 -0.23288038931281729 0.23888496135878451 0 -0.2416444700809012 0.25186566196455601 0 -0.23288038931281729 0.23888496135878451 0 -0.2470081454867771 0.2422065880623451 0 -0.25693865295534157 0.25278860643768353 0 -0.2416444700809012 0.25186566196455601 0 -0.2470081454867771 0.2422065880623451 0 -0.25109603964961891 0.234366577265785 0 -0.2470081454867771 0.2422065880623451 0 -0.24424918889796191 0.23342051569475999 0 -0.23288038931281729 0.23888496135878451 0 -0.2470081454867771 0.2422065880623451 0 -0.24424918889796191 0.23342051569475999 0 -0.23288038931281729 0.23888496135878451 0 -0.24424918889796191 0.23342051569475999 0 -0.2396805993576108 0.22455316273993289 0 -0.24424918889796191 0.23342051569475999 0 -0.249817319625419 0.2274340479663062 0 -0.2396805993576108 0.22455316273993289 0 -0.25109603964961891 0.234366577265785 0 -0.24424918889796191 0.23342051569475999 0 -0.249817319625419 0.2274340479663062 0 -0.249817319625419 0.2274340479663062 0 -0.24904636230289101 0.22050689045355901 0 -0.2396805993576108 0.22455316273993289 0 -0.24904636230289101 0.22050689045355901 0 -0.2396805993576108 0.22455316273993289 0 -0.24333230173327219 0.21221501244476959 0 -0.2396805993576108 0.22455316273993289 0 -0.21994142138302111 0.22426230620998819 0 -0.23304733008138001 0.21339205942673259 0 -0.23288038931281729 0.23888496135878451 0 -0.2396805993576108 0.22455316273993289 0 -0.21994142138302111 0.22426230620998819 0 -0.21994142138302111 0.22426230620998819 0 -0.22770108326548311 0.19899738589993199 0 -0.210353022999335 0.20567537760669019 0 -0.21994142138302111 0.22426230620998819 0 -0.23304733008138001 0.21339205942673259 0 -0.22770108326548311 0.19899738589993199 0 -0.21994142138302111 0.22426230620998819 0 -0.22770108326548311 0.19899738589993199 0 -0.23304733008138001 0.21339205942673259 0 -0.2346933251094325 0.20523388649383931 0 -0.22770108326548311 0.19899738589993199 0 -0.25427276080650663 0.20955058897277601 0 -0.23715700367548431 0.1978330431509176 0 -0.2396805993576108 0.22455316273993289 0 -0.23304733008138001 0.21339205942673259 0 -0.24333230173327219 0.21221501244476959 0 -0.25427276080650663 0.20955058897277601 0 -0.24333230173327219 0.21221501244476959 0 -0.23715700367548431 0.1978330431509176 0 -0.25561524088587501 0.21572724177218369 0 -0.24904636230289101 0.22050689045355901 0 -0.24333230173327219 0.21221501244476959 0 -0.24333230173327219 0.21221501244476959 0 -0.2346933251094325 0.20523388649383931 0 -0.23715700367548431 0.1978330431509176 0 -0.23304733008138001 0.21339205942673259 0 -0.24333230173327219 0.21221501244476959 0 -0.2346933251094325 0.20523388649383931 0 -0.25427276080650663 0.20955058897277601 0 -0.24947341468037071 0.1874691479585941 0 -0.23715700367548431 0.1978330431509176 0 -0.24947341468037071 0.1874691479585941 0 -0.2350219134637796 0.18103954803765679 0 -0.23715700367548431 0.1978330431509176 0 -0.22004124654446131 0.18611549732905991 0 -0.23715700367548431 0.1978330431509176 0 -0.22004124654446131 0.18611549732905991 0 -0.23715700367548431 0.1978330431509176 0 -0.22770108326548311 0.19899738589993199 0 -0.2350219134637796 0.18103954803765679 0 -0.22004124654446131 0.18611549732905991 0 -0.23715700367548431 0.1978330431509176 0 -0.2346933251094325 0.20523388649383931 0 -0.23715700367548431 0.1978330431509176 0 -0.22770108326548311 0.19899738589993199 0 -0.22004124654446131 0.18611549732905991 0 -0.22770108326548311 0.19899738589993199 0 -0.21594480206149139 0.19584787550150309 0 -0.22770108326548311 0.19899738589993199 0 -0.21594480206149139 0.19584787550150309 0 -0.210353022999335 0.20567537760669019 0 -0.22004124654446131 0.18611549732905991 0 -0.21594480206149139 0.19584787550150309 0 -0.20568385543668641 0.19260324117033031 0 -0.21594480206149139 0.19584787550150309 0 -0.20568385543668641 0.19260324117033031 0 -0.210353022999335 0.20567537760669019 0 -0.20568385543668641 0.19260324117033031 0 -0.19800517532583911 0.2033181044808495 0 -0.210353022999335 0.20567537760669019 0 -0.20568385543668641 0.19260324117033031 0 -0.1897130520823497 0.19444680225630501 0 -0.19800517532583911 0.2033181044808495 0 -0.1897130520823497 0.19444680225630501 0 -0.19800517532583911 0.2033181044808495 0 -0.1863200837324982 0.20555600776477401 0 -0.19800517532583911 0.2033181044808495 0 -0.19795586237832599 0.21830909360614789 0 -0.210353022999335 0.20567537760669019 0 -0.19800517532583911 0.2033181044808495 0 -0.19795586237832599 0.21830909360614789 0 -0.1863200837324982 0.20555600776477401 0 -0.19795586237832599 0.21830909360614789 0 -0.18240126852579899 0.21930684119835961 0 -0.1863200837324982 0.20555600776477401 0 -0.21994142138302111 0.22426230620998819 0 -0.19795586237832599 0.21830909360614789 0 -0.210353022999335 0.20567537760669019 0 -0.21994142138302111 0.22426230620998819 0 -0.19795586237832599 0.21830909360614789 0 -0.20314208847108339 0.23556135501649109 0 -0.19795586237832599 0.21830909360614789 0 -0.18651378479530609 0.23505073182760211 0 -0.18240126852579899 0.21930684119835961 0 -0.19795586237832599 0.21830909360614789 0 -0.20314208847108339 0.23556135501649109 0 -0.18651378479530609 0.23505073182760211 0 -0.1929026130837673 0.25762258695206858 0 -0.20314208847108339 0.23556135501649109 0 -0.18651378479530609 0.23505073182760211 0 -0.1929026130837673 0.25762258695206858 0 -0.20314208847108339 0.23556135501649109 0 -0.21218175950055909 0.24952722652004439 0 -0.21994142138302111 0.22426230620998819 0 -0.21218175950055909 0.24952722652004439 0 -0.21994142138302111 0.22426230620998819 0 -0.20314208847108339 0.23556135501649109 0 -0.21218175950055909 0.24952722652004439 0 -0.16582228118094081 0.26466105519565358 0 -0.18651378479530609 0.23505073182760211 0 -0.1608218935138386 0.23306973899941771 0 -0.16582228118094081 0.26466105519565358 0 -0.14534546737678511 0.25129379472131641 0 -0.1608218935138386 0.23306973899941771 0 -0.18651378479530609 0.23505073182760211 0 -0.1608218935138386 0.23306973899941771 0 -0.18651378479530609 0.23505073182760211 0 -0.18240126852579899 0.21930684119835961 0 -0.1608218935138386 0.23306973899941771 0 -0.1608218935138386 0.23306973899941771 0 -0.16716432822862029 0.21469463307327219 0 -0.14537567171977789 0.21373021027012479 0 -0.18240126852579899 0.21930684119835961 0 -0.1608218935138386 0.23306973899941771 0 -0.16716432822862029 0.21469463307327219 0 -0.16716432822862029 0.21469463307327219 0 -0.15728284033457929 0.19872471446884221 0 -0.14537567171977789 0.21373021027012479 0 -0.16716432822862029 0.21469463307327219 0 -0.1863200837324982 0.20555600776477401 0 -0.15728284033457929 0.19872471446884221 0 -0.18240126852579899 0.21930684119835961 0 -0.16716432822862029 0.21469463307327219 0 -0.1863200837324982 0.20555600776477401 0 -0.1863200837324982 0.20555600776477401 0 -0.1747365466553682 0.1940095109997643 0 -0.15728284033457929 0.19872471446884221 0 -0.1897130520823497 0.19444680225630501 0 -0.1863200837324982 0.20555600776477401 0 -0.1747365466553682 0.1940095109997643 0 -0.1897130520823497 0.19444680225630501 0 -0.1747365466553682 0.1940095109997643 0 -0.1757122088887666 0.1802711648698879 0 -0.1747365466553682 0.1940095109997643 0 -0.16534449221108169 0.19019064904669619 0 -0.1757122088887666 0.1802711648698879 0 -0.1863200837324982 0.20555600776477401 0 -0.15728284033457929 0.19872471446884221 0 -0.1747365466553682 0.1940095109997643 0 -0.16534449221108169 0.19019064904669619 0 -0.15728284033457929 0.19872471446884221 0 -0.16534449221108169 0.19019064904669619 0 -0.15728284033457929 0.19872471446884221 0 -0.15629575781976141 0.184461654133797 0 -0.15728284033457929 0.19872471446884221 0 -0.12824559693666041 0.19189342117291039 0 -0.15629575781976141 0.184461654133797 0 -0.15728284033457929 0.19872471446884221 0 -0.12824559693666041 0.19189342117291039 0 -0.14537567171977789 0.21373021027012479 0 -0.15728284033457929 0.19872471446884221 0 -0.12824559693666041 0.19189342117291039 0 -0.12824559693666041 0.19189342117291039 0 -0.14537567171977789 0.21373021027012479 0 -0.1242544958201173 0.21504107598638081 0 -0.1608218935138386 0.23306973899941771 0 -0.14537567171977789 0.21373021027012479 0 -0.13513000223237101 0.23108874617123329 0 -0.1608218935138386 0.23306973899941771 0 -0.13513000223237101 0.23108874617123329 0 -0.14537567171977789 0.21373021027012479 0 -0.13513000223237101 0.23108874617123329 0 -0.1242544958201173 0.21504107598638081 0 -0.14534546737678511 0.25129379472131641 0 -0.13513000223237101 0.23108874617123329 0 -0.12470300375741469 0.2457033751303839 0 -0.14534546737678511 0.25129379472131641 0 -0.1608218935138386 0.23306973899941771 0 -0.13513000223237101 0.23108874617123329 0 -0.17833905569944569 0.15756593750779829 0 -0.1561619761378806 0.16047685630827471 0 -0.153752621985453 0.14073392350839439 0 -0.1795193575176991 0.1294692331289829 0 -0.17833905569944569 0.15756593750779829 0 -0.153752621985453 0.14073392350839439 0 -0.17833905569944569 0.15756593750779829 0 -0.153752621985453 0.14073392350839439 0 -0.16393492635195239 0.1245978723337525 0 -0.15311233888185891 0.1152965378839053 0 -0.153752621985453 0.14073392350839439 0 -0.16393492635195239 0.1245978723337525 0 -0.1795193575176991 0.1294692331289829 0 -0.153752621985453 0.14073392350839439 0 -0.19589961716039911 0.1405342722931214 0 -0.1795193575176991 0.1294692331289829 0 -0.17833905569944569 0.15756593750779829 0 -0.20292548941343971 0.17439795150720031 0 -0.17833905569944569 0.15756593750779829 0 -0.1757122088887666 0.1802711648698879 0 -0.1897130520823497 0.19444680225630501 0 -0.1757122088887666 0.1802711648698879 0 -0.16534449221108169 0.19019064904669619 0 -0.1757122088887666 0.1802711648698879 0 -0.15629575781976141 0.184461654133797 0 -0.1757122088887666 0.1802711648698879 0 -0.15629575781976141 0.184461654133797 0 -0.1757122088887666 0.1802711648698879 0 -0.15629575781976141 0.184461654133797 0 -0.1561619761378806 0.16047685630827471 0 -0.17833905569944569 0.15756593750779829 0 -0.1757122088887666 0.1802711648698879 0 -0.1561619761378806 0.16047685630827471 0 -0.1757122088887666 0.1802711648698879 0 -0.1561619761378806 0.16047685630827471 0 -0.1561619761378806 0.16047685630827471 0 -0.14126926821389521 0.17232478353634881 0 -0.1371080151487378 0.15864895140394189 0 -0.15629575781976141 0.184461654133797 0 -0.1561619761378806 0.16047685630827471 0 -0.14126926821389521 0.17232478353634881 0 -0.12824559693666041 0.19189342117291039 0 -0.15629575781976141 0.184461654133797 0 -0.14126926821389521 0.17232478353634881 0 -0.12824559693666041 0.19189342117291039 0 -0.14126926821389521 0.17232478353634881 0 -0.1248941403316576 0.1686438139500778 0 -0.14126926821389521 0.17232478353634881 0 -0.1371080151487378 0.15864895140394189 0 -0.1248941403316576 0.1686438139500778 0 -0.1371080151487378 0.15864895140394189 0 -0.1239269324459726 0.1539154783358255 0 -0.1248941403316576 0.1686438139500778 0 -0.1371080151487378 0.15864895140394189 0 -0.13661174338699569 0.1406825477466605 0 -0.1239269324459726 0.1539154783358255 0 -0.1561619761378806 0.16047685630827471 0 -0.13661174338699569 0.1406825477466605 0 -0.1561619761378806 0.16047685630827471 0 -0.13661174338699569 0.1406825477466605 0 -0.153752621985453 0.14073392350839439 0 -0.1561619761378806 0.16047685630827471 0 -0.1371080151487378 0.15864895140394189 0 -0.13661174338699569 0.1406825477466605 0 -0.12916618827146031 0.12390190950899049 0 -0.153752621985453 0.14073392350839439 0 -0.13930859898956699 0.1145050369687237 0 -0.12916618827146031 0.12390190950899049 0 -0.153752621985453 0.14073392350839439 0 -0.13661174338699569 0.1406825477466605 0 -0.11706151063611089 0.1208882391850464 0 -0.12916618827146031 0.12390190950899049 0 -0.13661174338699569 0.1406825477466605 0 -0.11706151063611089 0.1208882391850464 0 -0.12916618827146031 0.12390190950899049 0 -0.13661174338699569 0.1406825477466605 0 -0.153752621985453 0.14073392350839439 0 -0.13661174338699569 0.1406825477466605 0 -0.11473911200363 0.13153944404780621 0 -0.1132109842275667 0.1430328284895945 0 -0.13661174338699569 0.1406825477466605 0 -0.11473911200363 0.13153944404780621 0 -0.11706151063611089 0.1208882391850464 0 -0.11473911200363 0.13153944404780621 0 -0.1039338124667491 0.13009472872812991 0 -0.1132109842275667 0.1430328284895945 0 -0.11473911200363 0.13153944404780621 0 -0.1039338124667491 0.13009472872812991 0 -0.10601879130899509 0.12208205668825579 0 -0.1039338124667491 0.13009472872812991 0 -0.093398168270057425 0.14218175111966569 0 -0.093946486761182085 0.1175508364221631 0 -0.1039338124667491 0.13009472872812991 0 -0.1132109842275667 0.1430328284895945 0 -0.093398168270057425 0.14218175111966569 0 -0.1078097791349048 0.15856925008885259 0 -0.089544080768145809 0.16137822361845131 0 -0.093398168270057425 0.14218175111966569 0 -0.1132109842275667 0.1430328284895945 0 -0.1078097791349048 0.15856925008885259 0 -0.093398168270057425 0.14218175111966569 0 -0.13661174338699569 0.1406825477466605 0 -0.1132109842275667 0.1430328284895945 0 -0.1239269324459726 0.1539154783358255 0 -0.1132109842275667 0.1430328284895945 0 -0.1239269324459726 0.1539154783358255 0 -0.1078097791349048 0.15856925008885259 0 -0.1248941403316576 0.1686438139500778 0 -0.099208353538741523 0.18506212787697859 0 -0.1078097791349048 0.15856925008885259 0 -0.1239269324459726 0.1539154783358255 0 -0.1248941403316576 0.1686438139500778 0 -0.1078097791349048 0.15856925008885259 0 -0.12824559693666041 0.19189342117291039 0 -0.1248941403316576 0.1686438139500778 0 -0.099208353538741523 0.18506212787697859 0 -0.099208353538741523 0.18506212787697859 0 -0.1078097791349048 0.15856925008885259 0 -0.089544080768145809 0.16137822361845131 0 -0.089544080768145809 0.16137822361845131 0 -0.070171110140822543 0.1782308345810468 0 -0.074669823138777097 0.15727584041375819 0 -0.099208353538741523 0.18506212787697859 0 -0.089544080768145809 0.16137822361845131 0 -0.070171110140822543 0.1782308345810468 0 -0.099208353538741523 0.18506212787697859 0 -0.070171110140822543 0.1782308345810468 0 -0.070171110140822543 0.1782308345810468 0 -0.074669823138777097 0.15727584041375819 0 -0.057722578482997257 0.16273086802879619 0 -0.074669823138777097 0.15727584041375819 0 -0.066369438716585821 0.14892706699039879 0 -0.057722578482997257 0.16273086802879619 0 -0.074669823138777097 0.15727584041375819 0 -0.066369438716585821 0.14892706699039879 0 -0.074733199104357148 0.14603812585323231 0 -0.074669823138777097 0.15727584041375819 0 -0.074733199104357148 0.14603812585323231 0 -0.082756465015383474 0.1492386270883771 0 -0.074733199104357148 0.14603812585323231 0 -0.067315024607703278 0.13662092079142449 0 -0.081437053795579945 0.1393191944367777 0 -0.066369438716585821 0.14892706699039879 0 -0.074733199104357148 0.14603812585323231 0 -0.067315024607703278 0.13662092079142449 0 -0.066369438716585821 0.14892706699039879 0 -0.067315024607703278 0.13662092079142449 0 -0.054361576129613079 0.15178129246158931 0 -0.067315024607703278 0.13662092079142449 0 -0.088852304720190942 0.12644129241805541 0 -0.067315024607703278 0.13662092079142449 0 -0.088852304720190942 0.12644129241805541 0 -0.075786521408142987 0.12443322189858901 0 -0.067315024607703278 0.13662092079142449 0 -0.062016764747578973 0.12884034001808189 0 -0.075786521408142987 0.12443322189858901 0 -0.088852304720190942 0.12644129241805541 0 -0.093398168270057425 0.14218175111966569 0 -0.093946486761182085 0.1175508364221631 0 -0.067315024607703278 0.13662092079142449 0 -0.081437053795579945 0.1393191944367777 0 -0.088852304720190942 0.12644129241805541 0 -0.093398168270057425 0.14218175111966569 0 -0.093946486761182085 0.1175508364221631 0 -0.081437053795579945 0.1393191944367777 0 -0.088852304720190942 0.12644129241805541 0 -0.093398168270057425 0.14218175111966569 0 -0.089544080768145809 0.16137822361845131 0 -0.093398168270057425 0.14218175111966569 0 -0.082756465015383474 0.1492386270883771 0 -0.089544080768145809 0.16137822361845131 0 -0.074669823138777097 0.15727584041375819 0 -0.082756465015383474 0.1492386270883771 0 -0.074733199104357148 0.14603812585323231 0 -0.081437053795579945 0.1393191944367777 0 -0.082756465015383474 0.1492386270883771 0 -0.081437053795579945 0.1393191944367777 0 -0.093398168270057425 0.14218175111966569 0 -0.082756465015383474 0.1492386270883771 0 -0.11076524853809321 0.25238606884059173 0 -0.1094381109509034 0.22910775334304889 0 -0.091345724210048884 0.23566487628332011 0 -0.11076524853809321 0.25238606884059173 0 -0.092391857727521592 0.25884509119311472 0 -0.091345724210048884 0.23566487628332011 0 -0.13513000223237101 0.23108874617123329 0 -0.12470300375741469 0.2457033751303839 0 -0.1094381109509034 0.22910775334304889 0 -0.11076524853809321 0.25238606884059173 0 -0.12470300375741469 0.2457033751303839 0 -0.1094381109509034 0.22910775334304889 0 -0.13513000223237101 0.23108874617123329 0 -0.1094381109509034 0.22910775334304889 0 -0.13513000223237101 0.23108874617123329 0 -0.1094381109509034 0.22910775334304889 0 -0.1242544958201173 0.21504107598638081 0 -0.1094381109509034 0.22910775334304889 0 -0.10308309726087379 0.20938524897458621 0 -0.091345724210048884 0.23566487628332011 0 -0.1094381109509034 0.22910775334304889 0 -0.10308309726087379 0.20938524897458621 0 -0.1242544958201173 0.21504107598638081 0 -0.12824559693666041 0.19189342117291039 0 -0.10308309726087379 0.20938524897458621 0 -0.1242544958201173 0.21504107598638081 0 -0.12824559693666041 0.19189342117291039 0 -0.099208353538741523 0.18506212787697859 0 -0.12824559693666041 0.19189342117291039 0 -0.099208353538741523 0.18506212787697859 0 -0.10308309726087379 0.20938524897458621 0 -0.099208353538741523 0.18506212787697859 0 -0.070171110140822543 0.1782308345810468 0 -0.078220861930521898 0.21057701145176541 0 -0.070171110140822543 0.1782308345810468 0 -0.078220861930521898 0.21057701145176541 0 -0.056949983849450658 0.19269083667038239 0 -0.099208353538741523 0.18506212787697859 0 -0.10308309726087379 0.20938524897458621 0 -0.078220861930521898 0.21057701145176541 0 -0.078220861930521898 0.21057701145176541 0 -0.056178602179823331 0.21732906463454121 0 -0.056949983849450658 0.19269083667038239 0 -0.10308309726087379 0.20938524897458621 0 -0.078220861930521898 0.21057701145176541 0 -0.091345724210048884 0.23566487628332011 0 -0.078220861930521898 0.21057701145176541 0 -0.069221313838413207 0.24642852661517459 0 -0.091345724210048884 0.23566487628332011 0 -0.078220861930521898 0.21057701145176541 0 -0.069221313838413207 0.24642852661517459 0 -0.056178602179823331 0.21732906463454121 0 -0.092391857727521592 0.25884509119311472 0 -0.069221313838413207 0.24642852661517459 0 -0.091345724210048884 0.23566487628332011 0 -0.033382390283993792 0.24359412621706661 0 -0.046050769949304807 0.23401196203723451 0 -0.025866468353912139 0.2289639569827632 0 -0.048126263350958612 0.25465777805589501 0 -0.033382390283993792 0.24359412621706661 0 -0.046050769949304807 0.23401196203723451 0 -0.048126263350958612 0.25465777805589501 0 -0.069221313838413207 0.24642852661517459 0 -0.046050769949304807 0.23401196203723451 0 -0.069221313838413207 0.24642852661517459 0 -0.046050769949304807 0.23401196203723451 0 -0.069221313838413207 0.24642852661517459 0 -0.046050769949304807 0.23401196203723451 0 -0.056178602179823331 0.21732906463454121 0 -0.046050769949304807 0.23401196203723451 0 -0.03692704292774221 0.2147422921961073 0 -0.025866468353912139 0.2289639569827632 0 -0.046050769949304807 0.23401196203723451 0 -0.03692704292774221 0.2147422921961073 0 -0.056178602179823331 0.21732906463454121 0 -0.03692704292774221 0.2147422921961073 0 -0.056178602179823331 0.21732906463454121 0 -0.044221089124866657 0.20193605474889509 0 -0.03692704292774221 0.2147422921961073 0 -0.044221089124866657 0.20193605474889509 0 -0.032331133115066808 0.19858524020914661 0 -0.056178602179823331 0.21732906463454121 0 -0.056949983849450658 0.19269083667038239 0 -0.044221089124866657 0.20193605474889509 0 -0.056949983849450658 0.19269083667038239 0 -0.040360849617421202 0.18777351164107661 0 -0.044221089124866657 0.20193605474889509 0 -0.040360849617421202 0.18777351164107661 0 -0.032331133115066808 0.19858524020914661 0 -0.026751027678188599 0.18229597604057349 0 -0.040360849617421202 0.18777351164107661 0 -0.044221089124866657 0.20193605474889509 0 -0.032331133115066808 0.19858524020914661 0 -0.016914194843479571 0.2076274745640635 0 -0.026751027678188599 0.18229597604057349 0 -0.032331133115066808 0.19858524020914661 0 -0.016914194843479571 0.2076274745640635 0 -0.026751027678188599 0.18229597604057349 0 -0.01405220631290922 0.19352016069679451 0 -0.016914194843479571 0.2076274745640635 0 -0.026751027678188599 0.18229597604057349 0 -0.01405220631290922 0.19352016069679451 0 -0.0012364494800765971 0.1960628175593882 0 -0.01891215499648707 0.1765136475382359 0 -0.01405220631290922 0.19352016069679451 0 -0.0012364494800765971 0.1960628175593882 0 -0.0064787008301582438 0.20475797647738719 0 -0.0012364494800765971 0.1960628175593882 0 -0.0064787008301582438 0.20475797647738719 0 0.003893562275735573 0.2064819102401671 0 -0.01405220631290922 0.19352016069679451 0 -0.0064787008301582438 0.20475797647738719 0 -0.016914194843479571 0.2076274745640635 0 -0.0045317147067566524 0.21522543551468479 0 -0.016914194843479571 0.2076274745640635 0 -0.0070773620087705444 0.23295897308755351 0 -0.0064787008301582438 0.20475797647738719 0 -0.0045317147067566524 0.21522543551468479 0 -0.016914194843479571 0.2076274745640635 0 -0.0064787008301582438 0.20475797647738719 0 -0.0045317147067566524 0.21522543551468479 0 0.003893562275735573 0.2064819102401671 0 -0.03692704292774221 0.2147422921961073 0 -0.016914194843479571 0.2076274745640635 0 -0.025866468353912139 0.2289639569827632 0 -0.03692704292774221 0.2147422921961073 0 -0.032331133115066808 0.19858524020914661 0 -0.016914194843479571 0.2076274745640635 0 -0.016914194843479571 0.2076274745640635 0 -0.025866468353912139 0.2289639569827632 0 -0.0070773620087705444 0.23295897308755351 0 -0.016914194843479571 0.2076274745640635 0 -0.0070773620087705444 0.23295897308755351 0 -0.0045317147067566524 0.21522543551468479 0 -0.0070773620087705444 0.23295897308755351 0 0.0038866256090455522 0.2239579318999283 0 -0.0070773620087705444 0.23295897308755351 0 0.001894876929373096 0.24743045501984201 0 0.0027594708259384838 0.25829047161104352 0 -0.0070773620087705444 0.23295897308755351 0 0.0027594708259384838 0.25829047161104352 0 -0.0087132352456033638 0.25173417187717928 0 -0.0070773620087705444 0.23295897308755351 0 -0.01778818590069102 0.2421293126167848 0 -0.0087132352456033638 0.25173417187717928 0 -0.0070773620087705444 0.23295897308755351 0 0.0027594708259384838 0.25829047161104352 0 -0.025866468353912139 0.2289639569827632 0 -0.0070773620087705444 0.23295897308755351 0 -0.01778818590069102 0.2421293126167848 0 -0.028053557715267439 0.25838243531431121 0 -0.033382390283993792 0.24359412621706661 0 -0.01778818590069102 0.2421293126167848 0 -0.033382390283993792 0.24359412621706661 0 -0.025866468353912139 0.2289639569827632 0 -0.01778818590069102 0.2421293126167848 0 -0.044416936009294992 0.14744373737619401 0 -0.030319635528424791 0.14770209815471691 0 -0.021396469969749188 0.1374028974533886 0 -0.044416936009294992 0.14744373737619401 0 -0.030319635528424791 0.14770209815471691 0 -0.027639103276038759 0.15537380566908321 0 -0.044416936009294992 0.14744373737619401 0 -0.038116788675066252 0.15302723042411279 0 -0.027639103276038759 0.15537380566908321 0 -0.044416936009294992 0.14744373737619401 0 -0.041458398192443832 0.13942314763129199 0 -0.021396469969749188 0.1374028974533886 0 -0.044416936009294992 0.14744373737619401 0 -0.027639103276038759 0.15537380566908321 0 -0.044416936009294992 0.14744373737619401 0 -0.021396469969749188 0.1374028974533886 0 -0.044416936009294992 0.14744373737619401 0 -0.036587860512897558 0.15696447751708351 0 -0.044416936009294992 0.14744373737619401 0 -0.047012455662473793 0.15786975055381819 0 -0.036587860512897558 0.15696447751708351 0 -0.044416936009294992 0.14744373737619401 0 -0.038116788675066252 0.15302723042411279 0 -0.036587860512897558 0.15696447751708351 0 -0.038116788675066252 0.15302723042411279 0 -0.036587860512897558 0.15696447751708351 0 -0.027639103276038759 0.15537380566908321 0 -0.038116788675066252 0.15302723042411279 0 -0.036587860512897558 0.15696447751708351 0 -0.037500573576258918 0.13069979942664511 0 -0.041458398192443832 0.13942314763129199 0 -0.021396469969749188 0.1374028974533886 0 -0.037500573576258918 0.13069979942664511 0 -0.028643554108799551 0.12806760582925611 0 -0.034668926388748328 0.1237436995229996 0 -0.037500573576258918 0.13069979942664511 0 -0.047589673205635397 0.1324549890601831 0 -0.046884900963607742 0.11986348336078891 0 -0.037500573576258918 0.13069979942664511 0 -0.041458398192443832 0.13942314763129199 0 -0.047589673205635397 0.1324549890601831 0 -0.044416936009294992 0.14744373737619401 0 -0.041458398192443832 0.13942314763129199 0 -0.047589673205635397 0.1324549890601831 0 -0.067315024607703278 0.13662092079142449 0 -0.044416936009294992 0.14744373737619401 0 -0.062016764747578973 0.12884034001808189 0 -0.044416936009294992 0.14744373737619401 0 -0.062016764747578973 0.12884034001808189 0 -0.044416936009294992 0.14744373737619401 0 -0.047589673205635397 0.1324549890601831 0 -0.062016764747578973 0.12884034001808189 0 -0.047589673205635397 0.1324549890601831 0 -0.062016764747578973 0.12884034001808189 0 -0.046884900963607742 0.11986348336078891 0 -0.067315024607703278 0.13662092079142449 0 -0.044416936009294992 0.14744373737619401 0 -0.054361576129613079 0.15178129246158931 0 -0.067315024607703278 0.13662092079142449 0 -0.044416936009294992 0.14744373737619401 0 -0.044416936009294992 0.14744373737619401 0 -0.054361576129613079 0.15178129246158931 0 -0.044416936009294992 0.14744373737619401 0 -0.054361576129613079 0.15178129246158931 0 -0.047012455662473793 0.15786975055381819 0 -0.066369438716585821 0.14892706699039879 0 -0.054361576129613079 0.15178129246158931 0 -0.057722578482997257 0.16273086802879619 0 -0.057722578482997257 0.16273086802879619 0 -0.050411583818504503 0.1777900037548745 0 -0.045636115300606919 0.16650756778262649 0 -0.054361576129613079 0.15178129246158931 0 -0.057722578482997257 0.16273086802879619 0 -0.047012455662473793 0.15786975055381819 0 -0.057722578482997257 0.16273086802879619 0 -0.047012455662473793 0.15786975055381819 0 -0.045636115300606919 0.16650756778262649 0 -0.070171110140822543 0.1782308345810468 0 -0.056949983849450658 0.19269083667038239 0 -0.050411583818504503 0.1777900037548745 0 -0.070171110140822543 0.1782308345810468 0 -0.057722578482997257 0.16273086802879619 0 -0.050411583818504503 0.1777900037548745 0 -0.056949983849450658 0.19269083667038239 0 -0.040360849617421202 0.18777351164107661 0 -0.050411583818504503 0.1777900037548745 0 -0.040360849617421202 0.18777351164107661 0 -0.050411583818504503 0.1777900037548745 0 -0.039949487385523758 0.17426630734724691 0 -0.050411583818504503 0.1777900037548745 0 -0.039949487385523758 0.17426630734724691 0 -0.045636115300606919 0.16650756778262649 0 -0.040360849617421202 0.18777351164107661 0 -0.039949487385523758 0.17426630734724691 0 -0.026751027678188599 0.18229597604057349 0 -0.039949487385523758 0.17426630734724691 0 -0.036587860512897558 0.15696447751708351 0 -0.026751027678188599 0.18229597604057349 0 -0.036587860512897558 0.15696447751708351 0 -0.026751027678188599 0.18229597604057349 0 -0.039949487385523758 0.17426630734724691 0 -0.045636115300606919 0.16650756778262649 0 -0.036587860512897558 0.15696447751708351 0 -0.047012455662473793 0.15786975055381819 0 -0.045636115300606919 0.16650756778262649 0 -0.036587860512897558 0.15696447751708351 0 -0.01891215499648707 0.1765136475382359 0 -0.010861270542782259 0.1633038739619718 0 -0.027639103276038759 0.15537380566908321 0 -0.010861270542782259 0.1633038739619718 0 -0.027639103276038759 0.15537380566908321 0 -0.036587860512897558 0.15696447751708351 0 -0.01891215499648707 0.1765136475382359 0 -0.036587860512897558 0.15696447751708351 0 -0.01891215499648707 0.1765136475382359 0 -0.027639103276038759 0.15537380566908321 0 -0.01405220631290922 0.19352016069679451 0 -0.01891215499648707 0.1765136475382359 0 -0.026751027678188599 0.18229597604057349 0 -0.036587860512897558 0.15696447751708351 0 -0.01891215499648707 0.1765136475382359 0 -0.026751027678188599 0.18229597604057349 0 -0.01891215499648707 0.1765136475382359 0 -0.010861270542782259 0.1633038739619718 0 0.00061104658230836653 0.17769045695541219 0 -0.0012364494800765971 0.1960628175593882 0 -0.01891215499648707 0.1765136475382359 0 0.00061104658230836653 0.17769045695541219 0 -0.0012364494800765971 0.1960628175593882 0 -0.01891215499648707 0.1765136475382359 0 -0.010861270542782259 0.1633038739619718 0 0.001788155555331062 0.1557637096651584 0 0.00061104658230836653 0.17769045695541219 0 -0.01542264584752753 0.14956457798035719 0 -0.015783289274076458 0.13495459563681389 0 0.001788155555331062 0.1557637096651584 0 -0.015783289274076458 0.13495459563681389 0 0.001788155555331062 0.1557637096651584 0 0.01185912902997375 0.14130758542593569 0 -0.010861270542782259 0.1633038739619718 0 -0.01542264584752753 0.14956457798035719 0 0.001788155555331062 0.1557637096651584 0 -0.015783289274076458 0.13495459563681389 0 0.001788155555331062 0.1557637096651584 0 -0.01542264584752753 0.14956457798035719 0 -0.023159931299824549 0.14839209377580129 0 -0.027639103276038759 0.15537380566908321 0 -0.010861270542782259 0.1633038739619718 0 -0.01542264584752753 0.14956457798035719 0 -0.027639103276038759 0.15537380566908321 0 -0.01542264584752753 0.14956457798035719 0 -0.023159931299824549 0.14839209377580129 0 -0.021396469969749188 0.1374028974533886 0 -0.01542264584752753 0.14956457798035719 0 -0.021396469969749188 0.1374028974533886 0 -0.015783289274076458 0.13495459563681389 0 -0.030319635528424791 0.14770209815471691 0 -0.021396469969749188 0.1374028974533886 0 -0.023159931299824549 0.14839209377580129 0 -0.030319635528424791 0.14770209815471691 0 -0.021396469969749188 0.1374028974533886 0 -0.023159931299824549 0.14839209377580129 0 -0.030319635528424791 0.14770209815471691 0 -0.027639103276038759 0.15537380566908321 0 -0.028643554108799551 0.12806760582925611 0 -0.017506847497941139 0.13291345901070739 0 -0.032144953111298558 0.1155781737325411 0 -0.037500573576258918 0.13069979942664511 0 -0.028643554108799551 0.12806760582925611 0 -0.021396469969749188 0.1374028974533886 0 -0.021396469969749188 0.1374028974533886 0 -0.015783289274076458 0.13495459563681389 0 -0.017506847497941139 0.13291345901070739 0 -0.021396469969749188 0.1374028974533886 0 -0.015783289274076458 0.13495459563681389 0 -0.021396469969749188 0.1374028974533886 0 -0.017506847497941139 0.13291345901070739 0 -0.015783289274076458 0.13495459563681389 0 -0.017506847497941139 0.13291345901070739 0 -0.028643554108799551 0.12806760582925611 0 -0.021396469969749188 0.1374028974533886 0 -0.017506847497941139 0.13291345901070739 0 -0.015783289274076458 0.13495459563681389 0 -0.017506847497941139 0.13291345901070739 0 -0.0052228475358298988 0.1187351519746004 0 -0.015783289274076458 0.13495459563681389 0 -0.0052228475358298988 0.1187351519746004 0 0.0081407562022233586 0.1245196413435004 0 -0.017506847497941139 0.13291345901070739 0 -0.0052228475358298988 0.1187351519746004 0 -0.015783289274076458 0.13495459563681389 0 0.0081407562022233586 0.1245196413435004 0 -0.0052228475358298988 0.1187351519746004 0 -0.0040597014752050652 0.1051126182356364 0 -0.02761291541641378 0.1090435214711212 0 -0.017506847497941139 0.13291345901070739 0 -0.0052228475358298988 0.1187351519746004 0 -0.019344259015361451 0.119617058157429 0 -0.0040597014752050652 0.1051126182356364 0 -0.01533391803445322 0.09737838425916874 0 0.0051087594610210148 0.080527692295617709 0 -0.0052228475358298988 0.1187351519746004 0 -0.0040597014752050652 0.1051126182356364 0 0.0092582498306486675 0.1020209346744549 0 -0.0040597014752050652 0.1051126182356364 0 -0.01533391803445322 0.09737838425916874 0 -0.02761291541641378 0.1090435214711212 0 -0.01533391803445322 0.09737838425916874 0 -0.027797722535604891 0.095528124355643507 0 -0.02761291541641378 0.1090435214711212 0 -0.0052228475358298988 0.1187351519746004 0 -0.02761291541641378 0.1090435214711212 0 -0.019344259015361451 0.119617058157429 0 -0.017506847497941139 0.13291345901070739 0 -0.019344259015361451 0.119617058157429 0 -0.032144953111298558 0.1155781737325411 0 -0.02761291541641378 0.1090435214711212 0 -0.019344259015361451 0.119617058157429 0 -0.032144953111298558 0.1155781737325411 0 -0.0052228475358298988 0.1187351519746004 0 -0.02761291541641378 0.1090435214711212 0 -0.017506847497941139 0.13291345901070739 0 -0.032144953111298558 0.1155781737325411 0 -0.0012292332505543029 0.06378464068123596 0 -0.011084303888442551 0.081696622097620714 0 -0.018620569400409771 0.06708533464306303 0 -0.0012292332505543029 0.06378464068123596 0 -0.011084303888442551 0.081696622097620714 0 0.0051087594610210148 0.080527692295617709 0 -0.01533391803445322 0.09737838425916874 0 -0.011084303888442551 0.081696622097620714 0 0.0051087594610210148 0.080527692295617709 0 -0.01533391803445322 0.09737838425916874 0 0.0051087594610210148 0.080527692295617709 0 -0.011084303888442551 0.081696622097620714 0 0.0051087594610210148 0.080527692295617709 0 -0.027797722535604891 0.095528124355643507 0 -0.011084303888442551 0.081696622097620714 0 -0.032921925083363349 0.0833654898886593 0 -0.01533391803445322 0.09737838425916874 0 -0.027797722535604891 0.095528124355643507 0 -0.011084303888442551 0.081696622097620714 0 -0.018620569400409771 0.06708533464306303 0 -0.031868141831282552 0.069818555696904067 0 -0.028283535649973771 0.053358049395037133 0 -0.018620569400409771 0.06708533464306303 0 -0.031868141831282552 0.069818555696904067 0 -0.032921925083363349 0.0833654898886593 0 -0.011084303888442551 0.081696622097620714 0 -0.018620569400409771 0.06708533464306303 0 -0.032921925083363349 0.0833654898886593 0 -0.046276495737503101 0.06795068115397529 0 -0.032921925083363349 0.0833654898886593 0 -0.055882409073029139 0.082732437330199013 0 -0.046276495737503101 0.06795068115397529 0 -0.031868141831282552 0.069818555696904067 0 -0.028283535649973771 0.053358049395037133 0 -0.046276495737503101 0.06795068115397529 0 -0.031868141831282552 0.069818555696904067 0 -0.032921925083363349 0.0833654898886593 0 -0.027797722535604891 0.095528124355643507 0 -0.032921925083363349 0.0833654898886593 0 -0.050002983296997462 0.099351890967641507 0 -0.032921925083363349 0.0833654898886593 0 -0.055882409073029139 0.082732437330199013 0 -0.050002983296997462 0.099351890967641507 0 -0.055882409073029139 0.082732437330199013 0 -0.050002983296997462 0.099351890967641507 0 -0.072393051177581158 0.089660260464161839 0 -0.046276495737503101 0.06795068115397529 0 -0.055882409073029139 0.082732437330199013 0 -0.062589921296568873 0.06642957971461419 0 -0.032144953111298558 0.1155781737325411 0 -0.050002983296997462 0.099351890967641507 0 -0.046884900963607742 0.11986348336078891 0 -0.037500573576258918 0.13069979942664511 0 -0.034668926388748328 0.1237436995229996 0 -0.046884900963607742 0.11986348336078891 0 -0.028643554108799551 0.12806760582925611 0 -0.034668926388748328 0.1237436995229996 0 -0.032144953111298558 0.1155781737325411 0 -0.034668926388748328 0.1237436995229996 0 -0.032144953111298558 0.1155781737325411 0 -0.046884900963607742 0.11986348336078891 0 -0.027797722535604891 0.095528124355643507 0 -0.02761291541641378 0.1090435214711212 0 -0.050002983296997462 0.099351890967641507 0 -0.02761291541641378 0.1090435214711212 0 -0.050002983296997462 0.099351890967641507 0 -0.02761291541641378 0.1090435214711212 0 -0.032144953111298558 0.1155781737325411 0 -0.050002983296997462 0.099351890967641507 0 -0.050002983296997462 0.099351890967641507 0 -0.072393051177581158 0.089660260464161839 0 -0.050002983296997462 0.099351890967641507 0 -0.062115440392200259 0.1100516779477724 0 -0.072393051177581158 0.089660260464161839 0 -0.062016764747578973 0.12884034001808189 0 -0.062115440392200259 0.1100516779477724 0 -0.046884900963607742 0.11986348336078891 0 -0.050002983296997462 0.099351890967641507 0 -0.062115440392200259 0.1100516779477724 0 -0.046884900963607742 0.11986348336078891 0 -0.062016764747578973 0.12884034001808189 0 -0.062115440392200259 0.1100516779477724 0 -0.07825578499994286 0.1108801308713713 0 -0.062016764747578973 0.12884034001808189 0 -0.07825578499994286 0.1108801308713713 0 -0.062016764747578973 0.12884034001808189 0 -0.075786521408142987 0.12443322189858901 0 -0.07825578499994286 0.1108801308713713 0 -0.088852304720190942 0.12644129241805541 0 -0.075786521408142987 0.12443322189858901 0 -0.083719546898917335 0.119699814685821 0 -0.083719546898917335 0.119699814685821 0 -0.07825578499994286 0.1108801308713713 0 -0.093946486761182085 0.1175508364221631 0 -0.075786521408142987 0.12443322189858901 0 -0.083719546898917335 0.119699814685821 0 -0.07825578499994286 0.1108801308713713 0 -0.088852304720190942 0.12644129241805541 0 -0.083719546898917335 0.119699814685821 0 -0.093946486761182085 0.1175508364221631 0 -0.07825578499994286 0.1108801308713713 0 -0.072393051177581158 0.089660260464161839 0 -0.094494805252306774 0.092919921724660626 0 -0.07825578499994286 0.1108801308713713 0 -0.094494805252306774 0.092919921724660626 0 -0.093946486761182085 0.1175508364221631 0 -0.07825578499994286 0.1108801308713713 0 -0.094494805252306774 0.092919921724660626 0 -0.062115440392200259 0.1100516779477724 0 -0.07825578499994286 0.1108801308713713 0 -0.072393051177581158 0.089660260464161839 0 -0.055882409073029139 0.082732437330199013 0 -0.072393051177581158 0.089660260464161839 0 -0.062589921296568873 0.06642957971461419 0 -0.072393051177581158 0.089660260464161839 0 -0.062589921296568873 0.06642957971461419 0 -0.079461892795990779 0.070449194571112136 0 -0.062589921296568873 0.06642957971461419 0 -0.079461892795990779 0.070449194571112136 0 -0.072380178782229632 0.053292134703331731 0 -0.079461892795990779 0.070449194571112136 0 -0.094783119058163612 0.079968629960679383 0 -0.095163193665411511 0.062895368012773595 0 -0.072393051177581158 0.089660260464161839 0 -0.079461892795990779 0.070449194571112136 0 -0.094783119058163612 0.079968629960679383 0 -0.072393051177581158 0.089660260464161839 0 -0.094494805252306774 0.092919921724660626 0 -0.094783119058163612 0.079968629960679383 0 -0.072393051177581158 0.089660260464161839 0 -0.094783119058163612 0.079968629960679383 0 -0.094494805252306774 0.092919921724660626 0 -0.1072570836689255 0.074569224449017327 0 -0.1143352617609841 0.070976556735617355 0 -0.094494805252306774 0.092919921724660626 0 -0.094783119058163612 0.079968629960679383 0 -0.1072570836689255 0.074569224449017327 0 -0.094494805252306774 0.092919921724660626 0 -0.094783119058163612 0.079968629960679383 0 -0.094494805252306774 0.092919921724660626 0 -0.1143352617609841 0.070976556735617355 0 -0.11134444788944529 0.091345452974062963 0 -0.094494805252306774 0.092919921724660626 0 -0.1143352617609841 0.070976556735617355 0 -0.094783119058163612 0.079968629960679383 0 -0.095163193665411511 0.062895368012773595 0 -0.094783119058163612 0.079968629960679383 0 -0.095163193665411511 0.062895368012773595 0 -0.1072570836689255 0.074569224449017327 0 -0.095163193665411511 0.062895368012773595 0 -0.1143352617609841 0.070976556735617355 0 -0.1079186055395126 0.059947093390224047 0 -0.095163193665411511 0.062895368012773595 0 -0.1072570836689255 0.074569224449017327 0 -0.1143352617609841 0.070976556735617355 0 -0.095163193665411511 0.062895368012773595 0 -0.1143352617609841 0.070976556735617355 0 -0.094783119058163612 0.079968629960679383 0 -0.1072570836689255 0.074569224449017327 0 -0.1131683311422218 0.062814464837820119 0 -0.1163519950294771 0.068746068028026575 0 -0.1143352617609841 0.070976556735617355 0 -0.1131683311422218 0.062814464837820119 0 -0.1143352617609841 0.070976556735617355 0 -0.1079186055395126 0.059947093390224047 0 -0.1131683311422218 0.062814464837820119 0 -0.1163519950294771 0.068746068028026575 0 -0.1185872066977806 0.063729502839677182 0 -0.1163519950294771 0.068746068028026575 0 -0.1143352617609841 0.070976556735617355 0 -0.12697985749263241 0.07630636069427757 0 -0.1143352617609841 0.070976556735617355 0 -0.12697985749263241 0.07630636069427757 0 -0.1143352617609841 0.070976556735617355 0 -0.1200161930876608 0.081776906418299489 0 -0.12697985749263241 0.07630636069427757 0 -0.1163519950294771 0.068746068028026575 0 -0.1143352617609841 0.070976556735617355 0 -0.12697985749263241 0.07630636069427757 0 -0.12509646681095879 0.065597408261105467 0 -0.1163519950294771 0.068746068028026575 0 -0.12509646681095879 0.065597408261105467 0 -0.1163519950294771 0.068746068028026575 0 -0.1185872066977806 0.063729502839677182 0 -0.13359630628803579 0.098968800084119873 0 -0.12697672020224329 0.087309090757334687 0 -0.11134444788944529 0.091345452974062963 0 -0.1143352617609841 0.070976556735617355 0 -0.11134444788944529 0.091345452974062963 0 -0.1200161930876608 0.081776906418299489 0 -0.12697672020224329 0.087309090757334687 0 -0.11134444788944529 0.091345452974062963 0 -0.1200161930876608 0.081776906418299489 0 -0.12697672020224329 0.087309090757334687 0 -0.12697985749263241 0.07630636069427757 0 -0.1200161930876608 0.081776906418299489 0 -0.12607259725238279 0.11330641960449821 0 -0.13359630628803579 0.098968800084119873 0 -0.11123038207674001 0.1082681122756106 0 -0.13359630628803579 0.098968800084119873 0 -0.11134444788944529 0.091345452974062963 0 -0.11123038207674001 0.1082681122756106 0 -0.13359630628803579 0.098968800084119873 0 -0.11123038207674001 0.1082681122756106 0 -0.11134444788944529 0.091345452974062963 0 -0.11123038207674001 0.1082681122756106 0 -0.1057361510920251 0.099277959283072717 0 -0.12607259725238279 0.11330641960449821 0 -0.11123038207674001 0.1082681122756106 0 -0.11706151063611089 0.1208882391850464 0 -0.12607259725238279 0.11330641960449821 0 -0.12916618827146031 0.12390190950899049 0 -0.11706151063611089 0.1208882391850464 0 -0.11473911200363 0.13153944404780621 0 -0.11706151063611089 0.1208882391850464 0 -0.10601879130899509 0.12208205668825579 0 -0.1036345166478785 0.1154037657297244 0 -0.093946486761182085 0.1175508364221631 0 -0.097511277885226108 0.1010939306234323 0 -0.11123038207674001 0.1082681122756106 0 -0.11706151063611089 0.1208882391850464 0 -0.097511277885226108 0.1010939306234323 0 -0.11706151063611089 0.1208882391850464 0 -0.1036345166478785 0.1154037657297244 0 -0.097511277885226108 0.1010939306234323 0 -0.11706151063611089 0.1208882391850464 0 -0.097511277885226108 0.1010939306234323 0 -0.11706151063611089 0.1208882391850464 0 -0.1036345166478785 0.1154037657297244 0 -0.10601879130899509 0.12208205668825579 0 -0.1039338124667491 0.13009472872812991 0 -0.10601879130899509 0.12208205668825579 0 -0.093946486761182085 0.1175508364221631 0 -0.1036345166478785 0.1154037657297244 0 -0.10601879130899509 0.12208205668825579 0 -0.093946486761182085 0.1175508364221631 0 -0.094494805252306774 0.092919921724660626 0 -0.11134444788944529 0.091345452974062963 0 -0.1057361510920251 0.099277959283072717 0 -0.094494805252306774 0.092919921724660626 0 -0.093946486761182085 0.1175508364221631 0 -0.094494805252306774 0.092919921724660626 0 -0.093946486761182085 0.1175508364221631 0 -0.097511277885226108 0.1010939306234323 0 -0.094494805252306774 0.092919921724660626 0 -0.097511277885226108 0.1010939306234323 0 -0.1057361510920251 0.099277959283072717 0 -0.11123038207674001 0.1082681122756106 0 -0.097511277885226108 0.1010939306234323 0 -0.1057361510920251 0.099277959283072717 0 -0.1001339578063882 0.022436777626384768 0 -0.09536928659882779 0.01424719335382847 0 -0.1128440433065038 0.01636018592503535 0 -0.1001339578063882 0.022436777626384768 0 -0.1128440433065038 0.01636018592503535 0 -0.1012358460944251 0.033108064834657697 0 -0.1128440433065038 0.01636018592503535 0 -0.11393466639619521 0.035004472642448957 0 -0.1012358460944251 0.033108064834657697 0 -0.1128440433065038 0.01636018592503535 0 -0.1012358460944251 0.033108064834657697 0 -0.1001339578063882 0.022436777626384768 0 -0.1012358460944251 0.033108064834657697 0 -0.091086655225796079 0.026031666392017531 0 -0.1001339578063882 0.022436777626384768 0 -0.09536928659882779 0.01424719335382847 0 -0.091086655225796079 0.026031666392017531 0 -0.10394313851700079 0.0020556251079679459 0 -0.09536928659882779 0.01424719335382847 0 -0.085958893623968774 0.001514634656162053 0 -0.10394313851700079 0.0020556251079679459 0 -0.09536928659882779 0.01424719335382847 0 -0.1128440433065038 0.01636018592503535 0 -0.1244522405185825 -0.00038769298458709092 0 -0.12424451236807239 0.027069144312366941 0 -0.1244522405185825 -0.00038769298458709092 0 -0.1128440433065038 0.01636018592503535 0 -0.12424451236807239 0.027069144312366941 0 -0.1244522405185825 -0.00038769298458709092 0 -0.1128440433065038 0.01636018592503535 0 -0.1244522405185825 -0.00038769298458709092 0 -0.10394313851700079 0.0020556251079679459 0 -0.1128440433065038 0.01636018592503535 0 -0.1128440433065038 0.01636018592503535 0 -0.12424451236807239 0.027069144312366941 0 -0.11393466639619521 0.035004472642448957 0 -0.12424451236807239 0.027069144312366941 0 -0.12075472355362291 0.04122338309529356 0 -0.11393466639619521 0.035004472642448957 0 -0.12075472355362291 0.04122338309529356 0 -0.1244920148619628 0.050381604022983993 0 -0.1151670195775447 0.0482238646449 0 -0.11393466639619521 0.035004472642448957 0 -0.1151670195775447 0.0482238646449 0 -0.10635909785250069 0.04125385698526951 0 -0.12075472355362291 0.04122338309529356 0 -0.11393466639619521 0.035004472642448957 0 -0.1151670195775447 0.0482238646449 0 -0.12509646681095879 0.065597408261105467 0 -0.1185872066977806 0.063729502839677182 0 -0.1197320338084647 0.057760070231756527 0 -0.1197320338084647 0.057760070231756527 0 -0.1244920148619628 0.050381604022983993 0 -0.1151670195775447 0.0482238646449 0 -0.1151670195775447 0.0482238646449 0 -0.1125210466915524 0.054978807834542787 0 -0.1051700993263314 0.050476507920077678 0 -0.1197320338084647 0.057760070231756527 0 -0.1151670195775447 0.0482238646449 0 -0.1125210466915524 0.054978807834542787 0 -0.1131683311422218 0.062814464837820119 0 -0.1197320338084647 0.057760070231756527 0 -0.1125210466915524 0.054978807834542787 0 -0.1131683311422218 0.062814464837820119 0 -0.1125210466915524 0.054978807834542787 0 -0.1079186055395126 0.059947093390224047 0 -0.1131683311422218 0.062814464837820119 0 -0.1185872066977806 0.063729502839677182 0 -0.1197320338084647 0.057760070231756527 0 -0.095163193665411511 0.062895368012773595 0 -0.1051700993263314 0.050476507920077678 0 -0.095336714328198874 0.041619114628837717 0 -0.095163193665411511 0.062895368012773595 0 -0.095336714328198874 0.041619114628837717 0 -0.1125210466915524 0.054978807834542787 0 -0.1079186055395126 0.059947093390224047 0 -0.1051700993263314 0.050476507920077678 0 -0.095163193665411511 0.062895368012773595 0 -0.1079186055395126 0.059947093390224047 0 -0.1051700993263314 0.050476507920077678 0 -0.11393466639619521 0.035004472642448957 0 -0.10635909785250069 0.04125385698526951 0 -0.1012358460944251 0.033108064834657697 0 -0.1051700993263314 0.050476507920077678 0 -0.10635909785250069 0.04125385698526951 0 -0.095336714328198874 0.041619114628837717 0 -0.1151670195775447 0.0482238646449 0 -0.1051700993263314 0.050476507920077678 0 -0.10635909785250069 0.04125385698526951 0 -0.095336714328198874 0.041619114628837717 0 -0.1012358460944251 0.033108064834657697 0 -0.08853862327275358 0.036894035852943478 0 -0.10635909785250069 0.04125385698526951 0 -0.095336714328198874 0.041619114628837717 0 -0.1012358460944251 0.033108064834657697 0 -0.095336714328198874 0.041619114628837717 0 -0.1012358460944251 0.033108064834657697 0 -0.1012358460944251 0.033108064834657697 0 -0.08853862327275358 0.036894035852943478 0 -0.091086655225796079 0.026031666392017531 0 -0.08853862327275358 0.036894035852943478 0 -0.081088353484909961 0.032020518526829703 0 -0.091086655225796079 0.026031666392017531 0 -0.08853862327275358 0.036894035852943478 0 -0.079654612676290371 0.043453985766932421 0 -0.089627648882346422 0.049855943744280047 0 -0.095336714328198874 0.041619114628837717 0 -0.08853862327275358 0.036894035852943478 0 -0.089627648882346422 0.049855943744280047 0 -0.095336714328198874 0.041619114628837717 0 -0.089627648882346422 0.049855943744280047 0 -0.08853862327275358 0.036894035852943478 0 -0.079654612676290371 0.043453985766932421 0 -0.081088353484909961 0.032020518526829703 0 -0.095163193665411511 0.062895368012773595 0 -0.089627648882346422 0.049855943744280047 0 -0.072380178782229632 0.053292134703331731 0 -0.095163193665411511 0.062895368012773595 0 -0.095336714328198874 0.041619114628837717 0 -0.089627648882346422 0.049855943744280047 0 -0.095163193665411511 0.062895368012773595 0 -0.072380178782229632 0.053292134703331731 0 -0.079461892795990779 0.070449194571112136 0 -0.095163193665411511 0.062895368012773595 0 -0.072380178782229632 0.053292134703331731 0 -0.079654612676290371 0.043453985766932421 0 -0.089627648882346422 0.049855943744280047 0 -0.072380178782229632 0.053292134703331731 0 -0.079654612676290371 0.043453985766932421 0 -0.072380178782229632 0.053292134703331731 0 -0.065785112224924183 0.037111289768743512 0 -0.072380178782229632 0.053292134703331731 0 -0.065785112224924183 0.037111289768743512 0 -0.049597163899048183 0.043688901393888827 0 -0.079654612676290371 0.043453985766932421 0 -0.081088353484909961 0.032020518526829703 0 -0.065785112224924183 0.037111289768743512 0 -0.081088353484909961 0.032020518526829703 0 -0.065785112224924183 0.037111289768743512 0 -0.069646162847898541 0.026335067629459381 0 -0.069646162847898541 0.026335067629459381 0 -0.076118231742993758 0.01527396050979404 0 -0.05559295393876626 0.02093450171247024 0 -0.065785112224924183 0.037111289768743512 0 -0.069646162847898541 0.026335067629459381 0 -0.05559295393876626 0.02093450171247024 0 -0.081088353484909961 0.032020518526829703 0 -0.069646162847898541 0.026335067629459381 0 -0.076118231742993758 0.01527396050979404 0 -0.081088353484909961 0.032020518526829703 0 -0.091086655225796079 0.026031666392017531 0 -0.076118231742993758 0.01527396050979404 0 -0.09536928659882779 0.01424719335382847 0 -0.091086655225796079 0.026031666392017531 0 -0.076118231742993758 0.01527396050979404 0 -0.09536928659882779 0.01424719335382847 0 -0.085958893623968774 0.001514634656162053 0 -0.076118231742993758 0.01527396050979404 0 -0.076118231742993758 0.01527396050979404 0 -0.065648076432031049 0.00090955339710942099 0 -0.05559295393876626 0.02093450171247024 0 -0.085958893623968774 0.001514634656162053 0 -0.076118231742993758 0.01527396050979404 0 -0.065648076432031049 0.00090955339710942099 0 -0.045118160941850949 -0.00049033847668307538 0 -0.065648076432031049 0.00090955339710942099 0 -0.05559295393876626 0.02093450171247024 0 -0.05559295393876626 0.02093450171247024 0 -0.041197297059898302 0.028587588038626519 0 -0.049597163899048183 0.043688901393888827 0 -0.05559295393876626 0.02093450171247024 0 -0.032784921385912158 0.01564128096370114 0 -0.041197297059898302 0.028587588038626519 0 -0.032784921385912158 0.01564128096370114 0 -0.041197297059898302 0.028587588038626519 0 -0.02681414901586664 0.034085668084445887 0 -0.045118160941850949 -0.00049033847668307538 0 -0.05559295393876626 0.02093450171247024 0 -0.032784921385912158 0.01564128096370114 0 -0.045118160941850949 -0.00049033847668307538 0 -0.027025641752002061 -0.0079319500279313396 0 -0.032784921385912158 0.01564128096370114 0 -0.062589921296568873 0.06642957971461419 0 -0.072380178782229632 0.053292134703331731 0 -0.049597163899048183 0.043688901393888827 0 -0.046276495737503101 0.06795068115397529 0 -0.062589921296568873 0.06642957971461419 0 -0.049597163899048183 0.043688901393888827 0 -0.072380178782229632 0.053292134703331731 0 -0.049597163899048183 0.043688901393888827 0 -0.065785112224924183 0.037111289768743512 0 -0.05559295393876626 0.02093450171247024 0 -0.049597163899048183 0.043688901393888827 0 -0.049597163899048183 0.043688901393888827 0 -0.02681414901586664 0.034085668084445887 0 -0.041197297059898302 0.028587588038626519 0 -0.049597163899048183 0.043688901393888827 0 -0.02681414901586664 0.034085668084445887 0 -0.049597163899048183 0.043688901393888827 0 -0.028283535649973771 0.053358049395037133 0 -0.02681414901586664 0.034085668084445887 0 -0.046276495737503101 0.06795068115397529 0 -0.028283535649973771 0.053358049395037133 0 -0.046276495737503101 0.06795068115397529 0 -0.049597163899048183 0.043688901393888827 0 -0.028283535649973771 0.053358049395037133 0 -0.028283535649973771 0.053358049395037133 0 -0.010290575562444429 0.038765417636098962 0 -0.0097640400442320502 0.053032197103308337 0 -0.018620569400409771 0.06708533464306303 0 -0.028283535649973771 0.053358049395037133 0 -0.0097640400442320502 0.053032197103308337 0 -0.028283535649973771 0.053358049395037133 0 -0.010290575562444429 0.038765417636098962 0 -0.02681414901586664 0.034085668084445887 0 -0.010290575562444429 0.038765417636098962 0 -0.020835528804160591 0.022374223573919171 0 -0.028283535649973771 0.053358049395037133 0 -0.02681414901586664 0.034085668084445887 0 -0.010290575562444429 0.038765417636098962 0 -0.010290575562444429 0.038765417636098962 0 0.0077023845250848884 0.024172785877160811 0 -0.010290575562444429 0.038765417636098962 0 -0.0034349793211087142 0.044893397967285961 0 0.0047272217829380687 0.036246676438490527 0 -0.010290575562444429 0.038765417636098962 0 -0.0034349793211087142 0.044893397967285961 0 -0.0097640400442320502 0.053032197103308337 0 -0.0012292332505543029 0.06378464068123596 0 -0.018620569400409771 0.06708533464306303 0 -0.0097640400442320502 0.053032197103308337 0 -0.0034349793211087142 0.044893397967285961 0 -0.0097640400442320502 0.053032197103308337 0 0.0015874765393035599 0.051529300691246019 0 -0.0012292332505543029 0.06378464068123596 0 -0.0097640400442320502 0.053032197103308337 0 0.0015874765393035599 0.051529300691246019 0 -0.027025641752002061 -0.0079319500279313396 0 -0.032784921385912158 0.01564128096370114 0 -0.01566814095190756 0.010235570601176981 0 -0.032784921385912158 0.01564128096370114 0 -0.02681414901586664 0.034085668084445887 0 -0.020835528804160591 0.022374223573919171 0 -0.032784921385912158 0.01564128096370114 0 -0.01566814095190756 0.010235570601176981 0 -0.020835528804160591 0.022374223573919171 0 -0.010290575562444429 0.038765417636098962 0 -0.020835528804160591 0.022374223573919171 0 -0.0077262750329500059 0.02266504195052366 0 -0.01566814095190756 0.010235570601176981 0 -0.020835528804160591 0.022374223573919171 0 -0.0077262750329500059 0.02266504195052366 0 -0.010290575562444429 0.038765417636098962 0 -0.0077262750329500059 0.02266504195052366 0 0.0077023845250848884 0.024172785877160811 0 -0.0091716063734174208 -0.003332990253060792 0 -0.01566814095190756 0.010235570601176981 0 0.001118487675879971 0.0096665619175221752 0 -0.0091716063734174208 -0.003332990253060792 0 0.001118487675879971 0.0096665619175221752 0 0.006935528729737548 -0.0054826371559186567 0 -0.01566814095190756 0.010235570601176981 0 -0.0077262750329500059 0.02266504195052366 0 0.001118487675879971 0.0096665619175221752 0 0.001118487675879971 0.0096665619175221752 0 0.0077023845250848884 0.024172785877160811 0 0.025695344612614111 0.0095801541182225364 0 0.001118487675879971 0.0096665619175221752 0 0.025695344612614111 0.0095801541182225364 0 0.006935528729737548 -0.0054826371559186567 0 -0.0077262750329500059 0.02266504195052366 0 0.001118487675879971 0.0096665619175221752 0 0.0077023845250848884 0.024172785877160811 0 0.0077023845250848884 0.024172785877160811 0 0.024648998497944961 0.02642224341189468 0 0.015911730558903318 0.034762274935307848 0 0.024648998497944961 0.02642224341189468 0 0.025695344612614111 0.0095801541182225364 0 0.038363400138324961 0.019751697241263279 0 0.0077023845250848884 0.024172785877160811 0 0.024648998497944961 0.02642224341189468 0 0.025695344612614111 0.0095801541182225364 0 0.0077023845250848884 0.024172785877160811 0 0.025695344612614111 0.0095801541182225364 0 0.025695344612614111 0.0095801541182225364 0 0.006935528729737548 -0.0054826371559186567 0 0.01459521235494949 0.061710637509134872 0 0.0047272217829380687 0.036246676438490527 0 -0.0012292332505543029 0.06378464068123596 0 0.01459521235494949 0.061710637509134872 0 0.0015874765393035599 0.051529300691246019 0 0.01459521235494949 0.061710637509134872 0 0.0015874765393035599 0.051529300691246019 0 0.0047272217829380687 0.036246676438490527 0 0.01459521235494949 0.061710637509134872 0 0.0047272217829380687 0.036246676438490527 0 0.016570281580619739 0.045526930476817662 0 -0.010290575562444429 0.038765417636098962 0 0.0077023845250848884 0.024172785877160811 0 0.0047272217829380687 0.036246676438490527 0 -0.0034349793211087142 0.044893397967285961 0 0.0015874765393035599 0.051529300691246019 0 0.0047272217829380687 0.036246676438490527 0 0.0047272217829380687 0.036246676438490527 0 0.015911730558903318 0.034762274935307848 0 0.016570281580619739 0.045526930476817662 0 0.0077023845250848884 0.024172785877160811 0 0.0047272217829380687 0.036246676438490527 0 0.015911730558903318 0.034762274935307848 0 0.024648998497944961 0.02642224341189468 0 0.015911730558903318 0.034762274935307848 0 0.025892041879535671 0.039420421904702428 0 0.024648998497944961 0.02642224341189468 0 0.025892041879535671 0.039420421904702428 0 0.038236142792751733 0.035111405712831077 0 0.015911730558903318 0.034762274935307848 0 0.025892041879535671 0.039420421904702428 0 0.016570281580619739 0.045526930476817662 0 0.025892041879535671 0.039420421904702428 0 0.016570281580619739 0.045526930476817662 0 0.021716339062575678 0.05448348331271597 0 0.01459521235494949 0.061710637509134872 0 0.016570281580619739 0.045526930476817662 0 0.021716339062575678 0.05448348331271597 0 0.01459521235494949 0.061710637509134872 0 0.021716339062575678 0.05448348331271597 0 0.030459386295035529 0.05963142741263059 0 0.01459521235494949 0.061710637509134872 0 0.030459386295035529 0.05963142741263059 0 0.021716339062575678 0.05448348331271597 0 0.030459386295035529 0.05963142741263059 0 0.032703710623893968 0.046893395464013943 0 0.025892041879535671 0.039420421904702428 0 0.021716339062575678 0.05448348331271597 0 0.032703710623893968 0.046893395464013943 0 0.030459386295035529 0.05963142741263059 0 0.032703710623893968 0.046893395464013943 0 0.047214643089571059 0.045820238977188371 0 0.030459386295035529 0.05963142741263059 0 0.04797297407010033 0.057336039788577382 0 0.030459386295035529 0.05963142741263059 0 0.04797297407010033 0.057336039788577382 0 0.027635028654909001 0.06907575978797427 0 0.030459386295035529 0.05963142741263059 0 0.047214643089571059 0.045820238977188371 0 0.04797297407010033 0.057336039788577382 0 0.030459386295035529 0.05963142741263059 0 0.047214643089571059 0.045820238977188371 0 0.038236142792751733 0.035111405712831077 0 0.047214643089571059 0.045820238977188371 0 0.051031455664035288 0.029923240364304559 0 0.032703710623893968 0.046893395464013943 0 0.038236142792751733 0.035111405712831077 0 0.047214643089571059 0.045820238977188371 0 0.025892041879535671 0.039420421904702428 0 0.032703710623893968 0.046893395464013943 0 0.038236142792751733 0.035111405712831077 0 0.062359133547200143 0.040731400683572692 0 0.047214643089571059 0.045820238977188371 0 0.063969899884107562 0.032009050541747332 0 0.047214643089571059 0.045820238977188371 0 0.063969899884107562 0.032009050541747332 0 0.047214643089571059 0.045820238977188371 0 0.051031455664035288 0.029923240364304559 0 0.063969899884107562 0.032009050541747332 0 0.062359133547200143 0.040731400683572692 0 0.04797297407010033 0.057336039788577382 0 0.072379857481358154 0.054137194478101919 0 0.04797297407010033 0.057336039788577382 0 0.072379857481358154 0.054137194478101919 0 0.062359133547200143 0.040731400683572692 0 0.04797297407010033 0.057336039788577382 0 0.062359133547200143 0.040731400683572692 0 0.047214643089571059 0.045820238977188371 0 0.04797297407010033 0.057336039788577382 0 0.04797297407010033 0.057336039788577382 0 0.072379857481358154 0.054137194478101919 0 0.06072113176624426 0.066105246874810966 0 0.040835927619124697 0.0088703260301804514 0 0.038363400138324961 0.019751697241263279 0 0.051939500327619889 0.017318508583630769 0 0.040835927619124697 0.0088703260301804514 0 0.046640351189982193 0.001482106492276504 0 0.040314465242246092 -0.002276229875846851 0 0.025695344612614111 0.0095801541182225364 0 0.040314465242246092 -0.002276229875846851 0 0.025695344612614111 0.0095801541182225364 0 0.040835927619124697 0.0088703260301804514 0 0.040314465242246092 -0.002276229875846851 0 0.025695344612614111 0.0095801541182225364 0 0.040835927619124697 0.0088703260301804514 0 0.038363400138324961 0.019751697241263279 0 0.025695344612614111 0.0095801541182225364 0 0.038363400138324961 0.019751697241263279 0 0.024648998497944961 0.02642224341189468 0 0.038236142792751733 0.035111405712831077 0 0.038363400138324961 0.019751697241263279 0 0.038363400138324961 0.019751697241263279 0 0.051031455664035288 0.029923240364304559 0 0.038236142792751733 0.035111405712831077 0 0.038363400138324961 0.019751697241263279 0 0.051031455664035288 0.029923240364304559 0 0.038363400138324961 0.019751697241263279 0 0.051939500327619889 0.017318508583630769 0 0.051031455664035288 0.029923240364304559 0 0.051031455664035288 0.029923240364304559 0 0.062107590562420073 0.0228568457980407 0 0.063969899884107562 0.032009050541747332 0 0.051939500327619889 0.017318508583630769 0 0.062107590562420073 0.0228568457980407 0 0.064696567818308529 0.01472149906873369 0 0.051939500327619889 0.017318508583630769 0 0.051031455664035288 0.029923240364304559 0 0.062107590562420073 0.0228568457980407 0 0.055514373943813228 0.0067304088365214816 0 0.075461568133428525 0.0044331687040122013 0 0.049896637954744763 -0.0073960790217490677 0 0.051939500327619889 0.017318508583630769 0 0.055514373943813228 0.0067304088365214816 0 0.064696567818308529 0.01472149906873369 0 0.040835927619124697 0.0088703260301804514 0 0.051939500327619889 0.017318508583630769 0 0.055514373943813228 0.0067304088365214816 0 0.046640351189982193 0.001482106492276504 0 0.055514373943813228 0.0067304088365214816 0 0.049896637954744763 -0.0073960790217490677 0 0.040835927619124697 0.0088703260301804514 0 0.046640351189982193 0.001482106492276504 0 0.055514373943813228 0.0067304088365214816 0 0.075461568133428525 0.0044331687040122013 0 0.064696567818308529 0.01472149906873369 0 0.08072515667864405 0.018197862106306289 0 0.055514373943813228 0.0067304088365214816 0 0.075461568133428525 0.0044331687040122013 0 0.064696567818308529 0.01472149906873369 0 0.075461568133428525 0.0044331687040122013 0 0.1010264983121123 0.016262416429773479 0 0.075461568133428525 0.0044331687040122013 0 0.1010264983121123 0.016262416429773479 0 0.098011391193308373 -0.0056982583262641584 0 0.075461568133428525 0.0044331687040122013 0 0.08072515667864405 0.018197862106306289 0 0.1010264983121123 0.016262416429773479 0 0.088041666307225416 0.02743399724937181 0 0.08072515667864405 0.018197862106306289 0 0.1010264983121123 0.016262416429773479 0 0.088041666307225416 0.02743399724937181 0 0.08072515667864405 0.018197862106306289 0 0.076745293024301803 0.02412676157856956 0 0.088041666307225416 0.02743399724937181 0 0.076745293024301803 0.02412676157856956 0 0.082258845210710349 0.03253561428057717 0 0.08072515667864405 0.018197862106306289 0 0.076745293024301803 0.02412676157856956 0 0.063969899884107562 0.032009050541747332 0 0.062107590562420073 0.0228568457980407 0 0.064696567818308529 0.01472149906873369 0 0.08072515667864405 0.018197862106306289 0 0.08072515667864405 0.018197862106306289 0 0.063969899884107562 0.032009050541747332 0 0.062107590562420073 0.0228568457980407 0 0.08072515667864405 0.018197862106306289 0 0.063969899884107562 0.032009050541747332 0 0.062359133547200143 0.040731400683572692 0 0.076745293024301803 0.02412676157856956 0 0.062359133547200143 0.040731400683572692 0 0.076745293024301803 0.02412676157856956 0 0.076375628159171968 0.038405412939545532 0 0.062359133547200143 0.040731400683572692 0 0.076745293024301803 0.02412676157856956 0 0.063969899884107562 0.032009050541747332 0 0.062359133547200143 0.040731400683572692 0 0.076375628159171968 0.038405412939545532 0 0.072379857481358154 0.054137194478101919 0 0.072379857481358154 0.054137194478101919 0 0.087872793352142223 0.040176285354821803 0 0.096786740892615686 0.050938349167624693 0 0.072379857481358154 0.054137194478101919 0 0.096786740892615686 0.050938349167624693 0 0.072379857481358154 0.054137194478101919 0 0.096786740892615686 0.050938349167624693 0 0.089592915186254174 0.067390154600646832 0 0.076375628159171968 0.038405412939545532 0 0.072379857481358154 0.054137194478101919 0 0.087872793352142223 0.040176285354821803 0 0.076375628159171968 0.038405412939545532 0 0.082258845210710349 0.03253561428057717 0 0.087872793352142223 0.040176285354821803 0 0.076745293024301803 0.02412676157856956 0 0.076375628159171968 0.038405412939545532 0 0.082258845210710349 0.03253561428057717 0 0.088041666307225416 0.02743399724937181 0 0.087872793352142223 0.040176285354821803 0 0.098246025398924644 0.032379674771496843 0 0.088041666307225416 0.02743399724937181 0 0.082258845210710349 0.03253561428057717 0 0.087872793352142223 0.040176285354821803 0 0.098246025398924644 0.032379674771496843 0 0.09859813872304253 0.041737690340159041 0 0.1063796333462841 0.038668109643535398 0 0.087872793352142223 0.040176285354821803 0 0.098246025398924644 0.032379674771496843 0 0.09859813872304253 0.041737690340159041 0 0.087872793352142223 0.040176285354821803 0 0.09859813872304253 0.041737690340159041 0 0.096786740892615686 0.050938349167624693 0 0.09859813872304253 0.041737690340159041 0 0.1037055006252459 0.04652603276331644 0 0.096786740892615686 0.050938349167624693 0 0.1037055006252459 0.04652603276331644 0 0.1091701701315707 0.045405346223324289 0 0.1063796333462841 0.038668109643535398 0 0.09859813872304253 0.041737690340159041 0 0.1037055006252459 0.04652603276331644 0 0.1063796333462841 0.038668109643535398 0 0.098246025398924644 0.032379674771496843 0 0.1063796333462841 0.038668109643535398 0 0.1080469394596527 0.029312409717345649 0 0.1063796333462841 0.038668109643535398 0 0.11369005285381351 0.036564640387925021 0 0.1080469394596527 0.029312409717345649 0 0.10140855114010359 0.056741753968867333 0 0.1082136550722141 0.059696613986540442 0 0.089592915186254174 0.067390154600646832 0 0.10140855114010359 0.056741753968867333 0 0.096786740892615686 0.050938349167624693 0 0.089592915186254174 0.067390154600646832 0 0.10140855114010359 0.056741753968867333 0 0.096786740892615686 0.050938349167624693 0 0.1040187002827474 0.052009313231975308 0 0.1037055006252459 0.04652603276331644 0 0.096786740892615686 0.050938349167624693 0 0.1040187002827474 0.052009313231975308 0 0.1037055006252459 0.04652603276331644 0 0.10828434687670541 0.049049973369521209 0 0.1040187002827474 0.052009313231975308 0 0.1037055006252459 0.04652603276331644 0 0.1091701701315707 0.045405346223324289 0 0.10828434687670541 0.049049973369521209 0 0.10828434687670541 0.049049973369521209 0 0.1040187002827474 0.052009313231975308 0 0.1085923347430168 0.054888678040205661 0 0.10140855114010359 0.056741753968867333 0 0.1040187002827474 0.052009313231975308 0 0.1085923347430168 0.054888678040205661 0 0.10140855114010359 0.056741753968867333 0 0.1085923347430168 0.054888678040205661 0 0.1082136550722141 0.059696613986540442 0 0.1082136550722141 0.059696613986540442 0 0.12683439495817461 0.052003073372435288 0 0.1085923347430168 0.054888678040205661 0 0.1082136550722141 0.059696613986540442 0 0.12683439495817461 0.052003073372435288 0 0.1082136550722141 0.059696613986540442 0 0.1213053233293625 0.063977455960140386 0 0.12683439495817461 0.052003073372435288 0 0.1085923347430168 0.054888678040205661 0 0.11545296983014219 0.044674578582556468 0 0.12683439495817461 0.052003073372435288 0 0.1085923347430168 0.054888678040205661 0 0.11545296983014219 0.044674578582556468 0 0.10828434687670541 0.049049973369521209 0 0.1085923347430168 0.054888678040205661 0 0.11545296983014219 0.044674578582556468 0 0.11545296983014219 0.044674578582556468 0 0.12683439495817461 0.052003073372435288 0 0.11545296983014219 0.044674578582556468 0 0.12659142849079691 0.028091664155532971 0 0.13015300311198849 0.040381385354086502 0 0.11369005285381351 0.036564640387925021 0 0.11545296983014219 0.044674578582556468 0 0.12659142849079691 0.028091664155532971 0 0.11369005285381351 0.036564640387925021 0 0.1080469394596527 0.029312409717345649 0 0.12659142849079691 0.028091664155532971 0 0.11545296983014219 0.044674578582556468 0 0.12659142849079691 0.028091664155532971 0 0.1091701701315707 0.045405346223324289 0 0.1063796333462841 0.038668109643535398 0 0.11316657253878901 0.043202368340974628 0 0.11369005285381351 0.036564640387925021 0 0.11316657253878901 0.043202368340974628 0 0.11545296983014219 0.044674578582556468 0 0.1063796333462841 0.038668109643535398 0 0.11369005285381351 0.036564640387925021 0 0.11316657253878901 0.043202368340974628 0 0.1091701701315707 0.045405346223324289 0 0.10828434687670541 0.049049973369521209 0 0.11545296983014219 0.044674578582556468 0 0.1091701701315707 0.045405346223324289 0 0.11316657253878901 0.043202368340974628 0 0.11545296983014219 0.044674578582556468 0 0.11316657253878901 0.043202368340974628 0 0.11545296983014219 0.044674578582556468 0 0.11545296983014219 0.044674578582556468 0 0.13015300311198849 0.040381385354086502 0 0.12683439495817461 0.052003073372435288 0 0.11882011836095251 0.0065886106746579649 0 0.1010264983121123 0.016262416429773479 0 0.12659142849079691 0.028091664155532971 0 0.1010264983121123 0.016262416429773479 0 0.12659142849079691 0.028091664155532971 0 0.1010264983121123 0.016262416429773479 0 0.1080469394596527 0.029312409717345649 0 0.12659142849079691 0.028091664155532971 0 0.11882011836095251 0.0065886106746579649 0 0.1010264983121123 0.016262416429773479 0 0.098011391193308373 -0.0056982583262641584 0 0.088041666307225416 0.02743399724937181 0 0.098246025398924644 0.032379674771496843 0 0.1010264983121123 0.016262416429773479 0 0.098246025398924644 0.032379674771496843 0 0.1010264983121123 0.016262416429773479 0 0.1080469394596527 0.029312409717345649 0 0.102028599401492 0.1079210482782756 0 0.1185648575779607 0.095458187827811403 0 0.097454497296707604 0.093489332089851121 0 0.102028599401492 0.1079210482782756 0 0.094862282777670462 0.1196438628042634 0 0.1117522404438802 0.12667258555115829 0 0.123281054128593 0.11724462113534739 0 0.1117522404438802 0.12667258555115829 0 0.13947052033133081 0.1245003570974072 0 0.102028599401492 0.1079210482782756 0 0.123281054128593 0.11724462113534739 0 0.1117522404438802 0.12667258555115829 0 0.102028599401492 0.1079210482782756 0 0.123281054128593 0.11724462113534739 0 0.102028599401492 0.1079210482782756 0 0.123281054128593 0.11724462113534739 0 0.1185648575779607 0.095458187827811403 0 0.1185648575779607 0.095458187827811403 0 0.10766661625946521 0.081617344394697103 0 0.12679961534922851 0.075073796793526271 0 0.1127439035567581 0.069567645006608142 0 0.10766661625946521 0.081617344394697103 0 0.12679961534922851 0.075073796793526271 0 0.1213053233293625 0.063977455960140386 0 0.1127439035567581 0.069567645006608142 0 0.12679961534922851 0.075073796793526271 0 0.1082136550722141 0.059696613986540442 0 0.1213053233293625 0.063977455960140386 0 0.1127439035567581 0.069567645006608142 0 0.1082136550722141 0.059696613986540442 0 0.089592915186254174 0.067390154600646832 0 0.1014387622560044 0.070574023901201433 0 0.10766661625946521 0.081617344394697103 0 0.08998097741878798 0.081820185866337797 0 0.1082136550722141 0.059696613986540442 0 0.1014387622560044 0.070574023901201433 0 0.089592915186254174 0.067390154600646832 0 0.1082136550722141 0.059696613986540442 0 0.1127439035567581 0.069567645006608142 0 0.1014387622560044 0.070574023901201433 0 0.1127439035567581 0.069567645006608142 0 0.1014387622560044 0.070574023901201433 0 0.10766661625946521 0.081617344394697103 0 0.1185648575779607 0.095458187827811403 0 0.097454497296707604 0.093489332089851121 0 0.10766661625946521 0.081617344394697103 0 0.097454497296707604 0.093489332089851121 0 0.10766661625946521 0.081617344394697103 0 0.08998097741878798 0.081820185866337797 0 0.097454497296707604 0.093489332089851121 0 0.08998097741878798 0.081820185866337797 0 0.080776144674391009 0.098597475421203867 0 0.08998097741878798 0.081820185866337797 0 0.071888117261322881 0.075707086101057836 0 0.080776144674391009 0.098597475421203867 0 0.08998097741878798 0.081820185866337797 0 0.089592915186254174 0.067390154600646832 0 0.071888117261322881 0.075707086101057836 0 0.1014387622560044 0.070574023901201433 0 0.08998097741878798 0.081820185866337797 0 0.089592915186254174 0.067390154600646832 0 0.072379857481358154 0.054137194478101919 0 0.089592915186254174 0.067390154600646832 0 0.071888117261322881 0.075707086101057836 0 0.072379857481358154 0.054137194478101919 0 0.071888117261322881 0.075707086101057836 0 0.06072113176624426 0.066105246874810966 0 0.071888117261322881 0.075707086101057836 0 0.080776144674391009 0.098597475421203867 0 0.059523689947290133 0.089273902564132146 0 0.069834633883481517 0.1065625652268001 0 0.059315065316452309 0.1025539410383776 0 0.059523689947290133 0.089273902564132146 0 0.080776144674391009 0.098597475421203867 0 0.059523689947290133 0.089273902564132146 0 0.069834633883481517 0.1065625652268001 0 0.080776144674391009 0.098597475421203867 0 0.081634330708880196 0.1151370033827101 0 0.069834633883481517 0.1065625652268001 0 0.080776144674391009 0.098597475421203867 0 0.059523689947290133 0.089273902564132146 0 0.069834633883481517 0.1065625652268001 0 0.064307476710745728 0.1098785041095611 0 0.059315065316452309 0.1025539410383776 0 0.102028599401492 0.1079210482782756 0 0.080776144674391009 0.098597475421203867 0 0.081634330708880196 0.1151370033827101 0 0.102028599401492 0.1079210482782756 0 0.080776144674391009 0.098597475421203867 0 0.102028599401492 0.1079210482782756 0 0.097454497296707604 0.093489332089851121 0 0.080776144674391009 0.098597475421203867 0 0.102028599401492 0.1079210482782756 0 0.094862282777670462 0.1196438628042634 0 0.081634330708880196 0.1151370033827101 0 0.094862282777670462 0.1196438628042634 0 0.081634330708880196 0.1151370033827101 0 0.084033960556429532 0.12884481400490949 0 0.081634330708880196 0.1151370033827101 0 0.071861500007931359 0.1232467005620789 0 0.084033960556429532 0.12884481400490949 0 0.081634330708880196 0.1151370033827101 0 0.071861500007931359 0.1232467005620789 0 0.068543873750645412 0.1149277749384955 0 0.069834633883481517 0.1065625652268001 0 0.081634330708880196 0.1151370033827101 0 0.068543873750645412 0.1149277749384955 0 0.068543873750645412 0.1149277749384955 0 0.064307476710745728 0.1098785041095611 0 0.059536333892403683 0.1154697352345713 0 0.069834633883481517 0.1065625652268001 0 0.068543873750645412 0.1149277749384955 0 0.064307476710745728 0.1098785041095611 0 0.071861500007931359 0.1232467005620789 0 0.068543873750645412 0.1149277749384955 0 0.059536333892403683 0.1154697352345713 0 0.056458373241313059 0.1220229844831647 0 0.046980594318971967 0.103944553472415 0 0.044984286063853948 0.1144984098979744 0 0.056458373241313059 0.1220229844831647 0 0.059536333892403683 0.1154697352345713 0 0.047111977694586651 0.095143209078012936 0 0.056458373241313059 0.1220229844831647 0 0.047823074661834691 0.1229743903388081 0 0.044984286063853948 0.1144984098979744 0 0.056458373241313059 0.1220229844831647 0 0.047111977694586651 0.095143209078012936 0 0.056458373241313059 0.1220229844831647 0 0.047111977694586651 0.095143209078012936 0 0.046980594318971967 0.103944553472415 0 0.059536333892403683 0.1154697352345713 0 0.059315065316452309 0.1025539410383776 0 0.048250118395506067 0.092934788779969885 0 0.064307476710745728 0.1098785041095611 0 0.059536333892403683 0.1154697352345713 0 0.059315065316452309 0.1025539410383776 0 0.059536333892403683 0.1154697352345713 0 0.047111977694586651 0.095143209078012936 0 0.048250118395506067 0.092934788779969885 0 0.059536333892403683 0.1154697352345713 0 0.048250118395506067 0.092934788779969885 0 0.059315065316452309 0.1025539410383776 0 0.059523689947290133 0.089273902564132146 0 0.048250118395506067 0.092934788779969885 0 0.046980594318971967 0.103944553472415 0 0.031997015267580219 0.10661530464401089 0 0.044984286063853948 0.1144984098979744 0 0.046980594318971967 0.103944553472415 0 0.039592722901722707 0.099159129702000026 0 0.031997015267580219 0.10661530464401089 0 0.047111977694586651 0.095143209078012936 0 0.046980594318971967 0.103944553472415 0 0.044236279529428407 0.098362398272746204 0 0.043259823202432338 0.095202700838556822 0 0.039592722901722707 0.099159129702000026 0 0.040006298791842428 0.091064350555588536 0 0.047111977694586651 0.095143209078012936 0 0.043259823202432338 0.095202700838556822 0 0.043326765309194368 0.091114650811160686 0 0.047111977694586651 0.095143209078012936 0 0.043259823202432338 0.095202700838556822 0 0.044236279529428407 0.098362398272746204 0 0.046980594318971967 0.103944553472415 0 0.044236279529428407 0.098362398272746204 0 0.039592722901722707 0.099159129702000026 0 0.043259823202432338 0.095202700838556822 0 0.044236279529428407 0.098362398272746204 0 0.039592722901722707 0.099159129702000026 0 0.039592722901722707 0.099159129702000026 0 0.040006298791842428 0.091064350555588536 0 0.033999193661208522 0.092549709374426317 0 0.039592722901722707 0.099159129702000026 0 0.031997015267580219 0.10661530464401089 0 0.033999193661208522 0.092549709374426317 0 0.031997015267580219 0.10661530464401089 0 0.044984286063853948 0.1144984098979744 0 0.040254683338031831 0.12792389191371131 0 0.031997015267580219 0.10661530464401089 0 0.027418588341799281 0.11951208787462859 0 0.040254683338031831 0.12792389191371131 0 0.031997015267580219 0.10661530464401089 0 0.040254683338031831 0.12792389191371131 0 0.047823074661834691 0.1229743903388081 0 0.044984286063853948 0.1144984098979744 0 0.040254683338031831 0.12792389191371131 0 0.071888117261322881 0.075707086101057836 0 0.050643578252195447 0.077240667131504986 0 0.06072113176624426 0.066105246874810966 0 0.071888117261322881 0.075707086101057836 0 0.050643578252195447 0.077240667131504986 0 0.04797297407010033 0.057336039788577382 0 0.050643578252195447 0.077240667131504986 0 0.06072113176624426 0.066105246874810966 0 0.059523689947290133 0.089273902564132146 0 0.048250118395506067 0.092934788779969885 0 0.038271235220189187 0.079950329707060411 0 0.050643578252195447 0.077240667131504986 0 0.059523689947290133 0.089273902564132146 0 0.038271235220189187 0.079950329707060411 0 0.059523689947290133 0.089273902564132146 0 0.038271235220189187 0.079950329707060411 0 0.071888117261322881 0.075707086101057836 0 0.050643578252195447 0.077240667131504986 0 0.059523689947290133 0.089273902564132146 0 0.050643578252195447 0.077240667131504986 0 0.038271235220189187 0.079950329707060411 0 0.029399039243067929 0.078774248161950916 0 0.043326765309194368 0.091114650811160686 0 0.040006298791842428 0.091064350555588536 0 0.038271235220189187 0.079950329707060411 0 0.048250118395506067 0.092934788779969885 0 0.043326765309194368 0.091114650811160686 0 0.038271235220189187 0.079950329707060411 0 0.047111977694586651 0.095143209078012936 0 0.048250118395506067 0.092934788779969885 0 0.043326765309194368 0.091114650811160686 0 0.043259823202432338 0.095202700838556822 0 0.043326765309194368 0.091114650811160686 0 0.040006298791842428 0.091064350555588536 0 0.040006298791842428 0.091064350555588536 0 0.033999193661208522 0.092549709374426317 0 0.035112272261912547 0.085996705185296951 0 0.033999193661208522 0.092549709374426317 0 0.035112272261912547 0.085996705185296951 0 0.030562463090829231 0.085656845023995995 0 0.040006298791842428 0.091064350555588536 0 0.035112272261912547 0.085996705185296951 0 0.038271235220189187 0.079950329707060411 0 0.035112272261912547 0.085996705185296951 0 0.038271235220189187 0.079950329707060411 0 0.029399039243067929 0.078774248161950916 0 0.035112272261912547 0.085996705185296951 0 0.029399039243067929 0.078774248161950916 0 0.030562463090829231 0.085656845023995995 0 0.04797297407010033 0.057336039788577382 0 0.027635028654909001 0.06907575978797427 0 0.029399039243067929 0.078774248161950916 0 0.04797297407010033 0.057336039788577382 0 0.050643578252195447 0.077240667131504986 0 0.029399039243067929 0.078774248161950916 0 0.050643578252195447 0.077240667131504986 0 0.029399039243067929 0.078774248161950916 0 0.04797297407010033 0.057336039788577382 0 0.029399039243067929 0.078774248161950916 0 0.01459521235494949 0.061710637509134872 0 0.030459386295035529 0.05963142741263059 0 0.017825248683011649 0.070045619055208203 0 0.01459521235494949 0.061710637509134872 0 0.017825248683011649 0.070045619055208203 0 0.030459386295035529 0.05963142741263059 0 0.017825248683011649 0.070045619055208203 0 0.030459386295035529 0.05963142741263059 0 0.017825248683011649 0.070045619055208203 0 0.027635028654909001 0.06907575978797427 0 0.027635028654909001 0.06907575978797427 0 0.021430743364398389 0.07934945609652827 0 0.029399039243067929 0.078774248161950916 0 0.017825248683011649 0.070045619055208203 0 0.027635028654909001 0.06907575978797427 0 0.021430743364398389 0.07934945609652827 0 0.017825248683011649 0.070045619055208203 0 0.021430743364398389 0.07934945609652827 0 0.023739347197128589 0.085306717374310406 0 0.0092582498306486675 0.1020209346744549 0 0.021430743364398389 0.07934945609652827 0 0.023739347197128589 0.085306717374310406 0 0.01369104835205702 0.085774757015682671 0 0.021430743364398389 0.07934945609652827 0 0.023739347197128589 0.085306717374310406 0 0.021430743364398389 0.07934945609652827 0 0.029399039243067929 0.078774248161950916 0 0.023739347197128589 0.085306717374310406 0 0.021430743364398389 0.07934945609652827 0 0.029399039243067929 0.078774248161950916 0 0.029399039243067929 0.078774248161950916 0 0.030562463090829231 0.085656845023995995 0 0.023739347197128589 0.085306717374310406 0 0.029399039243067929 0.078774248161950916 0 0.023739347197128589 0.085306717374310406 0 0.033999193661208522 0.092549709374426317 0 0.030562463090829231 0.085656845023995995 0 0.023739347197128589 0.085306717374310406 0 0.023739347197128589 0.085306717374310406 0 0.01369104835205702 0.085774757015682671 0 0.0092582498306486675 0.1020209346744549 0 0.0051087594610210148 0.080527692295617709 0 0.01369104835205702 0.085774757015682671 0 0.0092582498306486675 0.1020209346744549 0 0.021430743364398389 0.07934945609652827 0 0.0051087594610210148 0.080527692295617709 0 0.021430743364398389 0.07934945609652827 0 0.0051087594610210148 0.080527692295617709 0 0.01369104835205702 0.085774757015682671 0 -0.0012292332505543029 0.06378464068123596 0 0.01459521235494949 0.061710637509134872 0 -0.0012292332505543029 0.06378464068123596 0 0.01459521235494949 0.061710637509134872 0 0.0080955592782806732 0.069159055867407046 0 0.017825248683011649 0.070045619055208203 0 0.021430743364398389 0.07934945609652827 0 0.0051087594610210148 0.080527692295617709 0 -0.0012292332505543029 0.06378464068123596 0 0.0051087594610210148 0.080527692295617709 0 0.0080955592782806732 0.069159055867407046 0 0.017825248683011649 0.070045619055208203 0 0.0051087594610210148 0.080527692295617709 0 0.0080955592782806732 0.069159055867407046 0 0.017825248683011649 0.070045619055208203 0 0.0051087594610210148 0.080527692295617709 0 0.01459521235494949 0.061710637509134872 0 0.017825248683011649 0.070045619055208203 0 0.0080955592782806732 0.069159055867407046 0 0.019482067178466251 0.1107491432724047 0 0.017356945103072018 0.1204998149293544 0 0.027418588341799281 0.11951208787462859 0 0.017356945103072018 0.1204998149293544 0 0.027418588341799281 0.11951208787462859 0 0.028136896369567631 0.1331750506540591 0 0.031997015267580219 0.10661530464401089 0 0.019482067178466251 0.1107491432724047 0 0.027418588341799281 0.11951208787462859 0 0.031997015267580219 0.10661530464401089 0 0.033999193661208522 0.092549709374426317 0 0.023739347197128589 0.085306717374310406 0 0.023739347197128589 0.085306717374310406 0 0.02108550348152554 0.10082233348119581 0 0.0092582498306486675 0.1020209346744549 0 0.031997015267580219 0.10661530464401089 0 0.023739347197128589 0.085306717374310406 0 0.031997015267580219 0.10661530464401089 0 0.023739347197128589 0.085306717374310406 0 0.02108550348152554 0.10082233348119581 0 0.031997015267580219 0.10661530464401089 0 0.019482067178466251 0.1107491432724047 0 0.02108550348152554 0.10082233348119581 0 0.019482067178466251 0.1107491432724047 0 0.02108550348152554 0.10082233348119581 0 0.0092582498306486675 0.1020209346744549 0 -0.0040597014752050652 0.1051126182356364 0 0.0051087594610210148 0.080527692295617709 0 0.0092582498306486675 0.1020209346744549 0 0.019482067178466251 0.1107491432724047 0 0.0092582498306486675 0.1020209346744549 0 0.0097761010461718117 0.1150243840307837 0 -0.0052228475358298988 0.1187351519746004 0 0.0092582498306486675 0.1020209346744549 0 -0.0052228475358298988 0.1187351519746004 0 0.0092582498306486675 0.1020209346744549 0 0.0097761010461718117 0.1150243840307837 0 0.019482067178466251 0.1107491432724047 0 0.017356945103072018 0.1204998149293544 0 0.0097761010461718117 0.1150243840307837 0 0.017356945103072018 0.1204998149293544 0 0.0081407562022233586 0.1245196413435004 0 0.017356945103072018 0.1204998149293544 0 0.0097761010461718117 0.1150243840307837 0 0.0081407562022233586 0.1245196413435004 0 -0.0052228475358298988 0.1187351519746004 0 0.0097761010461718117 0.1150243840307837 0 0.0081407562022233586 0.1245196413435004 0 -0.0052228475358298988 0.1187351519746004 0 0.0081407562022233586 0.1245196413435004 0 -0.015783289274076458 0.13495459563681389 0 0.0081407562022233586 0.1245196413435004 0 0.01185912902997375 0.14130758542593569 0 0.017356945103072018 0.1204998149293544 0 0.0081407562022233586 0.1245196413435004 0 0.028136896369567631 0.1331750506540591 0 0.0081407562022233586 0.1245196413435004 0 0.028136896369567631 0.1331750506540591 0 0.0081407562022233586 0.1245196413435004 0 0.028136896369567631 0.1331750506540591 0 0.01185912902997375 0.14130758542593569 0 0.028136896369567631 0.1331750506540591 0 0.0267736462585265 0.15269096182544131 0 0.035919394343652343 0.14075559589415579 0 0.028136896369567631 0.1331750506540591 0 0.0267736462585265 0.15269096182544131 0 0.01185912902997375 0.14130758542593569 0 0.0267736462585265 0.15269096182544131 0 0.001788155555331062 0.1557637096651584 0 0.01185912902997375 0.14130758542593569 0 0.001788155555331062 0.1557637096651584 0 0.00061104658230836653 0.17769045695541219 0 0.019359600384737739 0.17657282369350361 0 0.001788155555331062 0.1557637096651584 0 0.019359600384737739 0.17657282369350361 0 0.00061104658230836653 0.17769045695541219 0 0.019359600384737739 0.17657282369350361 0 0.017852612557627559 0.19656860209324539 0 0.019359600384737739 0.17657282369350361 0 0.036931045214144441 0.19738193772184889 0 0.0267736462585265 0.15269096182544131 0 0.001788155555331062 0.1557637096651584 0 0.019359600384737739 0.17657282369350361 0 0.0267736462585265 0.15269096182544131 0 0.019359600384737739 0.17657282369350361 0 0.038399134829123632 0.17159850230738899 0 0.0267736462585265 0.15269096182544131 0 0.038399134829123632 0.17159850230738899 0 0.048512351408483409 0.1492324791834117 0 0.019359600384737739 0.17657282369350361 0 0.038399134829123632 0.17159850230738899 0 0.036931045214144441 0.19738193772184889 0 0.038399134829123632 0.17159850230738899 0 0.053915020648589329 0.181809847856817 0 0.036931045214144441 0.19738193772184889 0 0.053915020648589329 0.181809847856817 0 0.056298621576963533 0.16595151756685289 0 0.075151164334765874 0.17578253529346821 0 0.038399134829123632 0.17159850230738899 0 0.053915020648589329 0.181809847856817 0 0.056298621576963533 0.16595151756685289 0 0.038399134829123632 0.17159850230738899 0 0.056298621576963533 0.16595151756685289 0 0.048512351408483409 0.1492324791834117 0 0.048512351408483409 0.1492324791834117 0 0.055211699142625699 0.13746009370018761 0 0.065804768788039439 0.14890275988831639 0 0.056298621576963533 0.16595151756685289 0 0.048512351408483409 0.1492324791834117 0 0.065804768788039439 0.14890275988831639 0 0.048512351408483409 0.1492324791834117 0 0.055211699142625699 0.13746009370018761 0 0.049904412172306151 0.13036597214331841 0 0.056458373241313059 0.1220229844831647 0 0.059536333892403683 0.1154697352345713 0 0.070822549389301243 0.1380046816891726 0 0.056458373241313059 0.1220229844831647 0 0.055211699142625699 0.13746009370018761 0 0.065804768788039439 0.14890275988831639 0 0.056458373241313059 0.1220229844831647 0 0.065804768788039439 0.14890275988831639 0 0.056458373241313059 0.1220229844831647 0 0.047823074661834691 0.1229743903388081 0 0.049904412172306151 0.13036597214331841 0 0.056458373241313059 0.1220229844831647 0 0.055211699142625699 0.13746009370018761 0 0.049904412172306151 0.13036597214331841 0 0.048512351408483409 0.1492324791834117 0 0.040254683338031831 0.12792389191371131 0 0.048512351408483409 0.1492324791834117 0 0.040254683338031831 0.12792389191371131 0 0.035919394343652343 0.14075559589415579 0 0.048512351408483409 0.1492324791834117 0 0.049904412172306151 0.13036597214331841 0 0.040254683338031831 0.12792389191371131 0 0.047823074661834691 0.1229743903388081 0 0.049904412172306151 0.13036597214331841 0 0.040254683338031831 0.12792389191371131 0 0.027418588341799281 0.11951208787462859 0 0.028136896369567631 0.1331750506540591 0 0.040254683338031831 0.12792389191371131 0 0.028136896369567631 0.1331750506540591 0 0.040254683338031831 0.12792389191371131 0 0.035919394343652343 0.14075559589415579 0 0.0267736462585265 0.15269096182544131 0 0.048512351408483409 0.1492324791834117 0 0.035919394343652343 0.14075559589415579 0 0.020197736684044801 0.2291273398277828 0 0.034114961552744377 0.23516115760169301 0 0.036501911092354018 0.25177276941539839 0 0.018629400856135309 0.24429501886194191 0 0.020197736684044801 0.2291273398277828 0 0.02692674034290404 0.25134916217479408 0 0.020197736684044801 0.2291273398277828 0 0.02692674034290404 0.25134916217479408 0 0.036501911092354018 0.25177276941539839 0 0.020197736684044801 0.2291273398277828 0 0.036501911092354018 0.25177276941539839 0 0.018629400856135309 0.24429501886194191 0 0.0082785766384091443 0.23618007315607359 0 0.020197736684044801 0.2291273398277828 0 0.018629400856135309 0.24429501886194191 0 0.012944211518790589 0.24639919126045251 0 0.0082785766384091443 0.23618007315607359 0 0.012944211518790589 0.24639919126045251 0 0.001894876929373096 0.24743045501984201 0 0.0082785766384091443 0.23618007315607359 0 -0.0070773620087705444 0.23295897308755351 0 0.001894876929373096 0.24743045501984201 0 0.0082785766384091443 0.23618007315607359 0 0.0082785766384091443 0.23618007315607359 0 0.0038866256090455522 0.2239579318999283 0 0.020197736684044801 0.2291273398277828 0 0.0038866256090455522 0.2239579318999283 0 0.020197736684044801 0.2291273398277828 0 0.003893562275735573 0.2064819102401671 0 -0.0070773620087705444 0.23295897308755351 0 0.0082785766384091443 0.23618007315607359 0 0.0038866256090455522 0.2239579318999283 0 0.01643925603633389 0.21561198758054059 0 0.035370792182188207 0.216260201755786 0 0.034114961552744377 0.23516115760169301 0 0.020197736684044801 0.2291273398277828 0 0.01643925603633389 0.21561198758054059 0 0.034114961552744377 0.23516115760169301 0 0.01643925603633389 0.21561198758054059 0 0.034114961552744377 0.23516115760169301 0 0.017852612557627559 0.19656860209324539 0 0.036931045214144441 0.19738193772184889 0 0.035370792182188207 0.216260201755786 0 0.01643925603633389 0.21561198758054059 0 0.017852612557627559 0.19656860209324539 0 0.035370792182188207 0.216260201755786 0 0.020197736684044801 0.2291273398277828 0 0.003893562275735573 0.2064819102401671 0 -0.0045317147067566524 0.21522543551468479 0 0.0038866256090455522 0.2239579318999283 0 0.003893562275735573 0.2064819102401671 0 -0.0012364494800765971 0.1960628175593882 0 0.01643925603633389 0.21561198758054059 0 -0.0012364494800765971 0.1960628175593882 0 0.01643925603633389 0.21561198758054059 0 0.003893562275735573 0.2064819102401671 0 0.020197736684044801 0.2291273398277828 0 0.01643925603633389 0.21561198758054059 0 0.003893562275735573 0.2064819102401671 0 -0.0012364494800765971 0.1960628175593882 0 0.01643925603633389 0.21561198758054059 0 0.017852612557627559 0.19656860209324539 0 -0.0012364494800765971 0.1960628175593882 0 0.00061104658230836653 0.17769045695541219 0 0.017852612557627559 0.19656860209324539 0 0.019359600384737739 0.17657282369350361 0 0.017852612557627559 0.19656860209324539 0 0.036931045214144441 0.19738193772184889 0 0.053915020648589329 0.181809847856817 0 0.036931045214144441 0.19738193772184889 0 0.062795137287949193 0.19833474639452611 0 0.036931045214144441 0.19738193772184889 0 0.054502490043551163 0.2181910517501941 0 0.062795137287949193 0.19833474639452611 0 0.036931045214144441 0.19738193772184889 0 0.054502490043551163 0.2181910517501941 0 0.036931045214144441 0.19738193772184889 0 0.054502490043551163 0.2181910517501941 0 0.035370792182188207 0.216260201755786 0 0.054502490043551163 0.2181910517501941 0 0.035370792182188207 0.216260201755786 0 0.034114961552744377 0.23516115760169301 0 0.054502490043551163 0.2181910517501941 0 0.055174909047777811 0.2396291133956362 0 0.034114961552744377 0.23516115760169301 0 0.054502490043551163 0.2181910517501941 0 0.055174909047777811 0.2396291133956362 0 0.072073934872957782 0.23900016577853919 0 0.055174909047777811 0.2396291133956362 0 0.034114961552744377 0.23516115760169301 0 0.051790667069154861 0.2547103276228454 0 0.055174909047777811 0.2396291133956362 0 0.051790667069154861 0.2547103276228454 0 0.063392491700480919 0.2510828642249095 0 0.034114961552744377 0.23516115760169301 0 0.036501911092354018 0.25177276941539839 0 0.051790667069154861 0.2547103276228454 0 0.034114961552744377 0.23516115760169301 0 0.051790667069154861 0.2547103276228454 0 0.072073934872957782 0.23900016577853919 0 0.093843955428218759 0.229542086103772 0 0.089645379702363526 0.25980927980688501 0 0.072073934872957782 0.23900016577853919 0 0.089645379702363526 0.25980927980688501 0 0.055174909047777811 0.2396291133956362 0 0.072073934872957782 0.23900016577853919 0 0.063392491700480919 0.2510828642249095 0 0.072073934872957782 0.23900016577853919 0 0.063392491700480919 0.2510828642249095 0 0.074261774750864804 0.25289133929391111 0 0.054502490043551163 0.2181910517501941 0 0.072073934872957782 0.23900016577853919 0 0.054502490043551163 0.2181910517501941 0 0.072073934872957782 0.23900016577853919 0 0.07691655231929137 0.22036312128655 0 0.072073934872957782 0.23900016577853919 0 0.07691655231929137 0.22036312128655 0 0.093843955428218759 0.229542086103772 0 0.084497559881492323 0.20266231069862009 0 0.1011551627426199 0.2154511434485995 0 0.093843955428218759 0.229542086103772 0 0.084497559881492323 0.20266231069862009 0 0.093843955428218759 0.229542086103772 0 0.07691655231929137 0.22036312128655 0 0.084497559881492323 0.20266231069862009 0 0.093843955428218759 0.229542086103772 0 0.07691655231929137 0.22036312128655 0 0.062795137287949193 0.19833474639452611 0 0.084497559881492323 0.20266231069862009 0 0.054502490043551163 0.2181910517501941 0 0.07691655231929137 0.22036312128655 0 0.062795137287949193 0.19833474639452611 0 0.062795137287949193 0.19833474639452611 0 0.084497559881492323 0.20266231069862009 0 0.075151164334765874 0.17578253529346821 0 0.084497559881492323 0.20266231069862009 0 0.075151164334765874 0.17578253529346821 0 0.084497559881492323 0.20266231069862009 0 0.10184565838461331 0.1924014028594688 0 0.093394980383096363 0.18307457459837531 0 0.084497559881492323 0.20266231069862009 0 0.10184565838461331 0.1924014028594688 0 0.10260278643249959 0.20376756124449391 0 0.10184565838461331 0.1924014028594688 0 0.1105875138732399 0.1994169567440035 0 0.10260278643249959 0.20376756124449391 0 0.10184565838461331 0.1924014028594688 0 0.1131184160342838 0.18994185980391479 0 0.1105875138732399 0.1994169567440035 0 0.10184565838461331 0.1924014028594688 0 0.1131184160342838 0.18994185980391479 0 0.1054525685194168 0.18020148819897211 0 0.1131184160342838 0.18994185980391479 0 0.1210814068145178 0.19423580856195369 0 0.1131184160342838 0.18994185980391479 0 0.1210814068145178 0.19423580856195369 0 0.1196286990311512 0.18236386641526309 0 0.1210814068145178 0.19423580856195369 0 0.11958782189190099 0.20227867846385961 0 0.13241563583181001 0.2003476577346209 0 0.1131184160342838 0.18994185980391479 0 0.1210814068145178 0.19423580856195369 0 0.11958782189190099 0.20227867846385961 0 0.1131184160342838 0.18994185980391479 0 0.11958782189190099 0.20227867846385961 0 0.1105875138732399 0.1994169567440035 0 0.11958782189190099 0.20227867846385961 0 0.1105875138732399 0.1994169567440035 0 0.11467542950451071 0.21015036581969679 0 0.11958782189190099 0.20227867846385961 0 0.11467542950451071 0.21015036581969679 0 0.12714211421566091 0.2115365522170618 0 0.11467542950451071 0.21015036581969679 0 0.1287590091161889 0.22454109023782651 0 0.12714211421566091 0.2115365522170618 0 0.11467542950451071 0.21015036581969679 0 0.1011551627426199 0.2154511434485995 0 0.1117838155087727 0.22779371718329239 0 0.084497559881492323 0.20266231069862009 0 0.10260278643249959 0.20376756124449391 0 0.1011551627426199 0.2154511434485995 0 0.1105875138732399 0.1994169567440035 0 0.11467542950451071 0.21015036581969679 0 0.10260278643249959 0.20376756124449391 0 0.11467542950451071 0.21015036581969679 0 0.10260278643249959 0.20376756124449391 0 0.1011551627426199 0.2154511434485995 0 0.1011551627426199 0.2154511434485995 0 0.093843955428218759 0.229542086103772 0 0.1117838155087727 0.22779371718329239 0 0.11467542950451071 0.21015036581969679 0 0.1117838155087727 0.22779371718329239 0 0.1287590091161889 0.22454109023782651 0 0.1117838155087727 0.22779371718329239 0 0.1287590091161889 0.22454109023782651 0 0.116065923487036 0.25155424759680489 0 0.093843955428218759 0.229542086103772 0 0.089645379702363526 0.25980927980688501 0 0.116065923487036 0.25155424759680489 0 0.093843955428218759 0.229542086103772 0 0.1117838155087727 0.22779371718329239 0 0.116065923487036 0.25155424759680489 0 0.085867858697711436 0.14453522140638461 0 0.070822549389301243 0.1380046816891726 0 0.082108764886198796 0.1605396281437739 0 0.085867858697711436 0.14453522140638461 0 0.082108764886198796 0.1605396281437739 0 0.098061838006449922 0.1524476624703702 0 0.085867858697711436 0.14453522140638461 0 0.084033960556429532 0.12884481400490949 0 0.098019367542785563 0.1407790739484335 0 0.085867858697711436 0.14453522140638461 0 0.084033960556429532 0.12884481400490949 0 0.070822549389301243 0.1380046816891726 0 0.071861500007931359 0.1232467005620789 0 0.059536333892403683 0.1154697352345713 0 0.070822549389301243 0.1380046816891726 0 0.059536333892403683 0.1154697352345713 0 0.070822549389301243 0.1380046816891726 0 0.056458373241313059 0.1220229844831647 0 0.070822549389301243 0.1380046816891726 0 0.065804768788039439 0.14890275988831639 0 0.071861500007931359 0.1232467005620789 0 0.084033960556429532 0.12884481400490949 0 0.070822549389301243 0.1380046816891726 0 0.070822549389301243 0.1380046816891726 0 0.082108764886198796 0.1605396281437739 0 0.070822549389301243 0.1380046816891726 0 0.065804768788039439 0.14890275988831639 0 0.082108764886198796 0.1605396281437739 0 0.056298621576963533 0.16595151756685289 0 0.065804768788039439 0.14890275988831639 0 0.075151164334765874 0.17578253529346821 0 0.065804768788039439 0.14890275988831639 0 0.075151164334765874 0.17578253529346821 0 0.082108764886198796 0.1605396281437739 0 0.065804768788039439 0.14890275988831639 0 0.075151164334765874 0.17578253529346821 0 0.053915020648589329 0.181809847856817 0 0.062795137287949193 0.19833474639452611 0 0.075151164334765874 0.17578253529346821 0 0.075151164334765874 0.17578253529346821 0 0.093394980383096363 0.18307457459837531 0 0.082108764886198796 0.1605396281437739 0 0.084497559881492323 0.20266231069862009 0 0.075151164334765874 0.17578253529346821 0 0.093394980383096363 0.18307457459837531 0 0.093394980383096363 0.18307457459837531 0 0.082108764886198796 0.1605396281437739 0 0.1017810834163356 0.16778327145988009 0 0.093394980383096363 0.18307457459837531 0 0.082108764886198796 0.1605396281437739 0 0.082108764886198796 0.1605396281437739 0 0.1017810834163356 0.16778327145988009 0 0.098061838006449922 0.1524476624703702 0 0.1017810834163356 0.16778327145988009 0 0.1094413004412432 0.1568441156191657 0 0.098061838006449922 0.1524476624703702 0 0.10184565838461331 0.1924014028594688 0 0.093394980383096363 0.18307457459837531 0 0.1054525685194168 0.18020148819897211 0 0.093394980383096363 0.18307457459837531 0 0.1017810834163356 0.16778327145988009 0 0.1054525685194168 0.18020148819897211 0 0.1017810834163356 0.16778327145988009 0 0.1054525685194168 0.18020148819897211 0 0.1143103312636523 0.17467474260035151 0 0.1131184160342838 0.18994185980391479 0 0.1132877880089454 0.18182979361660931 0 0.1196286990311512 0.18236386641526309 0 0.1131184160342838 0.18994185980391479 0 0.1054525685194168 0.18020148819897211 0 0.1132877880089454 0.18182979361660931 0 0.1054525685194168 0.18020148819897211 0 0.1132877880089454 0.18182979361660931 0 0.1143103312636523 0.17467474260035151 0 0.1132877880089454 0.18182979361660931 0 0.1143103312636523 0.17467474260035151 0 0.1196286990311512 0.18236386641526309 0 0.1143103312636523 0.17467474260035151 0 0.1229466648353691 0.17360959233997481 0 0.1196286990311512 0.18236386641526309 0 0.1229466648353691 0.17360959233997481 0 0.1196286990311512 0.18236386641526309 0 0.1315359285025598 0.17914174819028489 0 0.1210814068145178 0.19423580856195369 0 0.1196286990311512 0.18236386641526309 0 0.1315359285025598 0.17914174819028489 0 0.1017810834163356 0.16778327145988009 0 0.1143103312636523 0.17467474260035151 0 0.11826309888899959 0.1638296446882945 0 0.1017810834163356 0.16778327145988009 0 0.1094413004412432 0.1568441156191657 0 0.11826309888899959 0.1638296446882945 0 0.1094413004412432 0.1568441156191657 0 0.11826309888899959 0.1638296446882945 0 0.12116198843957229 0.15461983439099389 0 0.1143103312636523 0.17467474260035151 0 0.1229466648353691 0.17360959233997481 0 0.11826309888899959 0.1638296446882945 0 0.1229466648353691 0.17360959233997481 0 0.11826309888899959 0.1638296446882945 0 0.1286748755814317 0.16568949079043779 0 0.11826309888899959 0.1638296446882945 0 0.12116198843957229 0.15461983439099389 0 0.1286748755814317 0.16568949079043779 0 0.12116198843957229 0.15461983439099389 0 0.1235319134973574 0.14279740261083959 0 0.11069945258584669 0.14552439304262721 0 0.1094413004412432 0.1568441156191657 0 0.12116198843957229 0.15461983439099389 0 0.11069945258584669 0.14552439304262721 0 0.1094413004412432 0.1568441156191657 0 0.11069945258584669 0.14552439304262721 0 0.098061838006449922 0.1524476624703702 0 0.11069945258584669 0.14552439304262721 0 0.098019367542785563 0.1407790739484335 0 0.098061838006449922 0.1524476624703702 0 0.085867858697711436 0.14453522140638461 0 0.098019367542785563 0.1407790739484335 0 0.098061838006449922 0.1524476624703702 0 0.084033960556429532 0.12884481400490949 0 0.1117522404438802 0.12667258555115829 0 0.094862282777670462 0.1196438628042634 0 0.084033960556429532 0.12884481400490949 0 0.1117522404438802 0.12667258555115829 0 0.084033960556429532 0.12884481400490949 0 0.098019367542785563 0.1407790739484335 0 0.1117522404438802 0.12667258555115829 0 0.11069945258584669 0.14552439304262721 0 0.098019367542785563 0.1407790739484335 0 0.1117522404438802 0.12667258555115829 0 0.1235319134973574 0.14279740261083959 0 0.11069945258584669 0.14552439304262721 0 0.1117522404438802 0.12667258555115829 0 0.1235319134973574 0.14279740261083959 0 0.1117522404438802 0.12667258555115829 0 0.1338250830151082 0.13680555700437169 0 0.1117522404438802 0.12667258555115829 0 0.1338250830151082 0.13680555700437169 0 0.13947052033133081 0.1245003570974072 0 0.1117522404438802 0.12667258555115829 0 0.13947052033133081 0.1245003570974072 0 0.1338250830151082 0.13680555700437169 0 0.14773514824261011 0.13994704674368119 0 0.13947052033133081 0.1245003570974072 0 0.14773514824261011 0.13994704674368119 0 0.13947052033133081 0.1245003570974072 0 0.16718880021878149 0.12232812864365609 0 0.14773514824261011 0.13994704674368119 0 0.1492794596183103 0.15557552201751701 0 0.16307655427518189 0.1461583771030025 0 0.14773514824261011 0.13994704674368119 0 0.1492794596183103 0.15557552201751701 0 0.13636128964255501 0.15303395959459851 0 0.1235319134973574 0.14279740261083959 0 0.1338250830151082 0.13680555700437169 0 0.13636128964255501 0.15303395959459851 0 0.1338250830151082 0.13680555700437169 0 0.14773514824261011 0.13994704674368119 0 0.13636128964255501 0.15303395959459851 0 0.12116198843957229 0.15461983439099389 0 0.1235319134973574 0.14279740261083959 0 0.13636128964255501 0.15303395959459851 0 0.12116198843957229 0.15461983439099389 0 0.13636128964255501 0.15303395959459851 0 0.1286748755814317 0.16568949079043779 0 0.13636128964255501 0.15303395959459851 0 0.1286748755814317 0.16568949079043779 0 0.1402599975996246 0.1687496010839549 0 0.1286748755814317 0.16568949079043779 0 0.1402599975996246 0.1687496010839549 0 0.1315359285025598 0.17914174819028489 0 0.1210814068145178 0.19423580856195369 0 0.1315359285025598 0.17914174819028489 0 0.14172685770208041 0.18088834424850889 0 0.1229466648353691 0.17360959233997481 0 0.1286748755814317 0.16568949079043779 0 0.1315359285025598 0.17914174819028489 0 0.1402599975996246 0.1687496010839549 0 0.1315359285025598 0.17914174819028489 0 0.14172685770208041 0.18088834424850889 0 0.1315359285025598 0.17914174819028489 0 0.14172685770208041 0.18088834424850889 0 0.14172685770208041 0.18088834424850889 0 0.1589643083315804 0.1699886255623487 0 0.15664227980061579 0.1834446584897341 0 0.14172685770208041 0.18088834424850889 0 0.1589643083315804 0.1699886255623487 0 0.1402599975996246 0.1687496010839549 0 0.14172685770208041 0.18088834424850889 0 0.1589643083315804 0.1699886255623487 0 0.14172685770208041 0.18088834424850889 0 0.15664227980061579 0.1834446584897341 0 0.14735069213281321 0.19092796682168489 0 0.14172685770208041 0.18088834424850889 0 0.15664227980061579 0.1834446584897341 0 0.1492794596183103 0.15557552201751701 0 0.1402599975996246 0.1687496010839549 0 0.1589643083315804 0.1699886255623487 0 0.1492794596183103 0.15557552201751701 0 0.13636128964255501 0.15303395959459851 0 0.1402599975996246 0.1687496010839549 0 0.1492794596183103 0.15557552201751701 0 0.1589643083315804 0.1699886255623487 0 0.16307655427518189 0.1461583771030025 0 0.1589643083315804 0.1699886255623487 0 0.1832181015668064 0.15465227861531949 0 0.16307655427518189 0.1461583771030025 0 0.1589643083315804 0.1699886255623487 0 0.16307655427518189 0.1461583771030025 0 0.1589643083315804 0.1699886255623487 0 0.1832181015668064 0.15465227861531949 0 0.1589643083315804 0.1699886255623487 0 0.15664227980061579 0.1834446584897341 0 0.17367876449497299 0.17356388092826039 0 0.15664227980061579 0.1834446584897341 0 0.17803712215301101 0.18711146321258301 0 0.15664227980061579 0.1834446584897341 0 0.17367876449497299 0.17356388092826039 0 0.17803712215301101 0.18711146321258301 0 0.1589643083315804 0.1699886255623487 0 0.15664227980061579 0.1834446584897341 0 0.17367876449497299 0.17356388092826039 0 0.17803712215301101 0.18711146321258301 0 0.1915320106228488 0.17262237876131631 0 0.1589643083315804 0.1699886255623487 0 0.17367876449497299 0.17356388092826039 0 0.1832181015668064 0.15465227861531949 0 0.17367876449497299 0.17356388092826039 0 0.1832181015668064 0.15465227861531949 0 0.1915320106228488 0.17262237876131631 0 0.1832181015668064 0.15465227861531949 0 0.18154761934540289 0.13534417850528041 0 0.16307655427518189 0.1461583771030025 0 0.18154761934540289 0.13534417850528041 0 0.19370351113240411 0.1202502215829211 0 0.16718880021878149 0.12232812864365609 0 0.16307655427518189 0.1461583771030025 0 0.16718880021878149 0.12232812864365609 0 0.14773514824261011 0.13994704674368119 0 0.16307655427518189 0.1461583771030025 0 0.16718880021878149 0.12232812864365609 0 0.18154761934540289 0.13534417850528041 0 0.16307655427518189 0.1461583771030025 0 0.16718880021878149 0.12232812864365609 0 0.14248646727170791 0.24329921538672239 0 0.16890701105638031 0.23504418317664161 0 0.14248646727170791 0.24329921538672239 0 0.116065923487036 0.25155424759680489 0 0.14248646727170791 0.24329921538672239 0 0.1287590091161889 0.22454109023782651 0 0.116065923487036 0.25155424759680489 0 0.14248646727170791 0.24329921538672239 0 0.1287590091161889 0.22454109023782651 0 0.14216045677169509 0.2226427774354276 0 0.1287590091161889 0.22454109023782651 0 0.14216045677169509 0.2226427774354276 0 0.13903299807830019 0.21154409335764149 0 0.14248646727170791 0.24329921538672239 0 0.14216045677169509 0.2226427774354276 0 0.16890701105638031 0.23504418317664161 0 0.14216045677169509 0.2226427774354276 0 0.1513137794066001 0.21432303737238931 0 0.16890701105638031 0.23504418317664161 0 0.15183105921464751 0.210852851725322 0 0.13241563583181001 0.2003476577346209 0 0.15183105921464751 0.210852851725322 0 0.13903299807830019 0.21154409335764149 0 0.13241563583181001 0.2003476577346209 0 0.1513137794066001 0.21432303737238931 0 0.15183105921464751 0.210852851725322 0 0.14522842943996589 0.21534193400985699 0 0.1513137794066001 0.21432303737238931 0 0.15183105921464751 0.210852851725322 0 0.15183105921464751 0.210852851725322 0 0.14522842943996589 0.21534193400985699 0 0.13903299807830019 0.21154409335764149 0 0.14216045677169509 0.2226427774354276 0 0.1513137794066001 0.21432303737238931 0 0.14522842943996589 0.21534193400985699 0 0.14216045677169509 0.2226427774354276 0 0.14522842943996589 0.21534193400985699 0 0.13903299807830019 0.21154409335764149 0 0.1287590091161889 0.22454109023782651 0 0.13903299807830019 0.21154409335764149 0 0.12714211421566091 0.2115365522170618 0 0.11958782189190099 0.20227867846385961 0 0.12714211421566091 0.2115365522170618 0 0.13241563583181001 0.2003476577346209 0 0.13903299807830019 0.21154409335764149 0 0.12714211421566091 0.2115365522170618 0 0.13241563583181001 0.2003476577346209 0 0.1210814068145178 0.19423580856195369 0 0.13241563583181001 0.2003476577346209 0 0.13808072668616231 0.19149491569441959 0 0.1210814068145178 0.19423580856195369 0 0.14172685770208041 0.18088834424850889 0 0.13808072668616231 0.19149491569441959 0 0.1210814068145178 0.19423580856195369 0 0.14172685770208041 0.18088834424850889 0 0.1210814068145178 0.19423580856195369 0 0.13241563583181001 0.2003476577346209 0 0.15664227980061579 0.1834446584897341 0 0.15183105921464751 0.210852851725322 0 0.14735069213281321 0.19092796682168489 0 0.14172685770208041 0.18088834424850889 0 0.13808072668616231 0.19149491569441959 0 0.14735069213281321 0.19092796682168489 0 0.15183105921464751 0.210852851725322 0 0.13808072668616231 0.19149491569441959 0 0.14735069213281321 0.19092796682168489 0 0.15664227980061579 0.1834446584897341 0 0.15183105921464751 0.210852851725322 0 0.15183105921464751 0.210852851725322 0 0.13241563583181001 0.2003476577346209 0 0.13808072668616231 0.19149491569441959 0 0.15183105921464751 0.210852851725322 0 0.13808072668616231 0.19149491569441959 0 0.15664227980061579 0.1834446584897341 0 0.17803712215301101 0.18711146321258301 0 0.17078007948547791 0.20461318166966591 0 0.15664227980061579 0.1834446584897341 0 0.15183105921464751 0.210852851725322 0 0.17078007948547791 0.20461318166966591 0 0.17803712215301101 0.18711146321258301 0 0.18699821765939811 0.20575379358823331 0 0.17078007948547791 0.20461318166966591 0 0.18699821765939811 0.20575379358823331 0 0.18150256540618689 0.21619068467845909 0 0.17078007948547791 0.20461318166966591 0 0.18150256540618689 0.21619068467845909 0 0.17078007948547791 0.20461318166966591 0 0.1696832039875637 0.2204437538389574 0 0.15183105921464751 0.210852851725322 0 0.1696832039875637 0.2204437538389574 0 0.15183105921464751 0.210852851725322 0 0.17078007948547791 0.20461318166966591 0 0.1696832039875637 0.2204437538389574 0 0.15183105921464751 0.210852851725322 0 0.16890701105638031 0.23504418317664161 0 0.15183105921464751 0.210852851725322 0 0.1696832039875637 0.2204437538389574 0 0.16890701105638031 0.23504418317664161 0 0.1513137794066001 0.21432303737238931 0 0.15183105921464751 0.210852851725322 0 0.16890701105638031 0.23504418317664161 0 0.1696832039875637 0.2204437538389574 0 0.1730962958839812 0.23373525170759399 0 0.16890701105638031 0.23504418317664161 0 0.18150256540618689 0.21619068467845909 0 0.1696832039875637 0.2204437538389574 0 0.1874551123034256 0.23002704556275291 0 0.1696832039875637 0.2204437538389574 0 0.1874551123034256 0.23002704556275291 0 0.1730962958839812 0.23373525170759399 0 0.1696832039875637 0.2204437538389574 0 0.1874551123034256 0.23002704556275291 0 0.16890701105638031 0.23504418317664161 0 0.18564289691528729 0.25868749876629671 0 0.1821848497420967 0.24129823675235251 0 0.16890701105638031 0.23504418317664161 0 0.18564289691528729 0.25868749876629671 0 0.1730962958839812 0.23373525170759399 0 0.1821848497420967 0.24129823675235251 0 0.16890701105638031 0.23504418317664161 0 0.1874551123034256 0.23002704556275291 0 0.1730962958839812 0.23373525170759399 0 0.1821848497420967 0.24129823675235251 0 0.14248646727170791 0.24329921538672239 0 0.16890701105638031 0.23504418317664161 0 0.1631161995596529 0.25657386530356069 0 0.1730962958839812 0.23373525170759399 0 0.16890701105638031 0.23504418317664161 0 0.2052270206192876 0.23961033728654851 0 0.2245441737887168 0.23093760545441711 0 0.21458810326103989 0.25029177234766842 0 0.2052270206192876 0.23961033728654851 0 0.2050239072751949 0.2492833193895482 0 0.21458810326103989 0.25029177234766842 0 0.2052270206192876 0.23961033728654851 0 0.2050239072751949 0.2492833193895482 0 0.1956251304139873 0.24830732682566101 0 0.1874551123034256 0.23002704556275291 0 0.1821848497420967 0.24129823675235251 0 0.1956251304139873 0.24830732682566101 0 0.1874551123034256 0.23002704556275291 0 0.2052270206192876 0.23961033728654851 0 0.1821848497420967 0.24129823675235251 0 0.1956251304139873 0.24830732682566101 0 0.18564289691528729 0.25868749876629671 0 0.1874551123034256 0.23002704556275291 0 0.2052270206192876 0.23961033728654851 0 0.1956251304139873 0.24830732682566101 0 0.1874551123034256 0.23002704556275291 0 0.2052270206192876 0.23961033728654851 0 0.20110338325899621 0.22697869990708769 0 0.18150256540618689 0.21619068467845909 0 0.1874551123034256 0.23002704556275291 0 0.19422843088031849 0.2167901493339745 0 0.1874551123034256 0.23002704556275291 0 0.20110338325899621 0.22697869990708769 0 0.19422843088031849 0.2167901493339745 0 0.20110338325899621 0.22697869990708769 0 0.2086865974780466 0.21738525977654841 0 0.19422843088031849 0.2167901493339745 0 0.2052270206192876 0.23961033728654851 0 0.21155197229915221 0.22775520817690251 0 0.2245441737887168 0.23093760545441711 0 0.20110338325899621 0.22697869990708769 0 0.21155197229915221 0.22775520817690251 0 0.2086865974780466 0.21738525977654841 0 0.2052270206192876 0.23961033728654851 0 0.20110338325899621 0.22697869990708769 0 0.21155197229915221 0.22775520817690251 0 0.21155197229915221 0.22775520817690251 0 0.2086865974780466 0.21738525977654841 0 0.22156171208109349 0.2232889965660497 0 0.211417792929007 0.20448623071467029 0 0.2086865974780466 0.21738525977654841 0 0.22411523440486891 0.2128525325182862 0 0.2086865974780466 0.21738525977654841 0 0.22411523440486891 0.2128525325182862 0 0.22156171208109349 0.2232889965660497 0 0.211417792929007 0.20448623071467029 0 0.2086865974780466 0.21738525977654841 0 0.19996516513116139 0.20542151256053021 0 0.2086865974780466 0.21738525977654841 0 0.19422843088031849 0.2167901493339745 0 0.19996516513116139 0.20542151256053021 0 0.18699821765939811 0.20575379358823331 0 0.18150256540618689 0.21619068467845909 0 0.19422843088031849 0.2167901493339745 0 0.18699821765939811 0.20575379358823331 0 0.19422843088031849 0.2167901493339745 0 0.19996516513116139 0.20542151256053021 0 0.18699821765939811 0.20575379358823331 0 0.19996516513116139 0.20542151256053021 0 0.19943196450540629 0.19077826793543179 0 0.17803712215301101 0.18711146321258301 0 0.19943196450540629 0.19077826793543179 0 0.17803712215301101 0.18711146321258301 0 0.18699821765939811 0.20575379358823331 0 0.19943196450540629 0.19077826793543179 0 0.211417792929007 0.20448623071467029 0 0.19943196450540629 0.19077826793543179 0 0.22082680685780151 0.19444507265828059 0 0.19943196450540629 0.19077826793543179 0 0.22082680685780151 0.19444507265828059 0 0.211417792929007 0.20448623071467029 0 0.19996516513116139 0.20542151256053021 0 0.19943196450540629 0.19077826793543179 0 0.22082680685780151 0.19444507265828059 0 0.2418323282778008 0.1922485172988235 0 0.23200417938957321 0.20455559625434991 0 0.22082680685780151 0.19444507265828059 0 0.2418323282778008 0.1922485172988235 0 0.2298041727050075 0.1787595393801808 0 0.2418323282778008 0.1922485172988235 0 0.24124234801782149 0.21867626254200909 0 0.2418323282778008 0.1922485172988235 0 0.24124234801782149 0.21867626254200909 0 0.25471258750952741 0.20148162901819469 0 0.2418323282778008 0.1922485172988235 0 0.24124234801782149 0.21867626254200909 0 0.23200417938957321 0.20455559625434991 0 0.24124234801782149 0.21867626254200909 0 0.25357276657721323 0.21641202867955539 0 0.25471258750952741 0.20148162901819469 0 0.24124234801782149 0.21867626254200909 0 0.22411523440486891 0.2128525325182862 0 0.2303270751280653 0.22194856436908961 0 0.211417792929007 0.20448623071467029 0 0.22082680685780151 0.19444507265828059 0 0.22411523440486891 0.2128525325182862 0 0.22082680685780151 0.19444507265828059 0 0.23200417938957321 0.20455559625434991 0 0.22411523440486891 0.2128525325182862 0 0.24124234801782149 0.21867626254200909 0 0.23200417938957321 0.20455559625434991 0 0.22411523440486891 0.2128525325182862 0 0.22411523440486891 0.2128525325182862 0 0.22156171208109349 0.2232889965660497 0 0.2303270751280653 0.22194856436908961 0 0.22156171208109349 0.2232889965660497 0 0.2245441737887168 0.23093760545441711 0 0.2301452193877111 0.22885480910105491 0 0.21155197229915221 0.22775520817690251 0 0.22156171208109349 0.2232889965660497 0 0.2245441737887168 0.23093760545441711 0 0.2301452193877111 0.22885480910105491 0 0.23408043491912681 0.23335190051361199 0 0.23787356880598759 0.22384871304106421 0 0.2301452193877111 0.22885480910105491 0 0.23408043491912681 0.23335190051361199 0 0.2258394828391487 0.23585902185418811 0 0.2245441737887168 0.23093760545441711 0 0.2301452193877111 0.22885480910105491 0 0.2258394828391487 0.23585902185418811 0 0.2301452193877111 0.22885480910105491 0 0.2303270751280653 0.22194856436908961 0 0.23787356880598759 0.22384871304106421 0 0.22156171208109349 0.2232889965660497 0 0.2301452193877111 0.22885480910105491 0 0.2303270751280653 0.22194856436908961 0 0.24124234801782149 0.21867626254200909 0 0.2303270751280653 0.22194856436908961 0 0.23787356880598759 0.22384871304106421 0 0.24124234801782149 0.21867626254200909 0 0.23787356880598759 0.22384871304106421 0 0.25357276657721323 0.21641202867955539 0 0.23408043491912681 0.23335190051361199 0 0.24868260911088891 0.2303107595792985 0 0.25357276657721323 0.21641202867955539 0 0.23408043491912681 0.23335190051361199 0 0.23787356880598759 0.22384871304106421 0 0.25357276657721323 0.21641202867955539 0 0.23408043491912681 0.23335190051361199 0 0.25357276657721323 0.21641202867955539 0 0.24868260911088891 0.2303107595792985 0 0.2392512687495113 0.23539683186585869 0 0.2471090749199483 0.2357199094212839 0 0.23408043491912681 0.23335190051361199 0 0.24868260911088891 0.2303107595792985 0 0.2392512687495113 0.23539683186585869 0 0.23408043491912681 0.23335190051361199 0 0.2356673672060029 0.23553231024254659 0 0.23369101455560959 0.23545012385447089 0 0.2356673672060029 0.23553231024254659 0 0.23652425047500741 0.24096462129343871 0 0.23369101455560959 0.23545012385447089 0 0.23652425047500741 0.24096462129343871 0 0.2392512687495113 0.23539683186585869 0 0.24523436150048811 0.24199469982198529 0 0.2356673672060029 0.23553231024254659 0 0.23652425047500741 0.24096462129343871 0 0.2392512687495113 0.23539683186585869 0 0.23408043491912681 0.23335190051361199 0 0.2356673672060029 0.23553231024254659 0 0.2392512687495113 0.23539683186585869 0 0.24523436150048811 0.24199469982198529 0 0.2471090749199483 0.2357199094212839 0 0.25452501640087027 0.2374112721999547 0 0.2392512687495113 0.23539683186585869 0 0.24523436150048811 0.24199469982198529 0 0.2471090749199483 0.2357199094212839 0 0.24523436150048811 0.24199469982198529 0 0.23995652529561701 0.25039133628829258 0 0.25404003316197471 0.25208422786308371 0 0.23652425047500741 0.24096462129343871 0 0.24523436150048811 0.24199469982198529 0 0.23995652529561701 0.25039133628829258 0 0.23652425047500741 0.24096462129343871 0 0.23169913173193779 0.25404958449575432 0 0.23995652529561701 0.25039133628829258 0 0.23369101455560959 0.23545012385447089 0 0.2170338530129477 0.25958452376210089 0 0.21458810326103989 0.25029177234766842 0 0.23408043491912681 0.23335190051361199 0 0.23369101455560959 0.23545012385447089 0 0.21458810326103989 0.25029177234766842 0 0.23408043491912681 0.23335190051361199 0 0.21458810326103989 0.25029177234766842 0 0.2245441737887168 0.23093760545441711 0 0.21458810326103989 0.25029177234766842 0 0.23408043491912681 0.23335190051361199 0 0.2258394828391487 0.23585902185418811 0 0.21458810326103989 0.25029177234766842 0 0.23369101455560959 0.23545012385447089 0 0.2170338530129477 0.25958452376210089 0 0.23169913173193779 0.25404958449575432 0 0.23652425047500741 0.24096462129343871 0 0.23369101455560959 0.23545012385447089 0 0.23169913173193779 0.25404958449575432 0 0.23369101455560959 0.23545012385447089 0 0.2170338530129477 0.25958452376210089 0 0.2245441737887168 0.23093760545441711 0 0.2258394828391487 0.23585902185418811 0 0.21458810326103989 0.25029177234766842 0 0.2074718948020329 0.13931593166829101 0 0.2035930282546865 0.1573108976369578 0 0.22801201431925219 0.15227861461809999 0 0.2074718948020329 0.13931593166829101 0 0.22815060196587239 0.13250420183309389 0 0.2202182220460269 0.1181723145221887 0 0.2074718948020329 0.13931593166829101 0 0.2202182220460269 0.1181723145221887 0 0.19370351113240411 0.1202502215829211 0 0.18154761934540289 0.13534417850528041 0 0.2074718948020329 0.13931593166829101 0 0.19370351113240411 0.1202502215829211 0 0.1832181015668064 0.15465227861531949 0 0.2074718948020329 0.13931593166829101 0 0.1832181015668064 0.15465227861531949 0 0.18154761934540289 0.13534417850528041 0 0.2074718948020329 0.13931593166829101 0 0.1832181015668064 0.15465227861531949 0 0.2074718948020329 0.13931593166829101 0 0.2035930282546865 0.1573108976369578 0 0.1832181015668064 0.15465227861531949 0 0.1915320106228488 0.17262237876131631 0 0.2035930282546865 0.1573108976369578 0 0.1915320106228488 0.17262237876131631 0 0.21309098299550949 0.1707274381193544 0 0.2035930282546865 0.1573108976369578 0 0.19943196450540629 0.19077826793543179 0 0.1915320106228488 0.17262237876131631 0 0.21309098299550949 0.1707274381193544 0 0.17803712215301101 0.18711146321258301 0 0.19943196450540629 0.19077826793543179 0 0.1915320106228488 0.17262237876131631 0 0.19943196450540629 0.19077826793543179 0 0.22082680685780151 0.19444507265828059 0 0.21309098299550949 0.1707274381193544 0 0.21309098299550949 0.1707274381193544 0 0.2035930282546865 0.1573108976369578 0 0.22801201431925219 0.15227861461809999 0 0.2298041727050075 0.1787595393801808 0 0.2424223085377801 0.16582077205563811 0 0.22801201431925219 0.15227861461809999 0 0.21309098299550949 0.1707274381193544 0 0.2298041727050075 0.1787595393801808 0 0.22801201431925219 0.15227861461809999 0 0.22082680685780151 0.19444507265828059 0 0.21309098299550949 0.1707274381193544 0 0.2298041727050075 0.1787595393801808 0 0.2418323282778008 0.1922485172988235 0 0.2424223085377801 0.16582077205563811 0 0.2418323282778008 0.1922485172988235 0 0.2424223085377801 0.16582077205563811 0 0.26032431562704572 0.18342712708893841 0 0.2418323282778008 0.1922485172988235 0 0.2298041727050075 0.1787595393801808 0 0.2424223085377801 0.16582077205563811 0 0.2424223085377801 0.16582077205563811 0 0.24301228879775941 0.13939302681245261 0 0.2424223085377801 0.16582077205563811 0 0.24301228879775941 0.13939302681245261 0 0.25486404381895789 0.1523024957907583 0 0.22801201431925219 0.15227861461809999 0 0.23648687609860089 0.13476882232929049 0 0.24301228879775941 0.13939302681245261 0 0.2424223085377801 0.16582077205563811 0 0.22801201431925219 0.15227861461809999 0 0.24301228879775941 0.13939302681245261 0 0.2074718948020329 0.13931593166829101 0 0.22801201431925219 0.15227861461809999 0 0.22815060196587239 0.13250420183309389 0 0.22815060196587239 0.13250420183309389 0 0.24420216851797599 0.1292372680552665 0 0.2202182220460269 0.1181723145221887 0 0.22801201431925219 0.15227861461809999 0 0.22815060196587239 0.13250420183309389 0 0.23648687609860089 0.13476882232929049 0 0.22815060196587239 0.13250420183309389 0 0.23648687609860089 0.13476882232929049 0 0.24420216851797599 0.1292372680552665 0 0.23648687609860089 0.13476882232929049 0 0.24301228879775941 0.13939302681245261 0 0.24420216851797599 0.1292372680552665 0 0.24646482385440791 0.1109165710353929 0 0.23770217468454991 0.11680213067385049 0 0.255186127323073 0.11543194682551421 0 0.24420216851797599 0.1292372680552665 0 0.23770217468454991 0.11680213067385049 0 0.255186127323073 0.11543194682551421 0 0.23770217468454991 0.11680213067385049 0 0.255186127323073 0.11543194682551421 0 0.23770217468454991 0.11680213067385049 0 0.24055722746134861 0.1095612663226197 0 0.23538797832625211 0.10692464088038291 0 0.24646482385440791 0.1109165710353929 0 0.23770217468454991 0.11680213067385049 0 0.24055722746134861 0.1095612663226197 0 0.24174744587836799 0.1033548466348798 0 0.22816008327650389 0.097918375238235045 0 0.24736227196270541 0.090270970101712061 0 0.22816008327650389 0.097918375238235045 0 0.24736227196270541 0.090270970101712061 0 0.24174744587836799 0.1033548466348798 0 0.24736227196270541 0.090270970101712061 0 0.25459763100830068 0.096141582858552177 0 0.24174744587836799 0.1033548466348798 0 0.25459763100830068 0.096141582858552177 0 0.24646482385440791 0.1109165710353929 0 0.24174744587836799 0.1033548466348798 0 0.25655208948606423 0.10927836717886751 0 0.24174744587836799 0.1033548466348798 0 0.25655208948606423 0.10927836717886751 0 0.24646482385440791 0.1109165710353929 0 0.24055722746134861 0.1095612663226197 0 0.24174744587836799 0.1033548466348798 0 0.23538797832625211 0.10692464088038291 0 0.24174744587836799 0.1033548466348798 0 0.22816008327650389 0.097918375238235045 0 0.24055722746134861 0.1095612663226197 0 0.23538797832625211 0.10692464088038291 0 0.24174744587836799 0.1033548466348798 0 0.23538797832625211 0.10692464088038291 0 0.24174744587836799 0.1033548466348798 0 0.24174744587836799 0.1033548466348798 0 0.22816008327650389 0.097918375238235045 0 0.23538797832625211 0.10692464088038291 0 0.22816008327650389 0.097918375238235045 0 0.22436085098549791 0.1097634104313145 0 0.23770217468454991 0.11680213067385049 0 0.2202182220460269 0.1181723145221887 0 0.23770217468454991 0.11680213067385049 0 0.2202182220460269 0.1181723145221887 0 0.22436085098549791 0.1097634104313145 0 0.24420216851797599 0.1292372680552665 0 0.23770217468454991 0.11680213067385049 0 0.2202182220460269 0.1181723145221887 0 0.24420216851797599 0.1292372680552665 0 0.2202182220460269 0.1181723145221887 0 0.23770217468454991 0.11680213067385049 0 0.23538797832625211 0.10692464088038291 0 0.22436085098549791 0.1097634104313145 0 0.2202182220460269 0.1181723145221887 0 0.20033579659415629 0.10899959084191641 0 0.19370351113240411 0.1202502215829211 0 0.2202182220460269 0.1181723145221887 0 0.20033579659415629 0.10899959084191641 0 0.2202182220460269 0.1181723145221887 0 0.19370351113240411 0.1202502215829211 0 0.2202182220460269 0.1181723145221887 0 0.22436085098549791 0.1097634104313145 0 0.20033579659415629 0.10899959084191641 0 0.22816008327650389 0.097918375238235045 0 0.22436085098549791 0.1097634104313145 0 0.20033579659415629 0.10899959084191641 0 0.22816008327650389 0.097918375238235045 0 0.20033579659415629 0.10899959084191641 0 0.2016134769563831 0.087296750559026068 0 0.22816008327650389 0.097918375238235045 0 0.20033579659415629 0.10899959084191641 0 0.20033579659415629 0.10899959084191641 0 0.18422746814952201 0.1154148446289336 0 0.1860496622757298 0.1024087067025775 0 0.20033579659415629 0.10899959084191641 0 0.2016134769563831 0.087296750559026068 0 0.1860496622757298 0.1024087067025775 0 0.20033579659415629 0.10899959084191641 0 0.1860496622757298 0.1024087067025775 0 0.20033579659415629 0.10899959084191641 0 0.19370351113240411 0.1202502215829211 0 0.18422746814952201 0.1154148446289336 0 0.20033579659415629 0.10899959084191641 0 0.18422746814952201 0.1154148446289336 0 0.19220101611619109 0.069455466931817506 0 0.2016134769563831 0.087296750559026068 0 0.22553753830923129 0.072562856517635971 0 0.19220101611619109 0.069455466931817506 0 0.22553753830923129 0.072562856517635971 0 0.20371280465575431 0.054854742933563613 0 0.19220101611619109 0.069455466931817506 0 0.2016134769563831 0.087296750559026068 0 0.17506687063626211 0.076675125879817507 0 0.2016134769563831 0.087296750559026068 0 0.17506687063626211 0.076675125879817507 0 0.2016134769563831 0.087296750559026068 0 0.1860496622757298 0.1024087067025775 0 0.17954517331912459 0.085943521096986275 0 0.22816008327650389 0.097918375238235045 0 0.2016134769563831 0.087296750559026068 0 0.22553753830923129 0.072562856517635971 0 0.22816008327650389 0.097918375238235045 0 0.2016134769563831 0.087296750559026068 0 0.22553753830923129 0.072562856517635971 0 0.20371280465575431 0.054854742933563613 0 0.22816008327650389 0.097918375238235045 0 0.22553753830923129 0.072562856517635971 0 0.24736227196270541 0.090270970101712061 0 0.22553753830923129 0.072562856517635971 0 0.24736227196270541 0.090270970101712061 0 0.22553753830923129 0.072562856517635971 0 0.24736227196270541 0.090270970101712061 0 0.24874122334595 0.07170785510379532 0 0.22553753830923129 0.072562856517635971 0 0.24874122334595 0.07170785510379532 0 0.24629062771517271 0.052820950830226497 0 0.24629062771517271 0.052820950830226497 0 0.22540450977275331 0.044226989078737088 0 0.24629062771517271 0.052820950830226497 0 0.2492733855269578 0.041579555173777823 0 0.22540450977275331 0.044226989078737088 0 0.2492733855269578 0.041579555173777823 0 0.23050941707716249 0.025621187905106171 0 0.2492733855269578 0.041579555173777823 0 0.22540450977275331 0.044226989078737088 0 0.23050941707716249 0.025621187905106171 0 0.22540450977275331 0.044226989078737088 0 0.23050941707716249 0.025621187905106171 0 0.21805144048265651 0.031797176764528597 0 0.22553753830923129 0.072562856517635971 0 0.24629062771517271 0.052820950830226497 0 0.22540450977275331 0.044226989078737088 0 0.23790413247208811 0.0091049515404343275 0 0.25322369798355371 0.0032948183560677501 0 0.2464198669495459 -0.012097030270161889 0 0.23790413247208811 0.0091049515404343275 0 0.25442723867738032 0.016379625870619269 0 0.25322369798355371 0.0032948183560677501 0 0.2492733855269578 0.041579555173777823 0 0.24818833723327199 0.02644705719899533 0 0.23050941707716249 0.025621187905106171 0 0.23790413247208811 0.0091049515404343275 0 0.24818833723327199 0.02644705719899533 0 0.25442723867738032 0.016379625870619269 0 0.23790413247208811 0.0091049515404343275 0 0.24818833723327199 0.02644705719899533 0 0.23050941707716249 0.025621187905106171 0 0.23050941707716249 0.025621187905106171 0 0.2117734432503762 0.02170750274702346 0 0.21805144048265651 0.031797176764528597 0 0.23050941707716249 0.025621187905106171 0 0.21174544862736719 0.0096628206364345465 0 0.23050941707716249 0.025621187905106171 0 0.22518260227175371 0.0072623370788317187 0 0.21174544862736719 0.0096628206364345465 0 0.23790413247208811 0.0091049515404343275 0 0.22518260227175371 0.0072623370788317187 0 0.2300866381754704 -0.0072438550720441714 0 0.23790413247208811 0.0091049515404343275 0 0.23050941707716249 0.025621187905106171 0 0.22518260227175371 0.0072623370788317187 0 0.21174544862736719 0.0096628206364345465 0 0.2117734432503762 0.02170750274702346 0 0.20589386385567829 -0.0063134785331596111 0 0.2117734432503762 0.02170750274702346 0 0.19985428483697371 0.01027601627170664 0 0.20589386385567829 -0.0063134785331596111 0 0.2117734432503762 0.02170750274702346 0 0.20589386385567829 -0.0063134785331596111 0 0.22518260227175371 0.0072623370788317187 0 0.21174544862736719 0.0096628206364345465 0 0.2185782736923042 -0.0038367730406402641 0 0.23050941707716249 0.025621187905106171 0 0.21174544862736719 0.0096628206364345465 0 0.2117734432503762 0.02170750274702346 0 0.2117734432503762 0.02170750274702346 0 0.19994459845139961 0.023663902980434019 0 0.19985428483697371 0.01027601627170664 0 0.2117734432503762 0.02170750274702346 0 0.21805144048265651 0.031797176764528597 0 0.20451839183033399 0.035633027327247678 0 0.2117734432503762 0.02170750274702346 0 0.19994459845139961 0.023663902980434019 0 0.20451839183033399 0.035633027327247678 0 0.19994459845139961 0.023663902980434019 0 0.20451839183033399 0.035633027327247678 0 0.1836322738879155 0.027039065575756291 0 0.19994459845139961 0.023663902980434019 0 0.19985428483697371 0.01027601627170664 0 0.1836322738879155 0.027039065575756291 0 0.19985428483697371 0.01027601627170664 0 0.20589386385567829 -0.0063134785331596111 0 0.18863989258252481 -0.001979820774580698 0 0.19985428483697371 0.01027601627170664 0 0.1836322738879155 0.027039065575756291 0 0.18863989258252481 -0.001979820774580698 0 0.22553753830923129 0.072562856517635971 0 0.22540450977275331 0.044226989078737088 0 0.20371280465575431 0.054854742933563613 0 0.22540450977275331 0.044226989078737088 0 0.20451839183033399 0.035633027327247678 0 0.22540450977275331 0.044226989078737088 0 0.21805144048265651 0.031797176764528597 0 0.20451839183033399 0.035633027327247678 0 0.22540450977275331 0.044226989078737088 0 0.20371280465575431 0.054854742933563613 0 0.20451839183033399 0.035633027327247678 0 0.20451839183033399 0.035633027327247678 0 0.1818880710022803 0.03714662934948755 0 0.1836322738879155 0.027039065575756291 0 0.20371280465575431 0.054854742933563613 0 0.20451839183033399 0.035633027327247678 0 0.1818880710022803 0.03714662934948755 0 0.20371280465575431 0.054854742933563613 0 0.1818880710022803 0.03714662934948755 0 0.20451839183033399 0.035633027327247678 0 0.1836322738879155 0.027039065575756291 0 0.20371280465575431 0.054854742933563613 0 0.17847747081927551 0.05691087761465332 0 0.1818880710022803 0.03714662934948755 0 0.19220101611619109 0.069455466931817506 0 0.20371280465575431 0.054854742933563613 0 0.17847747081927551 0.05691087761465332 0 0.17847747081927551 0.05691087761465332 0 0.1818880710022803 0.03714662934948755 0 0.17847747081927551 0.05691087761465332 0 0.1818880710022803 0.03714662934948755 0 0.1636569447874848 0.036789081642687432 0 0.1818880710022803 0.03714662934948755 0 0.1836322738879155 0.027039065575756291 0 0.1818880710022803 0.03714662934948755 0 0.1636569447874848 0.036789081642687432 0 0.1620242678869008 0.02102957209859084 0 0.17847747081927551 0.05691087761465332 0 0.1636569447874848 0.036789081642687432 0 0.15962551614652079 0.053115759904931073 0 0.17847747081927551 0.05691087761465332 0 0.15962551614652079 0.053115759904931073 0 0.16641746421004469 0.065589342706300277 0 0.15962551614652079 0.053115759904931073 0 0.15045482833334159 0.067212260357143019 0 0.16641746421004469 0.065589342706300277 0 0.1716695151525548 0.011722155214289249 0 0.17506184651935949 -0.0021247232161890161 0 0.18863989258252481 -0.001979820774580698 0 0.1836322738879155 0.027039065575756291 0 0.18863989258252481 -0.001979820774580698 0 0.1836322738879155 0.027039065575756291 0 0.1716695151525548 0.011722155214289249 0 0.18863989258252481 -0.001979820774580698 0 0.1818880710022803 0.03714662934948755 0 0.1730573255808272 0.02268781650565178 0 0.1620242678869008 0.02102957209859084 0 0.1818880710022803 0.03714662934948755 0 0.1620242678869008 0.02102957209859084 0 0.1730573255808272 0.02268781650565178 0 0.1836322738879155 0.027039065575756291 0 0.1716695151525548 0.011722155214289249 0 0.1730573255808272 0.02268781650565178 0 0.1836322738879155 0.027039065575756291 0 0.1818880710022803 0.03714662934948755 0 0.1730573255808272 0.02268781650565178 0 0.1836322738879155 0.027039065575756291 0 0.1636569447874848 0.036789081642687432 0 0.1620242678869008 0.02102957209859084 0 0.15032019737810451 0.03113296745297477 0 0.1730573255808272 0.02268781650565178 0 0.1620242678869008 0.02102957209859084 0 0.1716695151525548 0.011722155214289249 0 0.1620242678869008 0.02102957209859084 0 0.1716695151525548 0.011722155214289249 0 0.15871689523486121 0.010399441389301141 0 0.1716695151525548 0.011722155214289249 0 0.15871689523486121 0.010399441389301141 0 0.1628037813635097 0.0015330777282007481 0 0.15871689523486121 0.010399441389301141 0 0.1628037813635097 0.0015330777282007481 0 0.15453230216132671 0.0032055715019124438 0 0.1716695151525548 0.011722155214289249 0 0.1628037813635097 0.0015330777282007481 0 0.17506184651935949 -0.0021247232161890161 0 0.1620242678869008 0.02102957209859084 0 0.14216046477152491 0.0049125148476896544 0 0.15871689523486121 0.010399441389301141 0 0.14216046477152491 0.0049125148476896544 0 0.15453230216132671 0.0032055715019124438 0 0.14216046477152491 0.0049125148476896544 0 0.15453230216132671 0.0032055715019124438 0 0.15849764294065671 -0.0060544572746906826 0 0.1620242678869008 0.02102957209859084 0 0.15871689523486121 0.010399441389301141 0 0.14216046477152491 0.0049125148476896544 0 0.1620242678869008 0.02102957209859084 0 0.14216046477152491 0.0049125148476896544 0 0.1432298655490542 0.02239521632663263 0 0.1620242678869008 0.02102957209859084 0 0.1432298655490542 0.02239521632663263 0 0.15032019737810451 0.03113296745297477 0 0.1432298655490542 0.02239521632663263 0 0.15032019737810451 0.03113296745297477 0 0.1366405524080008 0.032741533152345258 0 0.1432298655490542 0.02239521632663263 0 0.12659142849079691 0.028091664155532971 0 0.1366405524080008 0.032741533152345258 0 0.14216046477152491 0.0049125148476896544 0 0.1432298655490542 0.02239521632663263 0 0.12659142849079691 0.028091664155532971 0 0.14216046477152491 0.0049125148476896544 0 0.12659142849079691 0.028091664155532971 0 0.1323442420055404 0.014884056975098 0 0.14216046477152491 0.0049125148476896544 0 0.12659142849079691 0.028091664155532971 0 0.11882011836095251 0.0065886106746579649 0 0.12659142849079691 0.028091664155532971 0 0.1323442420055404 0.014884056975098 0 0.12659142849079691 0.028091664155532971 0 0.1366405524080008 0.032741533152345258 0 0.11882011836095251 0.0065886106746579649 0 0.1323442420055404 0.014884056975098 0 0.13735218555535891 0.001011181807127467 0 0.1323442420055404 0.014884056975098 0 0.13735218555535891 0.001011181807127467 0 0.14216046477152491 0.0049125148476896544 0 0.1323442420055404 0.014884056975098 0 0.13735218555535891 0.001011181807127467 0 0.14216046477152491 0.0049125148476896544 0 0.13735218555535891 0.001011181807127467 0 0.15962551614652079 0.053115759904931073 0 0.1452456698728295 0.044396077507560729 0 0.15045482833334159 0.067212260357143019 0 0.1452456698728295 0.044396077507560729 0 0.12683439495817461 0.052003073372435288 0 0.15045482833334159 0.067212260357143019 0 0.1636569447874848 0.036789081642687432 0 0.15032019737810451 0.03113296745297477 0 0.1452456698728295 0.044396077507560729 0 0.1636569447874848 0.036789081642687432 0 0.15962551614652079 0.053115759904931073 0 0.1452456698728295 0.044396077507560729 0 0.1636569447874848 0.036789081642687432 0 0.1452456698728295 0.044396077507560729 0 0.15032019737810451 0.03113296745297477 0 0.1452456698728295 0.044396077507560729 0 0.1366405524080008 0.032741533152345258 0 0.1452456698728295 0.044396077507560729 0 0.13015300311198849 0.040381385354086502 0 0.12683439495817461 0.052003073372435288 0 0.1452456698728295 0.044396077507560729 0 0.1366405524080008 0.032741533152345258 0 0.13015300311198849 0.040381385354086502 0 0.12659142849079691 0.028091664155532971 0 0.1366405524080008 0.032741533152345258 0 0.13015300311198849 0.040381385354086502 0 0.12683439495817461 0.052003073372435288 0 0.13134854049252651 0.064566646620811727 0 0.15045482833334159 0.067212260357143019 0 0.1452456698728295 0.044396077507560729 0 0.12683439495817461 0.052003073372435288 0 0.12683439495817461 0.052003073372435288 0 0.15045482833334159 0.067212260357143019 0 0.1213053233293625 0.063977455960140386 0 0.12683439495817461 0.052003073372435288 0 0.13134854049252651 0.064566646620811727 0 0.13134854049252651 0.064566646620811727 0 0.12679961534922851 0.075073796793526271 0 0.15045482833334159 0.067212260357143019 0 0.1213053233293625 0.063977455960140386 0 0.13134854049252651 0.064566646620811727 0 0.12679961534922851 0.075073796793526271 0 0.12679961534922851 0.075073796793526271 0 0.15045482833334159 0.067212260357143019 0 0.1492815716532653 0.085445809678383625 0 0.1185648575779607 0.095458187827811403 0 0.12679961534922851 0.075073796793526271 0 0.13332649773741079 0.089989738391902788 0 0.1492815716532653 0.085445809678383625 0 0.13332649773741079 0.089989738391902788 0 0.13865994636918871 0.10398115926788989 0 0.12679961534922851 0.075073796793526271 0 0.1492815716532653 0.085445809678383625 0 0.12679961534922851 0.075073796793526271 0 0.1492815716532653 0.085445809678383625 0 0.13332649773741079 0.089989738391902788 0 0.123281054128593 0.11724462113534739 0 0.1185648575779607 0.095458187827811403 0 0.13865994636918871 0.10398115926788989 0 0.1185648575779607 0.095458187827811403 0 0.13332649773741079 0.089989738391902788 0 0.13865994636918871 0.10398115926788989 0 0.123281054128593 0.11724462113534739 0 0.13865994636918871 0.10398115926788989 0 0.13947052033133081 0.1245003570974072 0 0.13947052033133081 0.1245003570974072 0 0.15026369300765779 0.1129544164764977 0 0.16718880021878149 0.12232812864365609 0 0.13947052033133081 0.1245003570974072 0 0.16718880021878149 0.12232812864365609 0 0.13865994636918871 0.10398115926788989 0 0.13947052033133081 0.1245003570974072 0 0.15026369300765779 0.1129544164764977 0 0.1492815716532653 0.085445809678383625 0 0.13865994636918871 0.10398115926788989 0 0.15573550511132991 0.1010080208970377 0 0.13865994636918871 0.10398115926788989 0 0.15026369300765779 0.1129544164764977 0 0.15573550511132991 0.1010080208970377 0 0.15573550511132991 0.1010080208970377 0 0.17176352795730221 0.095817822563241214 0 0.16718880021878149 0.12232812864365609 0 0.17176352795730221 0.095817822563241214 0 0.16718880021878149 0.12232812864365609 0 0.1492815716532653 0.085445809678383625 0 0.15573550511132991 0.1010080208970377 0 0.17176352795730221 0.095817822563241214 0 0.15026369300765779 0.1129544164764977 0 0.15573550511132991 0.1010080208970377 0 0.16718880021878149 0.12232812864365609 0 0.16718880021878149 0.12232812864365609 0 0.18422746814952201 0.1154148446289336 0 0.17176352795730221 0.095817822563241214 0 0.16718880021878149 0.12232812864365609 0 0.18422746814952201 0.1154148446289336 0 0.19370351113240411 0.1202502215829211 0 0.16718880021878149 0.12232812864365609 0 0.19370351113240411 0.1202502215829211 0 0.16718880021878149 0.12232812864365609 0 0.18422746814952201 0.1154148446289336 0 0.17176352795730221 0.095817822563241214 0 0.18422746814952201 0.1154148446289336 0 0.1860496622757298 0.1024087067025775 0 0.17176352795730221 0.095817822563241214 0 0.1860496622757298 0.1024087067025775 0 0.17954517331912459 0.085943521096986275 0 0.17176352795730221 0.095817822563241214 0 0.1860496622757298 0.1024087067025775 0 0.2016134769563831 0.087296750559026068 0 0.17954517331912459 0.085943521096986275 0 0.17506687063626211 0.076675125879817507 0 0.17176352795730221 0.095817822563241214 0 0.17407526170850959 0.082421447341849294 0 0.17176352795730221 0.095817822563241214 0 0.17954517331912459 0.085943521096986275 0 0.17407526170850959 0.082421447341849294 0 0.17954517331912459 0.085943521096986275 0 0.17407526170850959 0.082421447341849294 0 0.17506687063626211 0.076675125879817507 0 0.17407526170850959 0.082421447341849294 0 0.17506687063626211 0.076675125879817507 0 0.17954517331912459 0.085943521096986275 0 0.17407526170850959 0.082421447341849294 0 0.17847747081927551 0.05691087761465332 0 0.17506687063626211 0.076675125879817507 0 0.19220101611619109 0.069455466931817506 0 0.17847747081927551 0.05691087761465332 0 0.17506687063626211 0.076675125879817507 0 0.17847747081927551 0.05691087761465332 0 0.17506687063626211 0.076675125879817507 0 0.16641746421004469 0.065589342706300277 0 0.17407526170850959 0.082421447341849294 0 0.17506687063626211 0.076675125879817507 0 0.16846263511482451 0.074032689774956653 0 0.15045482833334159 0.067212260357143019 0 0.16846263511482451 0.074032689774956653 0 0.16641746421004469 0.065589342706300277 0 0.17506687063626211 0.076675125879817507 0 0.16846263511482451 0.074032689774956653 0 0.16641746421004469 0.065589342706300277 0 0.15045482833334159 0.067212260357143019 0 0.17407526170850959 0.082421447341849294 0 0.16846263511482451 0.074032689774956653 0 0.17506687063626211 0.076675125879817507 0 0.16846263511482451 0.074032689774956653 0 0.15045482833334159 0.067212260357143019 0 0.17407526170850959 0.082421447341849294 0 0.1492815716532653 0.085445809678383625 0 0.17176352795730221 0.095817822563241214 0 0.1492815716532653 0.085445809678383625 0 0.17176352795730221 0.095817822563241214 0 0.17407526170850959 0.082421447341849294 0 0.15045482833334159 0.067212260357143019 0 0.1492815716532653 0.085445809678383625 0 0.17407526170850959 0.082421447341849294 0 0.094789198081262169 0.47221984895451657 0 0.09870107108427445 0.5 0 0.1248616532684987 0.47476888169724352 0 0.09870107108427445 0.5 0 0.1248616532684987 0.47476888169724352 0 0.1287333349596296 0.50000000000000233 0 0.1248616532684987 0.47476888169724352 0 0.1154926134483955 0.45328817880533262 0 0.094789198081262169 0.47221984895451657 0 0.1248616532684987 0.47476888169724352 0 0.1154926134483955 0.45328817880533262 0 0.1248616532684987 0.47476888169724352 0 0.1205619018159948 0.44674810255646558 0 0.1248616532684987 0.47476888169724352 0 0.1154926134483955 0.45328817880533262 0 0.1205619018159948 0.44674810255646558 0 0.1154926134483955 0.45328817880533262 0 0.106123573628292 0.43180747591342172 0 0.1154926134483955 0.45328817880533262 0 0.1205619018159948 0.44674810255646558 0 0.106123573628292 0.43180747591342172 0 0.1154926134483955 0.45328817880533262 0 0.096722182691352548 0.44869154901932268 0 0.106123573628292 0.43180747591342172 0 0.094789198081262169 0.47221984895451657 0 0.1154926134483955 0.45328817880533262 0 0.096722182691352548 0.44869154901932268 0 0.094789198081262169 0.47221984895451657 0 0.077453222292990773 0.45016302493177879 0 0.067202034968243438 0.47028323083424428 0 0.094789198081262169 0.47221984895451657 0 0.096722182691352548 0.44869154901932268 0 0.077453222292990773 0.45016302493177879 0 0.096722182691352548 0.44869154901932268 0 0.077453222292990773 0.45016302493177879 0 0.085233479690329184 0.42595657570789891 0 0.077453222292990773 0.45016302493177879 0 0.085233479690329184 0.42595657570789891 0 0.077453222292990773 0.45016302493177879 0 0.055846149836862702 0.43889490050586683 0 0.065639666334966471 0.42409002317344818 0 0.077453222292990773 0.45016302493177879 0 0.067202034968243438 0.47028323083424428 0 0.051776939420019832 0.45519588853091181 0 0.094789198081262169 0.47221984895451657 0 0.067202034968243438 0.47028323083424428 0 0.068668807208919325 0.5 0 0.094789198081262169 0.47221984895451657 0 0.09870107108427445 0.5 0 0.068668807208919325 0.5 0 0.068668807208919325 0.5 0 0.043814234576468783 0.4752156274217324 0 0.038636543333564137 0.5 0 0.067202034968243438 0.47028323083424428 0 0.068668807208919325 0.5 0 0.043814234576468783 0.4752156274217324 0 0.038636543333564137 0.5 0 0.0095498935665802413 0.47810272379952351 0 0.0086042794582089632 0.5 0 0.043814234576468783 0.4752156274217324 0 0.038636543333564137 0.5 0 0.0095498935665802413 0.47810272379952351 0 0.043814234576468783 0.4752156274217324 0 0.0095498935665802413 0.47810272379952351 0 0.02936257191825143 0.45548825099001988 0 -0.0044763741368290672 0.43313315307665529 0 0.006403582431216831 0.45126676372832991 0 0.01131617767293759 0.43066417693356068 0 0.006403582431216831 0.45126676372832991 0 0.024585063983693121 0.43937755350337049 0 0.01131617767293759 0.43066417693356068 0 -0.0062093312902834459 0.46527566221073008 0 0.0095498935665802413 0.47810272379952351 0 0.006403582431216831 0.45126676372832991 0 0.0095498935665802413 0.47810272379952351 0 0.006403582431216831 0.45126676372832991 0 0.02936257191825143 0.45548825099001988 0 0.02936257191825143 0.45548825099001988 0 0.024585063983693121 0.43937755350337049 0 0.039439570502417587 0.44016889882154447 0 0.006403582431216831 0.45126676372832991 0 0.02936257191825143 0.45548825099001988 0 0.024585063983693121 0.43937755350337049 0 0.02936257191825143 0.45548825099001988 0 0.039439570502417587 0.44016889882154447 0 0.051776939420019832 0.45519588853091181 0 0.043814234576468783 0.4752156274217324 0 0.02936257191825143 0.45548825099001988 0 0.051776939420019832 0.45519588853091181 0 0.067202034968243438 0.47028323083424428 0 0.043814234576468783 0.4752156274217324 0 0.051776939420019832 0.45519588853091181 0 0.039439570502417587 0.44016889882154447 0 0.051776939420019832 0.45519588853091181 0 0.055846149836862702 0.43889490050586683 0 0.077453222292990773 0.45016302493177879 0 0.051776939420019832 0.45519588853091181 0 0.055846149836862702 0.43889490050586683 0 0.055846149836862702 0.43889490050586683 0 0.044352211855280779 0.42435697566478181 0 0.065639666334966471 0.42409002317344818 0 0.054179592762823331 0.4124556941646933 0 0.065774511826563423 0.40583773171119408 0 0.065639666334966471 0.42409002317344818 0 0.054179592762823331 0.4124556941646933 0 0.044352211855280779 0.42435697566478181 0 0.042551786202842029 0.40583695196884878 0 0.054179592762823331 0.4124556941646933 0 0.044352211855280779 0.42435697566478181 0 0.065639666334966471 0.42409002317344818 0 0.054179592762823331 0.4124556941646933 0 0.052579787594463898 0.40215678830519391 0 0.065774511826563423 0.40583773171119408 0 0.054179592762823331 0.4124556941646933 0 0.042551786202842029 0.40583695196884878 0 0.052579787594463898 0.40215678830519391 0 0.031615607723292562 0.41237007764590089 0 0.044352211855280779 0.42435697566478181 0 0.042551786202842029 0.40583695196884878 0 0.031615607723292562 0.41237007764590089 0 0.044352211855280779 0.42435697566478181 0 0.029348552931666359 0.42650056435783129 0 0.039439570502417587 0.44016889882154447 0 0.055846149836862702 0.43889490050586683 0 0.044352211855280779 0.42435697566478181 0 0.039439570502417587 0.44016889882154447 0 0.044352211855280779 0.42435697566478181 0 0.029348552931666359 0.42650056435783129 0 0.024585063983693121 0.43937755350337049 0 0.039439570502417587 0.44016889882154447 0 0.029348552931666359 0.42650056435783129 0 0.024585063983693121 0.43937755350337049 0 0.029348552931666359 0.42650056435783129 0 0.01131617767293759 0.43066417693356068 0 0.029348552931666359 0.42650056435783129 0 0.019479081626689841 0.41692126840220728 0 0.01131617767293759 0.43066417693356068 0 0.031615607723292562 0.41237007764590089 0 0.029348552931666359 0.42650056435783129 0 0.019479081626689841 0.41692126840220728 0 0.031615607723292562 0.41237007764590089 0 0.019479081626689841 0.41692126840220728 0 0.02210553341445062 0.40298972327242938 0 0.019479081626689841 0.41692126840220728 0 0.0046995574085186929 0.41194005205042061 0 0.02210553341445062 0.40298972327242938 0 0.019479081626689841 0.41692126840220728 0 0.0046995574085186929 0.41194005205042061 0 0.01131617767293759 0.43066417693356068 0 -0.0044763741368290672 0.43313315307665529 0 0.0046995574085186929 0.41194005205042061 0 0.01131617767293759 0.43066417693356068 0 -0.0068648610501423502 0.39382000907293813 0 0.0053185270157129726 0.37689571945341471 0 0.0079727676898529512 0.39395805239723503 0 0.0053185270157129726 0.37689571945341471 0 0.0079727676898529512 0.39395805239723503 0 0.017055050774382831 0.3783760363496293 0 0.0053185270157129726 0.37689571945341471 0 0.017055050774382831 0.3783760363496293 0 0.014905446519761849 0.37011919055753012 0 -0.0068648610501423502 0.39382000907293813 0 0.0046995574085186929 0.41194005205042061 0 0.0079727676898529512 0.39395805239723503 0 0.0046995574085186929 0.41194005205042061 0 0.0079727676898529512 0.39395805239723503 0 0.02210553341445062 0.40298972327242938 0 0.0079727676898529512 0.39395805239723503 0 0.02210553341445062 0.40298972327242938 0 0.02735486101880703 0.39232044610694311 0 0.031615607723292562 0.41237007764590089 0 0.02210553341445062 0.40298972327242938 0 0.03492587150599015 0.39714318271575322 0 0.02210553341445062 0.40298972327242938 0 0.02735486101880703 0.39232044610694311 0 0.03492587150599015 0.39714318271575322 0 0.0079727676898529512 0.39395805239723503 0 0.02735486101880703 0.39232044610694311 0 0.033420514628485373 0.38302977191180709 0 0.017055050774382831 0.3783760363496293 0 0.033420514628485373 0.38302977191180709 0 0.023779055828078009 0.37097747554075361 0 0.0079727676898529512 0.39395805239723503 0 0.017055050774382831 0.3783760363496293 0 0.033420514628485373 0.38302977191180709 0 0.0079727676898529512 0.39395805239723503 0 0.033420514628485373 0.38302977191180709 0 0.02735486101880703 0.39232044610694311 0 0.032859848824407727 0.38560668074253002 0 0.033420514628485373 0.38302977191180709 0 0.02735486101880703 0.39232044610694311 0 0.032859848824407727 0.38560668074253002 0 0.032844630049655758 0.3911952656019041 0 0.033420514628485373 0.38302977191180709 0 0.040531910439000007 0.38820627445006711 0 0.055078026168592691 0.37372917012189599 0 0.033420514628485373 0.38302977191180709 0 0.055078026168592691 0.37372917012189599 0 0.032859848824407727 0.38560668074253002 0 0.033420514628485373 0.38302977191180709 0 0.032859848824407727 0.38560668074253002 0 0.040531910439000007 0.38820627445006711 0 0.032844630049655758 0.3911952656019041 0 0.032859848824407727 0.38560668074253002 0 0.033420514628485373 0.38302977191180709 0 0.040531910439000007 0.38820627445006711 0 0.031615607723292562 0.41237007764590089 0 0.03492587150599015 0.39714318271575322 0 0.042551786202842029 0.40583695196884878 0 0.040531910439000007 0.38820627445006711 0 0.03492587150599015 0.39714318271575322 0 0.032844630049655758 0.3911952656019041 0 0.02735486101880703 0.39232044610694311 0 0.03492587150599015 0.39714318271575322 0 0.032844630049655758 0.3911952656019041 0 0.040531910439000007 0.38820627445006711 0 0.03492587150599015 0.39714318271575322 0 0.044409534997012647 0.39663533348309749 0 0.040531910439000007 0.38820627445006711 0 0.044409534997012647 0.39663533348309749 0 0.05145831924276717 0.38983346997562462 0 0.044409534997012647 0.39663533348309749 0 0.042551786202842029 0.40583695196884878 0 0.052579787594463898 0.40215678830519391 0 0.03492587150599015 0.39714318271575322 0 0.044409534997012647 0.39663533348309749 0 0.042551786202842029 0.40583695196884878 0 0.052579787594463898 0.40215678830519391 0 0.065929237187869999 0.38841376689227869 0 0.065774511826563423 0.40583773171119408 0 0.044409534997012647 0.39663533348309749 0 0.052579787594463898 0.40215678830519391 0 0.05145831924276717 0.38983346997562462 0 0.052579787594463898 0.40215678830519391 0 0.05145831924276717 0.38983346997562462 0 0.065929237187869999 0.38841376689227869 0 0.05145831924276717 0.38983346997562462 0 0.065929237187869999 0.38841376689227869 0 0.055078026168592691 0.37372917012189599 0 0.040531910439000007 0.38820627445006711 0 0.05145831924276717 0.38983346997562462 0 0.055078026168592691 0.37372917012189599 0 0.065929237187869999 0.38841376689227869 0 0.07065435961583541 0.37741521318853999 0 0.055078026168592691 0.37372917012189599 0 0.065929237187869999 0.38841376689227869 0 0.07065435961583541 0.37741521318853999 0 0.084874637398179506 0.3830893474080016 0 0.065929237187869999 0.38841376689227869 0 0.084874637398179506 0.3830893474080016 0 0.078183007061163587 0.39730645121706609 0 0.084874637398179506 0.3830893474080016 0 0.09301373708766289 0.40175012648401748 0 0.1017514530376761 0.37456476915266362 0 0.084874637398179506 0.3830893474080016 0 0.1017514530376761 0.37456476915266362 0 0.089894590955766338 0.37016501712229671 0 0.084874637398179506 0.3830893474080016 0 0.09301373708766289 0.40175012648401748 0 0.084874637398179506 0.3830893474080016 0 0.09301373708766289 0.40175012648401748 0 0.078183007061163587 0.39730645121706609 0 0.09301373708766289 0.40175012648401748 0 0.078183007061163587 0.39730645121706609 0 0.0779125114683729 0.4107996813321716 0 0.065929237187869999 0.38841376689227869 0 0.078183007061163587 0.39730645121706609 0 0.065774511826563423 0.40583773171119408 0 0.078183007061163587 0.39730645121706609 0 0.065774511826563423 0.40583773171119408 0 0.0779125114683729 0.4107996813321716 0 0.065774511826563423 0.40583773171119408 0 0.0779125114683729 0.4107996813321716 0 0.065639666334966471 0.42409002317344818 0 0.0779125114683729 0.4107996813321716 0 0.065639666334966471 0.42409002317344818 0 0.085233479690329184 0.42595657570789891 0 0.077453222292990773 0.45016302493177879 0 0.065639666334966471 0.42409002317344818 0 0.085233479690329184 0.42595657570789891 0 0.09301373708766289 0.40175012648401748 0 0.085233479690329184 0.42595657570789891 0 0.09301373708766289 0.40175012648401748 0 0.0779125114683729 0.4107996813321716 0 0.085233479690329184 0.42595657570789891 0 0.09301373708766289 0.40175012648401748 0 0.085233479690329184 0.42595657570789891 0 0.096641093798834857 0.4103746730739769 0 0.096641093798834857 0.4103746730739769 0 0.106123573628292 0.43180747591342172 0 0.096641093798834857 0.4103746730739769 0 0.1162621503634904 0.41872732341568758 0 0.11303311796937431 0.39768424579749467 0 0.096641093798834857 0.4103746730739769 0 0.106123573628292 0.43180747591342172 0 0.1162621503634904 0.41872732341568758 0 0.096641093798834857 0.4103746730739769 0 0.1162621503634904 0.41872732341568758 0 0.085233479690329184 0.42595657570789891 0 0.096641093798834857 0.4103746730739769 0 0.106123573628292 0.43180747591342172 0 0.096722182691352548 0.44869154901932268 0 0.085233479690329184 0.42595657570789891 0 0.106123573628292 0.43180747591342172 0 0.1205619018159948 0.44674810255646558 0 0.1162621503634904 0.41872732341568758 0 0.1205619018159948 0.44674810255646558 0 0.106123573628292 0.43180747591342172 0 0.1162621503634904 0.41872732341568758 0 0.1162621503634904 0.41872732341568758 0 0.11303311796937431 0.39768424579749467 0 0.11303311796937431 0.39768424579749467 0 0.1231373165426977 0.3806134049577457 0 0.1271742827044339 0.39597619803598749 0 0.1162621503634904 0.41872732341568758 0 0.11303311796937431 0.39768424579749467 0 0.1271742827044339 0.39597619803598749 0 0.11303311796937431 0.39768424579749467 0 0.1098040855752573 0.37664116817930182 0 0.11303311796937431 0.39768424579749467 0 0.1098040855752573 0.37664116817930182 0 0.1231373165426977 0.3806134049577457 0 0.09301373708766289 0.40175012648401748 0 0.10162794664532369 0.38287681265592 0 0.1017514530376761 0.37456476915266362 0 0.11303311796937431 0.39768424579749467 0 0.1098040855752573 0.37664116817930182 0 0.10162794664532369 0.38287681265592 0 0.09301373708766289 0.40175012648401748 0 0.1017514530376761 0.37456476915266362 0 0.09301373708766289 0.40175012648401748 0 0.096641093798834857 0.4103746730739769 0 0.10162794664532369 0.38287681265592 0 0.096641093798834857 0.4103746730739769 0 0.10162794664532369 0.38287681265592 0 0.096641093798834857 0.4103746730739769 0 0.11303311796937431 0.39768424579749467 0 0.10162794664532369 0.38287681265592 0 0.09301373708766289 0.40175012648401748 0 0.096641093798834857 0.4103746730739769 0 0.10657505318114149 0.3555980905611088 0 0.1040837309638282 0.33936254988137232 0 0.10657505318114149 0.3555980905611088 0 0.096269577202366938 0.34885221845001108 0 0.090674694454237537 0.35844253683721511 0 0.10657505318114149 0.3555980905611088 0 0.1081370103155585 0.34698533999968961 0 0.1040837309638282 0.33936254988137232 0 0.10657505318114149 0.3555980905611088 0 0.096269577202366938 0.34885221845001108 0 0.1040837309638282 0.33936254988137232 0 0.10657505318114149 0.3555980905611088 0 0.1081370103155585 0.34698533999968961 0 0.1081370103155585 0.34698533999968961 0 0.1105857944332822 0.35159063999376577 0 0.10657505318114149 0.3555980905611088 0 0.1081370103155585 0.34698533999968961 0 0.1105857944332822 0.35159063999376577 0 0.10657505318114149 0.3555980905611088 0 0.097223947907205094 0.36469260341832099 0 0.090674694454237537 0.35844253683721511 0 0.1098040855752573 0.37664116817930182 0 0.10657505318114149 0.3555980905611088 0 0.1098040855752573 0.37664116817930182 0 0.10162794664532369 0.38287681265592 0 0.10657505318114149 0.3555980905611088 0 0.10657505318114149 0.3555980905611088 0 0.097223947907205094 0.36469260341832099 0 0.1017514530376761 0.37456476915266362 0 0.10162794664532369 0.38287681265592 0 0.10657505318114149 0.3555980905611088 0 0.10162794664532369 0.38287681265592 0 0.10657505318114149 0.3555980905611088 0 0.1017514530376761 0.37456476915266362 0 0.097223947907205094 0.36469260341832099 0 0.1017514530376761 0.37456476915266362 0 0.089894590955766338 0.37016501712229671 0 0.1231373165426977 0.3806134049577457 0 0.1176766025370503 0.36283148293627721 0 0.13271547193899449 0.36524458735671972 0 0.1098040855752573 0.37664116817930182 0 0.10657505318114149 0.3555980905611088 0 0.1176766025370503 0.36283148293627721 0 0.1098040855752573 0.37664116817930182 0 0.1231373165426977 0.3806134049577457 0 0.1176766025370503 0.36283148293627721 0 0.1176766025370503 0.36283148293627721 0 0.1232256624926347 0.35239419723674059 0 0.13271547193899449 0.36524458735671972 0 0.10657505318114149 0.3555980905611088 0 0.1176766025370503 0.36283148293627721 0 0.1105857944332822 0.35159063999376577 0 0.1176766025370503 0.36283148293627721 0 0.1232256624926347 0.35239419723674059 0 0.1105857944332822 0.35159063999376577 0 0.1081370103155585 0.34698533999968961 0 0.1105857944332822 0.35159063999376577 0 0.1168368962248217 0.34531303274388031 0 0.1232256624926347 0.35239419723674059 0 0.1105857944332822 0.35159063999376577 0 0.1168368962248217 0.34531303274388031 0 0.1232256624926347 0.35239419723674059 0 0.1168368962248217 0.34531303274388031 0 0.1260676383484185 0.3399282146226113 0 0.1081370103155585 0.34698533999968961 0 0.1173014636805894 0.33730338313169689 0 0.1117137236550247 0.32726307032677399 0 0.1081370103155585 0.34698533999968961 0 0.1117137236550247 0.32726307032677399 0 0.1168368962248217 0.34531303274388031 0 0.1173014636805894 0.33730338313169689 0 0.1260676383484185 0.3399282146226113 0 0.1173014636805894 0.33730338313169689 0 0.12375204985912221 0.32702725796552912 0 0.1260676383484185 0.3399282146226113 0 0.1173014636805894 0.33730338313169689 0 0.12375204985912221 0.32702725796552912 0 0.1117137236550247 0.32726307032677399 0 0.1081370103155585 0.34698533999968961 0 0.1168368962248217 0.34531303274388031 0 0.1173014636805894 0.33730338313169689 0 0.1117137236550247 0.32726307032677399 0 0.11529043699448981 0.30754080065385803 0 0.1117137236550247 0.32726307032677399 0 0.1095765413243488 0.31862098055757049 0 0.11529043699448981 0.30754080065385803 0 0.1214195525311879 0.31440901896845502 0 0.1117137236550247 0.32726307032677399 0 0.11529043699448981 0.30754080065385803 0 0.1214195525311879 0.31440901896845502 0 0.12375204985912221 0.32702725796552912 0 0.12817088130983889 0.317450689473041 0 0.1214195525311879 0.31440901896845502 0 0.12375204985912221 0.32702725796552912 0 0.1117137236550247 0.32726307032677399 0 0.1040837309638282 0.33936254988137232 0 0.090103400857782137 0.31307047550514489 0 0.1040837309638282 0.33936254988137232 0 0.1025673515982234 0.32948055280164651 0 0.090103400857782137 0.31307047550514489 0 0.10278173829001019 0.3206216626476312 0 0.1025673515982234 0.32948055280164651 0 0.090103400857782137 0.31307047550514489 0 0.1095765413243488 0.31862098055757049 0 0.10278173829001019 0.3206216626476312 0 0.099947674014671917 0.31467323404701991 0 0.1095765413243488 0.31862098055757049 0 0.099947674014671917 0.31467323404701991 0 0.09732687347400408 0.30507295899279041 0 0.1117137236550247 0.32726307032677399 0 0.1095765413243488 0.31862098055757049 0 0.10278173829001019 0.3206216626476312 0 0.1117137236550247 0.32726307032677399 0 0.10278173829001019 0.3206216626476312 0 0.1025673515982234 0.32948055280164651 0 0.10278173829001019 0.3206216626476312 0 0.099947674014671917 0.31467323404701991 0 0.090103400857782137 0.31307047550514489 0 0.096269577202366938 0.34885221845001108 0 0.1040837309638282 0.33936254988137232 0 0.085896102217652828 0.34083244099607402 0 0.1081370103155585 0.34698533999968961 0 0.1117137236550247 0.32726307032677399 0 0.1040837309638282 0.33936254988137232 0 0.1081370103155585 0.34698533999968961 0 0.1040837309638282 0.33936254988137232 0 0.1117137236550247 0.32726307032677399 0 0.1040837309638282 0.33936254988137232 0 0.1025673515982234 0.32948055280164651 0 0.1040837309638282 0.33936254988137232 0 0.1025673515982234 0.32948055280164651 0 0.1040837309638282 0.33936254988137232 0 0.085896102217652828 0.34083244099607402 0 0.090103400857782137 0.31307047550514489 0 0.085896102217652828 0.34083244099607402 0 0.090103400857782137 0.31307047550514489 0 0.073944851781294785 0.32640562720437011 0 0.073944851781294785 0.32640562720437011 0 0.05926959110604698 0.32438382341666039 0 0.066452600317618793 0.30933520022964911 0 0.090103400857782137 0.31307047550514489 0 0.073944851781294785 0.32640562720437011 0 0.066452600317618793 0.30933520022964911 0 0.068002564407373206 0.3444061958743222 0 0.05926959110604698 0.32438382341666039 0 0.085896102217652828 0.34083244099607402 0 0.073944851781294785 0.32640562720437011 0 0.068002564407373206 0.3444061958743222 0 0.073944851781294785 0.32640562720437011 0 0.068002564407373206 0.3444061958743222 0 0.05926959110604698 0.32438382341666039 0 0.068002564407373206 0.3444061958743222 0 0.081709153938225559 0.35166937446406898 0 0.076735537708699481 0.364428568331984 0 0.068002564407373206 0.3444061958743222 0 0.076735537708699481 0.364428568331984 0 0.068002564407373206 0.3444061958743222 0 0.076735537708699481 0.364428568331984 0 0.058880509289504487 0.35752542115937253 0 0.085896102217652828 0.34083244099607402 0 0.068002564407373206 0.3444061958743222 0 0.081709153938225559 0.35166937446406898 0 0.081709153938225559 0.35166937446406898 0 0.090674694454237537 0.35844253683721511 0 0.076735537708699481 0.364428568331984 0 0.096269577202366938 0.34885221845001108 0 0.081709153938225559 0.35166937446406898 0 0.090674694454237537 0.35844253683721511 0 0.096269577202366938 0.34885221845001108 0 0.085896102217652828 0.34083244099607402 0 0.081709153938225559 0.35166937446406898 0 0.084874637398179506 0.3830893474080016 0 0.089894590955766338 0.37016501712229671 0 0.076735537708699481 0.364428568331984 0 0.084874637398179506 0.3830893474080016 0 0.076735537708699481 0.364428568331984 0 0.097223947907205094 0.36469260341832099 0 0.090674694454237537 0.35844253683721511 0 0.089894590955766338 0.37016501712229671 0 0.090674694454237537 0.35844253683721511 0 0.089894590955766338 0.37016501712229671 0 0.076735537708699481 0.364428568331984 0 0.090674694454237537 0.35844253683721511 0 0.076735537708699481 0.364428568331984 0 0.076735537708699481 0.364428568331984 0 0.055078026168592691 0.37372917012189599 0 0.058880509289504487 0.35752542115937253 0 0.07065435961583541 0.37741521318853999 0 0.084874637398179506 0.3830893474080016 0 0.076735537708699481 0.364428568331984 0 0.07065435961583541 0.37741521318853999 0 0.076735537708699481 0.364428568331984 0 0.055078026168592691 0.37372917012189599 0 0.076735537708699481 0.364428568331984 0 0.055078026168592691 0.37372917012189599 0 0.055078026168592691 0.37372917012189599 0 0.058880509289504487 0.35752542115937253 0 0.039125882353897343 0.35680699826087081 0 0.068002564407373206 0.3444061958743222 0 0.058880509289504487 0.35752542115937253 0 0.05148455776782021 0.34576385860545072 0 0.058880509289504487 0.35752542115937253 0 0.05148455776782021 0.34576385860545072 0 0.039125882353897343 0.35680699826087081 0 0.039125882353897343 0.35680699826087081 0 0.031548662582759998 0.36398682567210089 0 0.025752053585936779 0.33511492304397028 0 0.05148455776782021 0.34576385860545072 0 0.039125882353897343 0.35680699826087081 0 0.044831250079309708 0.3305842246099347 0 0.033420514628485373 0.38302977191180709 0 0.039125882353897343 0.35680699826087081 0 0.031548662582759998 0.36398682567210089 0 0.033420514628485373 0.38302977191180709 0 0.055078026168592691 0.37372917012189599 0 0.039125882353897343 0.35680699826087081 0 0.033420514628485373 0.38302977191180709 0 0.039125882353897343 0.35680699826087081 0 0.033420514628485373 0.38302977191180709 0 0.031548662582759998 0.36398682567210089 0 0.023779055828078009 0.37097747554075361 0 0.017055050774382831 0.3783760363496293 0 0.023779055828078009 0.37097747554075361 0 0.014905446519761849 0.37011919055753012 0 0.023779055828078009 0.37097747554075361 0 0.019349684376360511 0.36318206543595072 0 0.014905446519761849 0.37011919055753012 0 0.031548662582759998 0.36398682567210089 0 0.019349684376360511 0.36318206543595072 0 0.019690074755218789 0.35178644121934483 0 0.031548662582759998 0.36398682567210089 0 0.023779055828078009 0.37097747554075361 0 0.019349684376360511 0.36318206543595072 0 0.031548662582759998 0.36398682567210089 0 0.025752053585936779 0.33511492304397028 0 0.031548662582759998 0.36398682567210089 0 0.019690074755218789 0.35178644121934483 0 0.025752053585936779 0.33511492304397028 0 0.019349684376360511 0.36318206543595072 0 0.019690074755218789 0.35178644121934483 0 0.0119730942360182 0.35563939605115702 0 0.0119730942360182 0.35563939605115702 0 0.0038095970876644218 0.35606187191015221 0 0.0077169544749549623 0.36306791211952738 0 -0.0077202170519437719 0.34710906184019069 0 0.0082446038140756572 0.34376242611402219 0 0.0038095970876644218 0.35606187191015221 0 0.0119730942360182 0.35563939605115702 0 0.0082446038140756572 0.34376242611402219 0 0.0038095970876644218 0.35606187191015221 0 0.019690074755218789 0.35178644121934483 0 0.0119730942360182 0.35563939605115702 0 0.0082446038140756572 0.34376242611402219 0 -0.0045677851665312944 0.36532665559408428 0 0.0038095970876644218 0.35606187191015221 0 0.0077169544749549623 0.36306791211952738 0 -0.0087141207398781558 0.37710904293520409 0 0.0053185270157129726 0.37689571945341471 0 0.0077169544749549623 0.36306791211952738 0 0.0053185270157129726 0.37689571945341471 0 0.0077169544749549623 0.36306791211952738 0 0.014905446519761849 0.37011919055753012 0 0.019349684376360511 0.36318206543595072 0 0.0077169544749549623 0.36306791211952738 0 0.014905446519761849 0.37011919055753012 0 0.019349684376360511 0.36318206543595072 0 0.0119730942360182 0.35563939605115702 0 0.0077169544749549623 0.36306791211952738 0 -0.009249588209606344 0.30814111102660002 0 0.0094307060340404689 0.32376070079746733 0 0.01995544458911469 0.30624302041583928 0 -0.005758602284471958 0.33512988219008361 0 0.0082446038140756572 0.34376242611402219 0 0.0094307060340404689 0.32376070079746733 0 0.0082446038140756572 0.34376242611402219 0 0.0094307060340404689 0.32376070079746733 0 0.025752053585936779 0.33511492304397028 0 0.019690074755218789 0.35178644121934483 0 0.0082446038140756572 0.34376242611402219 0 0.025752053585936779 0.33511492304397028 0 0.025752053585936779 0.33511492304397028 0 0.01995544458911469 0.30624302041583928 0 0.025752053585936779 0.33511492304397028 0 0.034898059553693392 0.31581284699138767 0 0.01995544458911469 0.30624302041583928 0 0.0094307060340404689 0.32376070079746733 0 0.025752053585936779 0.33511492304397028 0 0.01995544458911469 0.30624302041583928 0 0.034898059553693392 0.31581284699138767 0 0.044831250079309708 0.3305842246099347 0 0.05053661780472133 0.30436145095899841 0 0.025752053585936779 0.33511492304397028 0 0.034898059553693392 0.31581284699138767 0 0.044831250079309708 0.3305842246099347 0 0.039125882353897343 0.35680699826087081 0 0.025752053585936779 0.33511492304397028 0 0.044831250079309708 0.3305842246099347 0 0.039125882353897343 0.35680699826087081 0 0.044831250079309708 0.3305842246099347 0 0.068002564407373206 0.3444061958743222 0 0.05148455776782021 0.34576385860545072 0 0.05926959110604698 0.32438382341666039 0 0.05148455776782021 0.34576385860545072 0 0.044831250079309708 0.3305842246099347 0 0.05926959110604698 0.32438382341666039 0 0.044831250079309708 0.3305842246099347 0 0.05053661780472133 0.30436145095899841 0 0.044831250079309708 0.3305842246099347 0 0.05926959110604698 0.32438382341666039 0 0.05053661780472133 0.30436145095899841 0 0.05926959110604698 0.32438382341666039 0 0.05053661780472133 0.30436145095899841 0 0.05926959110604698 0.32438382341666039 0 0.05053661780472133 0.30436145095899841 0 0.066452600317618793 0.30933520022964911 0 0.059204269303370749 0.30137448027593422 0 0.05053661780472133 0.30436145095899841 0 0.066452600317618793 0.30933520022964911 0 0.04765756321016474 0.29776054867416191 0 0.05053661780472133 0.30436145095899841 0 0.052561166870736087 0.29505630281458828 0 0.059204269303370749 0.30137448027593422 0 0.05053661780472133 0.30436145095899841 0 0.052561166870736087 0.29505630281458828 0 0.05053661780472133 0.30436145095899841 0 0.052561166870736087 0.29505630281458828 0 0.04765756321016474 0.29776054867416191 0 0.05053661780472133 0.30436145095899841 0 0.052561166870736087 0.29505630281458828 0 0.036977033779240318 0.28312664447104818 0 0.062988366650143207 0.29302398426469728 0 0.036977033779240318 0.28312664447104818 0 0.048149862160842181 0.27985089866820428 0 0.062988366650143207 0.29302398426469728 0 0.036977033779240318 0.28312664447104818 0 0.062988366650143207 0.29302398426469728 0 0.048149862160842181 0.27985089866820428 0 0.054778979573680928 0.27715841955607551 0 0.062988366650143207 0.29302398426469728 0 0.059204269303370749 0.30137448027593422 0 0.052561166870736087 0.29505630281458828 0 0.062988366650143207 0.29302398426469728 0 0.04765756321016474 0.29776054867416191 0 0.036186098738389023 0.29603891009636157 0 0.036977033779240318 0.28312664447104818 0 0.04765756321016474 0.29776054867416191 0 0.052561166870736087 0.29505630281458828 0 0.036977033779240318 0.28312664447104818 0 0.036186098738389023 0.29603891009636157 0 0.036977033779240318 0.28312664447104818 0 0.027757552790527541 0.29644954410470781 0 0.034898059553693392 0.31581284699138767 0 0.05053661780472133 0.30436145095899841 0 0.039754971674175903 0.30430037111620312 0 0.04765756321016474 0.29776054867416191 0 0.05053661780472133 0.30436145095899841 0 0.039754971674175903 0.30430037111620312 0 0.04765756321016474 0.29776054867416191 0 0.036186098738389023 0.29603891009636157 0 0.039754971674175903 0.30430037111620312 0 0.036186098738389023 0.29603891009636157 0 0.039754971674175903 0.30430037111620312 0 0.028740536311392211 0.30567206060121932 0 0.034898059553693392 0.31581284699138767 0 0.039754971674175903 0.30430037111620312 0 0.028740536311392211 0.30567206060121932 0 0.034898059553693392 0.31581284699138767 0 0.028740536311392211 0.30567206060121932 0 0.01995544458911469 0.30624302041583928 0 0.028740536311392211 0.30567206060121932 0 0.01995544458911469 0.30624302041583928 0 0.01995544458911469 0.30624302041583928 0 0.027757552790527541 0.29644954410470781 0 0.016928650534501429 0.29116708493907051 0 0.01995544458911469 0.30624302041583928 0 0.016928650534501429 0.29116708493907051 0 0.036186098738389023 0.29603891009636157 0 0.028740536311392211 0.30567206060121932 0 0.027757552790527541 0.29644954410470781 0 0.028740536311392211 0.30567206060121932 0 0.01995544458911469 0.30624302041583928 0 0.027757552790527541 0.29644954410470781 0 0.036977033779240318 0.28312664447104818 0 0.016928650534501429 0.29116708493907051 0 0.013901856479889301 0.2760911494623014 0 0.036977033779240318 0.28312664447104818 0 0.027757552790527541 0.29644954410470781 0 0.016928650534501429 0.29116708493907051 0 0.016928650534501429 0.29116708493907051 0 0.0075090435902615098 0.27971283806045072 0 0.013901856479889301 0.2760911494623014 0 0.016928650534501429 0.29116708493907051 0 0.013901856479889301 0.2760911494623014 0 0.016928650534501429 0.29116708493907051 0 0.002380999114604244 0.28599596302517022 0 0.0075090435902615098 0.27971283806045072 0 0.016928650534501429 0.29116708493907051 0 0.002380999114604244 0.28599596302517022 0 0.0038021096493471361 0.29689124930627131 0 0.01995544458911469 0.30624302041583928 0 0.016928650534501429 0.29116708493907051 0 0.0038021096493471361 0.29689124930627131 0 -0.009249588209606344 0.30814111102660002 0 0.01995544458911469 0.30624302041583928 0 -0.009249588209606344 0.30814111102660002 0 0.01995544458911469 0.30624302041583928 0 0.0038021096493471361 0.29689124930627131 0 0.012944211518790589 0.24639919126045251 0 0.001894876929373096 0.24743045501984201 0 0.027350481215018482 0.26092432701142793 0 0.001894876929373096 0.24743045501984201 0 0.01235577794179212 0.26160751525750708 0 0.027350481215018482 0.26092432701142793 0 0.001894876929373096 0.24743045501984201 0 0.027350481215018482 0.26092432701142793 0 0.01235577794179212 0.26160751525750708 0 0.0066431973405819862 0.26423936680728111 0 0.01332705073189009 0.26743114199411 0 0.001894876929373096 0.24743045501984201 0 0.01235577794179212 0.26160751525750708 0 0.0027594708259384838 0.25829047161104352 0 0.01235577794179212 0.26160751525750708 0 0.0027594708259384838 0.25829047161104352 0 0.0066431973405819862 0.26423936680728111 0 -0.00067809962666212902 0.26216505597133072 0 0.0027594708259384838 0.25829047161104352 0 0.0066431973405819862 0.26423936680728111 0 -0.00067809962666212902 0.26216505597133072 0 0.0066431973405819862 0.26423936680728111 0 0.010965700908337589 0.27322930467739909 0 -0.001267499687089951 0.2776013217203892 0 0.0075090435902615098 0.27971283806045072 0 0.010965700908337589 0.27322930467739909 0 -0.001267499687089951 0.2776013217203892 0 0.002380999114604244 0.28599596302517022 0 0.0075090435902615098 0.27971283806045072 0 0.0075090435902615098 0.27971283806045072 0 0.013901856479889301 0.2760911494623014 0 0.010965700908337589 0.27322930467739909 0 0.010965700908337589 0.27322930467739909 0 0.01332705073189009 0.26743114199411 0 0.022419763759722669 0.26962443384228668 0 0.0066431973405819862 0.26423936680728111 0 0.010965700908337589 0.27322930467739909 0 0.01332705073189009 0.26743114199411 0 0.036977033779240318 0.28312664447104818 0 0.010965700908337589 0.27322930467739909 0 0.022419763759722669 0.26962443384228668 0 0.01235577794179212 0.26160751525750708 0 0.01332705073189009 0.26743114199411 0 0.022419763759722669 0.26962443384228668 0 0.036977033779240318 0.28312664447104818 0 0.013901856479889301 0.2760911494623014 0 0.010965700908337589 0.27322930467739909 0 0.036977033779240318 0.28312664447104818 0 0.010965700908337589 0.27322930467739909 0 0.036977033779240318 0.28312664447104818 0 0.022419763759722669 0.26962443384228668 0 0.032397819765571212 0.27218151163944088 0 0.022419763759722669 0.26962443384228668 0 0.027350481215018482 0.26092432701142793 0 0.032397819765571212 0.27218151163944088 0 0.018629400856135309 0.24429501886194191 0 0.012944211518790589 0.24639919126045251 0 0.027350481215018482 0.26092432701142793 0 0.018629400856135309 0.24429501886194191 0 0.027350481215018482 0.26092432701142793 0 0.02692674034290404 0.25134916217479408 0 0.01235577794179212 0.26160751525750708 0 0.022419763759722669 0.26962443384228668 0 0.027350481215018482 0.26092432701142793 0 0.027350481215018482 0.26092432701142793 0 0.02692674034290404 0.25134916217479408 0 0.036501911092354018 0.25177276941539839 0 0.027350481215018482 0.26092432701142793 0 0.036501911092354018 0.25177276941539839 0 0.052806085500663583 0.27441819900301412 0 0.036501911092354018 0.25177276941539839 0 0.052806085500663583 0.27441819900301412 0 0.027350481215018482 0.26092432701142793 0 0.039536256484267153 0.27410031615862712 0 0.052806085500663583 0.27441819900301412 0 0.027350481215018482 0.26092432701142793 0 0.052806085500663583 0.27441819900301412 0 0.036977033779240318 0.28312664447104818 0 0.032397819765571212 0.27218151163944088 0 0.039536256484267153 0.27410031615862712 0 0.027350481215018482 0.26092432701142793 0 0.032397819765571212 0.27218151163944088 0 0.039536256484267153 0.27410031615862712 0 0.039536256484267153 0.27410031615862712 0 0.048149862160842181 0.27985089866820428 0 0.052806085500663583 0.27441819900301412 0 0.036977033779240318 0.28312664447104818 0 0.039536256484267153 0.27410031615862712 0 0.048149862160842181 0.27985089866820428 0 0.052806085500663583 0.27441819900301412 0 0.051790667069154861 0.2547103276228454 0 0.069466372585565969 0.27425949764399721 0 0.052806085500663583 0.27441819900301412 0 0.054778979573680928 0.27715841955607551 0 0.076123070751733898 0.28677840112891878 0 0.048149862160842181 0.27985089866820428 0 0.052806085500663583 0.27441819900301412 0 0.054778979573680928 0.27715841955607551 0 0.052806085500663583 0.27441819900301412 0 0.054778979573680928 0.27715841955607551 0 0.051790667069154861 0.2547103276228454 0 0.069466372585565969 0.27425949764399721 0 0.036501911092354018 0.25177276941539839 0 0.052806085500663583 0.27441819900301412 0 0.051790667069154861 0.2547103276228454 0 0.051790667069154861 0.2547103276228454 0 0.062472563593505302 0.26110660749064829 0 0.069466372585565969 0.27425949764399721 0 0.051790667069154861 0.2547103276228454 0 0.062472563593505302 0.26110660749064829 0 0.063392491700480919 0.2510828642249095 0 0.07090317009537217 0.25886987532900169 0 0.089645379702363526 0.25980927980688501 0 0.066829182329119829 0.26693814307945207 0 0.063392491700480919 0.2510828642249095 0 0.07090317009537217 0.25886987532900169 0 0.074261774750864804 0.25289133929391111 0 0.062472563593505302 0.26110660749064829 0 0.063392491700480919 0.2510828642249095 0 0.07090317009537217 0.25886987532900169 0 0.062472563593505302 0.26110660749064829 0 0.07090317009537217 0.25886987532900169 0 0.066829182329119829 0.26693814307945207 0 0.07090317009537217 0.25886987532900169 0 0.074261774750864804 0.25289133929391111 0 0.089645379702363526 0.25980927980688501 0 0.072073934872957782 0.23900016577853919 0 0.074261774750864804 0.25289133929391111 0 0.089645379702363526 0.25980927980688501 0 0.089645379702363526 0.25980927980688501 0 0.066829182329119829 0.26693814307945207 0 0.089645379702363526 0.25980927980688501 0 0.084738505220855201 0.27427167124983992 0 0.066829182329119829 0.26693814307945207 0 0.084738505220855201 0.27427167124983992 0 0.069466372585565969 0.27425949764399721 0 0.085077205623658711 0.29152493742801078 0 0.084738505220855201 0.27427167124983992 0 0.095910340366493346 0.28464594086445177 0 0.099818528257267281 0.27185690653089678 0 0.089645379702363526 0.25980927980688501 0 0.084738505220855201 0.27427167124983992 0 0.099818528257267281 0.27185690653089678 0 0.084738505220855201 0.27427167124983992 0 0.066829182329119829 0.26693814307945207 0 0.069466372585565969 0.27425949764399721 0 0.052806085500663583 0.27441819900301412 0 0.069466372585565969 0.27425949764399721 0 0.076123070751733898 0.28677840112891878 0 0.052806085500663583 0.27441819900301412 0 0.076123070751733898 0.28677840112891878 0 0.069466372585565969 0.27425949764399721 0 0.076123070751733898 0.28677840112891878 0 0.062472563593505302 0.26110660749064829 0 0.069466372585565969 0.27425949764399721 0 0.062472563593505302 0.26110660749064829 0 0.066829182329119829 0.26693814307945207 0 0.069466372585565969 0.27425949764399721 0 0.069466372585565969 0.27425949764399721 0 0.085077205623658711 0.29152493742801078 0 0.069466372585565969 0.27425949764399721 0 0.076123070751733898 0.28677840112891878 0 0.085077205623658711 0.29152493742801078 0 0.062988366650143207 0.29302398426469728 0 0.076123070751733898 0.28677840112891878 0 0.066452600317618793 0.30933520022964911 0 0.054778979573680928 0.27715841955607551 0 0.062988366650143207 0.29302398426469728 0 0.076123070751733898 0.28677840112891878 0 0.090103400857782137 0.31307047550514489 0 0.076123070751733898 0.28677840112891878 0 0.066452600317618793 0.30933520022964911 0 0.059204269303370749 0.30137448027593422 0 0.062988366650143207 0.29302398426469728 0 0.066452600317618793 0.30933520022964911 0 0.090103400857782137 0.31307047550514489 0 0.076123070751733898 0.28677840112891878 0 0.085077205623658711 0.29152493742801078 0 0.090103400857782137 0.31307047550514489 0 0.076123070751733898 0.28677840112891878 0 0.090103400857782137 0.31307047550514489 0 0.085077205623658711 0.29152493742801078 0 0.09732687347400408 0.30507295899279041 0 0.085077205623658711 0.29152493742801078 0 0.09732687347400408 0.30507295899279041 0 0.084738505220855201 0.27427167124983992 0 0.085077205623658711 0.29152493742801078 0 0.095910340366493346 0.28464594086445177 0 0.076123070751733898 0.28677840112891878 0 0.085077205623658711 0.29152493742801078 0 0.085077205623658711 0.29152493742801078 0 0.095910340366493346 0.28464594086445177 0 0.10018382130907411 0.29953286904093468 0 0.085077205623658711 0.29152493742801078 0 0.10018382130907411 0.29953286904093468 0 0.095910340366493346 0.28464594086445177 0 0.10809736708577181 0.28553666446189058 0 0.10018382130907411 0.29953286904093468 0 0.10809736708577181 0.28553666446189058 0 0.10018382130907411 0.29953286904093468 0 0.10959494141679089 0.29761357018739809 0 0.099947674014671917 0.31467323404701991 0 0.090103400857782137 0.31307047550514489 0 0.09732687347400408 0.30507295899279041 0 0.085077205623658711 0.29152493742801078 0 0.09732687347400408 0.30507295899279041 0 0.10018382130907411 0.29953286904093468 0 0.09732687347400408 0.30507295899279041 0 0.10018382130907411 0.29953286904093468 0 0.1055944182754792 0.3076919023112884 0 0.10018382130907411 0.29953286904093468 0 0.11529043699448981 0.30754080065385803 0 0.10959494141679089 0.29761357018739809 0 0.10018382130907411 0.29953286904093468 0 0.11529043699448981 0.30754080065385803 0 0.1095765413243488 0.31862098055757049 0 0.09732687347400408 0.30507295899279041 0 0.1055944182754792 0.3076919023112884 0 0.10018382130907411 0.29953286904093468 0 0.1055944182754792 0.3076919023112884 0 0.11529043699448981 0.30754080065385803 0 0.1095765413243488 0.31862098055757049 0 0.09732687347400408 0.30507295899279041 0 0.1095765413243488 0.31862098055757049 0 0.1055944182754792 0.3076919023112884 0 0.11529043699448981 0.30754080065385803 0 0.11529043699448981 0.30754080065385803 0 0.11637637905870279 0.30155283343175482 0 0.11810871752106521 0.30621928700195911 0 0.11529043699448981 0.30754080065385803 0 0.10959494141679089 0.29761357018739809 0 0.11637637905870279 0.30155283343175482 0 0.10959494141679089 0.29761357018739809 0 0.11637637905870279 0.30155283343175482 0 0.1164892219926046 0.29243334627748818 0 0.11529043699448981 0.30754080065385803 0 0.11637637905870279 0.30155283343175482 0 0.11637637905870279 0.30155283343175482 0 0.1222906650571363 0.2985709440566281 0 0.1164892219926046 0.29243334627748818 0 0.1222906650571363 0.2985709440566281 0 0.1206025954822835 0.30378795350269022 0 0.1243783730770044 0.30485679470236721 0 0.11637637905870279 0.30155283343175482 0 0.1222906650571363 0.2985709440566281 0 0.1206025954822835 0.30378795350269022 0 0.11637637905870279 0.30155283343175482 0 0.1206025954822835 0.30378795350269022 0 0.11810871752106521 0.30621928700195911 0 0.1206025954822835 0.30378795350269022 0 0.11810871752106521 0.30621928700195911 0 0.1213521300308707 0.30775440284793348 0 0.11529043699448981 0.30754080065385803 0 0.11810871752106521 0.30621928700195911 0 0.11930841490252821 0.30912172642276631 0 0.11810871752106521 0.30621928700195911 0 0.1213521300308707 0.30775440284793348 0 0.11930841490252821 0.30912172642276631 0 0.1243783730770044 0.30485679470236721 0 0.1213521300308707 0.30775440284793348 0 0.1244342991148414 0.30898461385241399 0 0.1206025954822835 0.30378795350269022 0 0.1243783730770044 0.30485679470236721 0 0.1213521300308707 0.30775440284793348 0 0.1214195525311879 0.31440901896845502 0 0.1244342991148414 0.30898461385241399 0 0.12900107104525951 0.30968741412501871 0 0.1214195525311879 0.31440901896845502 0 0.1213521300308707 0.30775440284793348 0 0.1244342991148414 0.30898461385241399 0 0.1214195525311879 0.31440901896845502 0 0.11529043699448981 0.30754080065385803 0 0.11930841490252821 0.30912172642276631 0 0.1214195525311879 0.31440901896845502 0 0.1213521300308707 0.30775440284793348 0 0.11930841490252821 0.30912172642276631 0 0.10809736708577181 0.28553666446189058 0 0.1164892219926046 0.29243334627748818 0 0.1210835213650209 0.28058702695229848 0 0.10809736708577181 0.28553666446189058 0 0.10959494141679089 0.29761357018739809 0 0.1164892219926046 0.29243334627748818 0 0.1222906650571363 0.2985709440566281 0 0.1164892219926046 0.29243334627748818 0 0.12596292383497329 0.28976449579057961 0 0.1164892219926046 0.29243334627748818 0 0.1210835213650209 0.28058702695229848 0 0.12596292383497329 0.28976449579057961 0 0.10809736708577181 0.28553666446189058 0 0.1210835213650209 0.28058702695229848 0 0.1147979612748997 0.2707881575742877 0 0.1210835213650209 0.28058702695229848 0 0.1147979612748997 0.2707881575742877 0 0.12791172371537049 0.26609555254785411 0 0.1147979612748997 0.2707881575742877 0 0.116065923487036 0.25155424759680489 0 0.099818528257267281 0.27185690653089678 0 0.1147979612748997 0.2707881575742877 0 0.116065923487036 0.25155424759680489 0 0.12791172371537049 0.26609555254785411 0 0.089645379702363526 0.25980927980688501 0 0.116065923487036 0.25155424759680489 0 0.089645379702363526 0.25980927980688501 0 0.116065923487036 0.25155424759680489 0 0.099818528257267281 0.27185690653089678 0 0.089645379702363526 0.25980927980688501 0 0.099818528257267281 0.27185690653089678 0 0.095910340366493346 0.28464594086445177 0 0.10809736708577181 0.28553666446189058 0 0.099818528257267281 0.27185690653089678 0 0.10809736708577181 0.28553666446189058 0 0.1147979612748997 0.2707881575742877 0 0.099818528257267281 0.27185690653089678 0 0.14627836463393121 0.26809473379089088 0 0.14256315404166739 0.2804585798755338 0 0.1332419302865058 0.27890394506169119 0 0.14627836463393121 0.26809473379089088 0 0.14256315404166739 0.2804585798755338 0 0.15383705453569649 0.27951082009548711 0 0.14627836463393121 0.26809473379089088 0 0.15383705453569649 0.27951082009548711 0 0.1609818760820641 0.2708255403471686 0 0.14248646727170791 0.24329921538672239 0 0.14627836463393121 0.26809473379089088 0 0.1631161995596529 0.25657386530356069 0 0.14248646727170791 0.24329921538672239 0 0.116065923487036 0.25155424759680489 0 0.12791172371537049 0.26609555254785411 0 0.14248646727170791 0.24329921538672239 0 0.14627836463393121 0.26809473379089088 0 0.12791172371537049 0.26609555254785411 0 0.14627836463393121 0.26809473379089088 0 0.12791172371537049 0.26609555254785411 0 0.1332419302865058 0.27890394506169119 0 0.1210835213650209 0.28058702695229848 0 0.12791172371537049 0.26609555254785411 0 0.1332419302865058 0.27890394506169119 0 0.1332419302865058 0.27890394506169119 0 0.12596292383497329 0.28976449579057961 0 0.13463915166403909 0.29011289163129678 0 0.1210835213650209 0.28058702695229848 0 0.1332419302865058 0.27890394506169119 0 0.12596292383497329 0.28976449579057961 0 0.1222906650571363 0.2985709440566281 0 0.12596292383497329 0.28976449579057961 0 0.12923992476061211 0.29615108028493942 0 0.12596292383497329 0.28976449579057961 0 0.12923992476061211 0.29615108028493942 0 0.13463915166403909 0.29011289163129678 0 0.13463915166403909 0.29011289163129678 0 0.13544399911061031 0.29845687749894129 0 0.1416447250157222 0.29544082675589128 0 0.12923992476061211 0.29615108028493942 0 0.13463915166403909 0.29011289163129678 0 0.13544399911061031 0.29845687749894129 0 0.14256315404166739 0.2804585798755338 0 0.1332419302865058 0.27890394506169119 0 0.13463915166403909 0.29011289163129678 0 0.1243783730770044 0.30485679470236721 0 0.1244342991148414 0.30898461385241399 0 0.12900107104525951 0.30968741412501871 0 0.1243783730770044 0.30485679470236721 0 0.12900107104525951 0.30968741412501871 0 0.1290658347258283 0.30205966601357243 0 0.12900107104525951 0.30968741412501871 0 0.1290658347258283 0.30205966601357243 0 0.1340409753043473 0.30463488541353972 0 0.1222906650571363 0.2985709440566281 0 0.1243783730770044 0.30485679470236721 0 0.1290658347258283 0.30205966601357243 0 0.1222906650571363 0.2985709440566281 0 0.12923992476061211 0.29615108028493942 0 0.1290658347258283 0.30205966601357243 0 0.12923992476061211 0.29615108028493942 0 0.1290658347258283 0.30205966601357243 0 0.13544399911061031 0.29845687749894129 0 0.13544399911061031 0.29845687749894129 0 0.14170706289926879 0.30357921339911909 0 0.1416447250157222 0.29544082675589128 0 0.13544399911061031 0.29845687749894129 0 0.1340409753043473 0.30463488541353972 0 0.14170706289926879 0.30357921339911909 0 0.1290658347258283 0.30205966601357243 0 0.13544399911061031 0.29845687749894129 0 0.1340409753043473 0.30463488541353972 0 0.13598458437900529 0.30983158877234418 0 0.14130712994747449 0.31140798331507108 0 0.14170706289926879 0.30357921339911909 0 0.12900107104525951 0.30968741412501871 0 0.1340409753043473 0.30463488541353972 0 0.13598458437900529 0.30983158877234418 0 0.1340409753043473 0.30463488541353972 0 0.13598458437900529 0.30983158877234418 0 0.14170706289926879 0.30357921339911909 0 0.13598458437900529 0.30983158877234418 0 0.14130712994747449 0.31140798331507108 0 0.13528824775885559 0.3155805734405937 0 0.12900107104525951 0.30968741412501871 0 0.13598458437900529 0.30983158877234418 0 0.13528824775885559 0.3155805734405937 0 0.1483486037307668 0.31106151759990119 0 0.14130712994747449 0.31140798331507108 0 0.14170706289926879 0.30357921339911909 0 0.1483486037307668 0.31106151759990119 0 0.14170706289926879 0.30357921339911909 0 0.1513591925520972 0.30423422291399321 0 0.14170706289926879 0.30357921339911909 0 0.14924189349128261 0.29698436464102829 0 0.1513591925520972 0.30423422291399321 0 0.14170706289926879 0.30357921339911909 0 0.14924189349128261 0.29698436464102829 0 0.1416447250157222 0.29544082675589128 0 0.1513591925520972 0.30423422291399321 0 0.15847128754916129 0.30901971199088751 0 0.1567398971697517 0.30020769771567818 0 0.14924189349128261 0.29698436464102829 0 0.1513591925520972 0.30423422291399321 0 0.1567398971697517 0.30020769771567818 0 0.1483486037307668 0.31106151759990119 0 0.1513591925520972 0.30423422291399321 0 0.15847128754916129 0.30901971199088751 0 0.1483486037307668 0.31106151759990119 0 0.15847128754916129 0.30901971199088751 0 0.1531779528472626 0.31690967251270458 0 0.14256315404166739 0.2804585798755338 0 0.15383705453569649 0.27951082009548711 0 0.14728728951424691 0.28871625735014939 0 0.14256315404166739 0.2804585798755338 0 0.13463915166403909 0.29011289163129678 0 0.14728728951424691 0.28871625735014939 0 0.14924189349128261 0.29698436464102829 0 0.14728728951424691 0.28871625735014939 0 0.1416447250157222 0.29544082675589128 0 0.13463915166403909 0.29011289163129678 0 0.14728728951424691 0.28871625735014939 0 0.1416447250157222 0.29544082675589128 0 0.14924189349128261 0.29698436464102829 0 0.1576814993112734 0.29111844862325259 0 0.1567398971697517 0.30020769771567818 0 0.14924189349128261 0.29698436464102829 0 0.14728728951424691 0.28871625735014939 0 0.1576814993112734 0.29111844862325259 0 0.15383705453569649 0.27951082009548711 0 0.14728728951424691 0.28871625735014939 0 0.1576814993112734 0.29111844862325259 0 0.15383705453569649 0.27951082009548711 0 0.1576814993112734 0.29111844862325259 0 0.16532030222413041 0.28061774918364429 0 0.1576814993112734 0.29111844862325259 0 0.1689979645595176 0.28949488405725932 0 0.16532030222413041 0.28061774918364429 0 0.1576814993112734 0.29111844862325259 0 0.1689979645595176 0.28949488405725932 0 0.16694561294494401 0.29968174040922901 0 0.1689979645595176 0.28949488405725932 0 0.16694561294494401 0.29968174040922901 0 0.17866142019044989 0.29199773726540068 0 0.1689979645595176 0.28949488405725932 0 0.17498255083596301 0.28300150235233201 0 0.16532030222413041 0.28061774918364429 0 0.1576814993112734 0.29111844862325259 0 0.1567398971697517 0.30020769771567818 0 0.16694561294494401 0.29968174040922901 0 0.15847128754916129 0.30901971199088751 0 0.1567398971697517 0.30020769771567818 0 0.16694561294494401 0.29968174040922901 0 0.16694561294494401 0.29968174040922901 0 0.17666858027807311 0.3015349886251833 0 0.1707678241303611 0.31259989648156872 0 0.15847128754916129 0.30901971199088751 0 0.16694561294494401 0.29968174040922901 0 0.1707678241303611 0.31259989648156872 0 0.17666858027807311 0.3015349886251833 0 0.18371952992762389 0.30785332357736089 0 0.1707678241303611 0.31259989648156872 0 0.16694561294494401 0.29968174040922901 0 0.17666858027807311 0.3015349886251833 0 0.17866142019044989 0.29199773726540068 0 0.17666858027807311 0.3015349886251833 0 0.18371952992762389 0.30785332357736089 0 0.1898902111984884 0.29891268329407239 0 0.18371952992762389 0.30785332357736089 0 0.1898902111984884 0.29891268329407239 0 0.17666858027807311 0.3015349886251833 0 0.17866142019044989 0.29199773726540068 0 0.1898902111984884 0.29891268329407239 0 0.17498255083596301 0.28300150235233201 0 0.17866142019044989 0.29199773726540068 0 0.1849298445554361 0.28099903695767547 0 0.1689979645595176 0.28949488405725932 0 0.17498255083596301 0.28300150235233201 0 0.17866142019044989 0.29199773726540068 0 0.17866142019044989 0.29199773726540068 0 0.18677859260729601 0.28760164196875848 0 0.1898902111984884 0.29891268329407239 0 0.17866142019044989 0.29199773726540068 0 0.18677859260729601 0.28760164196875848 0 0.1849298445554361 0.28099903695767547 0 0.1849298445554361 0.28099903695767547 0 0.17528279401001801 0.2714166079934146 0 0.19094745617081291 0.27038549871767581 0 0.17528279401001801 0.2714166079934146 0 0.18564289691528729 0.25868749876629671 0 0.19094745617081291 0.27038549871767581 0 0.17498255083596301 0.28300150235233201 0 0.1849298445554361 0.28099903695767547 0 0.17528279401001801 0.2714166079934146 0 0.17528279401001801 0.2714166079934146 0 0.16532030222413041 0.28061774918364429 0 0.1609818760820641 0.2708255403471686 0 0.17498255083596301 0.28300150235233201 0 0.17528279401001801 0.2714166079934146 0 0.16532030222413041 0.28061774918364429 0 0.17528279401001801 0.2714166079934146 0 0.1609818760820641 0.2708255403471686 0 0.1631161995596529 0.25657386530356069 0 0.15383705453569649 0.27951082009548711 0 0.16532030222413041 0.28061774918364429 0 0.1609818760820641 0.2708255403471686 0 0.14627836463393121 0.26809473379089088 0 0.1609818760820641 0.2708255403471686 0 0.1631161995596529 0.25657386530356069 0 0.16890701105638031 0.23504418317664161 0 0.1631161995596529 0.25657386530356069 0 0.18564289691528729 0.25868749876629671 0 0.17528279401001801 0.2714166079934146 0 0.1631161995596529 0.25657386530356069 0 0.18564289691528729 0.25868749876629671 0 0.1956251304139873 0.24830732682566101 0 0.18564289691528729 0.25868749876629671 0 0.20465537480646501 0.25892384109831479 0 0.18564289691528729 0.25868749876629671 0 0.19094745617081291 0.27038549871767581 0 0.20465537480646501 0.25892384109831479 0 0.2050239072751949 0.2492833193895482 0 0.1956251304139873 0.24830732682566101 0 0.20465537480646501 0.25892384109831479 0 0.19094745617081291 0.27038549871767581 0 0.20212350544635149 0.27452240688285762 0 0.1917381003592612 0.28136787577326228 0 0.1849298445554361 0.28099903695767547 0 0.19094745617081291 0.27038549871767581 0 0.1917381003592612 0.28136787577326228 0 0.19094745617081291 0.27038549871767581 0 0.20212350544635149 0.27452240688285762 0 0.20465537480646501 0.25892384109831479 0 0.21559138507808229 0.27635001083075639 0 0.2170338530129477 0.25958452376210089 0 0.2223889939606305 0.26849190584137572 0 0.20212350544635149 0.27452240688285762 0 0.2170338530129477 0.25958452376210089 0 0.20037669147028589 0.28371892366973078 0 0.2170338530129477 0.25958452376210089 0 0.20037669147028589 0.28371892366973078 0 0.21559138507808229 0.27635001083075639 0 0.2170338530129477 0.25958452376210089 0 0.20037669147028589 0.28371892366973078 0 0.20212350544635149 0.27452240688285762 0 0.20465537480646501 0.25892384109831479 0 0.21458810326103989 0.25029177234766842 0 0.20212350544635149 0.27452240688285762 0 0.2170338530129477 0.25958452376210089 0 0.21458810326103989 0.25029177234766842 0 0.20212350544635149 0.27452240688285762 0 0.21458810326103989 0.25029177234766842 0 0.2050239072751949 0.2492833193895482 0 0.20465537480646501 0.25892384109831479 0 0.21458810326103989 0.25029177234766842 0 0.20465537480646501 0.25892384109831479 0 0.21458810326103989 0.25029177234766842 0 0.23169913173193779 0.25404958449575432 0 0.22942687348362151 0.26728355318502178 0 0.24090080429007341 0.26281353644332878 0 0.23169913173193779 0.25404958449575432 0 0.2249153238939712 0.26221153605608138 0 0.22942687348362151 0.26728355318502178 0 0.2170338530129477 0.25958452376210089 0 0.2249153238939712 0.26221153605608138 0 0.2223889939606305 0.26849190584137572 0 0.2170338530129477 0.25958452376210089 0 0.23169913173193779 0.25404958449575432 0 0.2249153238939712 0.26221153605608138 0 0.2223889939606305 0.26849190584137572 0 0.2255322572178127 0.27738204478537232 0 0.22942687348362151 0.26728355318502178 0 0.2249153238939712 0.26221153605608138 0 0.2223889939606305 0.26849190584137572 0 0.22942687348362151 0.26728355318502178 0 0.21559138507808229 0.27635001083075639 0 0.2255322572178127 0.27738204478537232 0 0.21985426169801439 0.28935406669317137 0 0.21559138507808229 0.27635001083075639 0 0.2223889939606305 0.26849190584137572 0 0.2255322572178127 0.27738204478537232 0 0.2255322572178127 0.27738204478537232 0 0.23621117140834261 0.27732665952701641 0 0.23095623596381579 0.2876536505458 0 0.2255322572178127 0.27738204478537232 0 0.22942687348362151 0.26728355318502178 0 0.23621117140834261 0.27732665952701641 0 0.23621117140834261 0.27732665952701641 0 0.24818821145747599 0.27522177653690871 0 0.24090080429007341 0.26281353644332878 0 0.22942687348362151 0.26728355318502178 0 0.23621117140834261 0.27732665952701641 0 0.24090080429007341 0.26281353644332878 0 0.24818821145747599 0.27522177653690871 0 0.24090080429007341 0.26281353644332878 0 0.25530776412370298 0.26639583896058622 0 0.23995652529561701 0.25039133628829258 0 0.24090080429007341 0.26281353644332878 0 0.25404003316197471 0.25208422786308371 0 0.23169913173193779 0.25404958449575432 0 0.23995652529561701 0.25039133628829258 0 0.24090080429007341 0.26281353644332878 0 0.23765651747073049 0.31117848176507701 0 0.2454028482605469 0.29267792886045368 0 0.25114017462525878 0.31153615041935723 0 0.23765651747073049 0.31117848176507701 0 0.2454028482605469 0.29267792886045368 0 0.2283396740985745 0.30195705682751389 0 0.2454028482605469 0.29267792886045368 0 0.23095623596381579 0.2876536505458 0 0.2283396740985745 0.30195705682751389 0 0.23621117140834261 0.27732665952701641 0 0.24818821145747599 0.27522177653690871 0 0.2454028482605469 0.29267792886045368 0 0.23621117140834261 0.27732665952701641 0 0.2454028482605469 0.29267792886045368 0 0.23095623596381579 0.2876536505458 0 0.2255322572178127 0.27738204478537232 0 0.23095623596381579 0.2876536505458 0 0.21985426169801439 0.28935406669317137 0 0.23095623596381579 0.2876536505458 0 0.21985426169801439 0.28935406669317137 0 0.2283396740985745 0.30195705682751389 0 0.2283396740985745 0.30195705682751389 0 0.2184758680590754 0.31184724711422762 0 0.22801070301179061 0.32060690690137728 0 0.21985426169801439 0.28935406669317137 0 0.2283396740985745 0.30195705682751389 0 0.21670572119465931 0.30172893354768798 0 0.23765651747073049 0.31117848176507701 0 0.2283396740985745 0.30195705682751389 0 0.22801070301179061 0.32060690690137728 0 0.2283396740985745 0.30195705682751389 0 0.2184758680590754 0.31184724711422762 0 0.21670572119465931 0.30172893354768798 0 0.2184758680590754 0.31184724711422762 0 0.21670572119465931 0.30172893354768798 0 0.20632342479934371 0.30585855598863948 0 0.21670572119465931 0.30172893354768798 0 0.20632342479934371 0.30585855598863948 0 0.21141614329998781 0.29390938293380992 0 0.20632342479934371 0.30585855598863948 0 0.21141614329998781 0.29390938293380992 0 0.2042452804315445 0.29308429151921322 0 0.21559138507808229 0.27635001083075639 0 0.21985426169801439 0.28935406669317137 0 0.2104384150331686 0.28649738738125968 0 0.21985426169801439 0.28935406669317137 0 0.21141614329998781 0.29390938293380992 0 0.2104384150331686 0.28649738738125968 0 0.21985426169801439 0.28935406669317137 0 0.21670572119465931 0.30172893354768798 0 0.21141614329998781 0.29390938293380992 0 0.21141614329998781 0.29390938293380992 0 0.2042452804315445 0.29308429151921322 0 0.2104384150331686 0.28649738738125968 0 0.2042452804315445 0.29308429151921322 0 0.2104384150331686 0.28649738738125968 0 0.20037669147028589 0.28371892366973078 0 0.21559138507808229 0.27635001083075639 0 0.2104384150331686 0.28649738738125968 0 0.20037669147028589 0.28371892366973078 0 0.20212350544635149 0.27452240688285762 0 0.20037669147028589 0.28371892366973078 0 0.1898902111984884 0.29891268329407239 0 0.18677859260729601 0.28760164196875848 0 0.1917381003592612 0.28136787577326228 0 0.1898902111984884 0.29891268329407239 0 0.20037669147028589 0.28371892366973078 0 0.1976595376627992 0.29976589533378561 0 0.1898902111984884 0.29891268329407239 0 0.2042452804315445 0.29308429151921322 0 0.20037669147028589 0.28371892366973078 0 0.1976595376627992 0.29976589533378561 0 0.20212350544635149 0.27452240688285762 0 0.1898902111984884 0.29891268329407239 0 0.20212350544635149 0.27452240688285762 0 0.1917381003592612 0.28136787577326228 0 0.1898902111984884 0.29891268329407239 0 0.20037669147028589 0.28371892366973078 0 0.1898902111984884 0.29891268329407239 0 0.18677859260729601 0.28760164196875848 0 0.1849298445554361 0.28099903695767547 0 0.1917381003592612 0.28136787577326228 0 0.20632342479934371 0.30585855598863948 0 0.19412409721151189 0.30848045781950378 0 0.19635424873152091 0.31866253726922511 0 0.20632342479934371 0.30585855598863948 0 0.1976595376627992 0.29976589533378561 0 0.19412409721151189 0.30848045781950378 0 0.20632342479934371 0.30585855598863948 0 0.2042452804315445 0.29308429151921322 0 0.1976595376627992 0.29976589533378561 0 0.18371952992762389 0.30785332357736089 0 0.1976595376627992 0.29976589533378561 0 0.1898902111984884 0.29891268329407239 0 0.18371952992762389 0.30785332357736089 0 0.19412409721151189 0.30848045781950378 0 0.19635424873152091 0.31866253726922511 0 0.18371952992762389 0.30785332357736089 0 0.1976595376627992 0.29976589533378561 0 0.19412409721151189 0.30848045781950378 0 0.19635424873152091 0.31866253726922511 0 0.19329834396814641 0.33328399686629978 0 0.21150607161232149 0.3245036863190196 0 0.19635424873152091 0.31866253726922511 0 0.19329834396814641 0.33328399686629978 0 0.1818581672390053 0.32281790922797782 0 0.19329834396814641 0.33328399686629978 0 0.20841238186686439 0.34472105417207632 0 0.1876990638134575 0.35190483133425488 0 0.19329834396814641 0.33328399686629978 0 0.21150607161232149 0.3245036863190196 0 0.20841238186686439 0.34472105417207632 0 0.21150607161232149 0.3245036863190196 0 0.22736457019319431 0.33776348264759248 0 0.20841238186686439 0.34472105417207632 0 0.20632342479934371 0.30585855598863948 0 0.19635424873152091 0.31866253726922511 0 0.21150607161232149 0.3245036863190196 0 0.2184758680590754 0.31184724711422762 0 0.20632342479934371 0.30585855598863948 0 0.21150607161232149 0.3245036863190196 0 0.21150607161232149 0.3245036863190196 0 0.22801070301179061 0.32060690690137728 0 0.22736457019319431 0.33776348264759248 0 0.2184758680590754 0.31184724711422762 0 0.21150607161232149 0.3245036863190196 0 0.22801070301179061 0.32060690690137728 0 0.22801070301179061 0.32060690690137728 0 0.22736457019319431 0.33776348264759248 0 0.24490867605631639 0.32967072069511189 0 0.22736457019319431 0.33776348264759248 0 0.24490867605631639 0.32967072069511189 0 0.24521693247762111 0.35027114815259558 0 0.23765651747073049 0.31117848176507701 0 0.22801070301179061 0.32060690690137728 0 0.24490867605631639 0.32967072069511189 0 0.23765651747073049 0.31117848176507701 0 0.24490867605631639 0.32967072069511189 0 0.25114017462525878 0.31153615041935723 0 0.24305895760768401 0.36641304215893011 0 0.24521693247762111 0.35027114815259558 0 0.22613265613425179 0.35680737964537468 0 0.22736457019319431 0.33776348264759248 0 0.24521693247762111 0.35027114815259558 0 0.22613265613425179 0.35680737964537468 0 0.22736457019319431 0.33776348264759248 0 0.22613265613425179 0.35680737964537468 0 0.20841238186686439 0.34472105417207632 0 0.22613265613425179 0.35680737964537468 0 0.20200890290724041 0.36500873302905812 0 0.22860253219506471 0.37841014948266538 0 0.24305895760768401 0.36641304215893011 0 0.22613265613425179 0.35680737964537468 0 0.22860253219506471 0.37841014948266538 0 0.20200890290724041 0.36500873302905812 0 0.22860253219506471 0.37841014948266538 0 0.22613265613425179 0.35680737964537468 0 0.20841238186686439 0.34472105417207632 0 0.20200890290724041 0.36500873302905812 0 0.20841238186686439 0.34472105417207632 0 0.1876990638134575 0.35190483133425488 0 0.20200890290724041 0.36500873302905812 0 0.1876990638134575 0.35190483133425488 0 0.20200890290724041 0.36500873302905812 0 0.17637045729064621 0.37495278481954358 0 0.1876990638134575 0.35190483133425488 0 0.17637045729064621 0.37495278481954358 0 0.16909864488713719 0.35514267549568418 0 0.15975417249048229 0.36968310563447321 0 0.16909864488713719 0.35514267549568418 0 0.14990537096685039 0.36070173528474042 0 0.17637045729064621 0.37495278481954358 0 0.15975417249048229 0.36968310563447321 0 0.16909864488713719 0.35514267549568418 0 0.16909864488713719 0.35514267549568418 0 0.1770056519607103 0.33831974362286749 0 0.1619384281755652 0.34052596047808847 0 0.16909864488713719 0.35514267549568418 0 0.14990537096685039 0.36070173528474042 0 0.15416632756111201 0.34898696826244741 0 0.16909864488713719 0.35514267549568418 0 0.1619384281755652 0.34052596047808847 0 0.15416632756111201 0.34898696826244741 0 0.1876990638134575 0.35190483133425488 0 0.16909864488713719 0.35514267549568418 0 0.1770056519607103 0.33831974362286749 0 0.19329834396814641 0.33328399686629978 0 0.1770056519607103 0.33831974362286749 0 0.1818581672390053 0.32281790922797782 0 0.19329834396814641 0.33328399686629978 0 0.1876990638134575 0.35190483133425488 0 0.1770056519607103 0.33831974362286749 0 0.1770056519607103 0.33831974362286749 0 0.1818581672390053 0.32281790922797782 0 0.1657389141743941 0.32607447656151611 0 0.1818581672390053 0.32281790922797782 0 0.1707678241303611 0.31259989648156872 0 0.1657389141743941 0.32607447656151611 0 0.18371952992762389 0.30785332357736089 0 0.19635424873152091 0.31866253726922511 0 0.1818581672390053 0.32281790922797782 0 0.18371952992762389 0.30785332357736089 0 0.1818581672390053 0.32281790922797782 0 0.1707678241303611 0.31259989648156872 0 0.1707678241303611 0.31259989648156872 0 0.1657389141743941 0.32607447656151611 0 0.16084478468494731 0.31759224325908281 0 0.1657389141743941 0.32607447656151611 0 0.15632698434060879 0.32309477146443721 0 0.16084478468494731 0.31759224325908281 0 0.1657389141743941 0.32607447656151611 0 0.15632698434060879 0.32309477146443721 0 0.1534459738215358 0.33116830427909388 0 0.15847128754916129 0.30901971199088751 0 0.1707678241303611 0.31259989648156872 0 0.16084478468494731 0.31759224325908281 0 0.15847128754916129 0.30901971199088751 0 0.16084478468494731 0.31759224325908281 0 0.1531779528472626 0.31690967251270458 0 0.15632698434060879 0.32309477146443721 0 0.16084478468494731 0.31759224325908281 0 0.1531779528472626 0.31690967251270458 0 0.1770056519607103 0.33831974362286749 0 0.1657389141743941 0.32607447656151611 0 0.1619384281755652 0.34052596047808847 0 0.1657389141743941 0.32607447656151611 0 0.1619384281755652 0.34052596047808847 0 0.1534459738215358 0.33116830427909388 0 0.1619384281755652 0.34052596047808847 0 0.14537830609435001 0.34101383565047871 0 0.15416632756111201 0.34898696826244741 0 0.1619384281755652 0.34052596047808847 0 0.1534459738215358 0.33116830427909388 0 0.14537830609435001 0.34101383565047871 0 0.1534459738215358 0.33116830427909388 0 0.1427633336259623 0.33140140495610498 0 0.14842729617490411 0.32372916070978858 0 0.1534459738215358 0.33116830427909388 0 0.1427633336259623 0.33140140495610498 0 0.14537830609435001 0.34101383565047871 0 0.1427633336259623 0.33140140495610498 0 0.14537830609435001 0.34101383565047871 0 0.13654253772275141 0.33890423694427602 0 0.1483486037307668 0.31106151759990119 0 0.1531779528472626 0.31690967251270458 0 0.14487070829517959 0.31682928085866202 0 0.1531779528472626 0.31690967251270458 0 0.14842729617490411 0.32372916070978858 0 0.14487070829517959 0.31682928085866202 0 0.15632698434060879 0.32309477146443721 0 0.1534459738215358 0.33116830427909388 0 0.14842729617490411 0.32372916070978858 0 0.15632698434060879 0.32309477146443721 0 0.1531779528472626 0.31690967251270458 0 0.14842729617490411 0.32372916070978858 0 0.1427633336259623 0.33140140495610498 0 0.14842729617490411 0.32372916070978858 0 0.1402378637359267 0.32270884290342983 0 0.14842729617490411 0.32372916070978858 0 0.14487070829517959 0.31682928085866202 0 0.1402378637359267 0.32270884290342983 0 0.1483486037307668 0.31106151759990119 0 0.14130712994747449 0.31140798331507108 0 0.14487070829517959 0.31682928085866202 0 0.14130712994747449 0.31140798331507108 0 0.14487070829517959 0.31682928085866202 0 0.13528824775885559 0.3155805734405937 0 0.14487070829517959 0.31682928085866202 0 0.13528824775885559 0.3155805734405937 0 0.1402378637359267 0.32270884290342983 0 0.13528824775885559 0.3155805734405937 0 0.1330765722643745 0.32249408610517011 0 0.1402378637359267 0.32270884290342983 0 0.1330765722643745 0.32249408610517011 0 0.1402378637359267 0.32270884290342983 0 0.13309473665224339 0.33072661256584468 0 0.12375204985912221 0.32702725796552912 0 0.1330765722643745 0.32249408610517011 0 0.13309473665224339 0.33072661256584468 0 0.12375204985912221 0.32702725796552912 0 0.1330765722643745 0.32249408610517011 0 0.12817088130983889 0.317450689473041 0 0.13528824775885559 0.3155805734405937 0 0.1330765722643745 0.32249408610517011 0 0.12817088130983889 0.317450689473041 0 0.1214195525311879 0.31440901896845502 0 0.12900107104525951 0.30968741412501871 0 0.12817088130983889 0.317450689473041 0 0.12900107104525951 0.30968741412501871 0 0.13528824775885559 0.3155805734405937 0 0.12817088130983889 0.317450689473041 0 0.14537830609435001 0.34101383565047871 0 0.13654253772275141 0.33890423694427602 0 0.13685475473781181 0.34959577292381833 0 0.13654253772275141 0.33890423694427602 0 0.1260676383484185 0.3399282146226113 0 0.13685475473781181 0.34959577292381833 0 0.1427633336259623 0.33140140495610498 0 0.13654253772275141 0.33890423694427602 0 0.13309473665224339 0.33072661256584468 0 0.1427633336259623 0.33140140495610498 0 0.1402378637359267 0.32270884290342983 0 0.13309473665224339 0.33072661256584468 0 0.12375204985912221 0.32702725796552912 0 0.13309473665224339 0.33072661256584468 0 0.1260676383484185 0.3399282146226113 0 0.13654253772275141 0.33890423694427602 0 0.13309473665224339 0.33072661256584468 0 0.1260676383484185 0.3399282146226113 0 0.1232256624926347 0.35239419723674059 0 0.13685475473781181 0.34959577292381833 0 0.13271547193899449 0.36524458735671972 0 0.1232256624926347 0.35239419723674059 0 0.1260676383484185 0.3399282146226113 0 0.13685475473781181 0.34959577292381833 0 0.13685475473781181 0.34959577292381833 0 0.13271547193899449 0.36524458735671972 0 0.14990537096685039 0.36070173528474042 0 0.13271547193899449 0.36524458735671972 0 0.14727668153694909 0.37350977329143831 0 0.1384203385310763 0.3853027474406937 0 0.13271547193899449 0.36524458735671972 0 0.14727668153694909 0.37350977329143831 0 0.14990537096685039 0.36070173528474042 0 0.15975417249048229 0.36968310563447321 0 0.14727668153694909 0.37350977329143831 0 0.14990537096685039 0.36070173528474042 0 0.14537830609435001 0.34101383565047871 0 0.13685475473781181 0.34959577292381833 0 0.15416632756111201 0.34898696826244741 0 0.13685475473781181 0.34959577292381833 0 0.14990537096685039 0.36070173528474042 0 0.15416632756111201 0.34898696826244741 0 0.15196678808574959 0.39634912392256672 0 0.1402717845598023 0.40641241395674649 0 0.16129649351817349 0.40676751558544272 0 0.15196678808574959 0.39634912392256672 0 0.1384203385310763 0.3853027474406937 0 0.1402717845598023 0.40641241395674649 0 0.15196678808574959 0.39634912392256672 0 0.15611970777082879 0.38410855928095938 0 0.1384203385310763 0.3853027474406937 0 0.14727668153694909 0.37350977329143831 0 0.15611970777082879 0.38410855928095938 0 0.1384203385310763 0.3853027474406937 0 0.15975417249048229 0.36968310563447321 0 0.14727668153694909 0.37350977329143831 0 0.15611970777082879 0.38410855928095938 0 0.1231373165426977 0.3806134049577457 0 0.13271547193899449 0.36524458735671972 0 0.1384203385310763 0.3853027474406937 0 0.1231373165426977 0.3806134049577457 0 0.1384203385310763 0.3853027474406937 0 0.1271742827044339 0.39597619803598749 0 0.1384203385310763 0.3853027474406937 0 0.1271742827044339 0.39597619803598749 0 0.1402717845598023 0.40641241395674649 0 0.1162621503634904 0.41872732341568758 0 0.1271742827044339 0.39597619803598749 0 0.1402717845598023 0.40641241395674649 0 0.1162621503634904 0.41872732341568758 0 0.1402717845598023 0.40641241395674649 0 0.14380353536204241 0.43078456768362461 0 0.1162621503634904 0.41872732341568758 0 0.14380353536204241 0.43078456768362461 0 0.1205619018159948 0.44674810255646558 0 0.1162621503634904 0.41872732341568758 0 0.13914808732176639 0.43525501877606959 0 0.1162621503634904 0.41872732341568758 0 0.13914808732176639 0.43525501877606959 0 0.14380353536204241 0.43078456768362461 0 0.1402717845598023 0.40641241395674649 0 0.16129649351817349 0.40676751558544272 0 0.1583102357697074 0.42239552662274649 0 0.1402717845598023 0.40641241395674649 0 0.14380353536204241 0.43078456768362461 0 0.1583102357697074 0.42239552662274649 0 0.16129649351817349 0.40676751558544272 0 0.17483444504792359 0.42517132393635743 0 0.1767108048052333 0.40648620419478521 0 0.16129649351817349 0.40676751558544272 0 0.1583102357697074 0.42239552662274649 0 0.17483444504792359 0.42517132393635743 0 0.1583102357697074 0.42239552662274649 0 0.17483444504792359 0.42517132393635743 0 0.1713449203605947 0.44284181195156158 0 0.14380353536204241 0.43078456768362461 0 0.1713449203605947 0.44284181195156158 0 0.14380353536204241 0.43078456768362461 0 0.1583102357697074 0.42239552662274649 0 0.1713449203605947 0.44284181195156158 0 0.17483444504792359 0.42517132393635743 0 0.18216746451451801 0.43740730714955978 0 0.1713449203605947 0.44284181195156158 0 0.17483444504792359 0.42517132393635743 0 0.1713449203605947 0.44284181195156158 0 0.17483444504792359 0.42517132393635743 0 0.1894098998784805 0.41329321868770491 0 0.19020123220431809 0.42989189963497759 0 0.17483444504792359 0.42517132393635743 0 0.18216746451451801 0.43740730714955978 0 0.19020123220431809 0.42989189963497759 0 0.17483444504792359 0.42517132393635743 0 0.1767108048052333 0.40648620419478521 0 0.1894098998784805 0.41329321868770491 0 0.1767108048052333 0.40648620419478521 0 0.16971698500113649 0.39319336099264368 0 0.18829620058045249 0.39400560177177729 0 0.1767108048052333 0.40648620419478521 0 0.18829620058045249 0.39400560177177729 0 0.1894098998784805 0.41329321868770491 0 0.15196678808574959 0.39634912392256672 0 0.15611970777082879 0.38410855928095938 0 0.16971698500113649 0.39319336099264368 0 0.15196678808574959 0.39634912392256672 0 0.16129649351817349 0.40676751558544272 0 0.16971698500113649 0.39319336099264368 0 0.16129649351817349 0.40676751558544272 0 0.1767108048052333 0.40648620419478521 0 0.16971698500113649 0.39319336099264368 0 0.17637045729064621 0.37495278481954358 0 0.15975417249048229 0.36968310563447321 0 0.15611970777082879 0.38410855928095938 0 0.17637045729064621 0.37495278481954358 0 0.15611970777082879 0.38410855928095938 0 0.16971698500113649 0.39319336099264368 0 0.17637045729064621 0.37495278481954358 0 0.16971698500113649 0.39319336099264368 0 0.18829620058045249 0.39400560177177729 0 0.20200890290724041 0.36500873302905812 0 0.18829620058045249 0.39400560177177729 0 0.21022739730807871 0.38998636848418261 0 0.20200890290724041 0.36500873302905812 0 0.17637045729064621 0.37495278481954358 0 0.18829620058045249 0.39400560177177729 0 0.18829620058045249 0.39400560177177729 0 0.21022739730807871 0.38998636848418261 0 0.20498907662426999 0.40636669370009521 0 0.18829620058045249 0.39400560177177729 0 0.20498907662426999 0.40636669370009521 0 0.1894098998784805 0.41329321868770491 0 0.21022739730807871 0.38998636848418261 0 0.225418264115859 0.4045632601918206 0 0.20498907662426999 0.40636669370009521 0 0.20200890290724041 0.36500873302905812 0 0.21022739730807871 0.38998636848418261 0 0.22860253219506471 0.37841014948266538 0 0.21022739730807871 0.38998636848418261 0 0.22860253219506471 0.37841014948266538 0 0.225418264115859 0.4045632601918206 0 0.225418264115859 0.4045632601918206 0 0.2490748840761759 0.41447913741323361 0 0.25519616148288887 0.39181156593627298 0 0.22860253219506471 0.37841014948266538 0 0.225418264115859 0.4045632601918206 0 0.25519616148288887 0.39181156593627298 0 0.22860253219506471 0.37841014948266538 0 0.25519616148288887 0.39181156593627298 0 0.24305895760768401 0.36641304215893011 0 0.22860253219506471 0.37841014948266538 0 0.25519616148288887 0.39181156593627298 0 0.2490748840761759 0.41447913741323361 0 0.23040520055063371 0.42472223384156732 0 0.24517769652138269 0.43868647355565088 0 0.225418264115859 0.4045632601918206 0 0.2490748840761759 0.41447913741323361 0 0.23040520055063371 0.42472223384156732 0 0.225418264115859 0.4045632601918206 0 0.23040520055063371 0.42472223384156732 0 0.20794960100346549 0.42683021087399747 0 0.23040520055063371 0.42472223384156732 0 0.20794960100346549 0.42683021087399747 0 0.2229924843016429 0.43948176305630821 0 0.23040520055063371 0.42472223384156732 0 0.2229924843016429 0.43948176305630821 0 0.24517769652138269 0.43868647355565088 0 0.225418264115859 0.4045632601918206 0 0.20794960100346549 0.42683021087399747 0 0.20498907662426999 0.40636669370009521 0 0.20794960100346549 0.42683021087399747 0 0.20498907662426999 0.40636669370009521 0 0.1894098998784805 0.41329321868770491 0 0.20794960100346549 0.42683021087399747 0 0.19020123220431809 0.42989189963497759 0 0.19426067079655579 0.44330707928475449 0 0.20794960100346549 0.42683021087399747 0 0.1894098998784805 0.41329321868770491 0 0.19020123220431809 0.42989189963497759 0 0.18216746451451801 0.43740730714955978 0 0.19020123220431809 0.42989189963497759 0 0.19426067079655579 0.44330707928475449 0 0.19426067079655579 0.44330707928475449 0 0.1940681668251448 0.45640187690020761 0 0.18254949088188149 0.4477470207382499 0 0.19426067079655579 0.44330707928475449 0 0.1940681668251448 0.45640187690020761 0 0.20814429074563079 0.44944136850783811 0 0.1940681668251448 0.45640187690020761 0 0.20814429074563079 0.44944136850783811 0 0.2039949308663013 0.472197178379127 0 0.1940681668251448 0.45640187690020761 0 0.2039949308663013 0.472197178379127 0 0.18608081776579821 0.46867989557539208 0 0.1940681668251448 0.45640187690020761 0 0.18608081776579821 0.46867989557539208 0 0.18254949088188149 0.4477470207382499 0 0.20814429074563079 0.44944136850783811 0 0.22852149564367849 0.45772005811557609 0 0.2039949308663013 0.472197178379127 0 0.20794960100346549 0.42683021087399747 0 0.19426067079655579 0.44330707928475449 0 0.20814429074563079 0.44944136850783811 0 0.20794960100346549 0.42683021087399747 0 0.20814429074563079 0.44944136850783811 0 0.2229924843016429 0.43948176305630821 0 0.2229924843016429 0.43948176305630821 0 0.22852149564367849 0.45772005811557609 0 0.24517769652138269 0.43868647355565088 0 0.20814429074563079 0.44944136850783811 0 0.2229924843016429 0.43948176305630821 0 0.22852149564367849 0.45772005811557609 0 0.22852149564367849 0.45772005811557609 0 0.2480713074063006 0.45455858161591112 0 0.2508124586903176 0.47172026355836871 0 0.22852149564367849 0.45772005811557609 0 0.2480713074063006 0.45455858161591112 0 0.24517769652138269 0.43868647355565088 0 0.24658834009167641 0.5 0 0.2268462464291012 0.47913099520174052 0 0.2508124586903176 0.47172026355836871 0 0.22852149564367849 0.45772005811557609 0 0.2268462464291012 0.47913099520174052 0 0.2508124586903176 0.47172026355836871 0 0.22852149564367849 0.45772005811557609 0 0.2268462464291012 0.47913099520174052 0 0.2039949308663013 0.472197178379127 0 0.24658834009167641 0.5 0 0.2268462464291012 0.47913099520174052 0 0.21774471386125249 0.5 0 0.2039949308663013 0.472197178379127 0 0.18890108763082861 0.5 0 0.18608081776579821 0.46867989557539208 0 0.21774471386125249 0.5 0 0.2039949308663013 0.472197178379127 0 0.18890108763082861 0.5 0 0.2268462464291012 0.47913099520174052 0 0.21774471386125249 0.5 0 0.2039949308663013 0.472197178379127 0 0.18890108763082861 0.5 0 0.16570119088049859 0.47142090597577962 0 0.18608081776579821 0.46867989557539208 0 0.18890108763082861 0.5 0 0.1600574614004048 0.499999999999998 0 0.16570119088049859 0.47142090597577962 0 0.1600574614004048 0.499999999999998 0 0.16570119088049859 0.47142090597577962 0 0.1600574614004048 0.499999999999998 0 0.16570119088049859 0.47142090597577962 0 0.1473140710794911 0.47841155746419622 0 0.16570119088049859 0.47142090597577962 0 0.18608081776579821 0.46867989557539208 0 0.18254949088188149 0.4477470207382499 0 0.16570119088049859 0.47142090597577962 0 0.18254949088188149 0.4477470207382499 0 0.1713449203605947 0.44284181195156158 0 0.18216746451451801 0.43740730714955978 0 0.19426067079655579 0.44330707928475449 0 0.18254949088188149 0.4477470207382499 0 0.18254949088188149 0.4477470207382499 0 0.1713449203605947 0.44284181195156158 0 0.18216746451451801 0.43740730714955978 0 0.18254949088188149 0.4477470207382499 0 0.1713449203605947 0.44284181195156158 0 0.16570119088049859 0.47142090597577962 0 0.1713449203605947 0.44284181195156158 0 0.16570119088049859 0.47142090597577962 0 0.1713449203605947 0.44284181195156158 0 0.15076126992746861 0.45128164001408699 0 0.16570119088049859 0.47142090597577962 0 0.14979107830043681 0.4659705410046826 0 0.15076126992746861 0.45128164001408699 0 0.14979107830043681 0.4659705410046826 0 0.15076126992746861 0.45128164001408699 0 0.13538778131428869 0.46276806056466779 0 0.13914808732176639 0.43525501877606959 0 0.14380353536204241 0.43078456768362461 0 0.15076126992746861 0.45128164001408699 0 0.14380353536204241 0.43078456768362461 0 0.1713449203605947 0.44284181195156158 0 0.15076126992746861 0.45128164001408699 0 0.13914808732176639 0.43525501877606959 0 0.15076126992746861 0.45128164001408699 0 0.13538778131428869 0.46276806056466779 0 0.13914808732176639 0.43525501877606959 0 0.13538778131428869 0.46276806056466779 0 0.1205619018159948 0.44674810255646558 0 0.13914808732176639 0.43525501877606959 0 0.13538778131428869 0.46276806056466779 0 0.1248616532684987 0.47476888169724352 0 0.1205619018159948 0.44674810255646558 0 0.13538778131428869 0.46276806056466779 0 0.13538778131428869 0.46276806056466779 0 0.13162747530681079 0.49028110235326611 0 0.1248616532684987 0.47476888169724352 0 0.13538778131428869 0.46276806056466779 0 0.13162747530681079 0.49028110235326611 0 0.13538778131428869 0.46276806056466779 0 0.13162747530681079 0.49028110235326611 0 0.1473140710794911 0.47841155746419622 0 0.1248616532684987 0.47476888169724352 0 0.13162747530681079 0.49028110235326611 0 0.1248616532684987 0.47476888169724352 0 0.1287333349596296 0.50000000000000233 0 0.1248616532684987 0.47476888169724352 0 0.13162747530681079 0.49028110235326611 0 0.1287333349596296 0.50000000000000233 0 0.13162747530681079 0.49028110235326611 0 0.1302991587401483 0.50000000000000044 0 0.13162747530681079 0.49028110235326611 0 0.1302991587401483 0.50000000000000044 0 0.13586647714571501 0.50000000000000044 0 0.13162747530681079 0.49028110235326611 0 0.1287333349596296 0.50000000000000233 0 0.1302991587401483 0.50000000000000044 0 0.13162747530681079 0.49028110235326611 0 0.13586647714571501 0.50000000000000044 0 0.14406777576738011 0.49099847585001533 0 0.13162747530681079 0.49028110235326611 0 0.13586647714571501 0.50000000000000044 0 0.1600574614004048 0.499999999999998 0 0.13586647714571501 0.50000000000000044 0 0.14406777576738011 0.49099847585001533 0 0.1600574614004048 0.499999999999998 0 0.14406777576738011 0.49099847585001533 0 0.1473140710794911 0.47841155746419622 0 0.13162747530681079 0.49028110235326611 0 0.14406777576738011 0.49099847585001533 0 0.1473140710794911 0.47841155746419622 0 0.16570119088049859 0.47142090597577962 0 0.14979107830043681 0.4659705410046826 0 0.1473140710794911 0.47841155746419622 0 0.14979107830043681 0.4659705410046826 0 0.13538778131428869 0.46276806056466779 0 0.1473140710794911 0.47841155746419622 0 0.3484716028812469 0.46927922019571022 0 0.3639431844790027 0.47792576209206161 0 0.36215729707138089 0.45952194433731441 0 0.3484716028812469 0.46927922019571022 0 0.34825454286986979 0.4866410253547736 0 0.3639431844790027 0.47792576209206161 0 0.34825454286986979 0.4866410253547736 0 0.36196284501337178 0.5 0 0.3639431844790027 0.47792576209206161 0 0.34825454286986979 0.4866410253547736 0 0.36196284501337178 0.5 0 0.33311921878294798 0.5 0 0.36196284501337178 0.5 0 0.3639431844790027 0.47792576209206161 0 0.38120033573297152 0.48442634992442057 0 0.3639431844790027 0.47792576209206161 0 0.37844435483634198 0.4675903904274426 0 0.38120033573297152 0.48442634992442057 0 0.3639431844790027 0.47792576209206161 0 0.36215729707138089 0.45952194433731441 0 0.37844435483634198 0.4675903904274426 0 0.36215729707138089 0.45952194433731441 0 0.37809165231809289 0.44568724501072521 0 0.37844435483634198 0.4675903904274426 0 0.36215729707138089 0.45952194433731441 0 0.35494335133579169 0.44207750056399991 0 0.37809165231809289 0.44568724501072521 0 0.35494335133579169 0.44207750056399991 0 0.365542703577178 0.42914551292816783 0 0.37809165231809289 0.44568724501072521 0 0.35494335133579169 0.44207750056399991 0 0.33746945485668051 0.4332718215327816 0 0.35494335133579169 0.44207750056399991 0 0.33933393763431879 0.44574212964051668 0 0.33746945485668051 0.4332718215327816 0 0.36215729707138089 0.45952194433731441 0 0.35494335133579169 0.44207750056399991 0 0.34904963657780902 0.45457154773394731 0 0.35494335133579169 0.44207750056399991 0 0.34904963657780902 0.45457154773394731 0 0.33933393763431879 0.44574212964051668 0 0.3484716028812469 0.46927922019571022 0 0.36215729707138089 0.45952194433731441 0 0.34904963657780902 0.45457154773394731 0 0.3484716028812469 0.46927922019571022 0 0.34904963657780902 0.45457154773394731 0 0.33768006752307722 0.45817683321967928 0 0.33768006752307722 0.45817683321967928 0 0.32516604183334019 0.44948070643492349 0 0.3263791186886712 0.4718105620932988 0 0.3484716028812469 0.46927922019571022 0 0.33768006752307722 0.45817683321967928 0 0.3263791186886712 0.4718105620932988 0 0.33933393763431879 0.44574212964051668 0 0.32516604183334019 0.44948070643492349 0 0.33457771181584611 0.43369686048393857 0 0.32516604183334019 0.44948070643492349 0 0.33457771181584611 0.43369686048393857 0 0.33933393763431879 0.44574212964051668 0 0.33457771181584611 0.43369686048393857 0 0.33746945485668051 0.4332718215327816 0 0.34904963657780902 0.45457154773394731 0 0.33768006752307722 0.45817683321967928 0 0.33933393763431879 0.44574212964051668 0 0.33768006752307722 0.45817683321967928 0 0.33933393763431879 0.44574212964051668 0 0.32516604183334019 0.44948070643492349 0 0.32516604183334019 0.44948070643492349 0 0.30610823095482448 0.43788140873538328 0 0.33457771181584611 0.43369686048393857 0 0.32516604183334019 0.44948070643492349 0 0.30909376894118562 0.45443190325323968 0 0.30610823095482448 0.43788140873538328 0 0.32516604183334019 0.44948070643492349 0 0.3263791186886712 0.4718105620932988 0 0.30909376894118562 0.45443190325323968 0 0.3263791186886712 0.4718105620932988 0 0.30059931196992168 0.47005809262963882 0 0.31153103284441203 0.48323920778459489 0 0.3484716028812469 0.46927922019571022 0 0.34825454286986979 0.4866410253547736 0 0.3263791186886712 0.4718105620932988 0 0.34825454286986979 0.4866410253547736 0 0.3263791186886712 0.4718105620932988 0 0.33311921878294798 0.5 0 0.3263791186886712 0.4718105620932988 0 0.33311921878294798 0.5 0 0.31153103284441203 0.48323920778459489 0 0.33311921878294798 0.5 0 0.30427559255252412 0.5 0 0.31153103284441203 0.48323920778459489 0 0.30427559255252412 0.5 0 0.31153103284441203 0.48323920778459489 0 0.29110307967174748 0.48580921065493432 0 0.30059931196992168 0.47005809262963882 0 0.31153103284441203 0.48323920778459489 0 0.29110307967174748 0.48580921065493432 0 0.30059931196992168 0.47005809262963882 0 0.29110307967174748 0.48580921065493432 0 0.27585954767988607 0.47408041721782612 0 0.30427559255252412 0.5 0 0.29110307967174748 0.48580921065493432 0 0.27543196632210021 0.5 0 0.27543196632210021 0.5 0 0.27585954767988607 0.47408041721782612 0 0.26198527678341299 0.48673919500437729 0 0.29110307967174748 0.48580921065493432 0 0.27543196632210021 0.5 0 0.27585954767988607 0.47408041721782612 0 0.27585954767988607 0.47408041721782612 0 0.2508124586903176 0.47172026355836871 0 0.26198527678341299 0.48673919500437729 0 0.24658834009167641 0.5 0 0.2508124586903176 0.47172026355836871 0 0.26198527678341299 0.48673919500437729 0 0.24658834009167641 0.5 0 0.27543196632210021 0.5 0 0.26198527678341299 0.48673919500437729 0 0.2480713074063006 0.45455858161591112 0 0.24517769652138269 0.43868647355565088 0 0.26777357876982372 0.45010753123404867 0 0.24517769652138269 0.43868647355565088 0 0.26777357876982372 0.45010753123404867 0 0.26600993858745892 0.42808938636359573 0 0.2480713074063006 0.45455858161591112 0 0.2508124586903176 0.47172026355836871 0 0.26777357876982372 0.45010753123404867 0 0.27585954767988607 0.47408041721782612 0 0.2508124586903176 0.47172026355836871 0 0.26777357876982372 0.45010753123404867 0 0.27585954767988607 0.47408041721782612 0 0.26777357876982372 0.45010753123404867 0 0.28975077836376328 0.45156795454144122 0 0.26777357876982372 0.45010753123404867 0 0.28975077836376328 0.45156795454144122 0 0.28607917402868899 0.43188291486824332 0 0.28975077836376328 0.45156795454144122 0 0.30610823095482448 0.43788140873538328 0 0.28607917402868899 0.43188291486824332 0 0.30059931196992168 0.47005809262963882 0 0.27585954767988607 0.47408041721782612 0 0.28975077836376328 0.45156795454144122 0 0.3263791186886712 0.4718105620932988 0 0.30059931196992168 0.47005809262963882 0 0.30909376894118562 0.45443190325323968 0 0.30059931196992168 0.47005809262963882 0 0.28975077836376328 0.45156795454144122 0 0.30909376894118562 0.45443190325323968 0 0.28975077836376328 0.45156795454144122 0 0.30909376894118562 0.45443190325323968 0 0.30610823095482448 0.43788140873538328 0 0.30610823095482448 0.43788140873538328 0 0.30869255759955722 0.41877018355733042 0 0.28607917402868899 0.43188291486824332 0 0.3075810200549029 0.4073564129674252 0 0.30869255759955722 0.41877018355733042 0 0.30232024370737348 0.40459188745546998 0 0.31142364564813352 0.41093370315849659 0 0.3075810200549029 0.4073564129674252 0 0.31015955469665918 0.40201373970895371 0 0.31142364564813352 0.41093370315849659 0 0.3075810200549029 0.4073564129674252 0 0.30869255759955722 0.41877018355733042 0 0.30869255759955722 0.41877018355733042 0 0.29605666041485018 0.40551048050067168 0 0.30232024370737348 0.40459188745546998 0 0.30869255759955722 0.41877018355733042 0 0.2819443595412231 0.40529087474680159 0 0.30869255759955722 0.41877018355733042 0 0.2819443595412231 0.40529087474680159 0 0.29605666041485018 0.40551048050067168 0 0.30869255759955722 0.41877018355733042 0 0.28607917402868899 0.43188291486824332 0 0.2819443595412231 0.40529087474680159 0 0.2490748840761759 0.41447913741323361 0 0.26600993858745892 0.42808938636359573 0 0.2819443595412231 0.40529087474680159 0 0.26777357876982372 0.45010753123404867 0 0.28607917402868899 0.43188291486824332 0 0.26600993858745892 0.42808938636359573 0 0.28607917402868899 0.43188291486824332 0 0.26600993858745892 0.42808938636359573 0 0.2819443595412231 0.40529087474680159 0 0.2490748840761759 0.41447913741323361 0 0.24517769652138269 0.43868647355565088 0 0.26600993858745892 0.42808938636359573 0 0.2490748840761759 0.41447913741323361 0 0.25519616148288887 0.39181156593627298 0 0.2819443595412231 0.40529087474680159 0 0.25519616148288887 0.39181156593627298 0 0.2618259464583832 0.36726095095448358 0 0.25519616148288887 0.39181156593627298 0 0.27405714121884811 0.38409687161834088 0 0.2618259464583832 0.36726095095448358 0 0.24305895760768401 0.36641304215893011 0 0.25519616148288887 0.39181156593627298 0 0.2618259464583832 0.36726095095448358 0 0.2490748840761759 0.41447913741323361 0 0.25519616148288887 0.39181156593627298 0 0.27405714121884811 0.38409687161834088 0 0.2819443595412231 0.40529087474680159 0 0.28762179706039948 0.39125587461843808 0 0.25519616148288887 0.39181156593627298 0 0.2819443595412231 0.40529087474680159 0 0.25519616148288887 0.39181156593627298 0 0.27405714121884811 0.38409687161834088 0 0.2819443595412231 0.40529087474680159 0 0.27405714121884811 0.38409687161834088 0 0.28403056220722062 0.37531448917755911 0 0.2737626695690904 0.37327007608818358 0 0.27405714121884811 0.38409687161834088 0 0.28403056220722062 0.37531448917755911 0 0.28762179706039948 0.39125587461843808 0 0.29405085274881382 0.37834813740539031 0 0.28762179706039948 0.39125587461843808 0 0.30049862001061489 0.39881078008944609 0 0.28403056220722062 0.37531448917755911 0 0.29405085274881382 0.37834813740539031 0 0.28762179706039948 0.39125587461843808 0 0.2819443595412231 0.40529087474680159 0 0.28762179706039948 0.39125587461843808 0 0.29316512877403511 0.40022580951085568 0 0.28762179706039948 0.39125587461843808 0 0.29316512877403511 0.40022580951085568 0 0.30049862001061489 0.39881078008944609 0 0.2819443595412231 0.40529087474680159 0 0.29316512877403511 0.40022580951085568 0 0.29605666041485018 0.40551048050067168 0 0.29316512877403511 0.40022580951085568 0 0.29605666041485018 0.40551048050067168 0 0.30042223720462058 0.4004666581126537 0 0.29605666041485018 0.40551048050067168 0 0.30232024370737348 0.40459188745546998 0 0.30042223720462058 0.4004666581126537 0 0.29316512877403511 0.40022580951085568 0 0.30042223720462058 0.4004666581126537 0 0.30049862001061489 0.39881078008944609 0 0.30042223720462058 0.4004666581126537 0 0.30049862001061489 0.39881078008944609 0 0.30232024370737348 0.40459188745546998 0 0.30049862001061489 0.39881078008944609 0 0.30232024370737348 0.40459188745546998 0 0.30049862001061489 0.39881078008944609 0 0.30430913302558388 0.40020258685778032 0 0.30232024370737348 0.40459188745546998 0 0.30042223720462058 0.4004666581126537 0 0.30049862001061489 0.39881078008944609 0 0.30049862001061489 0.39881078008944609 0 0.30098622665836988 0.38824011406760628 0 0.30049862001061489 0.39881078008944609 0 0.30430913302558388 0.40020258685778032 0 0.30098622665836988 0.38824011406760628 0 0.30098622665836988 0.38824011406760628 0 0.30110064445947421 0.38575968774854158 0 0.31262554991773928 0.39787599139405988 0 0.31015955469665918 0.40201373970895371 0 0.30098622665836988 0.38824011406760628 0 0.30110064445947421 0.38575968774854158 0 0.31262554991773928 0.39787599139405988 0 0.30430913302558388 0.40020258685778032 0 0.31015955469665918 0.40201373970895371 0 0.30098622665836988 0.38824011406760628 0 0.31015955469665918 0.40201373970895371 0 0.30098622665836988 0.38824011406760628 0 0.31262554991773928 0.39787599139405988 0 0.3075810200549029 0.4073564129674252 0 0.30232024370737348 0.40459188745546998 0 0.30430913302558388 0.40020258685778032 0 0.3075810200549029 0.4073564129674252 0 0.30430913302558388 0.40020258685778032 0 0.31015955469665918 0.40201373970895371 0 0.29405085274881382 0.37834813740539031 0 0.30049862001061489 0.39881078008944609 0 0.29405085274881382 0.37834813740539031 0 0.30049862001061489 0.39881078008944609 0 0.30098622665836988 0.38824011406760628 0 0.30110064445947421 0.38575968774854158 0 0.30177514978199971 0.3711373061071076 0 0.30110064445947421 0.38575968774854158 0 0.3104817065657739 0.3858680532317833 0 0.30177514978199971 0.3711373061071076 0 0.29405085274881382 0.37834813740539031 0 0.30110064445947421 0.38575968774854158 0 0.30177514978199971 0.3711373061071076 0 0.29405085274881382 0.37834813740539031 0 0.30110064445947421 0.38575968774854158 0 0.29405085274881382 0.37834813740539031 0 0.30098622665836988 0.38824011406760628 0 0.30110064445947421 0.38575968774854158 0 0.29405085274881382 0.37834813740539031 0 0.30098622665836988 0.38824011406760628 0 0.30098622665836988 0.38824011406760628 0 0.30110064445947421 0.38575968774854158 0 0.30110064445947421 0.38575968774854158 0 0.3104817065657739 0.3858680532317833 0 0.31262554991773928 0.39787599139405988 0 0.3104817065657739 0.3858680532317833 0 0.30177514978199971 0.3711373061071076 0 0.3104817065657739 0.3858680532317833 0 0.31717345926189522 0.3709258031848055 0 0.30177514978199971 0.3711373061071076 0 0.3104817065657739 0.3858680532317833 0 0.3376156911696272 0.37620073599141618 0 0.3104817065657739 0.3858680532317833 0 0.3376156911696272 0.37620073599141618 0 0.31717345926189522 0.3709258031848055 0 0.3104817065657739 0.3858680532317833 0 0.3376156911696272 0.37620073599141618 0 0.3351802944883514 0.39738750443412002 0 0.3376156911696272 0.37620073599141618 0 0.3351802944883514 0.39738750443412002 0 0.34879159400795012 0.38769315231290841 0 0.3351802944883514 0.39738750443412002 0 0.33658962428999861 0.41133204962483783 0 0.34988972217452752 0.40801784569160632 0 0.3351802944883514 0.39738750443412002 0 0.32415045537600512 0.40999229503957763 0 0.33658962428999861 0.41133204962483783 0 0.3351802944883514 0.39738750443412002 0 0.31909953512109351 0.40044867980609039 0 0.32415045537600512 0.40999229503957763 0 0.3104817065657739 0.3858680532317833 0 0.3351802944883514 0.39738750443412002 0 0.31909953512109351 0.40044867980609039 0 0.3104817065657739 0.3858680532317833 0 0.31909953512109351 0.40044867980609039 0 0.3104817065657739 0.3858680532317833 0 0.31262554991773928 0.39787599139405988 0 0.31909953512109351 0.40044867980609039 0 0.31262554991773928 0.39787599139405988 0 0.32415045537600512 0.40999229503957763 0 0.31015955469665918 0.40201373970895371 0 0.31262554991773928 0.39787599139405988 0 0.32415045537600512 0.40999229503957763 0 0.31262554991773928 0.39787599139405988 0 0.31909953512109351 0.40044867980609039 0 0.32415045537600512 0.40999229503957763 0 0.31015955469665918 0.40201373970895371 0 0.31933288273494848 0.41578736535030097 0 0.32415045537600512 0.40999229503957763 0 0.31142364564813352 0.41093370315849659 0 0.31015955469665918 0.40201373970895371 0 0.31933288273494848 0.41578736535030097 0 0.30869255759955722 0.41877018355733042 0 0.31933288273494848 0.41578736535030097 0 0.32906281765607392 0.42006619542527468 0 0.31015955469665918 0.40201373970895371 0 0.31933288273494848 0.41578736535030097 0 0.31142364564813352 0.41093370315849659 0 0.30869255759955722 0.41877018355733042 0 0.31933288273494848 0.41578736535030097 0 0.31933288273494848 0.41578736535030097 0 0.32415045537600512 0.40999229503957763 0 0.32906281765607392 0.42006619542527468 0 0.30869255759955722 0.41877018355733042 0 0.33457771181584611 0.43369686048393857 0 0.33544075565789128 0.43224949236785898 0 0.30869255759955722 0.41877018355733042 0 0.33544075565789128 0.43224949236785898 0 0.30610823095482448 0.43788140873538328 0 0.30869255759955722 0.41877018355733042 0 0.33457771181584611 0.43369686048393857 0 0.30869255759955722 0.41877018355733042 0 0.33544075565789128 0.43224949236785898 0 0.32906281765607392 0.42006619542527468 0 0.30610823095482448 0.43788140873538328 0 0.33457771181584611 0.43369686048393857 0 0.33457771181584611 0.43369686048393857 0 0.33544075565789128 0.43224949236785898 0 0.33746945485668051 0.4332718215327816 0 0.33457771181584611 0.43369686048393857 0 0.33544075565789128 0.43224949236785898 0 0.33544075565789128 0.43224949236785898 0 0.33746945485668051 0.4332718215327816 0 0.35001853239939229 0.42365555934674631 0 0.33544075565789128 0.43224949236785898 0 0.33746945485668051 0.4332718215327816 0 0.33457771181584611 0.43369686048393857 0 0.33746945485668051 0.4332718215327816 0 0.33544075565789128 0.43224949236785898 0 0.33658962428999861 0.41133204962483783 0 0.34988972217452752 0.40801784569160632 0 0.33544075565789128 0.43224949236785898 0 0.32906281765607392 0.42006619542527468 0 0.33658962428999861 0.41133204962483783 0 0.33544075565789128 0.43224949236785898 0 0.34988972217452752 0.40801784569160632 0 0.32415045537600512 0.40999229503957763 0 0.32906281765607392 0.42006619542527468 0 0.33658962428999861 0.41133204962483783 0 0.33544075565789128 0.43224949236785898 0 0.34988972217452752 0.40801784569160632 0 0.35001853239939229 0.42365555934674631 0 0.34988972217452752 0.40801784569160632 0 0.36165970526353591 0.41519797525725338 0 0.36412400085156282 0.39702719229323191 0 0.34988972217452752 0.40801784569160632 0 0.35001853239939229 0.42365555934674631 0 0.36165970526353591 0.41519797525725338 0 0.35494335133579169 0.44207750056399991 0 0.33746945485668051 0.4332718215327816 0 0.365542703577178 0.42914551292816783 0 0.33746945485668051 0.4332718215327816 0 0.35001853239939229 0.42365555934674631 0 0.365542703577178 0.42914551292816783 0 0.33746945485668051 0.4332718215327816 0 0.365542703577178 0.42914551292816783 0 0.35001853239939229 0.42365555934674631 0 0.365542703577178 0.42914551292816783 0 0.36165970526353591 0.41519797525725338 0 0.365542703577178 0.42914551292816783 0 0.36165970526353591 0.41519797525725338 0 0.37744029411777058 0.41252948965876268 0 0.36165970526353591 0.41519797525725338 0 0.36412400085156282 0.39702719229323191 0 0.37744029411777058 0.41252948965876268 0 0.36412400085156282 0.39702719229323191 0 0.38026367080056678 0.39066664182047522 0 0.37744029411777058 0.41252948965876268 0 0.34988972217452752 0.40801784569160632 0 0.36412400085156282 0.39702719229323191 0 0.36433868869116592 0.38378619901535488 0 0.36433868869116592 0.38378619901535488 0 0.3773824667175657 0.37546563606013739 0 0.38026367080056678 0.39066664182047522 0 0.36433868869116592 0.38378619901535488 0 0.36474967577348072 0.36653341875104961 0 0.3773824667175657 0.37546563606013739 0 0.36412400085156282 0.39702719229323191 0 0.36433868869116592 0.38378619901535488 0 0.38026367080056678 0.39066664182047522 0 0.36433868869116592 0.38378619901535488 0 0.36474967577348072 0.36653341875104961 0 0.36412400085156282 0.39702719229323191 0 0.36433868869116592 0.38378619901535488 0 0.3376156911696272 0.37620073599141618 0 0.34879159400795012 0.38769315231290841 0 0.36474967577348072 0.36653341875104961 0 0.36433868869116592 0.38378619901535488 0 0.34879159400795012 0.38769315231290841 0 0.36474967577348072 0.36653341875104961 0 0.3351802944883514 0.39738750443412002 0 0.34988972217452752 0.40801784569160632 0 0.34879159400795012 0.38769315231290841 0 0.34988972217452752 0.40801784569160632 0 0.36433868869116592 0.38378619901535488 0 0.34988972217452752 0.40801784569160632 0 0.36433868869116592 0.38378619901535488 0 0.34879159400795012 0.38769315231290841 0 0.34699100967064078 0.35539672769273539 0 0.36474967577348072 0.36653341875104961 0 0.36518945593320651 0.34509967395937191 0 0.34699100967064078 0.35539672769273539 0 0.36518945593320651 0.34509967395937191 0 0.348137396692076 0.34077307725183559 0 0.3376156911696272 0.37620073599141618 0 0.34699100967064078 0.35539672769273539 0 0.36474967577348072 0.36653341875104961 0 0.3376156911696272 0.37620073599141618 0 0.36474967577348072 0.36653341875104961 0 0.36474967577348072 0.36653341875104961 0 0.36518945593320651 0.34509967395937191 0 0.36474967577348072 0.36653341875104961 0 0.36518945593320651 0.34509967395937191 0 0.3855881021147175 0.35910908792858098 0 0.36518945593320651 0.34509967395937191 0 0.36562923609293069 0.32366592916769399 0 0.36518945593320651 0.34509967395937191 0 0.36562923609293069 0.32366592916769399 0 0.348137396692076 0.34077307725183559 0 0.36518945593320651 0.34509967395937191 0 0.36562923609293069 0.32366592916769399 0 0.38128435600444488 0.32837669887387311 0 0.36562923609293069 0.32366592916769399 0 0.36606901625265492 0.30223218437601618 0 0.38242981621443428 0.31397380775534678 0 0.36562923609293069 0.32366592916769399 0 0.36606901625265492 0.30223218437601618 0 0.36562923609293069 0.32366592916769399 0 0.34238706329751362 0.32476320095938682 0 0.35183379698966949 0.31056891257481539 0 0.36562923609293069 0.32366592916769399 0 0.348137396692076 0.34077307725183559 0 0.34238706329751362 0.32476320095938682 0 0.348137396692076 0.34077307725183559 0 0.33072504187423118 0.34237289876026822 0 0.34238706329751362 0.32476320095938682 0 0.33072504187423118 0.34237289876026822 0 0.34238706329751362 0.32476320095938682 0 0.32122702449841589 0.32177081607522939 0 0.34238706329751362 0.32476320095938682 0 0.33644502425256478 0.30910566618648461 0 0.35183379698966949 0.31056891257481539 0 0.34238706329751362 0.32476320095938682 0 0.32122702449841589 0.32177081607522939 0 0.33644502425256478 0.30910566618648461 0 0.32122702449841589 0.32177081607522939 0 0.31445651652981632 0.33878768779705848 0 0.30372390616191358 0.32889084998335888 0 0.33072504187423118 0.34237289876026822 0 0.32122702449841589 0.32177081607522939 0 0.31445651652981632 0.33878768779705848 0 0.33072504187423118 0.34237289876026822 0 0.31445651652981632 0.33878768779705848 0 0.31594857135045817 0.35062531106266931 0 0.33072504187423118 0.34237289876026822 0 0.31594857135045817 0.35062531106266931 0 0.32442852787466708 0.36030442639367111 0 0.31594857135045817 0.35062531106266931 0 0.32442852787466708 0.36030442639367111 0 0.31156622091740832 0.36111849420004938 0 0.34699100967064078 0.35539672769273539 0 0.348137396692076 0.34077307725183559 0 0.33072504187423118 0.34237289876026822 0 0.34699100967064078 0.35539672769273539 0 0.33072504187423118 0.34237289876026822 0 0.32442852787466708 0.36030442639367111 0 0.3376156911696272 0.37620073599141618 0 0.34699100967064078 0.35539672769273539 0 0.32442852787466708 0.36030442639367111 0 0.3376156911696272 0.37620073599141618 0 0.32442852787466708 0.36030442639367111 0 0.31717345926189522 0.3709258031848055 0 0.32442852787466708 0.36030442639367111 0 0.31717345926189522 0.3709258031848055 0 0.31156622091740832 0.36111849420004938 0 0.30177514978199971 0.3711373061071076 0 0.30274952797195698 0.35001407804523332 0 0.31717345926189522 0.3709258031848055 0 0.31156622091740832 0.36111849420004938 0 0.30177514978199971 0.3711373061071076 0 0.31156622091740832 0.36111849420004938 0 0.30177514978199971 0.3711373061071076 0 0.30274952797195698 0.35001407804523332 0 0.30177514978199971 0.3711373061071076 0 0.30274952797195698 0.35001407804523332 0 0.29106955940472562 0.3530243656434488 0 0.31445651652981632 0.33878768779705848 0 0.31594857135045817 0.35062531106266931 0 0.30274952797195698 0.35001407804523332 0 0.31594857135045817 0.35062531106266931 0 0.31156622091740832 0.36111849420004938 0 0.30274952797195698 0.35001407804523332 0 0.29106955940472562 0.3530243656434488 0 0.28705150305193838 0.35613499197806497 0 0.28036396902745148 0.33491142517978989 0 0.28705150305193838 0.35613499197806497 0 0.28036396902745148 0.33491142517978989 0 0.28705150305193838 0.35613499197806497 0 0.27644360280618341 0.34191623842927221 0 0.28036396902745148 0.33491142517978989 0 0.29106955940472562 0.3530243656434488 0 0.28036396902745148 0.33491142517978989 0 0.30274952797195698 0.35001407804523332 0 0.29106955940472562 0.3530243656434488 0 0.29374099595638509 0.3392252011883215 0 0.28705150305193838 0.35613499197806497 0 0.28458867991473008 0.36361942358965982 0 0.27543832275303448 0.34988028840297991 0 0.29405085274881382 0.37834813740539031 0 0.28705150305193838 0.35613499197806497 0 0.28458867991473008 0.36361942358965982 0 0.29405085274881382 0.37834813740539031 0 0.28705150305193838 0.35613499197806497 0 0.30177514978199971 0.3711373061071076 0 0.29106955940472562 0.3530243656434488 0 0.29405085274881382 0.37834813740539031 0 0.30177514978199971 0.3711373061071076 0 0.28705150305193838 0.35613499197806497 0 0.30177514978199971 0.3711373061071076 0 0.29106955940472562 0.3530243656434488 0 0.28705150305193838 0.35613499197806497 0 0.29405085274881382 0.37834813740539031 0 0.28458867991473008 0.36361942358965982 0 0.28403056220722062 0.37531448917755911 0 0.2815017213106239 0.3651550498314205 0 0.27898286169525299 0.37041503512408969 0 0.29405085274881382 0.37834813740539031 0 0.2815017213106239 0.3651550498314205 0 0.28403056220722062 0.37531448917755911 0 0.29405085274881382 0.37834813740539031 0 0.2815017213106239 0.3651550498314205 0 0.29405085274881382 0.37834813740539031 0 0.28458867991473008 0.36361942358965982 0 0.2815017213106239 0.3651550498314205 0 0.28403056220722062 0.37531448917755911 0 0.27898286169525299 0.37041503512408969 0 0.2737626695690904 0.37327007608818358 0 0.27663649369407689 0.36792052539919551 0 0.2737626695690904 0.37327007608818358 0 0.27125000512352843 0.36234153133647429 0 0.27405714121884811 0.38409687161834088 0 0.2737626695690904 0.37327007608818358 0 0.2618259464583832 0.36726095095448358 0 0.2815017213106239 0.3651550498314205 0 0.27898286169525299 0.37041503512408969 0 0.27663649369407689 0.36792052539919551 0 0.27898286169525299 0.37041503512408969 0 0.27663649369407689 0.36792052539919551 0 0.2737626695690904 0.37327007608818358 0 0.2737626695690904 0.37327007608818358 0 0.27125000512352843 0.36234153133647429 0 0.2618259464583832 0.36726095095448358 0 0.27125000512352843 0.36234153133647429 0 0.26895258987243392 0.3519619622574508 0 0.2618259464583832 0.36726095095448358 0 0.2815017213106239 0.3651550498314205 0 0.27125000512352843 0.36234153133647429 0 0.26895258987243392 0.3519619622574508 0 0.2815017213106239 0.3651550498314205 0 0.27663649369407689 0.36792052539919551 0 0.27125000512352843 0.36234153133647429 0 0.28458867991473008 0.36361942358965982 0 0.2815017213106239 0.3651550498314205 0 0.27543832275303448 0.34988028840297991 0 0.2815017213106239 0.3651550498314205 0 0.26895258987243392 0.3519619622574508 0 0.28458867991473008 0.36361942358965982 0 0.27543832275303448 0.34988028840297991 0 0.26895258987243392 0.3519619622574508 0 0.2618259464583832 0.36726095095448358 0 0.2684557314338783 0.34271033597269462 0 0.2815017213106239 0.3651550498314205 0 0.27543832275303448 0.34988028840297991 0 0.26895258987243392 0.3519619622574508 0 0.28705150305193838 0.35613499197806497 0 0.27543832275303448 0.34988028840297991 0 0.27644360280618341 0.34191623842927221 0 0.27543832275303448 0.34988028840297991 0 0.2684557314338783 0.34271033597269462 0 0.27644360280618341 0.34191623842927221 0 0.27543832275303448 0.34988028840297991 0 0.26895258987243392 0.3519619622574508 0 0.2684557314338783 0.34271033597269462 0 0.2618259464583832 0.36726095095448358 0 0.2684557314338783 0.34271033597269462 0 0.24521693247762111 0.35027114815259558 0 0.2618259464583832 0.36726095095448358 0 0.2684557314338783 0.34271033597269462 0 0.24305895760768401 0.36641304215893011 0 0.24521693247762111 0.35027114815259558 0 0.2618259464583832 0.36726095095448358 0 0.24490867605631639 0.32967072069511189 0 0.26050839607327853 0.32387463406168998 0 0.25114017462525878 0.31153615041935723 0 0.26050839607327853 0.32387463406168998 0 0.25114017462525878 0.31153615041935723 0 0.26342424027676908 0.31148804944983333 0 0.24490867605631639 0.32967072069511189 0 0.26050839607327853 0.32387463406168998 0 0.2684557314338783 0.34271033597269462 0 0.24490867605631639 0.32967072069511189 0 0.24521693247762111 0.35027114815259558 0 0.2684557314338783 0.34271033597269462 0 0.26050839607327853 0.32387463406168998 0 0.2684557314338783 0.34271033597269462 0 0.27508551640937329 0.31815972099090539 0 0.2684557314338783 0.34271033597269462 0 0.27508551640937329 0.31815972099090539 0 0.2684557314338783 0.34271033597269462 0 0.27787730485363338 0.33070420273373929 0 0.27508551640937329 0.31815972099090539 0 0.2684557314338783 0.34271033597269462 0 0.27644360280618341 0.34191623842927221 0 0.27787730485363338 0.33070420273373929 0 0.27644360280618341 0.34191623842927221 0 0.28036396902745148 0.33491142517978989 0 0.27787730485363338 0.33070420273373929 0 0.28036396902745148 0.33491142517978989 0 0.27787730485363338 0.33070420273373929 0 0.28036396902745148 0.33491142517978989 0 0.27787730485363338 0.33070420273373929 0 0.27508551640937329 0.31815972099090539 0 0.28036396902745148 0.33491142517978989 0 0.27508551640937329 0.31815972099090539 0 0.26050839607327853 0.32387463406168998 0 0.27508551640937329 0.31815972099090539 0 0.26342424027676908 0.31148804944983333 0 0.27584787744150779 0.31533663815394608 0 0.27508551640937329 0.31815972099090539 0 0.2839587577339367 0.31315639516335231 0 0.27584787744150779 0.31533663815394608 0 0.27508551640937329 0.31815972099090539 0 0.28036396902745148 0.33491142517978989 0 0.27508551640937329 0.31815972099090539 0 0.28884331716543121 0.32432796479040632 0 0.27508551640937329 0.31815972099090539 0 0.2839587577339367 0.31315639516335231 0 0.28884331716543121 0.32432796479040632 0 0.2839587577339367 0.31315639516335231 0 0.28884331716543121 0.32432796479040632 0 0.29436859405188742 0.31561290386725788 0 0.28884331716543121 0.32432796479040632 0 0.29436859405188742 0.31561290386725788 0 0.30372390616191358 0.32889084998335888 0 0.29106955940472562 0.3530243656434488 0 0.28036396902745148 0.33491142517978989 0 0.29374099595638509 0.3392252011883215 0 0.28036396902745148 0.33491142517978989 0 0.28884331716543121 0.32432796479040632 0 0.29374099595638509 0.3392252011883215 0 0.28884331716543121 0.32432796479040632 0 0.29374099595638509 0.3392252011883215 0 0.30372390616191358 0.32889084998335888 0 0.30274952797195698 0.35001407804523332 0 0.29374099595638509 0.3392252011883215 0 0.30372390616191358 0.32889084998335888 0 0.31445651652981632 0.33878768779705848 0 0.30274952797195698 0.35001407804523332 0 0.30372390616191358 0.32889084998335888 0 0.30274952797195698 0.35001407804523332 0 0.30372390616191358 0.32889084998335888 0 0.29436859405188742 0.31561290386725788 0 0.30372390616191358 0.32889084998335888 0 0.30469828435187041 0.30776762192148471 0 0.32122702449841589 0.32177081607522939 0 0.30372390616191358 0.32889084998335888 0 0.30469828435187041 0.30776762192148471 0 0.30372390616191358 0.32889084998335888 0 0.30469828435187041 0.30776762192148471 0 0.30469828435187041 0.30776762192148471 0 0.29887142377560671 0.29447355700322281 0 0.31975384086217118 0.29390073052843008 0 0.30469828435187041 0.30776762192148471 0 0.29887142377560671 0.29447355700322281 0 0.29061870484628499 0.30392168747768772 0 0.29887142377560671 0.29447355700322281 0 0.29803417524575498 0.27809430922643119 0 0.31975384086217118 0.29390073052843008 0 0.29887142377560671 0.29447355700322281 0 0.28125211357195179 0.28868343586208051 0 0.29803417524575498 0.27809430922643119 0 0.29887142377560671 0.29447355700322281 0 0.28125211357195179 0.28868343586208051 0 0.29061870484628499 0.30392168747768772 0 0.29436859405188742 0.31561290386725788 0 0.30469828435187041 0.30776762192148471 0 0.29061870484628499 0.30392168747768772 0 0.2839587577339367 0.31315639516335231 0 0.29436859405188742 0.31561290386725788 0 0.29061870484628499 0.30392168747768772 0 0.28125211357195179 0.28868343586208051 0 0.29061870484628499 0.30392168747768772 0 0.27979091010679558 0.3031930520058399 0 0.2839587577339367 0.31315639516335231 0 0.29061870484628499 0.30392168747768772 0 0.27979091010679558 0.3031930520058399 0 0.27584787744150779 0.31533663815394608 0 0.2839587577339367 0.31315639516335231 0 0.27979091010679558 0.3031930520058399 0 0.27584787744150779 0.31533663815394608 0 0.27979091010679558 0.3031930520058399 0 0.26696287399916629 0.2923816923273807 0 0.27508551640937329 0.31815972099090539 0 0.26696287399916629 0.2923816923273807 0 0.27508551640937329 0.31815972099090539 0 0.26696287399916629 0.2923816923273807 0 0.26342424027676908 0.31148804944983333 0 0.27584787744150779 0.31533663815394608 0 0.27508551640937329 0.31815972099090539 0 0.26696287399916629 0.2923816923273807 0 0.28125211357195179 0.28868343586208051 0 0.26696287399916629 0.2923816923273807 0 0.26185531842249993 0.2787869231154117 0 0.28125211357195179 0.28868343586208051 0 0.27979091010679558 0.3031930520058399 0 0.26696287399916629 0.2923816923273807 0 0.2454028482605469 0.29267792886045368 0 0.26696287399916629 0.2923816923273807 0 0.26185531842249993 0.2787869231154117 0 0.24818821145747599 0.27522177653690871 0 0.2454028482605469 0.29267792886045368 0 0.26185531842249993 0.2787869231154117 0 0.26696287399916629 0.2923816923273807 0 0.25114017462525878 0.31153615041935723 0 0.26342424027676908 0.31148804944983333 0 0.2454028482605469 0.29267792886045368 0 0.26696287399916629 0.2923816923273807 0 0.25114017462525878 0.31153615041935723 0 0.25404003316197471 0.25208422786308371 0 0.25530776412370298 0.26639583896058622 0 0.27103688063193948 0.26427270241964718 0 0.24090080429007341 0.26281353644332878 0 0.25404003316197471 0.25208422786308371 0 0.25530776412370298 0.26639583896058622 0 0.25530776412370298 0.26639583896058622 0 0.26185531842249993 0.2787869231154117 0 0.27103688063193948 0.26427270241964718 0 0.24818821145747599 0.27522177653690871 0 0.25530776412370298 0.26639583896058622 0 0.26185531842249993 0.2787869231154117 0 0.28125211357195179 0.28868343586208051 0 0.26185531842249993 0.2787869231154117 0 0.27103688063193948 0.26427270241964718 0 0.25404003316197471 0.25208422786308371 0 0.27103688063193948 0.26427270241964718 0 0.27355486584907379 0.24364475180805101 0 0.27103688063193948 0.26427270241964718 0 0.29692855903906679 0.25537037528416417 0 0.27355486584907379 0.24364475180805101 0 0.27103688063193948 0.26427270241964718 0 0.29803417524575498 0.27809430922643119 0 0.29692855903906679 0.25537037528416417 0 0.28125211357195179 0.28868343586208051 0 0.27103688063193948 0.26427270241964718 0 0.29803417524575498 0.27809430922643119 0 0.29803417524575498 0.27809430922643119 0 0.29692855903906679 0.25537037528416417 0 0.32239972953691409 0.26902358330948362 0 0.29692855903906679 0.25537037528416417 0 0.32239972953691409 0.26902358330948362 0 0.32448256229391081 0.244023600812113 0 0.34859232732963041 0.2656914204712259 0 0.32448256229391081 0.244023600812113 0 0.35052125483258301 0.2434514759103418 0 0.32239972953691409 0.26902358330948362 0 0.34859232732963041 0.2656914204712259 0 0.32448256229391081 0.244023600812113 0 0.32239972953691409 0.26902358330948362 0 0.34580587121379802 0.29027056413174801 0 0.34859232732963041 0.2656914204712259 0 0.32239972953691409 0.26902358330948362 0 0.34859232732963041 0.2656914204712259 0 0.29803417524575498 0.27809430922643119 0 0.32239972953691409 0.26902358330948362 0 0.31975384086217118 0.29390073052843008 0 0.32122702449841589 0.32177081607522939 0 0.30469828435187041 0.30776762192148471 0 0.31975384086217118 0.29390073052843008 0 0.32122702449841589 0.32177081607522939 0 0.31975384086217118 0.29390073052843008 0 0.33644502425256478 0.30910566618648461 0 0.31975384086217118 0.29390073052843008 0 0.33644502425256478 0.30910566618648461 0 0.34580587121379802 0.29027056413174801 0 0.32239972953691409 0.26902358330948362 0 0.31975384086217118 0.29390073052843008 0 0.34580587121379802 0.29027056413174801 0 0.34580587121379802 0.29027056413174801 0 0.35183379698966949 0.31056891257481539 0 0.36606901625265492 0.30223218437601618 0 0.33644502425256478 0.30910566618648461 0 0.34580587121379802 0.29027056413174801 0 0.35183379698966949 0.31056891257481539 0 0.36562923609293069 0.32366592916769399 0 0.35183379698966949 0.31056891257481539 0 0.36606901625265492 0.30223218437601618 0 0.36606901625265492 0.30223218437601618 0 0.37288852905391068 0.28307277276217568 0 0.38313639778678782 0.29894980138166888 0 0.34580587121379802 0.29027056413174801 0 0.36606901625265492 0.30223218437601618 0 0.37288852905391068 0.28307277276217568 0 0.37288852905391068 0.28307277276217568 0 0.37478492512234668 0.26235925763296819 0 0.34859232732963041 0.2656914204712259 0 0.37478492512234668 0.26235925763296819 0 0.34859232732963041 0.2656914204712259 0 0.37478492512234668 0.26235925763296819 0 0.34859232732963041 0.2656914204712259 0 0.35052125483258301 0.2434514759103418 0 0.34580587121379802 0.29027056413174801 0 0.37288852905391068 0.28307277276217568 0 0.34859232732963041 0.2656914204712259 0 0.40237095019481112 0.27711100542787093 0 0.40097752291506289 0.25902709479471048 0 0.38795285511664351 0.27501277358291848 0 0.40237095019481112 0.27711100542787093 0 0.38795285511664351 0.27501277358291848 0 0.39245341439736259 0.28869000139839213 0 0.37478492512234668 0.26235925763296819 0 0.40097752291506289 0.25902709479471048 0 0.37478492512234668 0.26235925763296819 0 0.40097752291506289 0.25902709479471048 0 0.38795285511664351 0.27501277358291848 0 0.37478492512234668 0.26235925763296819 0 0.40097752291506289 0.25902709479471048 0 0.39333580902427501 0.24081282939082621 0 0.37288852905391068 0.28307277276217568 0 0.37478492512234668 0.26235925763296819 0 0.38795285511664351 0.27501277358291848 0 0.37288852905391068 0.28307277276217568 0 0.38795285511664351 0.27501277358291848 0 0.39245341439736259 0.28869000139839213 0 0.37288852905391068 0.28307277276217568 0 0.38313639778678782 0.29894980138166888 0 0.39245341439736259 0.28869000139839213 0 0.38313639778678782 0.29894980138166888 0 0.40184121301557668 0.30678024061641418 0 0.38242981621443428 0.31397380775534678 0 0.36606901625265492 0.30223218437601618 0 0.38313639778678782 0.29894980138166888 0 0.38242981621443428 0.31397380775534678 0 0.38313639778678782 0.29894980138166888 0 0.40184121301557668 0.30678024061641418 0 0.39245341439736259 0.28869000139839213 0 0.40184121301557668 0.30678024061641418 0 0.39245341439736259 0.28869000139839213 0 0.4080647950624654 0.29173952990842672 0 0.40237095019481112 0.27711100542787093 0 0.39245341439736259 0.28869000139839213 0 0.4080647950624654 0.29173952990842672 0 0.4080647950624654 0.29173952990842672 0 0.42111158276914429 0.29961990628964941 0 0.41801819212357011 0.2740782959756311 0 0.42111158276914429 0.29961990628964941 0 0.41801819212357011 0.2740782959756311 0 0.42111158276914429 0.29961990628964941 0 0.41431845905081632 0.31211616404088999 0 0.42420497341471841 0.32516151660366771 0 0.40184121301557668 0.30678024061641418 0 0.41169384258873692 0.3030193229363472 0 0.41431845905081632 0.31211616404088999 0 0.4080647950624654 0.29173952990842672 0 0.41169384258873692 0.3030193229363472 0 0.42111158276914429 0.29961990628964941 0 0.40184121301557668 0.30678024061641418 0 0.4080647950624654 0.29173952990842672 0 0.41169384258873692 0.3030193229363472 0 0.41169384258873692 0.3030193229363472 0 0.42111158276914429 0.29961990628964941 0 0.41431845905081632 0.31211616404088999 0 0.42111158276914429 0.29961990628964941 0 0.42420497341471841 0.32516151660366771 0 0.42111158276914429 0.29961990628964941 0 0.42968026012840121 0.30115694743242971 0 0.43130474666914309 0.31304161877190062 0 0.42968026012840121 0.30115694743242971 0 0.44258646999382029 0.30990113159980692 0 0.42968026012840121 0.30115694743242971 0 0.44258646999382029 0.30990113159980692 0 0.43130474666914309 0.31304161877190062 0 0.42111158276914429 0.29961990628964941 0 0.42800801910193731 0.28582653817902792 0 0.41801819212357011 0.2740782959756311 0 0.42968026012840121 0.30115694743242971 0 0.42800801910193731 0.28582653817902792 0 0.44797459424715858 0.28113195035900113 0 0.42111158276914429 0.29961990628964941 0 0.42968026012840121 0.30115694743242971 0 0.42800801910193731 0.28582653817902792 0 0.4349067289361882 0.26981889711766149 0 0.41801819212357011 0.2740782959756311 0 0.42717012070777932 0.25569493195645271 0 0.42800801910193731 0.28582653817902792 0 0.4349067289361882 0.26981889711766149 0 0.44797459424715858 0.28113195035900113 0 0.42800801910193731 0.28582653817902792 0 0.4349067289361882 0.26981889711766149 0 0.41801819212357011 0.2740782959756311 0 0.40237095019481112 0.27711100542787093 0 0.4080647950624654 0.29173952990842672 0 0.41801819212357011 0.2740782959756311 0 0.40237095019481112 0.27711100542787093 0 0.40097752291506289 0.25902709479471048 0 0.41801819212357011 0.2740782959756311 0 0.40097752291506289 0.25902709479471048 0 0.42717012070777932 0.25569493195645271 0 0.40097752291506289 0.25902709479471048 0 0.41801819212357011 0.2740782959756311 0 0.42717012070777932 0.25569493195645271 0 0.40097752291506289 0.25902709479471048 0 0.42717012070777932 0.25569493195645271 0 0.41286841049430861 0.24788583003777651 0 0.42717012070777932 0.25569493195645271 0 0.45336271850049548 0.25236276911819511 0 0.42717012070777932 0.25569493195645271 0 0.45336271850049548 0.25236276911819511 0 0.44134696414428898 0.24814556957704689 0 0.4349067289361882 0.26981889711766149 0 0.42717012070777932 0.25569493195645271 0 0.45336271850049548 0.25236276911819511 0 0.44797459424715858 0.28113195035900113 0 0.45336271850049548 0.25236276911819511 0 0.4349067289361882 0.26981889711766149 0 0.44797459424715858 0.28113195035900113 0 0.45336271850049548 0.25236276911819511 0 0.44797459424715858 0.28113195035900113 0 0.46860043072286323 0.26090172283992602 0 0.47518926652314969 0.27560515809727743 0 0.44797459424715858 0.28113195035900113 0 0.45336271850049548 0.25236276911819511 0 0.46860043072286323 0.26090172283992602 0 0.45336271850049548 0.25236276911819511 0 0.46860043072286323 0.26090172283992602 0 0.48180965237011408 0.2487438147612096 0 0.45336271850049548 0.25236276911819511 0 0.48180965237011408 0.2487438147612096 0 0.46860043072286323 0.26090172283992602 0 0.48241006781490819 0.26268970127635521 0 0.48180965237011408 0.2487438147612096 0 0.46860043072286323 0.26090172283992602 0 0.48241006781490819 0.26268970127635521 0 0.47518926652314969 0.27560515809727743 0 0.48241006781490819 0.26268970127635521 0 0.47518926652314969 0.27560515809727743 0 0.48864569132575902 0.27555399191102209 0 0.48864569132575902 0.27555399191102209 0 0.5 0.25788891558126559 0 0.5 0.28784398070901179 0 0.48241006781490819 0.26268970127635521 0 0.5 0.25788891558126559 0 0.48180965237011408 0.2487438147612096 0 0.48241006781490819 0.26268970127635521 0 0.48864569132575902 0.27555399191102209 0 0.5 0.25788891558126559 0 0.49687855588093471 0.30562269631142192 0 0.5 0.28784398070901179 0 0.5 0.31779904583675789 0 0.48491490847636098 0.30901068293115042 0 0.49687855588093471 0.30562269631142192 0 0.48562912229073679 0.29374220389120048 0 0.48491490847636098 0.30901068293115042 0 0.49687855588093471 0.30562269631142192 0 0.48893996521802741 0.32077530068026477 0 0.48864569132575902 0.27555399191102209 0 0.5 0.28784398070901179 0 0.48562912229073679 0.29374220389120048 0 0.49687855588093471 0.30562269631142192 0 0.5 0.28784398070901179 0 0.48562912229073679 0.29374220389120048 0 0.47518926652314969 0.27560515809727743 0 0.48864569132575902 0.27555399191102209 0 0.48562912229073679 0.29374220389120048 0 0.47518926652314969 0.27560515809727743 0 0.48562912229073679 0.29374220389120048 0 0.46816558308298489 0.29083511245767268 0 0.48562912229073679 0.29374220389120048 0 0.47222103054853309 0.30536857664361422 0 0.46816558308298489 0.29083511245767268 0 0.48491490847636098 0.30901068293115042 0 0.48562912229073679 0.29374220389120048 0 0.47222103054853309 0.30536857664361422 0 0.48491490847636098 0.30901068293115042 0 0.47222103054853309 0.30536857664361422 0 0.47648252662976798 0.31886183994020412 0 0.47222103054853309 0.30536857664361422 0 0.45866337291811637 0.30169365927876157 0 0.46179392227446953 0.32291451832445861 0 0.45866337291811637 0.30169365927876157 0 0.44258646999382029 0.30990113159980692 0 0.46179392227446953 0.32291451832445861 0 0.47222103054853309 0.30536857664361422 0 0.45866337291811637 0.30169365927876157 0 0.46816558308298489 0.29083511245767268 0 0.44797459424715858 0.28113195035900113 0 0.45866337291811637 0.30169365927876157 0 0.46816558308298489 0.29083511245767268 0 0.44797459424715858 0.28113195035900113 0 0.47518926652314969 0.27560515809727743 0 0.46816558308298489 0.29083511245767268 0 0.44797459424715858 0.28113195035900113 0 0.44258646999382029 0.30990113159980692 0 0.42968026012840121 0.30115694743242971 0 0.44797459424715858 0.28113195035900113 0 0.44258646999382029 0.30990113159980692 0 0.44797459424715858 0.28113195035900113 0 0.45866337291811637 0.30169365927876157 0 0.44258646999382029 0.30990113159980692 0 0.44258646999382029 0.30990113159980692 0 0.46179392227446953 0.32291451832445861 0 0.44258646999382029 0.30990113159980692 0 0.43894044703962998 0.32936859193394902 0 0.46179392227446953 0.32291451832445861 0 0.44258646999382029 0.30990113159980692 0 0.43894044703962998 0.32936859193394902 0 0.44258646999382029 0.30990113159980692 0 0.43894044703962998 0.32936859193394902 0 0.43130474666914309 0.31304161877190062 0 0.43894044703962998 0.32936859193394902 0 0.45181909328986353 0.33594590439129729 0 0.43529442408543872 0.34883605226809089 0 0.43894044703962998 0.32936859193394902 0 0.45181909328986353 0.33594590439129729 0 0.46179392227446953 0.32291451832445861 0 0.45181909328986353 0.33594590439129729 0 0.46495921083649527 0.33796731498031379 0 0.45493863887308472 0.34850758154427958 0 0.45181909328986353 0.33594590439129729 0 0.46495921083649527 0.33796731498031379 0 0.46179392227446953 0.32291451832445861 0 0.47648252662976798 0.31886183994020412 0 0.48100137455512032 0.33592790504910791 0 0.48893996521802741 0.32077530068026477 0 0.46179392227446953 0.32291451832445861 0 0.47648252662976798 0.31886183994020412 0 0.48100137455512032 0.33592790504910791 0 0.47222103054853309 0.30536857664361422 0 0.46179392227446953 0.32291451832445861 0 0.47648252662976798 0.31886183994020412 0 0.48491490847636098 0.30901068293115042 0 0.47648252662976798 0.31886183994020412 0 0.48893996521802741 0.32077530068026477 0 0.46179392227446953 0.32291451832445861 0 0.48100137455512032 0.33592790504910791 0 0.46495921083649527 0.33796731498031379 0 0.48100137455512032 0.33592790504910791 0 0.47458285366073072 0.34817911082046721 0 0.46495921083649527 0.33796731498031379 0 0.46179392227446953 0.32291451832445861 0 0.48100137455512032 0.33592790504910791 0 0.48100137455512032 0.33592790504910791 0 0.47458285366073072 0.34817911082046721 0 0.48100137455512032 0.33592790504910791 0 0.48893996521802741 0.32077530068026477 0 0.48100137455512032 0.33592790504910791 0 0.4984937498586452 0.34777929695842291 0 0.5 0.31779904583675789 0 0.48893996521802741 0.32077530068026477 0 0.4984937498586452 0.34777929695842291 0 0.5 0.31779904583675789 0 0.4984937498586452 0.34777929695842291 0 0.50000000000000433 0.34775411096450393 0 0.48100137455512032 0.33592790504910791 0 0.48893996521802741 0.32077530068026477 0 0.4984937498586452 0.34777929695842291 0 0.49687855588093471 0.30562269631142192 0 0.48893996521802741 0.32077530068026477 0 0.49687855588093471 0.30562269631142192 0 0.5 0.31779904583675789 0 0.48893996521802741 0.32077530068026477 0 0.5 0.37175840028027313 0 0.48688174284785979 0.35971936811564431 0 0.50000000000000433 0.34775411096450393 0 0.5 0.37175840028027313 0 0.48688174284785979 0.35971936811564431 0 0.48177296974371542 0.3780796821533936 0 0.48100137455512032 0.33592790504910791 0 0.4984937498586452 0.34777929695842291 0 0.47458285366073072 0.34817911082046721 0 0.48688174284785979 0.35971936811564431 0 0.4984937498586452 0.34777929695842291 0 0.47458285366073072 0.34817911082046721 0 0.48688174284785979 0.35971936811564431 0 0.4984937498586452 0.34777929695842291 0 0.50000000000000433 0.34775411096450393 0 0.4984937498586452 0.34777929695842291 0 0.47458285366073072 0.34817911082046721 0 0.4984937498586452 0.34777929695842291 0 0.50000000000000433 0.34775411096450393 0 0.48688174284785979 0.35971936811564431 0 0.47458285366073072 0.34817911082046721 0 0.46644088382406917 0.36371991056145853 0 0.47458285366073072 0.34817911082046721 0 0.46644088382406917 0.36371991056145853 0 0.46644088382406917 0.36371991056145853 0 0.45829891398740957 0.37926071030245079 0 0.48177296974371542 0.3780796821533936 0 0.48688174284785979 0.35971936811564431 0 0.46644088382406917 0.36371991056145853 0 0.48177296974371542 0.3780796821533936 0 0.46644088382406917 0.36371991056145853 0 0.45829891398740957 0.37926071030245079 0 0.46644088382406917 0.36371991056145853 0 0.45450488254489102 0.36219879314378839 0 0.45829891398740957 0.37926071030245079 0 0.46495921083649527 0.33796731498031379 0 0.47458285366073072 0.34817911082046721 0 0.45493863887308472 0.34850758154427958 0 0.47458285366073072 0.34817911082046721 0 0.45493863887308472 0.34850758154427958 0 0.47458285366073072 0.34817911082046721 0 0.46644088382406917 0.36371991056145853 0 0.45493863887308472 0.34850758154427958 0 0.46644088382406917 0.36371991056145853 0 0.45450488254489102 0.36219879314378839 0 0.45493863887308472 0.34850758154427958 0 0.45181909328986353 0.33594590439129729 0 0.45493863887308472 0.34850758154427958 0 0.43529442408543872 0.34883605226809089 0 0.45493863887308472 0.34850758154427958 0 0.44448268479035308 0.35511800724889642 0 0.43529442408543872 0.34883605226809089 0 0.45493863887308472 0.34850758154427958 0 0.43529442408543872 0.34883605226809089 0 0.45450488254489102 0.36219879314378839 0 0.45493863887308472 0.34850758154427958 0 0.44448268479035308 0.35511800724889642 0 0.44448268479035308 0.35511800724889642 0 0.44279863902385319 0.36498191861006751 0 0.43487683942449812 0.35106569067825599 0 0.44448268479035308 0.35511800724889642 0 0.43529442408543872 0.34883605226809089 0 0.43487683942449812 0.35106569067825599 0 0.45450488254489102 0.36219879314378839 0 0.44279863902385319 0.36498191861006751 0 0.45829891398740957 0.37926071030245079 0 0.44279863902385319 0.36498191861006751 0 0.45829891398740957 0.37926071030245079 0 0.45450488254489102 0.36219879314378839 0 0.44448268479035308 0.35511800724889642 0 0.44279863902385319 0.36498191861006751 0 0.42892444364691579 0.3641293946929936 0 0.42225433889660879 0.37545697575276449 0 0.43605286711449009 0.38080977408974359 0 0.44279863902385319 0.36498191861006751 0 0.42892444364691579 0.3641293946929936 0 0.43605286711449009 0.38080977408974359 0 0.44279863902385319 0.36498191861006751 0 0.42892444364691579 0.3641293946929936 0 0.42729836406029548 0.35070312691768563 0 0.42892444364691579 0.3641293946929936 0 0.41660844069210962 0.35988002802349189 0 0.42225433889660879 0.37545697575276449 0 0.41660844069210962 0.35988002802349189 0 0.40918213701441342 0.3736144609854074 0 0.42225433889660879 0.37545697575276449 0 0.41660844069210962 0.35988002802349189 0 0.40918213701441342 0.3736144609854074 0 0.40205795884979889 0.36380219258680641 0 0.40642652845595439 0.35168475710611302 0 0.41593005466970517 0.35003896004439389 0 0.41338688547046137 0.33788792813028518 0 0.41660844069210962 0.35988002802349189 0 0.40642652845595439 0.35168475710611302 0 0.40205795884979889 0.36380219258680641 0 0.41660844069210962 0.35988002802349189 0 0.40642652845595439 0.35168475710611302 0 0.41593005466970517 0.35003896004439389 0 0.41660844069210962 0.35988002802349189 0 0.41593005466970517 0.35003896004439389 0 0.42729836406029548 0.35070312691768563 0 0.42729836406029548 0.35070312691768563 0 0.41338688547046137 0.33788792813028518 0 0.41593005466970517 0.35003896004439389 0 0.42729836406029548 0.35070312691768563 0 0.41338688547046137 0.33788792813028518 0 0.42892444364691579 0.3641293946929936 0 0.41660844069210962 0.35988002802349189 0 0.42729836406029548 0.35070312691768563 0 0.42892444364691579 0.3641293946929936 0 0.42729836406029548 0.35070312691768563 0 0.44279863902385319 0.36498191861006751 0 0.42729836406029548 0.35070312691768563 0 0.43487683942449812 0.35106569067825599 0 0.44279863902385319 0.36498191861006751 0 0.42729836406029548 0.35070312691768563 0 0.43109136567724748 0.3489063315667284 0 0.43529442408543872 0.34883605226809089 0 0.42729836406029548 0.35070312691768563 0 0.43109136567724748 0.3489063315667284 0 0.43487683942449812 0.35106569067825599 0 0.43109136567724748 0.3489063315667284 0 0.43529442408543872 0.34883605226809089 0 0.43487683942449812 0.35106569067825599 0 0.43529442408543872 0.34883605226809089 0 0.43487683942449812 0.35106569067825599 0 0.42729836406029548 0.35070312691768563 0 0.42420497341471841 0.32516151660366771 0 0.43894044703962998 0.32936859193394902 0 0.43529442408543872 0.34883605226809089 0 0.43894044703962998 0.32936859193394902 0 0.43109136567724748 0.3489063315667284 0 0.43529442408543872 0.34883605226809089 0 0.42729836406029548 0.35070312691768563 0 0.43109136567724748 0.3489063315667284 0 0.42420497341471841 0.32516151660366771 0 0.43894044703962998 0.32936859193394902 0 0.43109136567724748 0.3489063315667284 0 0.42420497341471841 0.32516151660366771 0 0.43894044703962998 0.32936859193394902 0 0.43130474666914309 0.31304161877190062 0 0.42420497341471841 0.32516151660366771 0 0.42111158276914429 0.29961990628964941 0 0.43130474666914309 0.31304161877190062 0 0.42420497341471841 0.32516151660366771 0 0.40184121301557668 0.30678024061641418 0 0.41431845905081632 0.31211616404088999 0 0.41140534993910638 0.32360132811636988 0 0.41431845905081632 0.31211616404088999 0 0.42420497341471841 0.32516151660366771 0 0.41140534993910638 0.32360132811636988 0 0.42729836406029548 0.35070312691768563 0 0.42420497341471841 0.32516151660366771 0 0.41338688547046137 0.33788792813028518 0 0.42420497341471841 0.32516151660366771 0 0.41140534993910638 0.32360132811636988 0 0.41338688547046137 0.33788792813028518 0 0.41140534993910638 0.32360132811636988 0 0.41338688547046137 0.33788792813028518 0 0.39947540688062583 0.32507272934288628 0 0.41338688547046137 0.33788792813028518 0 0.39947540688062583 0.32507272934288628 0 0.40642652845595439 0.35168475710611302 0 0.41338688547046137 0.33788792813028518 0 0.39105145014164849 0.3414869239971704 0 0.41338688547046137 0.33788792813028518 0 0.39105145014164849 0.3414869239971704 0 0.39947540688062583 0.32507272934288628 0 0.40184121301557668 0.30678024061641418 0 0.41140534993910638 0.32360132811636988 0 0.39947540688062583 0.32507272934288628 0 0.40184121301557668 0.30678024061641418 0 0.39947540688062583 0.32507272934288628 0 0.38242981621443428 0.31397380775534678 0 0.36562923609293069 0.32366592916769399 0 0.38242981621443428 0.31397380775534678 0 0.38128435600444488 0.32837669887387311 0 0.39947540688062583 0.32507272934288628 0 0.38242981621443428 0.31397380775534678 0 0.38128435600444488 0.32837669887387311 0 0.39105145014164849 0.3414869239971704 0 0.39947540688062583 0.32507272934288628 0 0.38128435600444488 0.32837669887387311 0 0.36518945593320651 0.34509967395937191 0 0.39105145014164849 0.3414869239971704 0 0.38128435600444488 0.32837669887387311 0 0.36518945593320651 0.34509967395937191 0 0.39105145014164849 0.3414869239971704 0 0.3855881021147175 0.35910908792858098 0 0.36474967577348072 0.36653341875104961 0 0.3855881021147175 0.35910908792858098 0 0.3855881021147175 0.35910908792858098 0 0.39248458597179969 0.37472262889043839 0 0.3773824667175657 0.37546563606013739 0 0.36474967577348072 0.36653341875104961 0 0.3855881021147175 0.35910908792858098 0 0.3773824667175657 0.37546563606013739 0 0.40918213701441342 0.3736144609854074 0 0.39248458597179969 0.37472262889043839 0 0.40205795884979889 0.36380219258680641 0 0.3855881021147175 0.35910908792858098 0 0.39248458597179969 0.37472262889043839 0 0.40205795884979889 0.36380219258680641 0 0.40642652845595439 0.35168475710611302 0 0.39105145014164849 0.3414869239971704 0 0.3855881021147175 0.35910908792858098 0 0.40642652845595439 0.35168475710611302 0 0.3855881021147175 0.35910908792858098 0 0.40642652845595439 0.35168475710611302 0 0.3855881021147175 0.35910908792858098 0 0.40205795884979889 0.36380219258680641 0 0.39221066862400811 0.40518894945558848 0 0.39940032860097008 0.38986983405391068 0 0.41033309730305728 0.40785957742124029 0 0.40918213701441342 0.3736144609854074 0 0.39248458597179969 0.37472262889043839 0 0.39940032860097008 0.38986983405391068 0 0.39248458597179969 0.37472262889043839 0 0.39940032860097008 0.38986983405391068 0 0.38026367080056678 0.39066664182047522 0 0.39248458597179969 0.37472262889043839 0 0.3773824667175657 0.37546563606013739 0 0.38026367080056678 0.39066664182047522 0 0.39221066862400811 0.40518894945558848 0 0.39940032860097008 0.38986983405391068 0 0.38026367080056678 0.39066664182047522 0 0.39221066862400811 0.40518894945558848 0 0.38026367080056678 0.39066664182047522 0 0.37744029411777058 0.41252948965876268 0 0.39221066862400811 0.40518894945558848 0 0.37744029411777058 0.41252948965876268 0 0.39361595229767549 0.42501920432355378 0 0.365542703577178 0.42914551292816783 0 0.39361595229767549 0.42501920432355378 0 0.37809165231809289 0.44568724501072521 0 0.365542703577178 0.42914551292816783 0 0.37744029411777058 0.41252948965876268 0 0.39361595229767549 0.42501920432355378 0 0.365542703577178 0.42914551292816783 0 0.39361595229767549 0.42501920432355378 0 0.39361595229767549 0.42501920432355378 0 0.41035062152962531 0.4256058815429955 0 0.40092741287151468 0.44093224530230651 0 0.39361595229767549 0.42501920432355378 0 0.40092741287151468 0.44093224530230651 0 0.37809165231809289 0.44568724501072521 0 0.39361595229767549 0.42501920432355378 0 0.41033309730305728 0.40785957742124029 0 0.41035062152962531 0.4256058815429955 0 0.39221066862400811 0.40518894945558848 0 0.39361595229767549 0.42501920432355378 0 0.41033309730305728 0.40785957742124029 0 0.41033309730305728 0.40785957742124029 0 0.41035062152962531 0.4256058815429955 0 0.42646345733135449 0.42088686527347441 0 0.41035062152962531 0.4256058815429955 0 0.4216403136361262 0.43569606407888728 0 0.42646345733135449 0.42088686527347441 0 0.41035062152962531 0.4256058815429955 0 0.4216403136361262 0.43569606407888728 0 0.40092741287151468 0.44093224530230651 0 0.43504649219903713 0.43385430946487219 0 0.42646345733135449 0.42088686527347441 0 0.44292677264660579 0.42392515796168401 0 0.4216403136361262 0.43569606407888728 0 0.43504649219903713 0.43385430946487219 0 0.42646345733135449 0.42088686527347441 0 0.4216403136361262 0.43569606407888728 0 0.43504649219903713 0.43385430946487219 0 0.4309855774719657 0.44262377444488737 0 0.41033309730305728 0.40785957742124029 0 0.42646345733135449 0.42088686527347441 0 0.43473852811684172 0.40482082561786309 0 0.42646345733135449 0.42088686527347441 0 0.43473852811684172 0.40482082561786309 0 0.44292677264660579 0.42392515796168401 0 0.43473852811684172 0.40482082561786309 0 0.42003555557297712 0.38799376876492359 0 0.43605286711449009 0.38080977408974359 0 0.41033309730305728 0.40785957742124029 0 0.43473852811684172 0.40482082561786309 0 0.42003555557297712 0.38799376876492359 0 0.39940032860097008 0.38986983405391068 0 0.41033309730305728 0.40785957742124029 0 0.42003555557297712 0.38799376876492359 0 0.40918213701441342 0.3736144609854074 0 0.39940032860097008 0.38986983405391068 0 0.42003555557297712 0.38799376876492359 0 0.40918213701441342 0.3736144609854074 0 0.42003555557297712 0.38799376876492359 0 0.42225433889660879 0.37545697575276449 0 0.42003555557297712 0.38799376876492359 0 0.42225433889660879 0.37545697575276449 0 0.43605286711449009 0.38080977408974359 0 0.44279863902385319 0.36498191861006751 0 0.43605286711449009 0.38080977408974359 0 0.45829891398740957 0.37926071030245079 0 0.43605286711449009 0.38080977408974359 0 0.44916269767969552 0.39669925538146661 0 0.45829891398740957 0.37926071030245079 0 0.43473852811684172 0.40482082561786309 0 0.43605286711449009 0.38080977408974359 0 0.44916269767969552 0.39669925538146661 0 0.43473852811684172 0.40482082561786309 0 0.44916269767969552 0.39669925538146661 0 0.45819524916971172 0.41557138043250991 0 0.44916269767969552 0.39669925538146661 0 0.47914945699370431 0.3984681476517854 0 0.45819524916971172 0.41557138043250991 0 0.44916269767969552 0.39669925538146661 0 0.45829891398740957 0.37926071030245079 0 0.47914945699370431 0.3984681476517854 0 0.45829891398740957 0.37926071030245079 0 0.47914945699370431 0.3984681476517854 0 0.44916269767969552 0.39669925538146661 0 0.45829891398740957 0.37926071030245079 0 0.45829891398740957 0.37926071030245079 0 0.48177296974371542 0.3780796821533936 0 0.47914945699370431 0.3984681476517854 0 0.47914945699370431 0.3984681476517854 0 0.5 0.39471699264069632 0 0.49999999999999928 0.41767558500111929 0 0.48177296974371542 0.3780796821533936 0 0.47914945699370431 0.3984681476517854 0 0.5 0.39471699264069632 0 0.5 0.37175840028027313 0 0.48177296974371542 0.3780796821533936 0 0.5 0.39471699264069632 0 0.48950419912568011 0.43203648207583117 0 0.49999999999999928 0.41767558500111929 0 0.47941257652712138 0.42859526255965119 0 0.48950419912568011 0.43203648207583117 0 0.49999999999999928 0.41767558500111929 0 0.50000000000000022 0.44212157098762489 0 0.49999999999999928 0.41767558500111929 0 0.47638758820359789 0.4177788365799131 0 0.47941257652712138 0.42859526255965119 0 0.47914945699370431 0.3984681476517854 0 0.49999999999999928 0.41767558500111929 0 0.47638758820359789 0.4177788365799131 0 0.47914945699370431 0.3984681476517854 0 0.49999999999999928 0.41767558500111929 0 0.47914945699370431 0.3984681476517854 0 0.47638758820359789 0.4177788365799131 0 0.45819524916971172 0.41557138043250991 0 0.47638758820359789 0.4177788365799131 0 0.46959145424244531 0.42892785421681912 0 0.47941257652712138 0.42859526255965119 0 0.48950419912568011 0.43203648207583117 0 0.47941257652712138 0.42859526255965119 0 0.47860421997559988 0.43975350975492877 0 0.46959145424244531 0.42892785421681912 0 0.47941257652712138 0.42859526255965119 0 0.47860421997559988 0.43975350975492877 0 0.46959145424244531 0.42892785421681912 0 0.45720843995119947 0.43738544852223271 0 0.45819524916971172 0.41557138043250991 0 0.46959145424244531 0.42892785421681912 0 0.45720843995119947 0.43738544852223271 0 0.47860421997559988 0.43975350975492877 0 0.47638758820359789 0.4177788365799131 0 0.46959145424244531 0.42892785421681912 0 0.45819524916971172 0.41557138043250991 0 0.43473852811684172 0.40482082561786309 0 0.45819524916971172 0.41557138043250991 0 0.44292677264660579 0.42392515796168401 0 0.45720843995119947 0.43738544852223271 0 0.45819524916971172 0.41557138043250991 0 0.44292677264660579 0.42392515796168401 0 0.45720843995119947 0.43738544852223271 0 0.44292677264660579 0.42392515796168401 0 0.44501475256406542 0.43710487641451851 0 0.43504649219903713 0.43385430946487219 0 0.44292677264660579 0.42392515796168401 0 0.44501475256406542 0.43710487641451851 0 0.44501475256406542 0.43710487641451851 0 0.44086930591740259 0.443703986550611 0 0.44426520485267701 0.44828521544284999 0 0.43504649219903713 0.43385430946487219 0 0.44501475256406542 0.43710487641451851 0 0.44086930591740259 0.443703986550611 0 0.44576605402647751 0.45131382091928901 0 0.43097115028835131 0.45382894378787952 0 0.4371491165808723 0.44919465112914592 0 0.44086930591740259 0.443703986550611 0 0.44106718496795649 0.44783878756079798 0 0.4371491165808723 0.44919465112914592 0 0.44106718496795649 0.44783878756079798 0 0.44576605402647751 0.45131382091928901 0 0.4371491165808723 0.44919465112914592 0 0.44086930591740259 0.443703986550611 0 0.44426520485267701 0.44828521544284999 0 0.44106718496795649 0.44783878756079798 0 0.44426520485267701 0.44828521544284999 0 0.44576605402647751 0.45131382091928901 0 0.44086930591740259 0.443703986550611 0 0.44106718496795649 0.44783878756079798 0 0.44426520485267701 0.44828521544284999 0 0.45720843995119947 0.43738544852223271 0 0.44501475256406542 0.43710487641451851 0 0.44426520485267701 0.44828521544284999 0 0.44576605402647751 0.45131382091928901 0 0.44334270512280699 0.46695283516179431 0 0.45751300038554987 0.46615712058798953 0 0.44426520485267701 0.44828521544284999 0 0.45751300038554987 0.46615712058798953 0 0.44576605402647751 0.45131382091928901 0 0.44334270512280699 0.46695283516179431 0 0.42744619309891668 0.4675425472795256 0 0.44426520485267701 0.44828521544284999 0 0.44576605402647751 0.45131382091928901 0 0.45751300038554987 0.46615712058798953 0 0.44426520485267701 0.44828521544284999 0 0.45751300038554987 0.46615712058798953 0 0.47213260242633898 0.44992772785007767 0 0.44426520485267701 0.44828521544284999 0 0.47213260242633898 0.44992772785007767 0 0.45720843995119947 0.43738544852223271 0 0.47860421997559988 0.43975350975492877 0 0.45720843995119947 0.43738544852223271 0 0.44426520485267701 0.44828521544284999 0 0.47213260242633898 0.44992772785007767 0 0.47213260242633898 0.44992772785007767 0 0.47860421997559988 0.43975350975492877 0 0.50000000000000067 0.45157024025730719 0 0.45720843995119947 0.43738544852223271 0 0.47213260242633898 0.44992772785007767 0 0.47860421997559988 0.43975350975492877 0 0.47213260242633898 0.44992772785007767 0 0.48064266697128027 0.4673483066551633 0 0.50000000000000067 0.45157024025730719 0 0.45751300038554987 0.46615712058798953 0 0.47213260242633898 0.44992772785007767 0 0.48064266697128027 0.4673483066551633 0 0.48064266697128027 0.4673483066551633 0 0.5 0.46843982966384828 0 0.50000000000000067 0.45157024025730719 0 0.47860421997559988 0.43975350975492877 0 0.50000000000000022 0.44212157098762489 0 0.47860421997559988 0.43975350975492877 0 0.50000000000000067 0.45157024025730719 0 0.50000000000000022 0.44212157098762489 0 0.47213260242633898 0.44992772785007767 0 0.50000000000000067 0.45157024025730719 0 0.48950419912568011 0.43203648207583117 0 0.47860421997559988 0.43975350975492877 0 0.50000000000000022 0.44212157098762489 0 0.48834007405180069 0.49233461120087918 0 0.50000000000000222 0.48530941907038949 0 0.47076079591842229 0.48402902573312923 0 0.48834007405180069 0.49233461120087918 0 0.5 0.5 0 0.48259950028877657 0.49999999999999922 0 0.50000000000000222 0.48530941907038949 0 0.47076079591842229 0.48402902573312923 0 0.48834007405180069 0.49233461120087918 0 0.5 0.5 0 0.50000000000000222 0.48530941907038949 0 0.50000000000000222 0.48530941907038949 0 0.48785086572242647 0.47628164528063233 0 0.47076079591842229 0.48402902573312923 0 0.48064266697128027 0.4673483066551633 0 0.5 0.46843982966384828 0 0.48785086572242647 0.47628164528063233 0 0.5 0.46843982966384828 0 0.50000000000000222 0.48530941907038949 0 0.48785086572242647 0.47628164528063233 0 0.45751300038554987 0.46615712058798953 0 0.48064266697128027 0.4673483066551633 0 0.47076079591842229 0.48402902573312923 0 0.48064266697128027 0.4673483066551633 0 0.48785086572242647 0.47628164528063233 0 0.47076079591842229 0.48402902573312923 0 0.47076079591842229 0.48402902573312923 0 0.48259950028877657 0.49999999999999922 0 0.45965124302753141 0.5 0 0.48834007405180069 0.49233461120087918 0 0.47076079591842229 0.48402902573312923 0 0.48259950028877657 0.49999999999999922 0 0.47076079591842229 0.48402902573312923 0 0.48259950028877657 0.49999999999999922 0 0.47076079591842229 0.48402902573312923 0 0.45965124302753141 0.5 0 0.44264557298028417 0.48279785186037327 0 0.45751300038554987 0.46615712058798953 0 0.47076079591842229 0.48402902573312923 0 0.47076079591842229 0.48402902573312923 0 0.44264557298028417 0.48279785186037327 0 0.45751300038554987 0.46615712058798953 0 0.47076079591842229 0.48402902573312923 0 0.44264557298028417 0.48279785186037327 0 0.44334270512280699 0.46695283516179431 0 0.44264557298028417 0.48279785186037327 0 0.42744619309891668 0.4675425472795256 0 0.44334270512280699 0.46695283516179431 0 0.45751300038554987 0.46615712058798953 0 0.44264557298028417 0.48279785186037327 0 0.45965124302753141 0.5 0 0.44264557298028417 0.48279785186037327 0 0.43670298576628619 0.5 0 0.44264557298028417 0.48279785186037327 0 0.42814010978677508 0.48883471415535268 0 0.41453035004214622 0.48156667798761449 0 0.43670298576628619 0.5 0 0.42814010978677508 0.48883471415535268 0 0.41868153035838401 0.49097432677342312 0 0.44264557298028417 0.48279785186037327 0 0.43670298576628619 0.5 0 0.42814010978677508 0.48883471415535268 0 0.43670298576628619 0.5 0 0.41375472850504103 0.5 0 0.41868153035838401 0.49097432677342312 0 0.41375472850504103 0.5 0 0.41868153035838401 0.49097432677342312 0 0.40912633217135602 0.48377127363976219 0 0.42814010978677508 0.48883471415535268 0 0.41868153035838401 0.49097432677342312 0 0.41453035004214622 0.48156667798761449 0 0.41868153035838401 0.49097432677342312 0 0.40912633217135602 0.48377127363976219 0 0.41453035004214622 0.48156667798761449 0 0.40882198151684829 0.470458307354371 0 0.40912633217135602 0.48377127363976219 0 0.42744619309891668 0.4675425472795256 0 0.40912633217135602 0.48377127363976219 0 0.42744619309891668 0.4675425472795256 0 0.40912633217135602 0.48377127363976219 0 0.41453035004214622 0.48156667798761449 0 0.42744619309891668 0.4675425472795256 0 0.40882198151684829 0.470458307354371 0 0.40912633217135602 0.48377127363976219 0 0.40257181831080802 0.47789339995616598 0 0.44264557298028417 0.48279785186037327 0 0.41453035004214622 0.48156667798761449 0 0.44264557298028417 0.48279785186037327 0 0.41453035004214622 0.48156667798761449 0 0.42744619309891668 0.4675425472795256 0 0.44576605402647751 0.45131382091928901 0 0.42744619309891668 0.4675425472795256 0 0.44576605402647751 0.45131382091928901 0 0.43097115028835131 0.45382894378787952 0 0.42744619309891668 0.4675425472795256 0 0.43097115028835131 0.45382894378787952 0 0.42744619309891668 0.4675425472795256 0 0.41709851720120961 0.46055572465752248 0 0.44086930591740259 0.443703986550611 0 0.4309855774719657 0.44262377444488737 0 0.4371491165808723 0.44919465112914592 0 0.43504649219903713 0.43385430946487219 0 0.44086930591740259 0.443703986550611 0 0.4309855774719657 0.44262377444488737 0 0.43097115028835131 0.45382894378787952 0 0.4309855774719657 0.44262377444488737 0 0.4371491165808723 0.44919465112914592 0 0.43097115028835131 0.45382894378787952 0 0.4309855774719657 0.44262377444488737 0 0.41665312800777271 0.44940921386284588 0 0.4216403136361262 0.43569606407888728 0 0.4309855774719657 0.44262377444488737 0 0.41665312800777271 0.44940921386284588 0 0.41665312800777271 0.44940921386284588 0 0.4029362549212489 0.45832899449672349 0 0.40092741287151468 0.44093224530230651 0 0.4216403136361262 0.43569606407888728 0 0.41665312800777271 0.44940921386284588 0 0.40092741287151468 0.44093224530230651 0 0.40882198151684829 0.470458307354371 0 0.42744619309891668 0.4675425472795256 0 0.41709851720120961 0.46055572465752248 0 0.43097115028835131 0.45382894378787952 0 0.41665312800777271 0.44940921386284588 0 0.41709851720120961 0.46055572465752248 0 0.41665312800777271 0.44940921386284588 0 0.41709851720120961 0.46055572465752248 0 0.4029362549212489 0.45832899449672349 0 0.40882198151684829 0.470458307354371 0 0.41709851720120961 0.46055572465752248 0 0.4029362549212489 0.45832899449672349 0 0.40882198151684829 0.470458307354371 0 0.4029362549212489 0.45832899449672349 0 0.3944208343110962 0.47305259584339332 0 0.4029362549212489 0.45832899449672349 0 0.38943508825963058 0.45629052964312111 0 0.3944208343110962 0.47305259584339332 0 0.4029362549212489 0.45832899449672349 0 0.40092741287151468 0.44093224530230651 0 0.38943508825963058 0.45629052964312111 0 0.40092741287151468 0.44093224530230651 0 0.37809165231809289 0.44568724501072521 0 0.38943508825963058 0.45629052964312111 0 0.37809165231809289 0.44568724501072521 0 0.38943508825963058 0.45629052964312111 0 0.37844435483634198 0.4675903904274426 0 0.38943508825963058 0.45629052964312111 0 0.37844435483634198 0.4675903904274426 0 0.3944208343110962 0.47305259584339332 0 0.37844435483634198 0.4675903904274426 0 0.38120033573297152 0.48442634992442057 0 0.3944208343110962 0.47305259584339332 0 0.38120033573297152 0.48442634992442057 0 0.3944208343110962 0.47305259584339332 0 0.39562515835400552 0.48382872387274839 0 0.36196284501337178 0.5 0 0.38120033573297152 0.48442634992442057 0 0.39080647124379558 0.49999999999999922 0 0.38120033573297152 0.48442634992442057 0 0.39080647124379558 0.49999999999999922 0 0.39562515835400552 0.48382872387274839 0 0.40912633217135602 0.48377127363976219 0 0.39080647124379558 0.49999999999999922 0 0.40912633217135602 0.48377127363976219 0 0.39080647124379558 0.49999999999999922 0 0.39562515835400552 0.48382872387274839 0 0.41375472850504103 0.5 0 0.40912633217135602 0.48377127363976219 0 0.39080647124379558 0.49999999999999922 0 0.40912633217135602 0.48377127363976219 0 0.40257181831080802 0.47789339995616598 0 0.39562515835400552 0.48382872387274839 0 0.40882198151684829 0.470458307354371 0 0.40257181831080802 0.47789339995616598 0 0.3944208343110962 0.47305259584339332 0 0.40257181831080802 0.47789339995616598 0 0.3944208343110962 0.47305259584339332 0 0.39562515835400552 0.48382872387274839 0 0.34137977846588119 0.091947059702449957 0 0.3184977734976509 0.082531855017860187 0 0.34137977846588119 0.091947059702449957 0 0.33853514524224232 0.092154422351098803 0 0.3184977734976509 0.082531855017860187 0 0.33853514524224232 0.092154422351098803 0 0.3184977734976509 0.082531855017860187 0 0.3305269393921435 0.093893314460775035 0 0.34137977846588119 0.091947059702449957 0 0.33488127772135701 0.070909675734900868 0 0.3184977734976509 0.082531855017860187 0 0.33488127772135701 0.070909675734900868 0 0.35624300874513559 0.071190975121652081 0 0.33828509493208109 0.051113002016081502 0 0.3184977734976509 0.082531855017860187 0 0.31750720709783492 0.060828210965220328 0 0.30506359630307739 0.067813250175554993 0 0.33488127772135701 0.070909675734900868 0 0.32846421329825382 0.059059627678852658 0 0.31750720709783492 0.060828210965220328 0 0.33488127772135701 0.070909675734900868 0 0.3184977734976509 0.082531855017860187 0 0.31750720709783492 0.060828210965220328 0 0.3184977734976509 0.082531855017860187 0 0.3254096333834442 0.096971455496547829 0 0.3305269393921435 0.093893314460775035 0 0.3184977734976509 0.082531855017860187 0 0.3254096333834442 0.096971455496547829 0 0.31111548734401751 0.094174984339189319 0 0.3254096333834442 0.096971455496547829 0 0.33219394353324039 0.1121017755840282 0 0.31111548734401751 0.094174984339189319 0 0.33219394353324039 0.1121017755840282 0 0.31111548734401751 0.094174984339189319 0 0.33219394353324039 0.1121017755840282 0 0.31151194808720201 0.1150643222194616 0 0.31111548734401751 0.094174984339189319 0 0.33219394353324039 0.1121017755840282 0 0.31151194808720201 0.1150643222194616 0 0.32387679174541939 0.1297141718462434 0 0.33219394353324039 0.1121017755840282 0 0.32387679174541939 0.1297141718462434 0 0.35327239972246333 0.1300285668288671 0 0.33219394353324039 0.1121017755840282 0 0.35327239972246333 0.1300285668288671 0 0.33219394353324039 0.1121017755840282 0 0.34279585490336462 0.1026082003979065 0 0.35159211237321392 0.11222190062690381 0 0.33853514524224232 0.092154422351098803 0 0.3305269393921435 0.093893314460775035 0 0.33650548478629722 0.09727411407467923 0 0.3254096333834442 0.096971455496547829 0 0.33351858274250701 0.1005678965871936 0 0.3305269393921435 0.093893314460775035 0 0.33351858274250701 0.1005678965871936 0 0.3305269393921435 0.093893314460775035 0 0.33650548478629722 0.09727411407467923 0 0.3254096333834442 0.096971455496547829 0 0.33219394353324039 0.1121017755840282 0 0.33351858274250701 0.1005678965871936 0 0.33219394353324039 0.1121017755840282 0 0.33351858274250701 0.1005678965871936 0 0.34279585490336462 0.1026082003979065 0 0.33351858274250701 0.1005678965871936 0 0.34279585490336462 0.1026082003979065 0 0.33650548478629722 0.09727411407467923 0 0.33853514524224232 0.092154422351098803 0 0.34279585490336462 0.1026082003979065 0 0.33650548478629722 0.09727411407467923 0 0.34279585490336462 0.1026082003979065 0 0.35159211237321392 0.11222190062690381 0 0.36426178343411147 0.1013622643870397 0 0.33853514524224232 0.092154422351098803 0 0.34279585490336462 0.1026082003979065 0 0.36426178343411147 0.1013622643870397 0 0.34137977846588119 0.091947059702449957 0 0.33853514524224232 0.092154422351098803 0 0.36426178343411147 0.1013622643870397 0 0.33853514524224232 0.092154422351098803 0 0.36426178343411147 0.1013622643870397 0 0.34137977846588119 0.091947059702449957 0 0.36426178343411147 0.1013622643870397 0 0.33219394353324039 0.1121017755840282 0 0.35159211237321392 0.11222190062690381 0 0.35327239972246333 0.1300285668288671 0 0.35159211237321392 0.11222190062690381 0 0.36649271172908648 0.1176987398754743 0 0.35327239972246333 0.1300285668288671 0 0.35159211237321392 0.11222190062690381 0 0.36649271172908648 0.1176987398754743 0 0.36426178343411147 0.1013622643870397 0 0.36649271172908648 0.1176987398754743 0 0.36938385952287339 0.13266757129752671 0 0.38138511069115272 0.12353481432135879 0 0.36649271172908648 0.1176987398754743 0 0.36426178343411147 0.1013622643870397 0 0.3795225325030368 0.1068242515199407 0 0.36426178343411147 0.1013622643870397 0 0.3795225325030368 0.1068242515199407 0 0.36426178343411147 0.1013622643870397 0 0.3742009225581896 0.091268948227223284 0 0.3795225325030368 0.1068242515199407 0 0.3742009225581896 0.091268948227223284 0 0.35754778501084228 0.087847667021068221 0 0.35624300874513559 0.071190975121652081 0 0.36426178343411147 0.1013622643870397 0 0.3742009225581896 0.091268948227223284 0 0.35754778501084228 0.087847667021068221 0 0.3742009225581896 0.091268948227223284 0 0.35624300874513559 0.071190975121652081 0 0.34137977846588119 0.091947059702449957 0 0.35754778501084228 0.087847667021068221 0 0.35624300874513559 0.071190975121652081 0 0.34137977846588119 0.091947059702449957 0 0.36426178343411147 0.1013622643870397 0 0.35754778501084228 0.087847667021068221 0 0.34137977846588119 0.091947059702449957 0 0.33488127772135701 0.070909675734900868 0 0.35624300874513559 0.071190975121652081 0 0.3742009225581896 0.091268948227223284 0 0.35624300874513559 0.071190975121652081 0 0.37575225644292037 0.071709270247263784 0 0.35624300874513559 0.071190975121652081 0 0.36737709041569239 0.056764699852256018 0 0.37575225644292037 0.071709270247263784 0 0.36737709041569239 0.056764699852256018 0 0.36443667806580698 0.054513224756226962 0 0.39058826119953283 0.057913447496371839 0 0.36443667806580698 0.054513224756226962 0 0.36984281421283938 0.03924660656396721 0 0.37608467898805159 0.048096788967416412 0 0.36984281421283938 0.03924660656396721 0 0.35576481933353549 0.041718099984820838 0 0.3798040161112804 0.028996110171619349 0 0.35576481933353549 0.041718099984820838 0 0.36136411866671431 0.026161729739540451 0 0.37786156531075732 0.02725125369877367 0 0.35576481933353549 0.041718099984820838 0 0.3798040161112804 0.028996110171619349 0 0.37786156531075732 0.02725125369877367 0 0.35576481933353549 0.041718099984820838 0 0.3798040161112804 0.028996110171619349 0 0.36984281421283938 0.03924660656396721 0 0.37726993283737248 0.041439113600633092 0 0.37608467898805159 0.048096788967416412 0 0.36984281421283938 0.03924660656396721 0 0.37675727284589372 0.036323400775862158 0 0.37726993283737248 0.041439113600633092 0 0.36443667806580698 0.054513224756226962 0 0.36984281421283938 0.03924660656396721 0 0.35576481933353549 0.041718099984820838 0 0.35576481933353549 0.041718099984820838 0 0.36136411866671431 0.026161729739540451 0 0.34099279295720591 0.031691385536231111 0 0.35576481933353549 0.041718099984820838 0 0.34539840685914608 0.044617690611648012 0 0.34099279295720591 0.031691385536231111 0 0.35624300874513559 0.071190975121652081 0 0.34416591963185211 0.055615952208139578 0 0.33828509493208109 0.051113002016081502 0 0.36443667806580698 0.054513224756226962 0 0.34416591963185211 0.055615952208139578 0 0.33828509493208109 0.051113002016081502 0 0.36737709041569239 0.056764699852256018 0 0.34416591963185211 0.055615952208139578 0 0.35624300874513559 0.071190975121652081 0 0.33828509493208109 0.051113002016081502 0 0.35624300874513559 0.071190975121652081 0 0.36737709041569239 0.056764699852256018 0 0.34416591963185211 0.055615952208139578 0 0.36443667806580698 0.054513224756226962 0 0.33828509493208109 0.051113002016081502 0 0.36443667806580698 0.054513224756226962 0 0.34539840685914608 0.044617690611648012 0 0.33828509493208109 0.051113002016081502 0 0.36443667806580698 0.054513224756226962 0 0.35576481933353549 0.041718099984820838 0 0.34539840685914608 0.044617690611648012 0 0.36737709041569239 0.056764699852256018 0 0.36443667806580698 0.054513224756226962 0 0.34416591963185211 0.055615952208139578 0 0.35686418876597309 0.010252504770385159 0 0.37537418671591988 0.012891754799621079 0 0.3700201466167648 -0.002195575246397889 0 0.35686418876597309 0.010252504770385159 0 0.37786156531075732 0.02725125369877367 0 0.36136411866671431 0.026161729739540451 0 0.35686418876597309 0.010252504770385159 0 0.37786156531075732 0.02725125369877367 0 0.35686418876597309 0.010252504770385159 0 0.37537418671591988 0.012891754799621079 0 0.37786156531075732 0.02725125369877367 0 0.36136411866671431 0.026161729739540451 0 0.35686418876597309 0.010252504770385159 0 0.34167945108238768 0.015605415956853899 0 0.36136411866671431 0.026161729739540451 0 0.34167945108238768 0.015605415956853899 0 0.34099279295720591 0.031691385536231111 0 0.35686418876597309 0.010252504770385159 0 0.34167945108238768 0.015605415956853899 0 0.33586681222118892 -0.0067462441580033658 0 0.35686418876597309 0.010252504770385159 0 0.33586681222118892 -0.0067462441580033658 0 0.34167945108238768 0.015605415956853899 0 0.32490055802469708 0.021190940670656921 0 0.33586681222118892 -0.0067462441580033658 0 0.34167945108238768 0.015605415956853899 0 0.32490055802469708 0.021190940670656921 0 0.34099279295720591 0.031691385536231111 0 0.32490055802469708 0.021190940670656921 0 0.34099279295720591 0.031691385536231111 0 0.32801258046435111 0.036170166979635328 0 0.32490055802469708 0.021190940670656921 0 0.31497710433926901 0.036033128519756527 0 0.30595588987094691 0.026092456194660541 0 0.32490055802469708 0.021190940670656921 0 0.31046320235639918 0.0067575729804437252 0 0.30595588987094691 0.026092456194660541 0 0.32490055802469708 0.021190940670656921 0 0.32801258046435111 0.036170166979635328 0 0.31497710433926901 0.036033128519756527 0 0.32490055802469708 0.021190940670656921 0 0.31046320235639918 0.0067575729804437252 0 0.33586681222118892 -0.0067462441580033658 0 0.33488127772135701 0.070909675734900868 0 0.32846421329825382 0.059059627678852658 0 0.33828509493208109 0.051113002016081502 0 0.33828509493208109 0.051113002016081502 0 0.33632782521092219 0.048924662700562782 0 0.31456469921871788 0.048028881697348168 0 0.34539840685914608 0.044617690611648012 0 0.33828509493208109 0.051113002016081502 0 0.33632782521092219 0.048924662700562782 0 0.33828509493208109 0.051113002016081502 0 0.33632782521092219 0.048924662700562782 0 0.34539840685914608 0.044617690611648012 0 0.33609782728063148 0.04111054955314445 0 0.34099279295720591 0.031691385536231111 0 0.34539840685914608 0.044617690611648012 0 0.33632782521092219 0.048924662700562782 0 0.33609782728063148 0.04111054955314445 0 0.33609782728063148 0.04111054955314445 0 0.34099279295720591 0.031691385536231111 0 0.32801258046435111 0.036170166979635328 0 0.33632782521092219 0.048924662700562782 0 0.33609782728063148 0.04111054955314445 0 0.33051084790212298 0.042529329228536181 0 0.33632782521092219 0.048924662700562782 0 0.33051084790212298 0.042529329228536181 0 0.32327528761916352 0.043108517346294839 0 0.33609782728063148 0.04111054955314445 0 0.33051084790212298 0.042529329228536181 0 0.32801258046435111 0.036170166979635328 0 0.33632782521092219 0.048924662700562782 0 0.32327528761916352 0.043108517346294839 0 0.31456469921871788 0.048028881697348168 0 0.33051084790212298 0.042529329228536181 0 0.32327528761916352 0.043108517346294839 0 0.32801258046435111 0.036170166979635328 0 0.32327528761916352 0.043108517346294839 0 0.32801258046435111 0.036170166979635328 0 0.31497710433926901 0.036033128519756527 0 0.32327528761916352 0.043108517346294839 0 0.31497710433926901 0.036033128519756527 0 0.31456469921871788 0.048028881697348168 0 0.33828509493208109 0.051113002016081502 0 0.31456469921871788 0.048028881697348168 0 0.32846421329825382 0.059059627678852658 0 0.33828509493208109 0.051113002016081502 0 0.31456469921871788 0.048028881697348168 0 0.32846421329825382 0.059059627678852658 0 0.31456469921871788 0.048028881697348168 0 0.31750720709783492 0.060828210965220328 0 0.31456469921871788 0.048028881697348168 0 0.31750720709783492 0.060828210965220328 0 0.30386903740065402 0.05697431224277244 0 0.31750720709783492 0.060828210965220328 0 0.30386903740065402 0.05697431224277244 0 0.30506359630307739 0.067813250175554993 0 0.31456469921871788 0.048028881697348168 0 0.30386903740065402 0.05697431224277244 0 0.29084430350535467 0.044944761378613682 0 0.30386903740065402 0.05697431224277244 0 0.29325963230024937 0.057606978803657879 0 0.29690158384745241 0.06457818982176422 0 0.31456469921871788 0.048028881697348168 0 0.30257644158749403 0.037675663858353942 0 0.29084430350535467 0.044944761378613682 0 0.31456469921871788 0.048028881697348168 0 0.29084430350535467 0.044944761378613682 0 0.30257644158749403 0.037675663858353942 0 0.28728110375769011 0.032980092644635972 0 0.30595588987094691 0.026092456194660541 0 0.31497710433926901 0.036033128519756527 0 0.31456469921871788 0.048028881697348168 0 0.30257644158749403 0.037675663858353942 0 0.31497710433926901 0.036033128519756527 0 0.30257644158749403 0.037675663858353942 0 0.30595588987094691 0.026092456194660541 0 0.28728110375769011 0.032980092644635972 0 0.28354425329012439 0.021068516806879451 0 0.27754771987688809 0.040797440569893019 0 0.30257644158749403 0.037675663858353942 0 0.29084430350535467 0.044944761378613682 0 0.28728110375769011 0.032980092644635972 0 0.28728110375769011 0.032980092644635972 0 0.2844924432277231 0.043204628682168907 0 0.27754771987688809 0.040797440569893019 0 0.29084430350535467 0.044944761378613682 0 0.28728110375769011 0.032980092644635972 0 0.2844924432277231 0.043204628682168907 0 0.2844924432277231 0.043204628682168907 0 0.28229664577095948 0.054096220135532967 0 0.27754771987688809 0.040797440569893019 0 0.29084430350535467 0.044944761378613682 0 0.2844924432277231 0.043204628682168907 0 0.28229664577095948 0.054096220135532967 0 0.29084430350535467 0.044944761378613682 0 0.28229664577095948 0.054096220135532967 0 0.29325963230024937 0.057606978803657879 0 0.28229664577095948 0.054096220135532967 0 0.28695696052130792 0.062426000594819037 0 0.29325963230024937 0.057606978803657879 0 0.28229664577095948 0.054096220135532967 0 0.28695696052130792 0.062426000594819037 0 0.27961998430175328 0.060695812266760227 0 0.28695696052130792 0.062426000594819037 0 0.29325963230024937 0.057606978803657879 0 0.29690158384745241 0.06457818982176422 0 0.30386903740065402 0.05697431224277244 0 0.29084430350535467 0.044944761378613682 0 0.29325963230024937 0.057606978803657879 0 0.31046320235639918 0.0067575729804437252 0 0.29633736445586178 0.016145334388179639 0 0.2895407867033607 0.0013395930438658619 0 0.31046320235639918 0.0067575729804437252 0 0.30595588987094691 0.026092456194660541 0 0.29633736445586178 0.016145334388179639 0 0.28728110375769011 0.032980092644635972 0 0.29633736445586178 0.016145334388179639 0 0.28354425329012439 0.021068516806879451 0 0.28728110375769011 0.032980092644635972 0 0.30595588987094691 0.026092456194660541 0 0.29633736445586178 0.016145334388179639 0 0.29633736445586178 0.016145334388179639 0 0.28354425329012439 0.021068516806879451 0 0.2895407867033607 0.0013395930438658619 0 0.28354425329012439 0.021068516806879451 0 0.2895407867033607 0.0013395930438658619 0 0.27605408581287011 0.0090157940159830471 0 0.28354425329012439 0.021068516806879451 0 0.2895407867033607 0.0013395930438658619 0 0.2895407867033607 0.0013395930438658619 0 0.27605408581287011 0.0090157940159830471 0 0.26778398551549509 -0.0036893303100333872 0 0.27605408581287011 0.0090157940159830471 0 0.26417056773795178 0.0090152440179189393 0 0.26778398551549509 -0.0036893303100333872 0 0.27605408581287011 0.0090157940159830471 0 0.26936383070045983 0.02007531215695801 0 0.26417056773795178 0.0090152440179189393 0 0.28354425329012439 0.021068516806879451 0 0.27754771987688809 0.040797440569893019 0 0.28354425329012439 0.021068516806879451 0 0.27605408581287011 0.0090157940159830471 0 0.26936383070045983 0.02007531215695801 0 0.28354425329012439 0.021068516806879451 0 0.26936383070045983 0.02007531215695801 0 0.27332262009486957 0.033728107725222278 0 0.26936383070045983 0.02007531215695801 0 0.26667678125960848 0.028969541142501901 0 0.27332262009486957 0.033728107725222278 0 0.26936383070045983 0.02007531215695801 0 0.26667678125960848 0.028969541142501901 0 0.25978705670837199 0.02772172808684556 0 0.26667678125960848 0.028969541142501901 0 0.25978705670837199 0.02772172808684556 0 0.26423361753473251 0.034353016600981737 0 0.24818833723327199 0.02644705719899533 0 0.25978705670837199 0.02772172808684556 0 0.25442723867738032 0.016379625870619269 0 0.24818833723327199 0.02644705719899533 0 0.25978705670837199 0.02772172808684556 0 0.25704478259505842 0.035809011079610743 0 0.26936383070045983 0.02007531215695801 0 0.25978705670837199 0.02772172808684556 0 0.25442723867738032 0.016379625870619269 0 0.26936383070045983 0.02007531215695801 0 0.25442723867738032 0.016379625870619269 0 0.26417056773795178 0.0090152440179189393 0 0.25442723867738032 0.016379625870619269 0 0.26417056773795178 0.0090152440179189393 0 0.25322369798355371 0.0032948183560677501 0 0.26417056773795178 0.0090152440179189393 0 0.25322369798355371 0.0032948183560677501 0 0.26778398551549509 -0.0036893303100333872 0 0.28229664577095948 0.054096220135532967 0 0.27155118646365262 0.060526364332906778 0 0.27754771987688809 0.040797440569893019 0 0.26803735397675288 0.057537922442449492 0 0.27155118646365262 0.060526364332906778 0 0.27754771987688809 0.040797440569893019 0 0.27155118646365262 0.060526364332906778 0 0.27754771987688809 0.040797440569893019 0 0.26803735397675288 0.057537922442449492 0 0.26717674565759131 0.061414912581717808 0 0.27155118646365262 0.060526364332906778 0 0.26803735397675288 0.057537922442449492 0 0.26717674565759131 0.061414912581717808 0 0.26717674565759131 0.061414912581717808 0 0.27082486665434358 0.062915996334918609 0 0.26717674565759131 0.061414912581717808 0 0.27155118646365262 0.060526364332906778 0 0.27082486665434358 0.062915996334918609 0 0.27155118646365262 0.060526364332906778 0 0.27082486665434358 0.062915996334918609 0 0.26803735397675288 0.057537922442449492 0 0.27155118646365262 0.060526364332906778 0 0.27155118646365262 0.060526364332906778 0 0.27961998430175328 0.060695812266760227 0 0.27767514445109232 0.065734664003783444 0 0.28229664577095948 0.054096220135532967 0 0.27155118646365262 0.060526364332906778 0 0.27961998430175328 0.060695812266760227 0 0.28354425329012439 0.021068516806879451 0 0.27754771987688809 0.040797440569893019 0 0.27332262009486957 0.033728107725222278 0 0.26803735397675288 0.057537922442449492 0 0.27754771987688809 0.040797440569893019 0 0.27332262009486957 0.033728107725222278 0 0.26803735397675288 0.057537922442449492 0 0.27332262009486957 0.033728107725222278 0 0.26337349528673171 0.044011131262296957 0 0.26803735397675288 0.057537922442449492 0 0.27332262009486957 0.033728107725222278 0 0.26667678125960848 0.028969541142501901 0 0.27332262009486957 0.033728107725222278 0 0.26423361753473251 0.034353016600981737 0 0.27332262009486957 0.033728107725222278 0 0.26337349528673171 0.044011131262296957 0 0.26423361753473251 0.034353016600981737 0 0.25978705670837199 0.02772172808684556 0 0.26423361753473251 0.034353016600981737 0 0.25704478259505842 0.035809011079610743 0 0.26337349528673171 0.044011131262296957 0 0.26423361753473251 0.034353016600981737 0 0.25704478259505842 0.035809011079610743 0 0.2492733855269578 0.041579555173777823 0 0.24818833723327199 0.02644705719899533 0 0.25704478259505842 0.035809011079610743 0 0.2492733855269578 0.041579555173777823 0 0.26337349528673171 0.044011131262296957 0 0.25704478259505842 0.035809011079610743 0 0.2492733855269578 0.041579555173777823 0 0.26803735397675288 0.057537922442449492 0 0.26337349528673171 0.044011131262296957 0 0.2492733855269578 0.041579555173777823 0 0.26803735397675288 0.057537922442449492 0 0.24629062771517271 0.052820950830226497 0 0.2492733855269578 0.041579555173777823 0 0.26803735397675288 0.057537922442449492 0 0.24874122334595 0.07170785510379532 0 0.24629062771517271 0.052820950830226497 0 0.26717674565759131 0.061414912581717808 0 0.24629062771517271 0.052820950830226497 0 0.26717674565759131 0.061414912581717808 0 0.24629062771517271 0.052820950830226497 0 0.26803735397675288 0.057537922442449492 0 0.26717674565759131 0.061414912581717808 0 0.24874122334595 0.07170785510379532 0 0.26717674565759131 0.061414912581717808 0 0.26207170159221099 0.084412837492877896 0 0.26717674565759131 0.061414912581717808 0 0.26207170159221099 0.084412837492877896 0 0.26717674565759131 0.061414912581717808 0 0.26459661937193729 0.083407271434054076 0 0.26207170159221099 0.084412837492877896 0 0.24736227196270541 0.090270970101712061 0 0.24874122334595 0.07170785510379532 0 0.26207170159221099 0.084412837492877896 0 0.24736227196270541 0.090270970101712061 0 0.26207170159221099 0.084412837492877896 0 0.24736227196270541 0.090270970101712061 0 0.26016144869860108 0.09301841504440217 0 0.25459763100830068 0.096141582858552177 0 0.24736227196270541 0.090270970101712061 0 0.26207170159221099 0.084412837492877896 0 0.26016144869860108 0.09301841504440217 0 0.24736227196270541 0.090270970101712061 0 0.25459763100830068 0.096141582858552177 0 0.26459661937193729 0.083407271434054076 0 0.26207170159221099 0.084412837492877896 0 0.26207170159221099 0.084412837492877896 0 0.26016144869860108 0.09301841504440217 0 0.26459661937193729 0.083407271434054076 0 0.2619867778419176 0.09199379318438361 0 0.26207170159221099 0.084412837492877896 0 0.2619867778419176 0.09199379318438361 0 0.26016144869860108 0.09301841504440217 0 0.26459661937193729 0.083407271434054076 0 0.26207170159221099 0.084412837492877896 0 0.2619867778419176 0.09199379318438361 0 0.2619867778419176 0.09199379318438361 0 0.26016144869860108 0.09301841504440217 0 0.26459661937193729 0.083407271434054076 0 0.28765643041333783 0.074223541376674432 0 0.26459661937193729 0.083407271434054076 0 0.27601190449835611 0.084120993139366301 0 0.28765643041333783 0.074223541376674432 0 0.2619867778419176 0.09199379318438361 0 0.27601190449835611 0.084120993139366301 0 0.27597760534302263 0.093816081557894046 0 0.2619867778419176 0.09199379318438361 0 0.27601190449835611 0.084120993139366301 0 0.26459661937193729 0.083407271434054076 0 0.2619867778419176 0.09199379318438361 0 0.27601190449835611 0.084120993139366301 0 0.27601190449835611 0.084120993139366301 0 0.28527214605629803 0.093542631019163408 0 0.27597760534302263 0.093816081557894046 0 0.26459661937193729 0.083407271434054076 0 0.27082486665434358 0.062915996334918609 0 0.26717674565759131 0.061414912581717808 0 0.26459661937193729 0.083407271434054076 0 0.27082486665434358 0.062915996334918609 0 0.26459661937193729 0.083407271434054076 0 0.27082486665434358 0.062915996334918609 0 0.27767514445109232 0.065734664003783444 0 0.26459661937193729 0.083407271434054076 0 0.27767514445109232 0.065734664003783444 0 0.28765643041333783 0.074223541376674432 0 0.27155118646365262 0.060526364332906778 0 0.27082486665434358 0.062915996334918609 0 0.27767514445109232 0.065734664003783444 0 0.27082486665434358 0.062915996334918609 0 0.27767514445109232 0.065734664003783444 0 0.27155118646365262 0.060526364332906778 0 0.27767514445109232 0.065734664003783444 0 0.27767514445109232 0.065734664003783444 0 0.28765643041333783 0.074223541376674432 0 0.27767514445109232 0.065734664003783444 0 0.29306802488508721 0.072068336257275281 0 0.28695696052130792 0.062426000594819037 0 0.27961998430175328 0.060695812266760227 0 0.27767514445109232 0.065734664003783444 0 0.28695696052130792 0.062426000594819037 0 0.27767514445109232 0.065734664003783444 0 0.29306802488508721 0.072068336257275281 0 0.28695696052130792 0.062426000594819037 0 0.29306802488508721 0.072068336257275281 0 0.29690158384745241 0.06457818982176422 0 0.29561576852942001 0.073116650333272012 0 0.29306802488508721 0.072068336257275281 0 0.29561576852942001 0.073116650333272012 0 0.29306802488508721 0.072068336257275281 0 0.29003703115479512 0.076248193094349867 0 0.29306802488508721 0.072068336257275281 0 0.28765643041333783 0.074223541376674432 0 0.29306802488508721 0.072068336257275281 0 0.29003703115479512 0.076248193094349867 0 0.28765643041333783 0.074223541376674432 0 0.29561576852942001 0.073116650333272012 0 0.29003703115479512 0.076248193094349867 0 0.27767514445109232 0.065734664003783444 0 0.29306802488508721 0.072068336257275281 0 0.28765643041333783 0.074223541376674432 0 0.29003703115479512 0.076248193094349867 0 0.28765643041333783 0.074223541376674432 0 0.27601190449835611 0.084120993139366301 0 0.29003703115479512 0.076248193094349867 0 0.27601190449835611 0.084120993139366301 0 0.29003703115479512 0.076248193094349867 0 0.28765643041333783 0.074223541376674432 0 0.27601190449835611 0.084120993139366301 0 0.29003703115479512 0.076248193094349867 0 0.28870857493654689 0.086239244916881869 0 0.27601190449835611 0.084120993139366301 0 0.28870857493654689 0.086239244916881869 0 0.28527214605629803 0.093542631019163408 0 0.28870857493654689 0.086239244916881869 0 0.28527214605629803 0.093542631019163408 0 0.29246213629446111 0.095768124011444758 0 0.28870857493654689 0.086239244916881869 0 0.29698271976236568 0.089899813846382556 0 0.29246213629446111 0.095768124011444758 0 0.29003703115479512 0.076248193094349867 0 0.28870857493654689 0.086239244916881869 0 0.29698271976236568 0.089899813846382556 0 0.29561576852942001 0.073116650333272012 0 0.29003703115479512 0.076248193094349867 0 0.31111548734401751 0.094174984339189319 0 0.29003703115479512 0.076248193094349867 0 0.31111548734401751 0.094174984339189319 0 0.29003703115479512 0.076248193094349867 0 0.29698271976236568 0.089899813846382556 0 0.31111548734401751 0.094174984339189319 0 0.3184977734976509 0.082531855017860187 0 0.29561576852942001 0.073116650333272012 0 0.31111548734401751 0.094174984339189319 0 0.3184977734976509 0.082531855017860187 0 0.29561576852942001 0.073116650333272012 0 0.3184977734976509 0.082531855017860187 0 0.29561576852942001 0.073116650333272012 0 0.30506359630307739 0.067813250175554993 0 0.31750720709783492 0.060828210965220328 0 0.30506359630307739 0.067813250175554993 0 0.29306802488508721 0.072068336257275281 0 0.30506359630307739 0.067813250175554993 0 0.29690158384745241 0.06457818982176422 0 0.30386903740065402 0.05697431224277244 0 0.30506359630307739 0.067813250175554993 0 0.29690158384745241 0.06457818982176422 0 0.29306802488508721 0.072068336257275281 0 0.30506359630307739 0.067813250175554993 0 0.29561576852942001 0.073116650333272012 0 0.30506359630307739 0.067813250175554993 0 0.29561576852942001 0.073116650333272012 0 0.29306802488508721 0.072068336257275281 0 0.30506359630307739 0.067813250175554993 0 0.31151194808720201 0.1150643222194616 0 0.30247500772594699 0.1071381656543656 0 0.29129275041579278 0.1172303442398579 0 0.31151194808720201 0.1150643222194616 0 0.29622008012258699 0.12991313160987961 0 0.32387679174541939 0.1297141718462434 0 0.31151194808720201 0.1150643222194616 0 0.29129275041579278 0.1172303442398579 0 0.29622008012258699 0.12991313160987961 0 0.31151194808720201 0.1150643222194616 0 0.31111548734401751 0.094174984339189319 0 0.30247500772594699 0.1071381656543656 0 0.31111548734401751 0.094174984339189319 0 0.30128354362195031 0.098124169066782854 0 0.30247500772594699 0.1071381656543656 0 0.29698271976236568 0.089899813846382556 0 0.30128354362195031 0.098124169066782854 0 0.29246213629446111 0.095768124011444758 0 0.29698271976236568 0.089899813846382556 0 0.31111548734401751 0.094174984339189319 0 0.30128354362195031 0.098124169066782854 0 0.30128354362195031 0.098124169066782854 0 0.30247500772594699 0.1071381656543656 0 0.29260899031297011 0.10538418601464609 0 0.29260899031297011 0.10538418601464609 0 0.29246213629446111 0.095768124011444758 0 0.28702757351663483 0.1001100210532227 0 0.30128354362195031 0.098124169066782854 0 0.29260899031297011 0.10538418601464609 0 0.29246213629446111 0.095768124011444758 0 0.28527214605629803 0.093542631019163408 0 0.29246213629446111 0.095768124011444758 0 0.28702757351663483 0.1001100210532227 0 0.28527214605629803 0.093542631019163408 0 0.28702757351663483 0.1001100210532227 0 0.28108272677848523 0.099874609951530163 0 0.29260899031297011 0.10538418601464609 0 0.28356239405763972 0.106033323917978 0 0.28664880997705461 0.11131452551203889 0 0.29260899031297011 0.10538418601464609 0 0.28702757351663483 0.1001100210532227 0 0.28356239405763972 0.106033323917978 0 0.28702757351663483 0.1001100210532227 0 0.28356239405763972 0.106033323917978 0 0.28108272677848523 0.099874609951530163 0 0.28356239405763972 0.106033323917978 0 0.2814598539497668 0.10990299155730229 0 0.28664880997705461 0.11131452551203889 0 0.27786688771157569 0.1150217509861922 0 0.29622008012258699 0.12991313160987961 0 0.28664880997705461 0.11131452551203889 0 0.29129275041579278 0.1172303442398579 0 0.27786688771157569 0.1150217509861922 0 0.27786688771157569 0.1150217509861922 0 0.27913813953766042 0.12972245958528131 0 0.29622008012258699 0.12991313160987961 0 0.29129275041579278 0.1172303442398579 0 0.27786688771157569 0.1150217509861922 0 0.29622008012258699 0.12991313160987961 0 0.2814598539497668 0.10990299155730229 0 0.28664880997705461 0.11131452551203889 0 0.27786688771157569 0.1150217509861922 0 0.30247500772594699 0.1071381656543656 0 0.29260899031297011 0.10538418601464609 0 0.29129275041579278 0.1172303442398579 0 0.29260899031297011 0.10538418601464609 0 0.28664880997705461 0.11131452551203889 0 0.29129275041579278 0.1172303442398579 0 0.27418517611644572 0.1163335826691398 0 0.26638390190257438 0.1102685147937751 0 0.25655208948606423 0.10927836717886751 0 0.27786688771157569 0.1150217509861922 0 0.27418517611644572 0.1163335826691398 0 0.27913813953766042 0.12972245958528131 0 0.27418517611644572 0.1163335826691398 0 0.27248198541775659 0.12784311929978001 0 0.27913813953766042 0.12972245958528131 0 0.2814598539497668 0.10990299155730229 0 0.27786688771157569 0.1150217509861922 0 0.27702128122739278 0.10689832557857171 0 0.27786688771157569 0.1150217509861922 0 0.27418517611644572 0.1163335826691398 0 0.26638390190257438 0.1102685147937751 0 0.27418517611644572 0.1163335826691398 0 0.26888095198589312 0.11979825388229511 0 0.26487973471170051 0.1148861259760711 0 0.27418517611644572 0.1163335826691398 0 0.26888095198589312 0.11979825388229511 0 0.27248198541775659 0.12784311929978001 0 0.26888095198589312 0.11979825388229511 0 0.26519442307348812 0.1188177922564181 0 0.26487973471170051 0.1148861259760711 0 0.26888095198589312 0.11979825388229511 0 0.26562400985315288 0.1251654340079911 0 0.27248198541775659 0.12784311929978001 0 0.26888095198589312 0.11979825388229511 0 0.26519442307348812 0.1188177922564181 0 0.26562400985315288 0.1251654340079911 0 0.27786688771157569 0.1150217509861922 0 0.26638390190257438 0.1102685147937751 0 0.25872482925013801 0.09949030162923457 0 0.27786688771157569 0.1150217509861922 0 0.25872482925013801 0.09949030162923457 0 0.27786688771157569 0.1150217509861922 0 0.27150352658480642 0.1040925172930806 0 0.25872482925013801 0.09949030162923457 0 0.28527214605629803 0.093542631019163408 0 0.27597760534302263 0.093816081557894046 0 0.28108272677848523 0.099874609951530163 0 0.27597760534302263 0.093816081557894046 0 0.28108272677848523 0.099874609951530163 0 0.27461357126647679 0.10027579108255071 0 0.27786688771157569 0.1150217509861922 0 0.27702128122739278 0.10689832557857171 0 0.27150352658480642 0.1040925172930806 0 0.27461357126647679 0.10027579108255071 0 0.27702128122739278 0.10689832557857171 0 0.27150352658480642 0.1040925172930806 0 0.28356239405763972 0.106033323917978 0 0.28108272677848523 0.099874609951530163 0 0.27702128122739278 0.10689832557857171 0 0.28108272677848523 0.099874609951530163 0 0.27461357126647679 0.10027579108255071 0 0.27702128122739278 0.10689832557857171 0 0.28356239405763972 0.106033323917978 0 0.2814598539497668 0.10990299155730229 0 0.27702128122739278 0.10689832557857171 0 0.2619867778419176 0.09199379318438361 0 0.27597760534302263 0.093816081557894046 0 0.26850219741802223 0.0981363484555835 0 0.27150352658480642 0.1040925172930806 0 0.26850219741802223 0.0981363484555835 0 0.25872482925013801 0.09949030162923457 0 0.27461357126647679 0.10027579108255071 0 0.27150352658480642 0.1040925172930806 0 0.26850219741802223 0.0981363484555835 0 0.27597760534302263 0.093816081557894046 0 0.27461357126647679 0.10027579108255071 0 0.26850219741802223 0.0981363484555835 0 0.2619867778419176 0.09199379318438361 0 0.26850219741802223 0.0981363484555835 0 0.25872482925013801 0.09949030162923457 0 0.2619867778419176 0.09199379318438361 0 0.26016144869860108 0.09301841504440217 0 0.25872482925013801 0.09949030162923457 0 0.2619867778419176 0.09199379318438361 0 0.25872482925013801 0.09949030162923457 0 0.26016144869860108 0.09301841504440217 0 0.25872482925013801 0.09949030162923457 0 0.26016144869860108 0.09301841504440217 0 0.25872482925013801 0.09949030162923457 0 0.25459763100830068 0.096141582858552177 0 0.26638390190257438 0.1102685147937751 0 0.25872482925013801 0.09949030162923457 0 0.26054083413963042 0.1068609537315081 0 0.26638390190257438 0.1102685147937751 0 0.26054083413963042 0.1068609537315081 0 0.25655208948606423 0.10927836717886751 0 0.25872482925013801 0.09949030162923457 0 0.258042440935632 0.10497087790269199 0 0.26054083413963042 0.1068609537315081 0 0.25872482925013801 0.09949030162923457 0 0.258042440935632 0.10497087790269199 0 0.258042440935632 0.10497087790269199 0 0.26054083413963042 0.1068609537315081 0 0.25655208948606423 0.10927836717886751 0 0.25872482925013801 0.09949030162923457 0 0.25655208948606423 0.10927836717886751 0 0.25872482925013801 0.09949030162923457 0 0.25655208948606423 0.10927836717886751 0 0.25459763100830068 0.096141582858552177 0 0.24174744587836799 0.1033548466348798 0 0.25655208948606423 0.10927836717886751 0 0.25459763100830068 0.096141582858552177 0 0.25872482925013801 0.09949030162923457 0 0.258042440935632 0.10497087790269199 0 0.25655208948606423 0.10927836717886751 0 0.25872482925013801 0.09949030162923457 0 0.25459763100830068 0.096141582858552177 0 0.26016144869860108 0.09301841504440217 0 0.25459763100830068 0.096141582858552177 0 0.27418517611644572 0.1163335826691398 0 0.25655208948606423 0.10927836717886751 0 0.26487973471170051 0.1148861259760711 0 0.27418517611644572 0.1163335826691398 0 0.25655208948606423 0.10927836717886751 0 0.2613903323121034 0.11972876860365821 0 0.25824300399834771 0.11754386918627879 0 0.25813574029091341 0.12532111527980791 0 0.2613903323121034 0.11972876860365821 0 0.25824300399834771 0.11754386918627879 0 0.26064106818342869 0.11649387083006101 0 0.2613903323121034 0.11972876860365821 0 0.26303182906276251 0.1167652494283456 0 0.26064106818342869 0.11649387083006101 0 0.2613903323121034 0.11972876860365821 0 0.25813574029091341 0.12532111527980791 0 0.26562400985315288 0.1251654340079911 0 0.2613903323121034 0.11972876860365821 0 0.26519442307348812 0.1188177922564181 0 0.26562400985315288 0.1251654340079911 0 0.2613903323121034 0.11972876860365821 0 0.26519442307348812 0.1188177922564181 0 0.26303182906276251 0.1167652494283456 0 0.26487973471170051 0.1148861259760711 0 0.2618287337373767 0.1148464313763837 0 0.2589676606418963 0.1122376160430168 0 0.25655208948606423 0.10927836717886751 0 0.26487973471170051 0.1148861259760711 0 0.2589676606418963 0.1122376160430168 0 0.26519442307348812 0.1188177922564181 0 0.26487973471170051 0.1148861259760711 0 0.26303182906276251 0.1167652494283456 0 0.26487973471170051 0.1148861259760711 0 0.2618287337373767 0.1148464313763837 0 0.26303182906276251 0.1167652494283456 0 0.2618287337373767 0.1148464313763837 0 0.26303182906276251 0.1167652494283456 0 0.26064106818342869 0.11649387083006101 0 0.2618287337373767 0.1148464313763837 0 0.26064106818342869 0.11649387083006101 0 0.26015078570541528 0.1146524558252945 0 0.2618287337373767 0.1148464313763837 0 0.2589676606418963 0.1122376160430168 0 0.26015078570541528 0.1146524558252945 0 0.2589676606418963 0.1122376160430168 0 0.26015078570541528 0.1146524558252945 0 0.25777400528710798 0.1147846643059361 0 0.25824300399834771 0.11754386918627879 0 0.26015078570541528 0.1146524558252945 0 0.25777400528710798 0.1147846643059361 0 0.25824300399834771 0.11754386918627879 0 0.26064106818342869 0.11649387083006101 0 0.26015078570541528 0.1146524558252945 0 0.24646482385440791 0.1109165710353929 0 0.25655208948606423 0.10927836717886751 0 0.255186127323073 0.11543194682551421 0 0.25824300399834771 0.11754386918627879 0 0.25777400528710798 0.1147846643059361 0 0.255186127323073 0.11543194682551421 0 0.2589676606418963 0.1122376160430168 0 0.25777400528710798 0.1147846643059361 0 0.255186127323073 0.11543194682551421 0 0.25655208948606423 0.10927836717886751 0 0.255186127323073 0.11543194682551421 0 0.25655208948606423 0.10927836717886751 0 0.2589676606418963 0.1122376160430168 0 0.255186127323073 0.11543194682551421 0 0.255186127323073 0.11543194682551421 0 0.25238596385504641 0.12804651946228041 0 0.24420216851797599 0.1292372680552665 0 0.255186127323073 0.11543194682551421 0 0.25238596385504641 0.12804651946228041 0 0.255186127323073 0.11543194682551421 0 0.25238596385504641 0.12804651946228041 0 0.25813574029091341 0.12532111527980791 0 0.25824300399834771 0.11754386918627879 0 0.255186127323073 0.11543194682551421 0 0.25813574029091341 0.12532111527980791 0 0.25238596385504641 0.12804651946228041 0 0.25813574029091341 0.12532111527980791 0 0.26818611498992623 0.1403022215883418 0 0.24420216851797599 0.1292372680552665 0 0.26818611498992623 0.1403022215883418 0 0.24301228879775941 0.13939302681245261 0 0.24420216851797599 0.1292372680552665 0 0.26818611498992623 0.1403022215883418 0 0.24420216851797599 0.1292372680552665 0 0.25238596385504641 0.12804651946228041 0 0.26818611498992623 0.1403022215883418 0 0.25813574029091341 0.12532111527980791 0 0.26562400985315288 0.1251654340079911 0 0.26818611498992623 0.1403022215883418 0 0.27248198541775659 0.12784311929978001 0 0.26818611498992623 0.1403022215883418 0 0.27913813953766042 0.12972245958528131 0 0.26562400985315288 0.1251654340079911 0 0.27248198541775659 0.12784311929978001 0 0.26818611498992623 0.1403022215883418 0 0.26818611498992623 0.1403022215883418 0 0.27913813953766042 0.12972245958528131 0 0.28414721419066807 0.1482284927670183 0 0.26818611498992623 0.1403022215883418 0 0.26583546295036609 0.16369396270660089 0 0.28414721419066807 0.1482284927670183 0 0.26818611498992623 0.1403022215883418 0 0.25486404381895789 0.1523024957907583 0 0.26583546295036609 0.16369396270660089 0 0.24301228879775941 0.13939302681245261 0 0.26818611498992623 0.1403022215883418 0 0.25486404381895789 0.1523024957907583 0 0.2424223085377801 0.16582077205563811 0 0.25486404381895789 0.1523024957907583 0 0.26583546295036609 0.16369396270660089 0 0.2424223085377801 0.16582077205563811 0 0.26032431562704572 0.18342712708893841 0 0.26583546295036609 0.16369396270660089 0 0.26032431562704572 0.18342712708893841 0 0.27712404590978218 0.18082877805207789 0 0.26583546295036609 0.16369396270660089 0 0.27712404590978218 0.18082877805207789 0 0.26583546295036609 0.16369396270660089 0 0.28977860037431658 0.16805367250728201 0 0.26583546295036609 0.16369396270660089 0 0.28977860037431658 0.16805367250728201 0 0.28414721419066807 0.1482284927670183 0 0.27712404590978218 0.18082877805207789 0 0.28977860037431658 0.16805367250728201 0 0.29478084704188562 0.18627619782702401 0 0.28977860037431658 0.16805367250728201 0 0.29478084704188562 0.18627619782702401 0 0.31259037162619269 0.16725562300018509 0 0.29478084704188562 0.18627619782702401 0 0.31732062797233113 0.1926592597090995 0 0.31259037162619269 0.16725562300018509 0 0.28977860037431658 0.16805367250728201 0 0.29946190776947251 0.15165108642358641 0 0.31259037162619269 0.16725562300018509 0 0.29946190776947251 0.15165108642358641 0 0.31457327253359829 0.14480451223356691 0 0.31259037162619269 0.16725562300018509 0 0.29946190776947251 0.15165108642358641 0 0.29622008012258699 0.12991313160987961 0 0.31457327253359829 0.14480451223356691 0 0.29622008012258699 0.12991313160987961 0 0.31457327253359829 0.14480451223356691 0 0.29622008012258699 0.12991313160987961 0 0.32387679174541939 0.1297141718462434 0 0.31457327253359829 0.14480451223356691 0 0.27913813953766042 0.12972245958528131 0 0.29622008012258699 0.12991313160987961 0 0.28414721419066807 0.1482284927670183 0 0.29946190776947251 0.15165108642358641 0 0.29622008012258699 0.12991313160987961 0 0.28414721419066807 0.1482284927670183 0 0.28977860037431658 0.16805367250728201 0 0.29946190776947251 0.15165108642358641 0 0.28414721419066807 0.1482284927670183 0 0.27355486584907379 0.24364475180805101 0 0.25452501640087027 0.2374112721999547 0 0.26408278890255732 0.22479217687295791 0 0.25404003316197471 0.25208422786308371 0 0.27355486584907379 0.24364475180805101 0 0.25452501640087027 0.2374112721999547 0 0.24523436150048811 0.24199469982198529 0 0.25404003316197471 0.25208422786308371 0 0.25452501640087027 0.2374112721999547 0 0.24868260911088891 0.2303107595792985 0 0.2471090749199483 0.2357199094212839 0 0.25452501640087027 0.2374112721999547 0 0.24868260911088891 0.2303107595792985 0 0.25452501640087027 0.2374112721999547 0 0.26408278890255732 0.22479217687295791 0 0.24868260911088891 0.2303107595792985 0 0.26408278890255732 0.22479217687295791 0 0.25357276657721323 0.21641202867955539 0 0.27355486584907379 0.24364475180805101 0 0.26408278890255732 0.22479217687295791 0 0.28109637724199782 0.22150209212538899 0 0.26408278890255732 0.22479217687295791 0 0.28109637724199782 0.22150209212538899 0 0.27306509823529962 0.19947215684549871 0 0.26408278890255732 0.22479217687295791 0 0.25357276657721323 0.21641202867955539 0 0.27306509823529962 0.19947215684549871 0 0.25357276657721323 0.21641202867955539 0 0.25471258750952741 0.20148162901819469 0 0.27306509823529962 0.19947215684549871 0 0.25357276657721323 0.21641202867955539 0 0.27306509823529962 0.19947215684549871 0 0.2418323282778008 0.1922485172988235 0 0.26032431562704572 0.18342712708893841 0 0.25471258750952741 0.20148162901819469 0 0.26032431562704572 0.18342712708893841 0 0.25471258750952741 0.20148162901819469 0 0.27306509823529962 0.19947215684549871 0 0.26032431562704572 0.18342712708893841 0 0.27712404590978218 0.18082877805207789 0 0.27306509823529962 0.19947215684549871 0 0.29478084704188562 0.18627619782702401 0 0.27306509823529962 0.19947215684549871 0 0.29788838547339219 0.20777731020547871 0 0.27712404590978218 0.18082877805207789 0 0.29478084704188562 0.18627619782702401 0 0.27306509823529962 0.19947215684549871 0 0.29478084704188562 0.18627619782702401 0 0.29788838547339219 0.20777731020547871 0 0.31732062797233113 0.1926592597090995 0 0.29788838547339219 0.20777731020547871 0 0.31916040529159301 0.2166328624030785 0 0.31732062797233113 0.1926592597090995 0 0.28109637724199782 0.22150209212538899 0 0.27306509823529962 0.19947215684549871 0 0.29788838547339219 0.20777731020547871 0 0.28109637724199782 0.22150209212538899 0 0.29788838547339219 0.20777731020547871 0 0.29668368374297521 0.23238313674276659 0 0.27355486584907379 0.24364475180805101 0 0.28109637724199782 0.22150209212538899 0 0.29668368374297521 0.23238313674276659 0 0.29788838547339219 0.20777731020547871 0 0.29668368374297521 0.23238313674276659 0 0.31916040529159301 0.2166328624030785 0 0.29692855903906679 0.25537037528416417 0 0.29668368374297521 0.23238313674276659 0 0.32448256229391081 0.244023600812113 0 0.29692855903906679 0.25537037528416417 0 0.27355486584907379 0.24364475180805101 0 0.29668368374297521 0.23238313674276659 0 0.32448256229391081 0.244023600812113 0 0.33724611662768478 0.226971671205 0 0.35052125483258301 0.2434514759103418 0 0.32448256229391081 0.244023600812113 0 0.33724611662768478 0.226971671205 0 0.31916040529159301 0.2166328624030785 0 0.29668368374297521 0.23238313674276659 0 0.32448256229391081 0.244023600812113 0 0.31916040529159301 0.2166328624030785 0 0.33724611662768478 0.226971671205 0 0.31916040529159301 0.2166328624030785 0 0.34036716376080012 0.20191553243135291 0 0.31916040529159301 0.2166328624030785 0 0.31732062797233113 0.1926592597090995 0 0.34036716376080012 0.20191553243135291 0 0.31732062797233113 0.1926592597090995 0 0.34036716376080012 0.20191553243135291 0 0.33327910971122948 0.1769249887409369 0 0.34036716376080012 0.20191553243135291 0 0.33327910971122948 0.1769249887409369 0 0.35363051640006049 0.1838751638919715 0 0.34036716376080012 0.20191553243135291 0 0.36940151407566268 0.20038014978660379 0 0.35363051640006049 0.1838751638919715 0 0.36940151407566268 0.20038014978660379 0 0.35418005050780299 0.2186338278764331 0 0.36970064025412291 0.2313836502337521 0 0.34036716376080012 0.20191553243135291 0 0.36940151407566268 0.20038014978660379 0 0.35418005050780299 0.2186338278764331 0 0.33724611662768478 0.226971671205 0 0.34036716376080012 0.20191553243135291 0 0.35418005050780299 0.2186338278764331 0 0.33724611662768478 0.226971671205 0 0.35418005050780299 0.2186338278764331 0 0.35052125483258301 0.2434514759103418 0 0.35418005050780299 0.2186338278764331 0 0.36970064025412291 0.2313836502337521 0 0.35052125483258301 0.2434514759103418 0 0.37478492512234668 0.26235925763296819 0 0.36970064025412291 0.2313836502337521 0 0.35052125483258301 0.2434514759103418 0 0.33497932682518311 0.1519205034936916 0 0.32387679174541939 0.1297141718462434 0 0.35327239972246333 0.1300285668288671 0 0.33497932682518311 0.1519205034936916 0 0.31457327253359829 0.14480451223356691 0 0.31259037162619269 0.16725562300018509 0 0.33497932682518311 0.1519205034936916 0 0.32387679174541939 0.1297141718462434 0 0.31457327253359829 0.14480451223356691 0 0.33497932682518311 0.1519205034936916 0 0.31259037162619269 0.16725562300018509 0 0.33327910971122948 0.1769249887409369 0 0.31732062797233113 0.1926592597090995 0 0.31259037162619269 0.16725562300018509 0 0.33327910971122948 0.1769249887409369 0 0.33497932682518311 0.1519205034936916 0 0.33327910971122948 0.1769249887409369 0 0.34907151432127381 0.16521020144779211 0 0.34907151432127381 0.16521020144779211 0 0.35363051640006049 0.1838751638919715 0 0.37277469716236061 0.17385369407461371 0 0.33327910971122948 0.1769249887409369 0 0.34907151432127381 0.16521020144779211 0 0.35363051640006049 0.1838751638919715 0 0.36940151407566268 0.20038014978660379 0 0.35363051640006049 0.1838751638919715 0 0.37277469716236061 0.17385369407461371 0 0.37277469716236061 0.17385369407461371 0 0.36285879787080821 0.15032831482926681 0 0.3843829660287168 0.1587008111838667 0 0.34907151432127381 0.16521020144779211 0 0.37277469716236061 0.17385369407461371 0 0.36285879787080821 0.15032831482926681 0 0.36285879787080821 0.15032831482926681 0 0.36938385952287339 0.13266757129752671 0 0.38232915319187621 0.14145147187989651 0 0.33497932682518311 0.1519205034936916 0 0.36285879787080821 0.15032831482926681 0 0.35327239972246333 0.1300285668288671 0 0.33497932682518311 0.1519205034936916 0 0.34907151432127381 0.16521020144779211 0 0.36285879787080821 0.15032831482926681 0 0.36649271172908648 0.1176987398754743 0 0.35327239972246333 0.1300285668288671 0 0.36938385952287339 0.13266757129752671 0 0.36285879787080821 0.15032831482926681 0 0.35327239972246333 0.1300285668288671 0 0.36938385952287339 0.13266757129752671 0 0.39421974672685411 0.13240309148155921 0 0.38232915319187621 0.14145147187989651 0 0.38138511069115272 0.12353481432135879 0 0.36938385952287339 0.13266757129752671 0 0.38232915319187621 0.14145147187989651 0 0.38138511069115272 0.12353481432135879 0 0.39421974672685411 0.13240309148155921 0 0.41199731756477831 0.13352747615702071 0 0.3942733283070321 0.11371104406223111 0 0.39421974672685411 0.13240309148155921 0 0.40120830104283178 0.15077536395034899 0 0.41199731756477831 0.13352747615702071 0 0.39421974672685411 0.13240309148155921 0 0.40120830104283178 0.15077536395034899 0 0.38232915319187621 0.14145147187989651 0 0.36285879787080821 0.15032831482926681 0 0.38232915319187621 0.14145147187989651 0 0.3843829660287168 0.1587008111838667 0 0.40120830104283178 0.15077536395034899 0 0.38232915319187621 0.14145147187989651 0 0.3843829660287168 0.1587008111838667 0 0.37277469716236061 0.17385369407461371 0 0.3843829660287168 0.1587008111838667 0 0.39936082591505218 0.176604797209717 0 0.37277469716236061 0.17385369407461371 0 0.39936082591505218 0.176604797209717 0 0.38992891259608609 0.19548318162929729 0 0.40120830104283178 0.15077536395034899 0 0.39936082591505218 0.176604797209717 0 0.41410660213767347 0.1652382216241598 0 0.40120830104283178 0.15077536395034899 0 0.3843829660287168 0.1587008111838667 0 0.39936082591505218 0.176604797209717 0 0.40120830104283178 0.15077536395034899 0 0.41410660213767347 0.1652382216241598 0 0.42972130682252457 0.1533439082518103 0 0.39936082591505218 0.176604797209717 0 0.41410660213767347 0.1652382216241598 0 0.42626679864566441 0.18172907206941921 0 0.42626679864566441 0.18172907206941921 0 0.42972130682252457 0.1533439082518103 0 0.45055708181009879 0.1690731760043504 0 0.41410660213767347 0.1652382216241598 0 0.42626679864566441 0.18172907206941921 0 0.42972130682252457 0.1533439082518103 0 0.42972130682252457 0.1533439082518103 0 0.43054248402473921 0.1250848439374013 0 0.44904083753606949 0.1441389705362057 0 0.42972130682252457 0.1533439082518103 0 0.43054248402473921 0.1250848439374013 0 0.41199731756477831 0.13352747615702071 0 0.43054248402473921 0.1250848439374013 0 0.41199731756477831 0.13352747615702071 0 0.41135066019799099 0.1182158826350982 0 0.40120830104283178 0.15077536395034899 0 0.42972130682252457 0.1533439082518103 0 0.41199731756477831 0.13352747615702071 0 0.42972130682252457 0.1533439082518103 0 0.41199731756477831 0.13352747615702071 0 0.40097752291506289 0.25902709479471048 0 0.39333580902427501 0.24081282939082621 0 0.41286841049430861 0.24788583003777651 0 0.37478492512234668 0.26235925763296819 0 0.36970064025412291 0.2313836502337521 0 0.39333580902427501 0.24081282939082621 0 0.36970064025412291 0.2313836502337521 0 0.39333580902427501 0.24081282939082621 0 0.39338333076520482 0.2163019563834182 0 0.39338333076520482 0.2163019563834182 0 0.41736514745474701 0.23222376298023259 0 0.39333580902427501 0.24081282939082621 0 0.39338333076520482 0.2163019563834182 0 0.41736514745474701 0.23222376298023259 0 0.39338333076520482 0.2163019563834182 0 0.38992891259608609 0.19548318162929729 0 0.41508715600771068 0.20488700545500521 0 0.36940151407566268 0.20038014978660379 0 0.39338333076520482 0.2163019563834182 0 0.36940151407566268 0.20038014978660379 0 0.39338333076520482 0.2163019563834182 0 0.38992891259608609 0.19548318162929729 0 0.36940151407566268 0.20038014978660379 0 0.36970064025412291 0.2313836502337521 0 0.39338333076520482 0.2163019563834182 0 0.36940151407566268 0.20038014978660379 0 0.37277469716236061 0.17385369407461371 0 0.38992891259608609 0.19548318162929729 0 0.39936082591505218 0.176604797209717 0 0.38992891259608609 0.19548318162929729 0 0.41508715600771068 0.20488700545500521 0 0.39936082591505218 0.176604797209717 0 0.42626679864566441 0.18172907206941921 0 0.41508715600771068 0.20488700545500521 0 0.42626679864566441 0.18172907206941921 0 0.44140000057487638 0.20455834627575151 0 0.44473765559285833 0.18692520255949671 0 0.42626679864566441 0.18172907206941921 0 0.41508715600771068 0.20488700545500521 0 0.44140000057487638 0.20455834627575151 0 0.41508715600771068 0.20488700545500521 0 0.43790507610234408 0.2273079216372012 0 0.44140000057487638 0.20455834627575151 0 0.39338333076520482 0.2163019563834182 0 0.41508715600771068 0.20488700545500521 0 0.41736514745474701 0.23222376298023259 0 0.41508715600771068 0.20488700545500521 0 0.41736514745474701 0.23222376298023259 0 0.43790507610234408 0.2273079216372012 0 0.42717012070777932 0.25569493195645271 0 0.41736514745474701 0.23222376298023259 0 0.44134696414428898 0.24814556957704689 0 0.41736514745474701 0.23222376298023259 0 0.44134696414428898 0.24814556957704689 0 0.41736514745474701 0.23222376298023259 0 0.44134696414428898 0.24814556957704689 0 0.43790507610234408 0.2273079216372012 0 0.39333580902427501 0.24081282939082621 0 0.41736514745474701 0.23222376298023259 0 0.41286841049430861 0.24788583003777651 0 0.42717012070777932 0.25569493195645271 0 0.41736514745474701 0.23222376298023259 0 0.41286841049430861 0.24788583003777651 0 0.45336271850049548 0.25236276911819511 0 0.45602225988021539 0.23816249748875179 0 0.48180965237011408 0.2487438147612096 0 0.45336271850049548 0.25236276911819511 0 0.45602225988021539 0.23816249748875179 0 0.44134696414428898 0.24814556957704689 0 0.44600400848591359 0.23698591979390529 0 0.43790507610234408 0.2273079216372012 0 0.45336271850049548 0.25236276911819511 0 0.44134696414428898 0.24814556957704689 0 0.44600400848591359 0.23698591979390529 0 0.45336271850049548 0.25236276911819511 0 0.45602225988021539 0.23816249748875179 0 0.44600400848591359 0.23698591979390529 0 0.45602225988021539 0.23816249748875179 0 0.44600400848591359 0.23698591979390529 0 0.45492939023952461 0.2194397610932603 0 0.44600400848591359 0.23698591979390529 0 0.43790507610234408 0.2273079216372012 0 0.45492939023952461 0.2194397610932603 0 0.45602225988021539 0.23816249748875179 0 0.45492939023952461 0.2194397610932603 0 0.47419086539053962 0.2296972043723752 0 0.45492939023952461 0.2194397610932603 0 0.46072674134079361 0.19234021588846559 0 0.47847088324409548 0.2092058758105422 0 0.45492939023952461 0.2194397610932603 0 0.44140000057487638 0.20455834627575151 0 0.46072674134079361 0.19234021588846559 0 0.43790507610234408 0.2273079216372012 0 0.45492939023952461 0.2194397610932603 0 0.44140000057487638 0.20455834627575151 0 0.44140000057487638 0.20455834627575151 0 0.46072674134079361 0.19234021588846559 0 0.44473765559285833 0.18692520255949671 0 0.46072674134079361 0.19234021588846559 0 0.4812983336831132 0.1885899983914231 0 0.47847088324409548 0.2092058758105422 0 0.4812983336831132 0.1885899983914231 0 0.5 0.19797878532577309 0 0.47847088324409548 0.2092058758105422 0 0.5 0.19797878532577309 0 0.47847088324409548 0.2092058758105422 0 0.5 0.22793385045351919 0 0.47847088324409548 0.2092058758105422 0 0.47419086539053962 0.2296972043723752 0 0.5 0.22793385045351919 0 0.45492939023952461 0.2194397610932603 0 0.47847088324409548 0.2092058758105422 0 0.47419086539053962 0.2296972043723752 0 0.5 0.25788891558126559 0 0.5 0.22793385045351919 0 0.48180965237011408 0.2487438147612096 0 0.47419086539053962 0.2296972043723752 0 0.5 0.22793385045351919 0 0.48180965237011408 0.2487438147612096 0 0.45602225988021539 0.23816249748875179 0 0.47419086539053962 0.2296972043723752 0 0.48180965237011408 0.2487438147612096 0 0.46287167922105149 0.15545842773829099 0 0.44904083753606949 0.1441389705362057 0 0.45055708181009879 0.1690731760043504 0 0.46287167922105149 0.15545842773829099 0 0.46355845200513762 0.13850516077978961 0 0.47909635670674228 0.14767892477560191 0 0.46287167922105149 0.15545842773829099 0 0.46355845200513762 0.13850516077978961 0 0.44904083753606949 0.1441389705362057 0 0.46355845200513762 0.13850516077978961 0 0.47795750643906171 0.12649365297180731 0 0.4559740449914913 0.1245921335342187 0 0.46355845200513762 0.13850516077978961 0 0.44904083753606949 0.1441389705362057 0 0.4559740449914913 0.1245921335342187 0 0.43054248402473921 0.1250848439374013 0 0.44904083753606949 0.1441389705362057 0 0.4559740449914913 0.1245921335342187 0 0.42972130682252457 0.1533439082518103 0 0.44904083753606949 0.1441389705362057 0 0.45055708181009879 0.1690731760043504 0 0.42626679864566441 0.18172907206941921 0 0.45055708181009879 0.1690731760043504 0 0.44473765559285833 0.18692520255949671 0 0.46072674134079361 0.19234021588846559 0 0.45055708181009879 0.1690731760043504 0 0.44473765559285833 0.18692520255949671 0 0.46072674134079361 0.19234021588846559 0 0.45055708181009879 0.1690731760043504 0 0.4752785409050499 0.1685484481011886 0 0.46287167922105149 0.15545842773829099 0 0.45055708181009879 0.1690731760043504 0 0.4752785409050499 0.1685484481011886 0 0.45055708181009879 0.1690731760043504 0 0.4752785409050499 0.1685484481011886 0 0.46287167922105149 0.15545842773829099 0 0.4752785409050499 0.1685484481011886 0 0.47909635670674228 0.14767892477560191 0 0.46072674134079361 0.19234021588846559 0 0.4812983336831132 0.1885899983914231 0 0.4752785409050499 0.1685484481011886 0 0.4812983336831132 0.1885899983914231 0 0.4752785409050499 0.1685484481011886 0 0.50000000000000111 0.1680237201980268 0 0.4812983336831132 0.1885899983914231 0 0.5 0.19797878532577309 0 0.50000000000000111 0.1680237201980268 0 0.4752785409050499 0.1685484481011886 0 0.50000000000000111 0.1680237201980268 0 0.4752785409050499 0.1685484481011886 0 0.50000000000000111 0.1680237201980268 0 0.47909635670674228 0.14767892477560191 0 0.50000000000000111 0.1680237201980268 0 0.5 0.14405257421324749 0 0.47909635670674228 0.14767892477560191 0 0.46355845200513762 0.13850516077978961 0 0.47909635670674228 0.14767892477560191 0 0.47795750643906171 0.12649365297180731 0 0.5 0.14405257421324749 0 0.47795750643906171 0.12649365297180731 0 0.5 0.12008142822846821 0 0.5 0.14405257421324749 0 0.47909635670674228 0.14767892477560191 0 0.47795750643906171 0.12649365297180731 0 0.47795750643906171 0.12649365297180731 0 0.5 0.12008142822846821 0 0.48437617198066579 0.1083096126220475 0 0.48437617198066579 0.1083096126220475 0 0.5 0.096110282243688894 0 0.4787628640296252 0.09057766153942011 0 0.5 0.12008142822846821 0 0.48437617198066579 0.1083096126220475 0 0.5 0.096110282243688894 0 0.48437617198066579 0.1083096126220475 0 0.4787628640296252 0.09057766153942011 0 0.46516048943464161 0.10828503812685281 0 0.47795750643906171 0.12649365297180731 0 0.48437617198066579 0.1083096126220475 0 0.46516048943464161 0.10828503812685281 0 0.49999999999999389 0.072139136258909636 0 0.47264706529987838 0.068582714068275596 0 0.5 0.096110282243688894 0 0.49999999999999389 0.072139136258909636 0 0.4787628640296252 0.09057766153942011 0 0.49999999999999389 0.072139136258909636 0 0.4787628640296252 0.09057766153942011 0 0.47264706529987838 0.068582714068275596 0 0.47264706529987838 0.068582714068275596 0 0.44529413059976319 0.065026291877640793 0 0.47264706529987838 0.068582714068275596 0 0.45009241250792742 0.089848104882156193 0 0.44529413059976319 0.065026291877640793 0 0.4787628640296252 0.09057766153942011 0 0.47264706529987838 0.068582714068275596 0 0.45009241250792742 0.089848104882156193 0 0.45009241250792742 0.089848104882156193 0 0.44529413059976319 0.065026291877640793 0 0.42710943965072512 0.080764761008918995 0 0.4559740449914913 0.1245921335342187 0 0.46516048943464161 0.10828503812685281 0 0.44660059903698529 0.1095612823054605 0 0.47795750643906171 0.12649365297180731 0 0.4559740449914913 0.1245921335342187 0 0.46516048943464161 0.10828503812685281 0 0.45009241250792742 0.089848104882156193 0 0.46516048943464161 0.10828503812685281 0 0.44660059903698529 0.1095612823054605 0 0.4787628640296252 0.09057766153942011 0 0.45009241250792742 0.089848104882156193 0 0.46516048943464161 0.10828503812685281 0 0.45009241250792742 0.089848104882156193 0 0.44660059903698529 0.1095612823054605 0 0.42999027194599682 0.1018780191517587 0 0.43054248402473921 0.1250848439374013 0 0.4559740449914913 0.1245921335342187 0 0.44660059903698529 0.1095612823054605 0 0.43054248402473921 0.1250848439374013 0 0.44660059903698529 0.1095612823054605 0 0.42999027194599682 0.1018780191517587 0 0.43054248402473921 0.1250848439374013 0 0.41661501870526302 0.10782610780512 0 0.42999027194599682 0.1018780191517587 0 0.43054248402473921 0.1250848439374013 0 0.41135066019799099 0.1182158826350982 0 0.41661501870526302 0.10782610780512 0 0.43054248402473921 0.1250848439374013 0 0.41135066019799099 0.1182158826350982 0 0.41135066019799099 0.1182158826350982 0 0.41661501870526302 0.10782610780512 0 0.40605193543095291 0.1101899923625959 0 0.41199731756477831 0.13352747615702071 0 0.40856435551682457 0.1195913393650266 0 0.41135066019799099 0.1182158826350982 0 0.41661501870526302 0.10782610780512 0 0.42999027194599682 0.1018780191517587 0 0.41050144950628809 0.092342992232264526 0 0.41661501870526302 0.10782610780512 0 0.41050144950628809 0.092342992232264526 0 0.40408322644931421 0.10337105767737099 0 0.41661501870526302 0.10782610780512 0 0.40605193543095291 0.1101899923625959 0 0.40408322644931421 0.10337105767737099 0 0.45009241250792742 0.089848104882156193 0 0.42999027194599682 0.1018780191517587 0 0.42710943965072512 0.080764761008918995 0 0.42999027194599682 0.1018780191517587 0 0.42710943965072512 0.080764761008918995 0 0.41050144950628809 0.092342992232264526 0 0.44529413059976319 0.065026291877640793 0 0.42710943965072512 0.080764761008918995 0 0.41794119589964812 0.061469869687005997 0 0.44529413059976319 0.065026291877640793 0 0.41794119589964812 0.061469869687005997 0 0.42710943965072512 0.080764761008918995 0 0.40780427562880051 0.074340584248736047 0 0.41794119589964812 0.061469869687005997 0 0.42710943965072512 0.080764761008918995 0 0.40780427562880051 0.074340584248736047 0 0.41050144950628809 0.092342992232264526 0 0.41050144950628809 0.092342992232264526 0 0.39288103188780799 0.079211850819119467 0 0.39173805803946632 0.094638931286680023 0 0.40780427562880051 0.074340584248736047 0 0.41050144950628809 0.092342992232264526 0 0.39288103188780799 0.079211850819119467 0 0.40780427562880051 0.074340584248736047 0 0.39058826119953283 0.057913447496371839 0 0.41794119589964812 0.061469869687005997 0 0.40780427562880051 0.074340584248736047 0 0.39288103188780799 0.079211850819119467 0 0.39058826119953283 0.057913447496371839 0 0.39288103188780799 0.079211850819119467 0 0.37575225644292037 0.071709270247263784 0 0.39058826119953283 0.057913447496371839 0 0.3742009225581896 0.091268948227223284 0 0.39288103188780799 0.079211850819119467 0 0.39173805803946632 0.094638931286680023 0 0.3742009225581896 0.091268948227223284 0 0.39288103188780799 0.079211850819119467 0 0.37575225644292037 0.071709270247263784 0 0.3742009225581896 0.091268948227223284 0 0.39215883637124299 0.11134692133279479 0 0.39173805803946632 0.094638931286680023 0 0.3742009225581896 0.091268948227223284 0 0.39215883637124299 0.11134692133279479 0 0.3742009225581896 0.091268948227223284 0 0.3795225325030368 0.1068242515199407 0 0.39215883637124299 0.11134692133279479 0 0.3795225325030368 0.1068242515199407 0 0.39215883637124299 0.11134692133279479 0 0.3795225325030368 0.1068242515199407 0 0.38138511069115272 0.12353481432135879 0 0.3942733283070321 0.11371104406223111 0 0.36649271172908648 0.1176987398754743 0 0.3795225325030368 0.1068242515199407 0 0.38138511069115272 0.12353481432135879 0 0.39421974672685411 0.13240309148155921 0 0.38138511069115272 0.12353481432135879 0 0.3942733283070321 0.11371104406223111 0 0.3795225325030368 0.1068242515199407 0 0.3942733283070321 0.11371104406223111 0 0.3795225325030368 0.1068242515199407 0 0.39215883637124299 0.11134692133279479 0 0.3942733283070321 0.11371104406223111 0 0.41135066019799099 0.1182158826350982 0 0.39215883637124299 0.11134692133279479 0 0.40605193543095291 0.1101899923625959 0 0.41135066019799099 0.1182158826350982 0 0.39215883637124299 0.11134692133279479 0 0.3942733283070321 0.11371104406223111 0 0.41135066019799099 0.1182158826350982 0 0.39215883637124299 0.11134692133279479 0 0.41199731756477831 0.13352747615702071 0 0.40856435551682457 0.1195913393650266 0 0.3942733283070321 0.11371104406223111 0 0.41199731756477831 0.13352747615702071 0 0.3942733283070321 0.11371104406223111 0 0.40856435551682457 0.1195913393650266 0 0.41135066019799099 0.1182158826350982 0 0.3942733283070321 0.11371104406223111 0 0.39215883637124299 0.11134692133279479 0 0.3942733283070321 0.11371104406223111 0 0.40856435551682457 0.1195913393650266 0 0.3942733283070321 0.11371104406223111 0 0.39215883637124299 0.11134692133279479 0 0.40408322644931421 0.10337105767737099 0 0.39173805803946632 0.094638931286680023 0 0.39215883637124299 0.11134692133279479 0 0.40605193543095291 0.1101899923625959 0 0.40408322644931421 0.10337105767737099 0 0.41050144950628809 0.092342992232264526 0 0.40408322644931421 0.10337105767737099 0 0.39173805803946632 0.094638931286680023 0 0.4038432128890253 0.016274120358417851 0 0.39452024459155199 0.029629145094844 0 0.3798040161112804 0.028996110171619349 0 0.4038432128890253 0.016274120358417851 0 0.39452024459155199 0.029629145094844 0 0.40714332068978548 0.032011032787191827 0 0.4038432128890253 0.016274120358417851 0 0.3798040161112804 0.028996110171619349 0 0.4038432128890253 0.016274120358417851 0 0.39390920682105918 0.0040204267233196643 0 0.38813729234829519 0.016219836643301819 0 0.4038432128890253 0.016274120358417851 0 0.39390920682105918 0.0040204267233196643 0 0.40369857438468087 -0.0060371637805465179 0 0.39390920682105918 0.0040204267233196643 0 0.38212023564171321 0.001094655884648786 0 0.38813729234829519 0.016219836643301819 0 0.38212023564171321 0.001094655884648786 0 0.37537418671591988 0.012891754799621079 0 0.3700201466167648 -0.002195575246397889 0 0.38212023564171321 0.001094655884648786 0 0.37537418671591988 0.012891754799621079 0 0.38813729234829519 0.016219836643301819 0 0.38029426512156322 0.021339738828328979 0 0.38813729234829519 0.016219836643301819 0 0.3798040161112804 0.028996110171619349 0 0.4038432128890253 0.016274120358417851 0 0.38813729234829519 0.016219836643301819 0 0.3798040161112804 0.028996110171619349 0 0.37537418671591988 0.012891754799621079 0 0.38029426512156322 0.021339738828328979 0 0.37786156531075732 0.02725125369877367 0 0.37537418671591988 0.012891754799621079 0 0.38029426512156322 0.021339738828328979 0 0.38813729234829519 0.016219836643301819 0 0.39452024459155199 0.029629145094844 0 0.3798040161112804 0.028996110171619349 0 0.384792923869274 0.033192425096464057 0 0.38029426512156322 0.021339738828328979 0 0.3798040161112804 0.028996110171619349 0 0.37786156531075732 0.02725125369877367 0 0.36984281421283938 0.03924660656396721 0 0.3798040161112804 0.028996110171619349 0 0.37675727284589372 0.036323400775862158 0 0.3798040161112804 0.028996110171619349 0 0.38012370578730592 0.033949837724153123 0 0.37675727284589372 0.036323400775862158 0 0.3798040161112804 0.028996110171619349 0 0.38012370578730592 0.033949837724153123 0 0.384792923869274 0.033192425096464057 0 0.38012370578730592 0.033949837724153123 0 0.38115894465086869 0.037510150111343843 0 0.384792923869274 0.033192425096464057 0 0.38012370578730592 0.033949837724153123 0 0.38115894465086869 0.037510150111343843 0 0.37675727284589372 0.036323400775862158 0 0.38115894465086869 0.037510150111343843 0 0.37675727284589372 0.036323400775862158 0 0.37726993283737248 0.041439113600633092 0 0.37726993283737248 0.041439113600633092 0 0.38325871491723518 0.0441773091346798 0 0.37608467898805159 0.048096788967416412 0 0.38115894465086869 0.037510150111343843 0 0.37726993283737248 0.041439113600633092 0 0.38325871491723518 0.0441773091346798 0 0.38115894465086869 0.037510150111343843 0 0.38325871491723518 0.0441773091346798 0 0.38884635116990662 0.036871995634108659 0 0.38325871491723518 0.0441773091346798 0 0.38884635116990662 0.036871995634108659 0 0.39118926401298038 0.043344116461786472 0 0.39452024459155199 0.029629145094844 0 0.38884635116990662 0.036871995634108659 0 0.384792923869274 0.033192425096464057 0 0.38115894465086869 0.037510150111343843 0 0.38884635116990662 0.036871995634108659 0 0.384792923869274 0.033192425096464057 0 0.36737709041569239 0.056764699852256018 0 0.39058826119953283 0.057913447496371839 0 0.36443667806580698 0.054513224756226962 0 0.37608467898805159 0.048096788967416412 0 0.39058826119953283 0.057913447496371839 0 0.36737709041569239 0.056764699852256018 0 0.37575225644292037 0.071709270247263784 0 0.39058826119953283 0.057913447496371839 0 0.36443667806580698 0.054513224756226962 0 0.39058826119953283 0.057913447496371839 0 0.38325871491723518 0.0441773091346798 0 0.37608467898805159 0.048096788967416412 0 0.39058826119953283 0.057913447496371839 0 0.38325871491723518 0.0441773091346798 0 0.39058826119953283 0.057913447496371839 0 0.39118926401298038 0.043344116461786472 0 0.39058826119953283 0.057913447496371839 0 0.39917917489280202 0.048669550515315511 0 0.40824027372044169 0.058787065978875973 0 0.39058826119953283 0.057913447496371839 0 0.40824027372044169 0.058787065978875973 0 0.39058826119953283 0.057913447496371839 0 0.41794119589964812 0.061469869687005997 0 0.40824027372044169 0.058787065978875973 0 0.39058826119953283 0.057913447496371839 0 0.41794119589964812 0.061469869687005997 0 0.39058826119953283 0.057913447496371839 0 0.39917917489280202 0.048669550515315511 0 0.39118926401298038 0.043344116461786472 0 0.39917917489280202 0.048669550515315511 0 0.40803146459590139 0.044566129264659721 0 0.40824027372044169 0.058787065978875973 0 0.39452024459155199 0.029629145094844 0 0.38884635116990662 0.036871995634108659 0 0.39784661093515339 0.038736993374884177 0 0.39917917489280202 0.048669550515315511 0 0.39784661093515339 0.038736993374884177 0 0.39118926401298038 0.043344116461786472 0 0.38884635116990662 0.036871995634108659 0 0.39784661093515339 0.038736993374884177 0 0.39118926401298038 0.043344116461786472 0 0.39917917489280202 0.048669550515315511 0 0.39784661093515339 0.038736993374884177 0 0.40803146459590139 0.044566129264659721 0 0.39452024459155199 0.029629145094844 0 0.39784661093515339 0.038736993374884177 0 0.40714332068978548 0.032011032787191827 0 0.39784661093515339 0.038736993374884177 0 0.40714332068978548 0.032011032787191827 0 0.40803146459590139 0.044566129264659721 0 0.40714332068978548 0.032011032787191827 0 0.40803146459590139 0.044566129264659721 0 0.41964440497126981 0.040250358009145122 0 0.40803146459590139 0.044566129264659721 0 0.41964440497126981 0.040250358009145122 0 0.41733432138732551 0.050785193364838402 0 0.40714332068978548 0.032011032787191827 0 0.41964440497126981 0.040250358009145122 0 0.41891932927970088 0.026081136014491389 0 0.40824027372044169 0.058787065978875973 0 0.41733432138732551 0.050785193364838402 0 0.42589228624135061 0.059660684461379461 0 0.40824027372044169 0.058787065978875973 0 0.42589228624135061 0.059660684461379461 0 0.41794119589964812 0.061469869687005997 0 0.40824027372044169 0.058787065978875973 0 0.42589228624135061 0.059660684461379461 0 0.40803146459590139 0.044566129264659721 0 0.40824027372044169 0.058787065978875973 0 0.41733432138732551 0.050785193364838402 0 0.41964440497126981 0.040250358009145122 0 0.41733432138732551 0.050785193364838402 0 0.42647272639553008 0.050672874727357403 0 0.44529413059976319 0.065026291877640793 0 0.42589228624135061 0.059660684461379461 0 0.43583307009461808 0.053135938561971199 0 0.44529413059976319 0.065026291877640793 0 0.41794119589964812 0.061469869687005997 0 0.42589228624135061 0.059660684461379461 0 0.42589228624135061 0.059660684461379461 0 0.42647272639553008 0.050672874727357403 0 0.43583307009461808 0.053135938561971199 0 0.41733432138732551 0.050785193364838402 0 0.42589228624135061 0.059660684461379461 0 0.42647272639553008 0.050672874727357403 0 0.42647272639553008 0.050672874727357403 0 0.43583307009461808 0.053135938561971199 0 0.4340740022190257 0.043822740937536728 0 0.41964440497126981 0.040250358009145122 0 0.42987588244635011 0.033334548906864728 0 0.41891932927970088 0.026081136014491389 0 0.41964440497126981 0.040250358009145122 0 0.4340740022190257 0.043822740937536728 0 0.42987588244635011 0.033334548906864728 0 0.41964440497126981 0.040250358009145122 0 0.42647272639553008 0.050672874727357403 0 0.4340740022190257 0.043822740937536728 0 0.4340740022190257 0.043822740937536728 0 0.42987588244635011 0.033334548906864728 0 0.44528176508543132 0.032905620831071007 0 0.42987588244635011 0.033334548906864728 0 0.43184963590009789 0.021236349906575389 0 0.44528176508543132 0.032905620831071007 0 0.43184963590009789 0.021236349906575389 0 0.42259879527057942 0.015927249454054739 0 0.43188165484739188 0.01287087804949661 0 0.43184963590009789 0.021236349906575389 0 0.42259879527057942 0.015927249454054739 0 0.41891932927970088 0.026081136014491389 0 0.42987588244635011 0.033334548906864728 0 0.43184963590009789 0.021236349906575389 0 0.41891932927970088 0.026081136014491389 0 0.4038432128890253 0.016274120358417851 0 0.42259879527057942 0.015927249454054739 0 0.41891932927970088 0.026081136014491389 0 0.4038432128890253 0.016274120358417851 0 0.40714332068978548 0.032011032787191827 0 0.41891932927970088 0.026081136014491389 0 0.4038432128890253 0.016274120358417851 0 0.41402040698134779 -0.0025911497673051101 0 0.40369857438468087 -0.0060371637805465179 0 0.4038432128890253 0.016274120358417851 0 0.42788240966677021 0.003552130545216341 0 0.4038432128890253 0.016274120358417851 0 0.42101935538117791 0.0050386314779034547 0 0.41402040698134779 -0.0025911497673051101 0 0.4038432128890253 0.016274120358417851 0 0.42259879527057942 0.015927249454054739 0 0.42788240966677021 0.003552130545216341 0 0.4038432128890253 0.016274120358417851 0 0.42101935538117791 0.0050386314779034547 0 0.42788240966677021 0.003552130545216341 0 0.42788240966677021 0.003552130545216341 0 0.43188165484739188 0.01287087804949661 0 0.44740740452026229 0.01137317045841814 0 0.42259879527057942 0.015927249454054739 0 0.42788240966677021 0.003552130545216341 0 0.43188165484739188 0.01287087804949661 0 0.43184963590009789 0.021236349906575389 0 0.43188165484739188 0.01287087804949661 0 0.44740740452026229 0.01137317045841814 0 0.42788240966677021 0.003552130545216341 0 0.44740740452026229 0.01137317045841814 0 0.45192160644451512 -0.0091698592679851504 0 0.43184963590009789 0.021236349906575389 0 0.44740740452026229 0.01137317045841814 0 0.44528176508543132 0.032905620831071007 0 0.44740740452026229 0.01137317045841814 0 0.44528176508543132 0.032905620831071007 0 0.46875558315454652 0.02621282055229885 0 0.44740740452026229 0.01137317045841814 0 0.4740075662235973 0.0028935560396234419 0 0.46875558315454652 0.02621282055229885 0 0.44740740452026229 0.01137317045841814 0 0.4740075662235973 0.0028935560396234419 0 0.45192160644451512 -0.0091698592679851504 0 0.44529413059976319 0.065026291877640793 0 0.44587589901867808 0.047550444472131762 0 0.4614262583005877 0.04791767975015173 0 0.44529413059976319 0.065026291877640793 0 0.43583307009461808 0.053135938561971199 0 0.44587589901867808 0.047550444472131762 0 0.43583307009461808 0.053135938561971199 0 0.4340740022190257 0.043822740937536728 0 0.44587589901867808 0.047550444472131762 0 0.44587589901867808 0.047550444472131762 0 0.44528176508543132 0.032905620831071007 0 0.4614262583005877 0.04791767975015173 0 0.4340740022190257 0.043822740937536728 0 0.44587589901867808 0.047550444472131762 0 0.44528176508543132 0.032905620831071007 0 0.44528176508543132 0.032905620831071007 0 0.4614262583005877 0.04791767975015173 0 0.46875558315454652 0.02621282055229885 0 0.47264706529987838 0.068582714068275596 0 0.44529413059976319 0.065026291877640793 0 0.4614262583005877 0.04791767975015173 0 0.47264706529987838 0.068582714068275596 0 0.4614262583005877 0.04791767975015173 0 0.48053199367993171 0.043851827509569327 0 0.4614262583005877 0.04791767975015173 0 0.48053199367993171 0.043851827509569327 0 0.46875558315454652 0.02621282055229885 0 0.48053199367993171 0.043851827509569327 0 0.5 0.04545089247058498 0 0.5 0.018762648682260189 0 0.49999999999999389 0.072139136258909636 0 0.47264706529987838 0.068582714068275596 0 0.48053199367993171 0.043851827509569327 0 0.49999999999999389 0.072139136258909636 0 0.48053199367993171 0.043851827509569327 0 0.5 0.04545089247058498 0 0.48053199367993171 0.043851827509569327 0 0.46875558315454652 0.02621282055229885 0 0.5 0.018762648682260189 0 0.4740075662235973 0.0028935560396234419 0 0.46875558315454652 0.02621282055229885 0 0.5 0.018762648682260189 0 0.4740075662235973 0.0028935560396234419 0 0.5 0.018762648682260189 0 0.5 -0.0079255951060647756 0 0.4740075662235973 0.0028935560396234419 0 0.5 -0.0079255951060647756 0 0.47596080322225992 -0.02189184908118659 0 0.47596080322225992 -0.02189184908118659 0 0.50000000000000377 -0.034613838894389633 0 0.5 -0.0079255951060647756 0 0.47596080322225992 -0.02189184908118659 0 0.50000000000000377 -0.034613838894389633 0 0.47596080322225992 -0.02189184908118659 0 0.50000000000000377 -0.034613838894389633 0 0.48339532061042467 -0.042675677639817791 0 0.50000000000000377 -0.034613838894389633 0 0.5 -0.052291970509826757 0 0.48339532061042467 -0.042675677639817791 0 0.5 -0.052291970509826757 0 0.48378938215607542 -0.060491629721736481 0 0.49999999999999678 -0.069970102125263903 0 0.5 -0.052291970509826757 0 0.48378938215607542 -0.060491629721736481 0 0.48339532061042467 -0.042675677639817791 0 0.48378938215607542 -0.060491629721736481 0 0.47035919737641452 -0.05083356829212015 0 0.48339532061042467 -0.042675677639817791 0 0.48378938215607542 -0.060491629721736481 0 0.47035919737641452 -0.05083356829212015 0 0.46263532094350251 -0.0655193079319734 0 0.47596080322225992 -0.02189184908118659 0 0.48339532061042467 -0.042675677639817791 0 0.46122373864745198 -0.034064038759572521 0 0.47035919737641452 -0.05083356829212015 0 0.48339532061042467 -0.042675677639817791 0 0.46122373864745198 -0.034064038759572521 0 0.46122373864745198 -0.034064038759572521 0 0.45641225836005789 -0.05051217933658872 0 0.44483042593949818 -0.041063070916932051 0 0.47035919737641452 -0.05083356829212015 0 0.46122373864745198 -0.034064038759572521 0 0.45641225836005789 -0.05051217933658872 0 0.45641225836005789 -0.05051217933658872 0 0.44526353314296241 -0.062107813217869068 0 0.46263532094350251 -0.0655193079319734 0 0.47035919737641452 -0.05083356829212015 0 0.45641225836005789 -0.05051217933658872 0 0.46263532094350251 -0.0655193079319734 0 0.45641225836005789 -0.05051217933658872 0 0.44526353314296241 -0.062107813217869068 0 0.44483042593949818 -0.041063070916932051 0 0.44526353314296241 -0.062107813217869068 0 0.44483042593949818 -0.041063070916932051 0 0.42768193525564641 -0.052738548234870043 0 0.46122373864745198 -0.034064038759572521 0 0.44483042593949818 -0.041063070916932051 0 0.44260817666721519 -0.025216613737701819 0 0.44483042593949818 -0.041063070916932051 0 0.44260817666721519 -0.025216613737701819 0 0.43454865465473302 -0.032105158367880783 0 0.46122373864745198 -0.034064038759572521 0 0.44260817666721519 -0.025216613737701819 0 0.45192160644451512 -0.0091698592679851504 0 0.42788240966677021 0.003552130545216341 0 0.45192160644451512 -0.0091698592679851504 0 0.44260817666721519 -0.025216613737701819 0 0.45192160644451512 -0.0091698592679851504 0 0.43543049063324413 -0.012350052332502739 0 0.42788240966677021 0.003552130545216341 0 0.45192160644451512 -0.0091698592679851504 0 0.43543049063324413 -0.012350052332502739 0 0.4740075662235973 0.0028935560396234419 0 0.47596080322225992 -0.02189184908118659 0 0.45192160644451512 -0.0091698592679851504 0 0.47596080322225992 -0.02189184908118659 0 0.45192160644451512 -0.0091698592679851504 0 0.47596080322225992 -0.02189184908118659 0 0.46122373864745198 -0.034064038759572521 0 0.45192160644451512 -0.0091698592679851504 0 0.47621403880257929 -0.099362679963144546 0 0.45825176112352212 -0.1171944005084963 0 0.47461064769812122 -0.12772964805397971 0 0.50000000000000433 -0.1143432737178363 0 0.47621403880257929 -0.099362679963144546 0 0.47461064769812122 -0.12772964805397971 0 0.50000000000000433 -0.1143432737178363 0 0.47461064769812122 -0.12772964805397971 0 0.49999999999998102 -0.1000967699598443 0 0.47621403880257929 -0.099362679963144546 0 0.49999999999998102 -0.1000967699598443 0 0.47621403880257929 -0.099362679963144546 0 0.48785951469139027 -0.086657123706384981 0 0.50000000000000433 -0.1143432737178363 0 0.49999999999998102 -0.1000967699598443 0 0.47621403880257929 -0.099362679963144546 0 0.47621403880257929 -0.099362679963144546 0 0.48785951469139027 -0.086657123706384981 0 0.47522401996300467 -0.077198942777287505 0 0.47621403880257929 -0.099362679963144546 0 0.47522401996300467 -0.077198942777287505 0 0.46460819440086443 -0.0896918568577834 0 0.49999999999998102 -0.1000967699598443 0 0.48785951469139027 -0.086657123706384981 0 0.49999999999999678 -0.069970102125263903 0 0.49999999999999678 -0.069970102125263903 0 0.47522401996300467 -0.077198942777287505 0 0.48785951469139027 -0.086657123706384981 0 0.49999999999999678 -0.069970102125263903 0 0.47522401996300467 -0.077198942777287505 0 0.48378938215607542 -0.060491629721736481 0 0.49999999999999678 -0.069970102125263903 0 0.47522401996300467 -0.077198942777287505 0 0.48378938215607542 -0.060491629721736481 0 0.47522401996300467 -0.077198942777287505 0 0.46263532094350251 -0.0655193079319734 0 0.47522401996300467 -0.077198942777287505 0 0.46263532094350251 -0.0655193079319734 0 0.4504480399260129 -0.084427783429311939 0 0.44526353314296241 -0.062107813217869068 0 0.46263532094350251 -0.0655193079319734 0 0.4504480399260129 -0.084427783429311939 0 0.44526353314296241 -0.062107813217869068 0 0.4504480399260129 -0.084427783429311939 0 0.43069868055782679 -0.078899440675300136 0 0.4504480399260129 -0.084427783429311939 0 0.45242807760517778 -0.098628589966444233 0 0.42864211640777627 -0.097894499969741214 0 0.4504480399260129 -0.084427783429311939 0 0.42567205988902129 -0.091656624081337568 0 0.47522401996300467 -0.077198942777287505 0 0.4504480399260129 -0.084427783429311939 0 0.47522401996300467 -0.077198942777287505 0 0.4504480399260129 -0.084427783429311939 0 0.46460819440086443 -0.0896918568577834 0 0.4504480399260129 -0.084427783429311939 0 0.46460819440086443 -0.0896918568577834 0 0.45242807760517778 -0.098628589966444233 0 0.47621403880257929 -0.099362679963144546 0 0.45242807760517778 -0.098628589966444233 0 0.45825176112352212 -0.1171944005084963 0 0.47621403880257929 -0.099362679963144546 0 0.45242807760517778 -0.098628589966444233 0 0.47621403880257929 -0.099362679963144546 0 0.46460819440086443 -0.0896918568577834 0 0.45242807760517778 -0.098628589966444233 0 0.45242807760517778 -0.098628589966444233 0 0.42864211640777627 -0.097894499969741214 0 0.45242807760517778 -0.098628589966444233 0 0.43893170590200609 -0.1195052611799315 0 0.42864211640777627 -0.097894499969741214 0 0.45242807760517778 -0.098628589966444233 0 0.43893170590200609 -0.1195052611799315 0 0.45825176112352212 -0.1171944005084963 0 0.42080162445294911 -0.1170697999396166 0 0.40604313277712428 -0.1171380761358455 0 0.41368108829086198 -0.13554811058748131 0 0.42080162445294911 -0.1170697999396166 0 0.40662173914453831 -0.097214899993173481 0 0.40604313277712428 -0.1171380761358455 0 0.43893170590200609 -0.1195052611799315 0 0.42080162445294911 -0.1170697999396166 0 0.430889964195386 -0.135117951771525 0 0.43893170590200609 -0.1195052611799315 0 0.42080162445294911 -0.1170697999396166 0 0.42864211640777627 -0.097894499969741214 0 0.43893170590200609 -0.1195052611799315 0 0.42864211640777627 -0.097894499969741214 0 0.42864211640777627 -0.097894499969741214 0 0.42567205988902129 -0.091656624081337568 0 0.42864211640777627 -0.097894499969741214 0 0.40662173914453831 -0.097214899993173481 0 0.42567205988902129 -0.091656624081337568 0 0.42080162445294911 -0.1170697999396166 0 0.42864211640777627 -0.097894499969741214 0 0.40662173914453831 -0.097214899993173481 0 0.42864211640777627 -0.097894499969741214 0 0.40662173914453831 -0.097214899993173481 0 0.40662173914453831 -0.097214899993173481 0 0.42567205988902129 -0.091656624081337568 0 0.40662173914453831 -0.097214899993173481 0 0.41829766411352998 -0.087706900461061957 0 0.42567205988902129 -0.091656624081337568 0 0.40662173914453831 -0.097214899993173481 0 0.41020628866808312 -0.08357079425946129 0 0.41829766411352998 -0.087706900461061957 0 0.41020628866808312 -0.08357079425946129 0 0.42012861486432151 -0.07981881462850364 0 0.41094109939792961 -0.074512111623280808 0 0.41020628866808312 -0.08357079425946129 0 0.41094109939792961 -0.074512111623280808 0 0.40556094342569721 -0.078918860306745137 0 0.41020628866808312 -0.08357079425946129 0 0.42012861486432151 -0.07981881462850364 0 0.41829766411352998 -0.087706900461061957 0 0.42012861486432151 -0.07981881462850364 0 0.41829766411352998 -0.087706900461061957 0 0.42254342745458301 -0.084546146485576762 0 0.41829766411352998 -0.087706900461061957 0 0.42461385466063262 -0.08943412331831832 0 0.42254342745458301 -0.084546146485576762 0 0.42567205988902129 -0.091656624081337568 0 0.42461385466063262 -0.08943412331831832 0 0.43069868055782679 -0.078899440675300136 0 0.4504480399260129 -0.084427783429311939 0 0.42567205988902129 -0.091656624081337568 0 0.43069868055782679 -0.078899440675300136 0 0.4504480399260129 -0.084427783429311939 0 0.42864211640777627 -0.097894499969741214 0 0.42567205988902129 -0.091656624081337568 0 0.42567205988902129 -0.091656624081337568 0 0.42461385466063262 -0.08943412331831832 0 0.41829766411352998 -0.087706900461061957 0 0.42567205988902129 -0.091656624081337568 0 0.42461385466063262 -0.08943412331831832 0 0.42012861486432151 -0.07981881462850364 0 0.43069868055782679 -0.078899440675300136 0 0.42254342745458301 -0.084546146485576762 0 0.42461385466063262 -0.08943412331831832 0 0.43069868055782679 -0.078899440675300136 0 0.42254342745458301 -0.084546146485576762 0 0.43069868055782679 -0.078899440675300136 0 0.42085386234523608 -0.065266903626460593 0 0.41911482919747139 -0.073234494934215744 0 0.43069868055782679 -0.078899440675300136 0 0.42085386234523608 -0.065266903626460593 0 0.42768193525564641 -0.052738548234870043 0 0.44526353314296241 -0.062107813217869068 0 0.43069868055782679 -0.078899440675300136 0 0.42768193525564641 -0.052738548234870043 0 0.43069868055782679 -0.078899440675300136 0 0.42768193525564641 -0.052738548234870043 0 0.42012861486432151 -0.07981881462850364 0 0.43069868055782679 -0.078899440675300136 0 0.41911482919747139 -0.073234494934215744 0 0.42085386234523608 -0.065266903626460593 0 0.41911482919747139 -0.073234494934215744 0 0.41247118756252621 -0.068972059658544485 0 0.41911482919747139 -0.073234494934215744 0 0.41094109939792961 -0.074512111623280808 0 0.41247118756252621 -0.068972059658544485 0 0.42012861486432151 -0.07981881462850364 0 0.41911482919747139 -0.073234494934215744 0 0.41094109939792961 -0.074512111623280808 0 0.41094109939792961 -0.074512111623280808 0 0.41247118756252621 -0.068972059658544485 0 0.40519344017519737 -0.069697512887539489 0 0.42085386234523608 -0.065266903626460593 0 0.41247118756252621 -0.068972059658544485 0 0.40625270669679608 -0.06214927522122575 0 0.41247118756252621 -0.068972059658544485 0 0.40519344017519737 -0.069697512887539489 0 0.40625270669679608 -0.06214927522122575 0 0.40519344017519737 -0.069697512887539489 0 0.3909339432522656 -0.07145852807871525 0 0.40625270669679608 -0.06214927522122575 0 0.41094109939792961 -0.074512111623280808 0 0.40094221169150912 -0.074554002884685597 0 0.40556094342569721 -0.078918860306745137 0 0.40519344017519737 -0.069697512887539489 0 0.40094221169150912 -0.074554002884685597 0 0.3909339432522656 -0.07145852807871525 0 0.41094109939792961 -0.074512111623280808 0 0.40519344017519737 -0.069697512887539489 0 0.40094221169150912 -0.074554002884685597 0 0.40094221169150912 -0.074554002884685597 0 0.3909339432522656 -0.07145852807871525 0 0.39616481607021642 -0.077435810443283751 0 0.3909339432522656 -0.07145852807871525 0 0.39616481607021642 -0.077435810443283751 0 0.39262893539182381 -0.080692178350181262 0 0.39181446083091098 -0.066763706552935329 0 0.38421934743036401 -0.068446750892908373 0 0.38398729378694407 -0.058429379279077209 0 0.38421934743036401 -0.068446750892908373 0 0.37813424473731178 -0.068262582352726586 0 0.38398729378694407 -0.058429379279077209 0 0.37813424473731178 -0.068262582352726586 0 0.38294139036628899 -0.080331335386894381 0 0.37353404377441052 -0.075370636612477671 0 0.38421934743036401 -0.068446750892908373 0 0.37813424473731178 -0.068262582352726586 0 0.38294139036628899 -0.080331335386894381 0 0.39181446083091098 -0.066763706552935329 0 0.38294139036628899 -0.080331335386894381 0 0.39181446083091098 -0.066763706552935329 0 0.38421934743036401 -0.068446750892908373 0 0.38294139036628899 -0.080331335386894381 0 0.3909339432522656 -0.07145852807871525 0 0.39181446083091098 -0.066763706552935329 0 0.38294139036628899 -0.080331335386894381 0 0.38598565568847482 -0.085166122563822014 0 0.39289996883908601 -0.089154852807517448 0 0.39262893539182381 -0.080692178350181262 0 0.3909339432522656 -0.07145852807871525 0 0.38598565568847482 -0.085166122563822014 0 0.39262893539182381 -0.080692178350181262 0 0.3909339432522656 -0.07145852807871525 0 0.37406831990166722 -0.093898964220853504 0 0.3909339432522656 -0.07145852807871525 0 0.38598565568847482 -0.085166122563822014 0 0.37406831990166722 -0.093898964220853504 0 0.3909339432522656 -0.07145852807871525 0 0.38294139036628899 -0.080331335386894381 0 0.37406831990166722 -0.093898964220853504 0 0.38294139036628899 -0.080331335386894381 0 0.37406831990166722 -0.093898964220853504 0 0.38598565568847482 -0.085166122563822014 0 0.38240509603332101 -0.092127683864182172 0 0.37406831990166722 -0.093898964220853504 0 0.38240509603332101 -0.092127683864182172 0 0.39289996883908601 -0.089154852807517448 0 0.38960421283109031 -0.096689699614190994 0 0.38598565568847482 -0.085166122563822014 0 0.38240509603332101 -0.092127683864182172 0 0.39289996883908601 -0.089154852807517448 0 0.39289996883908601 -0.089154852807517448 0 0.39262893539182381 -0.080692178350181262 0 0.40015417394526698 -0.083038532459552866 0 0.39616481607021642 -0.077435810443283751 0 0.39262893539182381 -0.080692178350181262 0 0.40015417394526698 -0.083038532459552866 0 0.40094221169150912 -0.074554002884685597 0 0.40556094342569721 -0.078918860306745137 0 0.40015417394526698 -0.083038532459552866 0 0.40094221169150912 -0.074554002884685597 0 0.39616481607021642 -0.077435810443283751 0 0.40015417394526698 -0.083038532459552866 0 0.41020628866808312 -0.08357079425946129 0 0.40556094342569721 -0.078918860306745137 0 0.40015417394526698 -0.083038532459552866 0 0.40662173914453831 -0.097214899993173481 0 0.39289996883908601 -0.089154852807517448 0 0.40015417394526698 -0.083038532459552866 0 0.40662173914453831 -0.097214899993173481 0 0.41020628866808312 -0.08357079425946129 0 0.40015417394526698 -0.083038532459552866 0 0.40662173914453831 -0.097214899993173481 0 0.3851668720105898 -0.10347474583943909 0 0.38960421283109031 -0.096689699614190994 0 0.40662173914453831 -0.097214899993173481 0 0.3851668720105898 -0.10347474583943909 0 0.40662173914453831 -0.097214899993173481 0 0.39289996883908601 -0.089154852807517448 0 0.38960421283109031 -0.096689699614190994 0 0.40662173914453831 -0.097214899993173481 0 0.38960421283109031 -0.096689699614190994 0 0.40662173914453831 -0.097214899993173481 0 0.3851668720105898 -0.10347474583943909 0 0.39374350655696688 -0.1137959578468639 0 0.38960421283109031 -0.096689699614190994 0 0.37237061700676077 -0.09615783082836224 0 0.3851668720105898 -0.10347474583943909 0 0.38960421283109031 -0.096689699614190994 0 0.37237061700676077 -0.09615783082836224 0 0.38240509603332101 -0.092127683864182172 0 0.38960421283109031 -0.096689699614190994 0 0.37237061700676077 -0.09615783082836224 0 0.38240509603332101 -0.092127683864182172 0 0.37406831990166722 -0.093898964220853504 0 0.37237061700676077 -0.09615783082836224 0 0.3785150876385216 -0.1195111518185689 0 0.39374350655696688 -0.1137959578468639 0 0.39237070121405998 -0.13164091544729051 0 0.3851668720105898 -0.10347474583943909 0 0.3785150876385216 -0.1195111518185689 0 0.36371200487664068 -0.10973459168570281 0 0.3851668720105898 -0.10347474583943909 0 0.3785150876385216 -0.1195111518185689 0 0.39374350655696688 -0.1137959578468639 0 0.40662173914453831 -0.097214899993173481 0 0.39374350655696688 -0.1137959578468639 0 0.40604313277712428 -0.1171380761358455 0 0.39374350655696688 -0.1137959578468639 0 0.40604313277712428 -0.1171380761358455 0 0.39237070121405998 -0.13164091544729051 0 0.41728163952739061 -0.019334187549187701 0 0.42284227266732188 -0.010769512158268201 0 0.42466518995346408 -0.026577655794440151 0 0.41728163952739061 -0.019334187549187701 0 0.41227128108974659 -0.029924501558089681 0 0.42466518995346408 -0.026577655794440151 0 0.41227128108974659 -0.029924501558089681 0 0.40863720631140932 -0.019892986955346081 0 0.40014031603924488 -0.033106741091830219 0 0.41728163952739061 -0.019334187549187701 0 0.41227128108974659 -0.029924501558089681 0 0.40863720631140932 -0.019892986955346081 0 0.41728163952739061 -0.019334187549187701 0 0.40863720631140932 -0.019892986955346081 0 0.41436166681859882 -0.01226683791037885 0 0.40863720631140932 -0.019892986955346081 0 0.41436166681859882 -0.01226683791037885 0 0.40369857438468087 -0.0060371637805465179 0 0.42101935538117791 0.0050386314779034547 0 0.41402040698134779 -0.0025911497673051101 0 0.42284227266732188 -0.010769512158268201 0 0.41402040698134779 -0.0025911497673051101 0 0.41436166681859882 -0.01226683791037885 0 0.40369857438468087 -0.0060371637805465179 0 0.41402040698134779 -0.0025911497673051101 0 0.41436166681859882 -0.01226683791037885 0 0.42284227266732188 -0.010769512158268201 0 0.41728163952739061 -0.019334187549187701 0 0.41436166681859882 -0.01226683791037885 0 0.42284227266732188 -0.010769512158268201 0 0.42284227266732188 -0.010769512158268201 0 0.43543049063324413 -0.012350052332502739 0 0.42769414368384923 -0.02254750278133769 0 0.42101935538117791 0.0050386314779034547 0 0.42284227266732188 -0.010769512158268201 0 0.42101935538117791 0.0050386314779034547 0 0.42788240966677021 0.003552130545216341 0 0.42284227266732188 -0.010769512158268201 0 0.42788240966677021 0.003552130545216341 0 0.42284227266732188 -0.010769512158268201 0 0.43543049063324413 -0.012350052332502739 0 0.42284227266732188 -0.010769512158268201 0 0.42466518995346408 -0.026577655794440151 0 0.42284227266732188 -0.010769512158268201 0 0.42769414368384923 -0.02254750278133769 0 0.42466518995346408 -0.026577655794440151 0 0.44260817666721519 -0.025216613737701819 0 0.43543049063324413 -0.012350052332502739 0 0.42769414368384923 -0.02254750278133769 0 0.42769414368384923 -0.02254750278133769 0 0.42466518995346408 -0.026577655794440151 0 0.43454865465473302 -0.032105158367880783 0 0.42769414368384923 -0.02254750278133769 0 0.42466518995346408 -0.026577655794440151 0 0.44260817666721519 -0.025216613737701819 0 0.42769414368384923 -0.02254750278133769 0 0.43454865465473302 -0.032105158367880783 0 0.42466518995346408 -0.026577655794440151 0 0.43454865465473302 -0.032105158367880783 0 0.42768193525564641 -0.052738548234870043 0 0.42466518995346408 -0.026577655794440151 0 0.42768193525564641 -0.052738548234870043 0 0.44483042593949818 -0.041063070916932051 0 0.43454865465473302 -0.032105158367880783 0 0.42768193525564641 -0.052738548234870043 0 0.42085386234523608 -0.065266903626460593 0 0.42768193525564641 -0.052738548234870043 0 0.40779956660286398 -0.049018091936576927 0 0.42085386234523608 -0.065266903626460593 0 0.40779956660286398 -0.049018091936576927 0 0.40625270669679608 -0.06214927522122575 0 0.42466518995346408 -0.026577655794440151 0 0.42768193525564641 -0.052738548234870043 0 0.40779956660286398 -0.049018091936576927 0 0.42466518995346408 -0.026577655794440151 0 0.40779956660286398 -0.049018091936576927 0 0.41227128108974659 -0.029924501558089681 0 0.42466518995346408 -0.026577655794440151 0 0.40779956660286398 -0.049018091936576927 0 0.41227128108974659 -0.029924501558089681 0 0.40779956660286398 -0.049018091936576927 0 0.40014031603924488 -0.033106741091830219 0 0.40779956660286398 -0.049018091936576927 0 0.40014031603924488 -0.033106741091830219 0 0.3912967176308087 -0.04756724484766426 0 0.40014031603924488 -0.033106741091830219 0 0.3912967176308087 -0.04756724484766426 0 0.38547037370043469 -0.032308846426106139 0 0.3909339432522656 -0.07145852807871525 0 0.40779956660286398 -0.049018091936576927 0 0.40625270669679608 -0.06214927522122575 0 0.3909339432522656 -0.07145852807871525 0 0.39181446083091098 -0.066763706552935329 0 0.40779956660286398 -0.049018091936576927 0 0.39181446083091098 -0.066763706552935329 0 0.40779956660286398 -0.049018091936576927 0 0.3912967176308087 -0.04756724484766426 0 0.3909339432522656 -0.07145852807871525 0 0.40779956660286398 -0.049018091936576927 0 0.3912967176308087 -0.04756724484766426 0 0.38398729378694407 -0.058429379279077209 0 0.37514153202862571 -0.045861082966856079 0 0.39181446083091098 -0.066763706552935329 0 0.3912967176308087 -0.04756724484766426 0 0.38398729378694407 -0.058429379279077209 0 0.38398729378694407 -0.058429379279077209 0 0.37514153202862571 -0.045861082966856079 0 0.37192531576168952 -0.05914395824800911 0 0.37813424473731178 -0.068262582352726586 0 0.38398729378694407 -0.058429379279077209 0 0.37192531576168952 -0.05914395824800911 0 0.3912967176308087 -0.04756724484766426 0 0.38547037370043469 -0.032308846426106139 0 0.37514153202862571 -0.045861082966856079 0 0.38547037370043469 -0.032308846426106139 0 0.37514153202862571 -0.045861082966856079 0 0.36877413775607049 -0.02995327657106206 0 0.38547037370043469 -0.032308846426106139 0 0.37927030083329177 -0.015743113788958679 0 0.36877413775607049 -0.02995327657106206 0 0.38547037370043469 -0.032308846426106139 0 0.37927030083329177 -0.015743113788958679 0 0.39536675090020662 -0.019928774827198261 0 0.40014031603924488 -0.033106741091830219 0 0.38547037370043469 -0.032308846426106139 0 0.39536675090020662 -0.019928774827198261 0 0.40863720631140932 -0.019892986955346081 0 0.40014031603924488 -0.033106741091830219 0 0.39536675090020662 -0.019928774827198261 0 0.40863720631140932 -0.019892986955346081 0 0.39536675090020662 -0.019928774827198261 0 0.40369857438468087 -0.0060371637805465179 0 0.39536675090020662 -0.019928774827198261 0 0.40369857438468087 -0.0060371637805465179 0 0.39174671884158141 -0.0074493154892236006 0 0.39390920682105918 0.0040204267233196643 0 0.40369857438468087 -0.0060371637805465179 0 0.39174671884158141 -0.0074493154892236006 0 0.38212023564171321 0.001094655884648786 0 0.37927030083329177 -0.015743113788958679 0 0.39174671884158141 -0.0074493154892236006 0 0.38212023564171321 0.001094655884648786 0 0.37927030083329177 -0.015743113788958679 0 0.3700201466167648 -0.002195575246397889 0 0.37927030083329177 -0.015743113788958679 0 0.39536675090020662 -0.019928774827198261 0 0.39174671884158141 -0.0074493154892236006 0 0.39390920682105918 0.0040204267233196643 0 0.38212023564171321 0.001094655884648786 0 0.39174671884158141 -0.0074493154892236006 0 0.35686418876597309 0.010252504770385159 0 0.3700201466167648 -0.002195575246397889 0 0.35727920934793722 -0.0129667368589869 0 0.37927030083329177 -0.015743113788958679 0 0.3700201466167648 -0.002195575246397889 0 0.35727920934793722 -0.0129667368589869 0 0.36877413775607049 -0.02995327657106206 0 0.35727920934793722 -0.0129667368589869 0 0.35227314840285812 -0.03152257084722427 0 0.37927030083329177 -0.015743113788958679 0 0.36877413775607049 -0.02995327657106206 0 0.35727920934793722 -0.0129667368589869 0 0.35727920934793722 -0.0129667368589869 0 0.33875503928457851 -0.02222753562310531 0 0.35227314840285812 -0.03152257084722427 0 0.35727920934793722 -0.0129667368589869 0 0.33586681222118892 -0.0067462441580033658 0 0.33875503928457851 -0.02222753562310531 0 0.35686418876597309 0.010252504770385159 0 0.35727920934793722 -0.0129667368589869 0 0.33586681222118892 -0.0067462441580033658 0 0.33586681222118892 -0.0067462441580033658 0 0.33875503928457851 -0.02222753562310531 0 0.31486943567640469 -0.023744993086391868 0 0.33875503928457851 -0.02222753562310531 0 0.31486943567640469 -0.023744993086391868 0 0.33348659077450338 -0.036157133164920148 0 0.33875503928457851 -0.02222753562310531 0 0.33348659077450338 -0.036157133164920148 0 0.35227314840285812 -0.03152257084722427 0 0.31046320235639918 0.0067575729804437252 0 0.33586681222118892 -0.0067462441580033658 0 0.3153830815233527 -0.0087530987426132929 0 0.33586681222118892 -0.0067462441580033658 0 0.31486943567640469 -0.023744993086391868 0 0.3153830815233527 -0.0087530987426132929 0 0.33586681222118892 -0.0067462441580033658 0 0.31486943567640469 -0.023744993086391868 0 0.32115491610998381 -0.052976688016941227 0 0.32092150739102382 -0.073097043805500014 0 0.30601744289912669 -0.055409131432484229 0 0.32115491610998381 -0.052976688016941227 0 0.31197137499350902 -0.041008225260955711 0 0.30601744289912669 -0.055409131432484229 0 0.31486943567640469 -0.023744993086391868 0 0.33348659077450338 -0.036157133164920148 0 0.31197137499350902 -0.041008225260955711 0 0.32115491610998381 -0.052976688016941227 0 0.33348659077450338 -0.036157133164920148 0 0.31197137499350902 -0.041008225260955711 0 0.33348659077450338 -0.036157133164920148 0 0.3363568723602065 -0.050864743298462772 0 0.35116628403686417 -0.048621598638038131 0 0.32115491610998381 -0.052976688016941227 0 0.33348659077450338 -0.036157133164920148 0 0.3363568723602065 -0.050864743298462772 0 0.32115491610998381 -0.052976688016941227 0 0.3363568723602065 -0.050864743298462772 0 0.33388625794764348 -0.064812423232177271 0 0.3363568723602065 -0.050864743298462772 0 0.34794047334546518 -0.063974584280765273 0 0.33388625794764348 -0.064812423232177271 0 0.3363568723602065 -0.050864743298462772 0 0.35116628403686417 -0.048621598638038131 0 0.34794047334546518 -0.063974584280765273 0 0.35116628403686417 -0.048621598638038131 0 0.35914505774559541 -0.060409417065886872 0 0.36392372675137458 -0.051574144679805103 0 0.35116628403686417 -0.048621598638038131 0 0.36240463436463582 -0.041692596330413237 0 0.36392372675137458 -0.051574144679805103 0 0.35116628403686417 -0.048621598638038131 0 0.35914505774559541 -0.060409417065886872 0 0.34794047334546518 -0.063974584280765273 0 0.35116628403686417 -0.048621598638038131 0 0.35227314840285812 -0.03152257084722427 0 0.36240463436463582 -0.041692596330413237 0 0.33348659077450338 -0.036157133164920148 0 0.35116628403686417 -0.048621598638038131 0 0.35227314840285812 -0.03152257084722427 0 0.37514153202862571 -0.045861082966856079 0 0.36877413775607049 -0.02995327657106206 0 0.36240463436463582 -0.041692596330413237 0 0.36877413775607049 -0.02995327657106206 0 0.35227314840285812 -0.03152257084722427 0 0.36240463436463582 -0.041692596330413237 0 0.37514153202862571 -0.045861082966856079 0 0.36240463436463582 -0.041692596330413237 0 0.36392372675137458 -0.051574144679805103 0 0.35914505774559541 -0.060409417065886872 0 0.36392372675137458 -0.051574144679805103 0 0.37192531576168952 -0.05914395824800911 0 0.37514153202862571 -0.045861082966856079 0 0.36392372675137458 -0.051574144679805103 0 0.37192531576168952 -0.05914395824800911 0 0.37813424473731178 -0.068262582352726586 0 0.37192531576168952 -0.05914395824800911 0 0.3680772617285144 -0.06977757947088653 0 0.35914505774559541 -0.060409417065886872 0 0.37192531576168952 -0.05914395824800911 0 0.3680772617285144 -0.06977757947088653 0 0.35914505774559541 -0.060409417065886872 0 0.3680772617285144 -0.06977757947088653 0 0.35837286676988928 -0.071968688592424085 0 0.3680772617285144 -0.06977757947088653 0 0.36498327826552668 -0.083111049239403226 0 0.35837286676988928 -0.071968688592424085 0 0.3680772617285144 -0.06977757947088653 0 0.37353404377441052 -0.075370636612477671 0 0.36498327826552668 -0.083111049239403226 0 0.37813424473731178 -0.068262582352726586 0 0.3680772617285144 -0.06977757947088653 0 0.37353404377441052 -0.075370636612477671 0 0.38294139036628899 -0.080331335386894381 0 0.37353404377441052 -0.075370636612477671 0 0.36498327826552668 -0.083111049239403226 0 0.36498327826552668 -0.083111049239403226 0 0.37237061700676077 -0.09615783082836224 0 0.34241852099989789 -0.095233439592861846 0 0.38294139036628899 -0.080331335386894381 0 0.36498327826552668 -0.083111049239403226 0 0.37406831990166722 -0.093898964220853504 0 0.36498327826552668 -0.083111049239403226 0 0.37406831990166722 -0.093898964220853504 0 0.37237061700676077 -0.09615783082836224 0 0.36498327826552668 -0.083111049239403226 0 0.3449175019875389 -0.076917716904771144 0 0.34241852099989789 -0.095233439592861846 0 0.36498327826552668 -0.083111049239403226 0 0.3449175019875389 -0.076917716904771144 0 0.35837286676988928 -0.071968688592424085 0 0.3449175019875389 -0.076917716904771144 0 0.34794047334546518 -0.063974584280765273 0 0.35837286676988928 -0.071968688592424085 0 0.35914505774559541 -0.060409417065886872 0 0.34794047334546518 -0.063974584280765273 0 0.35837286676988928 -0.071968688592424085 0 0.36371200487664068 -0.10973459168570281 0 0.35664352332635268 -0.13060513793896061 0 0.36779594019891898 -0.12729788290040461 0 0.3785150876385216 -0.1195111518185689 0 0.36371200487664068 -0.10973459168570281 0 0.36779594019891898 -0.12729788290040461 0 0.36371200487664068 -0.10973459168570281 0 0.37237061700676077 -0.09615783082836224 0 0.34241852099989789 -0.095233439592861846 0 0.3851668720105898 -0.10347474583943909 0 0.36371200487664068 -0.10973459168570281 0 0.37237061700676077 -0.09615783082836224 0 0.3851668720105898 -0.10347474583943909 0 0.36371200487664068 -0.10973459168570281 0 0.36371200487664068 -0.10973459168570281 0 0.37237061700676077 -0.09615783082836224 0 0.37406831990166722 -0.093898964220853504 0 0.37237061700676077 -0.09615783082836224 0 0.36371200487664068 -0.10973459168570281 0 0.34332012240242971 -0.1020930362129598 0 0.34241852099989789 -0.095233439592861846 0 0.36371200487664068 -0.10973459168570281 0 0.35002252173753962 -0.112446561286345 0 0.34332012240242971 -0.1020930362129598 0 0.37237061700676077 -0.09615783082836224 0 0.34241852099989789 -0.095233439592861846 0 0.35002252173753962 -0.112446561286345 0 0.34025414842832208 -0.11782241666052221 0 0.34332012240242971 -0.1020930362129598 0 0.36371200487664068 -0.10973459168570281 0 0.35355367174401742 -0.1211945845718113 0 0.34779048707731292 -0.1340798558009649 0 0.36371200487664068 -0.10973459168570281 0 0.35664352332635268 -0.13060513793896061 0 0.34779048707731292 -0.1340798558009649 0 0.36371200487664068 -0.10973459168570281 0 0.34779048707731292 -0.1340798558009649 0 0.36371200487664068 -0.10973459168570281 0 0.35002252173753962 -0.112446561286345 0 0.35355367174401742 -0.1211945845718113 0 0.36371200487664068 -0.10973459168570281 0 0.35355367174401742 -0.1211945845718113 0 0.35002252173753962 -0.112446561286345 0 0.35355367174401742 -0.1211945845718113 0 0.34025414842832208 -0.11782241666052221 0 0.35355367174401742 -0.1211945845718113 0 0.34025414842832208 -0.11782241666052221 0 0.34381162934489939 -0.12854128697128539 0 0.33094534805706732 -0.1177437606496905 0 0.31854024801571379 -0.1183964408803808 0 0.33718817445421712 -0.13355179710808501 0 0.34025414842832208 -0.11782241666052221 0 0.33378984816934337 -0.1086297847084315 0 0.34332012240242971 -0.1020930362129598 0 0.33094534805706732 -0.1177437606496905 0 0.34025414842832208 -0.11782241666052221 0 0.33718817445421712 -0.13355179710808501 0 0.34025414842832208 -0.11782241666052221 0 0.34332012240242971 -0.1020930362129598 0 0.33094534805706732 -0.1177437606496905 0 0.33378984816934337 -0.1086297847084315 0 0.32495432121773932 -0.110318363891034 0 0.33094534805706732 -0.1177437606496905 0 0.34025414842832208 -0.11782241666052221 0 0.33378984816934337 -0.1086297847084315 0 0.33378984816934337 -0.1086297847084315 0 0.32725903490077729 -0.10071499943534749 0 0.32495432121773932 -0.110318363891034 0 0.33378984816934337 -0.1086297847084315 0 0.33669688161811212 -0.1016678149874002 0 0.32725903490077729 -0.10071499943534749 0 0.33378984816934337 -0.1086297847084315 0 0.34332012240242971 -0.1020930362129598 0 0.33669688161811212 -0.1016678149874002 0 0.34332012240242971 -0.1020930362129598 0 0.33669688161811212 -0.1016678149874002 0 0.34241852099989789 -0.095233439592861846 0 0.33669688161811212 -0.1016678149874002 0 0.34241852099989789 -0.095233439592861846 0 0.32725903490077729 -0.10071499943534749 0 0.34241852099989789 -0.095233439592861846 0 0.31246642499303512 -0.0943090483573608 0 0.34241852099989789 -0.095233439592861846 0 0.32725903490077729 -0.10071499943534749 0 0.31246642499303512 -0.0943090483573608 0 0.32725903490077729 -0.10071499943534749 0 0.31716114910448651 -0.10565591717263 0 0.31246642499303512 -0.0943090483573608 0 0.32725903490077729 -0.10071499943534749 0 0.31716114910448651 -0.10565591717263 0 0.32495432121773932 -0.110318363891034 0 0.33094534805706732 -0.1177437606496905 0 0.32495432121773932 -0.110318363891034 0 0.31854024801571379 -0.1183964408803808 0 0.31716114910448651 -0.10565591717263 0 0.32495432121773932 -0.110318363891034 0 0.31854024801571379 -0.1183964408803808 0 0.31716114910448651 -0.10565591717263 0 0.31854024801571379 -0.1183964408803808 0 0.30531265091832138 -0.10738965970164049 0 0.3449175019875389 -0.076917716904771144 0 0.33388625794764348 -0.064812423232177271 0 0.32092150739102382 -0.073097043805500014 0 0.3449175019875389 -0.076917716904771144 0 0.34794047334546518 -0.063974584280765273 0 0.33388625794764348 -0.064812423232177271 0 0.3449175019875389 -0.076917716904771144 0 0.34241852099989789 -0.095233439592861846 0 0.32092150739102382 -0.073097043805500014 0 0.34241852099989789 -0.095233439592861846 0 0.32092150739102382 -0.073097043805500014 0 0.31246642499303512 -0.0943090483573608 0 0.32115491610998381 -0.052976688016941227 0 0.33388625794764348 -0.064812423232177271 0 0.32092150739102382 -0.073097043805500014 0 0.32092150739102382 -0.073097043805500014 0 0.28819319405889499 -0.06706419956831737 0 0.31246642499303512 -0.0943090483573608 0 0.32092150739102382 -0.073097043805500014 0 0.28819319405889499 -0.06706419956831737 0 0.30601744289912669 -0.055409131432484229 0 0.28251432898617262 -0.093384657121855619 0 0.28819319405889499 -0.06706419956831737 0 0.31246642499303512 -0.0943090483573608 0 0.28251432898617262 -0.093384657121855619 0 0.28819319405889499 -0.06706419956831737 0 0.28251432898617262 -0.093384657121855619 0 0.28819319405889499 -0.06706419956831737 0 0.2788070763813692 -0.075616481315712358 0 0.30531265091832138 -0.10738965970164049 0 0.29209333803684512 -0.1204183792118467 0 0.30316218715013699 -0.13585617877411299 0 0.31854024801571379 -0.1183964408803808 0 0.30531265091832138 -0.10738965970164049 0 0.30316218715013699 -0.13585617877411299 0 0.30531265091832138 -0.10738965970164049 0 0.30316218715013699 -0.13585617877411299 0 0.30531265091832138 -0.10738965970164049 0 0.31246642499303512 -0.0943090483573608 0 0.2913954051317153 -0.1063448066268642 0 0.28251432898617262 -0.093384657121855619 0 0.31246642499303512 -0.0943090483573608 0 0.31716114910448651 -0.10565591717263 0 0.30531265091832138 -0.10738965970164049 0 0.31246642499303512 -0.0943090483573608 0 0.28251432898617262 -0.093384657121855619 0 0.31246642499303512 -0.0943090483573608 0 0.2913954051317153 -0.1063448066268642 0 0.28251432898617262 -0.093384657121855619 0 0.2913954051317153 -0.1063448066268642 0 0.27794998204403759 -0.11453953550188679 0 0.30531265091832138 -0.10738965970164049 0 0.2913954051317153 -0.1063448066268642 0 0.29209333803684512 -0.1204183792118467 0 0.2913954051317153 -0.1063448066268642 0 0.29209333803684512 -0.1204183792118467 0 0.27794998204403759 -0.11453953550188679 0 0.27794998204403759 -0.11453953550188679 0 0.25915390151091949 -0.11811210275817149 0 0.27338563510190422 -0.1356944138819183 0 0.29209333803684512 -0.1204183792118467 0 0.27794998204403759 -0.11453953550188679 0 0.27338563510190422 -0.1356944138819183 0 0.28251432898617262 -0.093384657121855619 0 0.27794998204403759 -0.11453953550188679 0 0.25666672159796139 -0.092586939936295867 0 0.28251432898617262 -0.093384657121855619 0 0.27794998204403759 -0.11453953550188679 0 0.25915390151091949 -0.11811210275817149 0 0.25666672159796139 -0.092586939936295867 0 0.23839025179526999 -0.1151992729885977 0 0.27794998204403759 -0.11453953550188679 0 0.25915390151091949 -0.11811210275817149 0 0.25666672159796139 -0.092586939936295867 0 0.28819319405889499 -0.06706419956831737 0 0.27512965144911827 -0.070681904186227995 0 0.27783686619476677 -0.05372527893061739 0 0.26897876163713708 -0.070467118147906876 0 0.27512965144911827 -0.070681904186227995 0 0.27783686619476677 -0.05372527893061739 0 0.26897876163713708 -0.070467118147906876 0 0.26180167325791431 -0.066706815846455908 0 0.27783686619476677 -0.05372527893061739 0 0.27067132333055188 -0.076788874412469815 0 0.26897876163713708 -0.070467118147906876 0 0.26145119023330071 -0.079000043976386408 0 0.27067132333055188 -0.076788874412469815 0 0.26897876163713708 -0.070467118147906876 0 0.2788070763813692 -0.075616481315712358 0 0.26897876163713708 -0.070467118147906876 0 0.27512965144911827 -0.070681904186227995 0 0.28819319405889499 -0.06706419956831737 0 0.2788070763813692 -0.075616481315712358 0 0.27512965144911827 -0.070681904186227995 0 0.26897876163713708 -0.070467118147906876 0 0.2788070763813692 -0.075616481315712358 0 0.26897876163713708 -0.070467118147906876 0 0.2788070763813692 -0.075616481315712358 0 0.27512965144911827 -0.070681904186227995 0 0.28251432898617262 -0.093384657121855619 0 0.25666672159796139 -0.092586939936295867 0 0.28251432898617262 -0.093384657121855619 0 0.27051227275229911 -0.08315566172012806 0 0.25666672159796139 -0.092586939936295867 0 0.28251432898617262 -0.093384657121855619 0 0.2788070763813692 -0.075616481315712358 0 0.27051227275229911 -0.08315566172012806 0 0.27067132333055188 -0.076788874412469815 0 0.27051227275229911 -0.08315566172012806 0 0.26145119023330071 -0.079000043976386408 0 0.27067132333055188 -0.076788874412469815 0 0.2788070763813692 -0.075616481315712358 0 0.27051227275229911 -0.08315566172012806 0 0.26145119023330071 -0.079000043976386408 0 0.25666672159796139 -0.092586939936295867 0 0.24423239209720191 -0.080930297464084477 0 0.27051227275229911 -0.08315566172012806 0 0.26145119023330071 -0.079000043976386408 0 0.25666672159796139 -0.092586939936295867 0 0.26180167325791431 -0.066706815846455908 0 0.25764566998465072 -0.070071372177431313 0 0.24120587699226881 -0.055916030502087773 0 0.26145119023330071 -0.079000043976386408 0 0.25764566998465072 -0.070071372177431313 0 0.24423239209720191 -0.080930297464084477 0 0.25764566998465072 -0.070071372177431313 0 0.24423239209720191 -0.080930297464084477 0 0.26897876163713708 -0.070467118147906876 0 0.26145119023330071 -0.079000043976386408 0 0.25764566998465072 -0.070071372177431313 0 0.26897876163713708 -0.070467118147906876 0 0.26180167325791431 -0.066706815846455908 0 0.25764566998465072 -0.070071372177431313 0 0.26897876163713708 -0.070467118147906876 0 0.25764566998465072 -0.070071372177431313 0 0.26897876163713708 -0.070467118147906876 0 0.26180167325791431 -0.066706815846455908 0 0.26180167325791431 -0.066706815846455908 0 0.25764566998465072 -0.070071372177431313 0 0.26180167325791431 -0.066706815846455908 0 0.26029261894245981 -0.048826031507571623 0 0.24120587699226881 -0.055916030502087773 0 0.26180167325791431 -0.066706815846455908 0 0.24120587699226881 -0.055916030502087773 0 0.26180167325791431 -0.066706815846455908 0 0.26029261894245981 -0.048826031507571623 0 0.27783686619476677 -0.05372527893061739 0 0.26180167325791431 -0.066706815846455908 0 0.27783686619476677 -0.05372527893061739 0 0.26029261894245981 -0.048826031507571623 0 0.27783686619476677 -0.05372527893061739 0 0.27031708646619812 -0.033638605470610219 0 0.27783686619476677 -0.05372527893061739 0 0.27031708646619812 -0.033638605470610219 0 0.28437966209514692 -0.033534114227583768 0 0.26029261894245981 -0.048826031507571623 0 0.27031708646619812 -0.033638605470610219 0 0.25030159180115191 -0.034143426788088307 0 0.26029261894245981 -0.048826031507571623 0 0.25030159180115191 -0.034143426788088307 0 0.24120587699226881 -0.055916030502087773 0 0.25030159180115191 -0.034143426788088307 0 0.26299580833271302 -0.019789195105520681 0 0.2464198669495459 -0.012097030270161889 0 0.27031708646619812 -0.033638605470610219 0 0.25030159180115191 -0.034143426788088307 0 0.26299580833271302 -0.019789195105520681 0 0.25322369798355371 0.0032948183560677501 0 0.26778398551549509 -0.0036893303100333872 0 0.2464198669495459 -0.012097030270161889 0 0.26299580833271302 -0.019789195105520681 0 0.26778398551549509 -0.0036893303100333872 0 0.2464198669495459 -0.012097030270161889 0 0.26299580833271302 -0.019789195105520681 0 0.26778398551549509 -0.0036893303100333872 0 0.28231604015163769 -0.018351258625531171 0 0.2895407867033607 0.0013395930438658619 0 0.26778398551549509 -0.0036893303100333872 0 0.28231604015163769 -0.018351258625531171 0 0.27031708646619812 -0.033638605470610219 0 0.26299580833271302 -0.019789195105520681 0 0.28231604015163769 -0.018351258625531171 0 0.27031708646619812 -0.033638605470610219 0 0.28231604015163769 -0.018351258625531171 0 0.28437966209514692 -0.033534114227583768 0 0.28231604015163769 -0.018351258625531171 0 0.29600028882747859 -0.03087980289019443 0 0.28437966209514692 -0.033534114227583768 0 0.28231604015163769 -0.018351258625531171 0 0.29600028882747859 -0.03087980289019443 0 0.30132541624728598 -0.01217829343577128 0 0.2895407867033607 0.0013395930438658619 0 0.28231604015163769 -0.018351258625531171 0 0.30132541624728598 -0.01217829343577128 0 0.31046320235639918 0.0067575729804437252 0 0.2895407867033607 0.0013395930438658619 0 0.30132541624728598 -0.01217829343577128 0 0.31046320235639918 0.0067575729804437252 0 0.3153830815233527 -0.0087530987426132929 0 0.30132541624728598 -0.01217829343577128 0 0.31486943567640469 -0.023744993086391868 0 0.3153830815233527 -0.0087530987426132929 0 0.30132541624728598 -0.01217829343577128 0 0.31486943567640469 -0.023744993086391868 0 0.29600028882747859 -0.03087980289019443 0 0.30132541624728598 -0.01217829343577128 0 0.31486943567640469 -0.023744993086391868 0 0.31197137499350902 -0.041008225260955711 0 0.29387205913161968 -0.04074374201477949 0 0.31486943567640469 -0.023744993086391868 0 0.29600028882747859 -0.03087980289019443 0 0.29387205913161968 -0.04074374201477949 0 0.31486943567640469 -0.023744993086391868 0 0.29387205913161968 -0.04074374201477949 0 0.31197137499350902 -0.041008225260955711 0 0.30601744289912669 -0.055409131432484229 0 0.29387205913161968 -0.04074374201477949 0 0.28819319405889499 -0.06706419956831737 0 0.27783686619476677 -0.05372527893061739 0 0.29387205913161968 -0.04074374201477949 0 0.28819319405889499 -0.06706419956831737 0 0.29387205913161968 -0.04074374201477949 0 0.27783686619476677 -0.05372527893061739 0 0.29387205913161968 -0.04074374201477949 0 0.28819319405889499 -0.06706419956831737 0 0.30601744289912669 -0.055409131432484229 0 0.29387205913161968 -0.04074374201477949 0 0.27783686619476677 -0.05372527893061739 0 0.28437966209514692 -0.033534114227583768 0 0.29387205913161968 -0.04074374201477949 0 0.29600028882747859 -0.03087980289019443 0 0.28437966209514692 -0.033534114227583768 0 0.29387205913161968 -0.04074374201477949 0 0.29600028882747859 -0.03087980289019443 0 0.29387205913161968 -0.04074374201477949 0 0.28925369461552242 -0.21547475378801551 0 0.29798535605087828 -0.20438389051808681 0 0.27851755886665591 -0.20371457102860641 0 0.28925369461552242 -0.21547475378801551 0 0.28465086540799672 -0.2254021489655588 0 0.27851755886665591 -0.20371457102860641 0 0.28925369461552242 -0.21547475378801551 0 0.29798535605087828 -0.20438389051808681 0 0.29625974568445868 -0.22722646109941139 0 0.28994099481116897 -0.19128490440727269 0 0.29798535605087828 -0.20438389051808681 0 0.29971096641729777 -0.18154131993676231 0 0.28994099481116897 -0.19128490440727269 0 0.27851755886665591 -0.20371457102860641 0 0.28355009790984409 -0.17549983614563519 0 0.28994099481116897 -0.19128490440727269 0 0.29798535605087828 -0.20438389051808681 0 0.27851755886665591 -0.20371457102860641 0 0.30866677822314281 -0.19370433905286669 0 0.29798535605087828 -0.20438389051808681 0 0.29971096641729777 -0.18154131993676231 0 0.29798535605087828 -0.20438389051808681 0 0.29971096641729777 -0.18154131993676231 0 0.30866677822314281 -0.19370433905286669 0 0.30817512199612251 -0.208018461664154 0 0.29798535605087828 -0.20438389051808681 0 0.29798535605087828 -0.20438389051808681 0 0.29625974568445868 -0.22722646109941139 0 0.30367267472900389 -0.2178556058656746 0 0.31200739898088131 -0.22851072207886541 0 0.31883562653249692 -0.20986103607638071 0 0.29798535605087828 -0.20438389051808681 0 0.30367267472900389 -0.2178556058656746 0 0.29625974568445868 -0.22722646109941139 0 0.30817512199612251 -0.208018461664154 0 0.29798535605087828 -0.20438389051808681 0 0.30367267472900389 -0.2178556058656746 0 0.30817512199612251 -0.208018461664154 0 0.30367267472900389 -0.2178556058656746 0 0.31883562653249692 -0.20986103607638071 0 0.30367267472900389 -0.2178556058656746 0 0.31883562653249692 -0.20986103607638071 0 0.31200739898088131 -0.22851072207886541 0 0.30517917142926537 -0.24716040808135001 0 0.29625974568445868 -0.22722646109941139 0 0.30367267472900389 -0.2178556058656746 0 0.31200739898088131 -0.22851072207886541 0 0.29625974568445868 -0.22722646109941139 0 0.31200739898088131 -0.22851072207886541 0 0.30517917142926537 -0.24716040808135001 0 0.30517917142926537 -0.24716040808135001 0 0.28765229627979871 -0.24304032400626949 0 0.29625974568445868 -0.22722646109941139 0 0.28765229627979871 -0.24304032400626949 0 0.29625974568445868 -0.22722646109941139 0 0.28465086540799672 -0.2254021489655588 0 0.28765229627979871 -0.24304032400626949 0 0.28465086540799672 -0.2254021489655588 0 0.27348501982346762 -0.23192930591157759 0 0.28925369461552242 -0.21547475378801551 0 0.29625974568445868 -0.22722646109941139 0 0.28465086540799672 -0.2254021489655588 0 0.28465086540799672 -0.2254021489655588 0 0.27348501982346762 -0.23192930591157759 0 0.27851755886665591 -0.20371457102860641 0 0.27348501982346762 -0.23192930591157759 0 0.25787859859726192 -0.24372773219337371 0 0.26845248078028039 -0.26014404079454911 0 0.28765229627979871 -0.24304032400626949 0 0.27348501982346762 -0.23192930591157759 0 0.26845248078028039 -0.26014404079454911 0 0.27348501982346762 -0.23192930591157759 0 0.26845248078028039 -0.26014404079454911 0 0.27348501982346762 -0.23192930591157759 0 0.25787859859726192 -0.24372773219337371 0 0.2485278721491469 -0.22983386195931649 0 0.27348501982346762 -0.23192930591157759 0 0.25806059678156651 -0.21160485628964759 0 0.2485278721491469 -0.22983386195931649 0 0.27348501982346762 -0.23192930591157759 0 0.27851755886665591 -0.20371457102860641 0 0.27348501982346762 -0.23192930591157759 0 0.25806059678156651 -0.21160485628964759 0 0.27851755886665591 -0.20371457102860641 0 0.27851755886665591 -0.20371457102860641 0 0.26140201073716351 -0.19316186481753209 0 0.27335445324682811 -0.1824409541049711 0 0.25806059678156651 -0.21160485628964759 0 0.27851755886665591 -0.20371457102860641 0 0.26140201073716351 -0.19316186481753209 0 0.27851755886665591 -0.20371457102860641 0 0.28355009790984409 -0.17549983614563519 0 0.25806059678156651 -0.21160485628964759 0 0.26140201073716351 -0.19316186481753209 0 0.24624710011957149 -0.19756578472926509 0 0.26140201073716351 -0.19316186481753209 0 0.25030889548151403 -0.1837077448593728 0 0.24624710011957149 -0.19756578472926509 0 0.25969225384889538 -0.18295045636353721 0 0.2550208565069661 -0.17514012483034949 0 0.27335445324682811 -0.1824409541049711 0 0.26140201073716351 -0.19316186481753209 0 0.25030889548151403 -0.1837077448593728 0 0.25969225384889538 -0.18295045636353721 0 0.25030889548151403 -0.1837077448593728 0 0.25969225384889538 -0.18295045636353721 0 0.2550208565069661 -0.17514012483034949 0 0.2550208565069661 -0.17514012483034949 0 0.2530488896403309 -0.16079061319898569 0 0.27335445324682811 -0.1824409541049711 0 0.26140201073716351 -0.19316186481753209 0 0.25969225384889538 -0.18295045636353721 0 0.27335445324682811 -0.1824409541049711 0 0.2530488896403309 -0.16079061319898569 0 0.272260185211738 -0.168331689764908 0 0.26878477807763418 -0.16016356734556891 0 0.2530488896403309 -0.16079061319898569 0 0.26878477807763418 -0.16016356734556891 0 0.26293682869207591 -0.15391070786642169 0 0.2530488896403309 -0.16079061319898569 0 0.27335445324682811 -0.1824409541049711 0 0.272260185211738 -0.168331689764908 0 0.27899515764395177 -0.15443660918041571 0 0.28355009790984409 -0.17549983614563519 0 0.2530488896403309 -0.16079061319898569 0 0.272260185211738 -0.168331689764908 0 0.27335445324682811 -0.1824409541049711 0 0.272260185211738 -0.168331689764908 0 0.26878477807763418 -0.16016356734556891 0 0.27899515764395177 -0.15443660918041571 0 0.272260185211738 -0.168331689764908 0 0.27335445324682811 -0.1824409541049711 0 0.28355009790984409 -0.17549983614563519 0 0.27851755886665591 -0.20371457102860641 0 0.27335445324682811 -0.1824409541049711 0 0.28355009790984409 -0.17549983614563519 0 0.25915390151091949 -0.11811210275817149 0 0.25133622254172122 -0.13557462765415079 0 0.27338563510190422 -0.1356944138819183 0 0.25133622254172122 -0.13557462765415079 0 0.27338563510190422 -0.1356944138819183 0 0.25133622254172122 -0.13557462765415079 0 0.25208407187516418 -0.1419613505697605 0 0.27338563510190422 -0.1356944138819183 0 0.26557247671991108 -0.14774187414890411 0 0.25208407187516418 -0.1419613505697605 0 0.27142481771649529 -0.14478242884651979 0 0.25208407187516418 -0.1419613505697605 0 0.27142481771649529 -0.14478242884651979 0 0.2530488896403309 -0.16079061319898569 0 0.25208407187516418 -0.1419613505697605 0 0.26293682869207591 -0.15391070786642169 0 0.26557247671991108 -0.14774187414890411 0 0.25208407187516418 -0.1419613505697605 0 0.26293682869207591 -0.15391070786642169 0 0.27899515764395177 -0.15443660918041571 0 0.27142481771649529 -0.14478242884651979 0 0.28858263695303038 -0.1472851012626637 0 0.25208407187516418 -0.1419613505697605 0 0.27142481771649529 -0.14478242884651979 0 0.27338563510190422 -0.1356944138819183 0 0.27142481771649529 -0.14478242884651979 0 0.28858263695303038 -0.1472851012626637 0 0.27142481771649529 -0.14478242884651979 0 0.27338563510190422 -0.1356944138819183 0 0.28952553314766588 -0.14199879033185039 0 0.26878477807763418 -0.16016356734556891 0 0.27009527632936597 -0.15279308215900331 0 0.27899515764395177 -0.15443660918041571 0 0.26557247671991108 -0.14774187414890411 0 0.27009527632936597 -0.15279308215900331 0 0.27142481771649529 -0.14478242884651979 0 0.26878477807763418 -0.16016356734556891 0 0.26293682869207591 -0.15391070786642169 0 0.27009527632936597 -0.15279308215900331 0 0.26557247671991108 -0.14774187414890411 0 0.26293682869207591 -0.15391070786642169 0 0.27009527632936597 -0.15279308215900331 0 0.27009527632936597 -0.15279308215900331 0 0.27899515764395177 -0.15443660918041571 0 0.27142481771649529 -0.14478242884651979 0 0.27794998204403759 -0.11453953550188679 0 0.27338563510190422 -0.1356944138819183 0 0.27142481771649529 -0.14478242884651979 0 0.27338563510190422 -0.1356944138819183 0 0.27338563510190422 -0.1356944138819183 0 0.30316218715013699 -0.13585617877411299 0 0.29209333803684512 -0.1204183792118467 0 0.27338563510190422 -0.1356944138819183 0 0.30316218715013699 -0.13585617877411299 0 0.27338563510190422 -0.1356944138819183 0 0.28952553314766588 -0.14199879033185039 0 0.30316218715013699 -0.13585617877411299 0 0.27142481771649529 -0.14478242884651979 0 0.28952553314766588 -0.14199879033185039 0 0.28858263695303038 -0.1472851012626637 0 0.28858263695303038 -0.1472851012626637 0 0.30013596324633868 -0.14897029159077979 0 0.28952553314766588 -0.14199879033185039 0 0.28858263695303038 -0.1472851012626637 0 0.30013596324633868 -0.14897029159077979 0 0.28952553314766588 -0.14199879033185039 0 0.28858263695303038 -0.1472851012626637 0 0.28858263695303038 -0.1472851012626637 0 0.30013596324633868 -0.14897029159077979 0 0.29372711844303928 -0.1600295372122347 0 0.30316218715013699 -0.13585617877411299 0 0.30143657678371732 -0.15869874935543771 0 0.30013596324633868 -0.14897029159077979 0 0.30316218715013699 -0.13585617877411299 0 0.30143657678371732 -0.15869874935543771 0 0.30316218715013699 -0.13585617877411299 0 0.30143657678371732 -0.15869874935543771 0 0.31253980123811259 -0.14771969478669131 0 0.30013596324633868 -0.14897029159077979 0 0.29372711844303928 -0.1600295372122347 0 0.30143657678371732 -0.15869874935543771 0 0.30143657678371732 -0.15869874935543771 0 0.31557079919726838 -0.1590044961535387 0 0.31253980123811259 -0.14771969478669131 0 0.28952553314766588 -0.14199879033185039 0 0.30013596324633868 -0.14897029159077979 0 0.30316218715013699 -0.13585617877411299 0 0.30316218715013699 -0.13585617877411299 0 0.31993283661344418 -0.13594728745244961 0 0.31253980123811259 -0.14771969478669131 0 0.30316218715013699 -0.13585617877411299 0 0.31993283661344418 -0.13594728745244961 0 0.28994099481116897 -0.19128490440727269 0 0.28355009790984409 -0.17549983614563519 0 0.29971096641729777 -0.18154131993676231 0 0.28355009790984409 -0.17549983614563519 0 0.29493031732226571 -0.16969370770665679 0 0.29971096641729777 -0.18154131993676231 0 0.27899515764395177 -0.15443660918041571 0 0.28858263695303038 -0.1472851012626637 0 0.28355009790984409 -0.17549983614563519 0 0.28858263695303038 -0.1472851012626637 0 0.28355009790984409 -0.17549983614563519 0 0.28858263695303038 -0.1472851012626637 0 0.28355009790984409 -0.17549983614563519 0 0.29372711844303928 -0.1600295372122347 0 0.29372711844303928 -0.1600295372122347 0 0.29493031732226571 -0.16969370770665679 0 0.30143657678371732 -0.15869874935543771 0 0.28355009790984409 -0.17549983614563519 0 0.29372711844303928 -0.1600295372122347 0 0.29493031732226571 -0.16969370770665679 0 0.30143657678371732 -0.15869874935543771 0 0.29971096641729777 -0.18154131993676231 0 0.30143657678371732 -0.15869874935543771 0 0.30809610970482848 -0.16795036279156811 0 0.29971096641729777 -0.18154131993676231 0 0.29493031732226571 -0.16969370770665679 0 0.30143657678371732 -0.15869874935543771 0 0.29971096641729777 -0.18154131993676231 0 0.30143657678371732 -0.15869874935543771 0 0.30809610970482848 -0.16795036279156811 0 0.31557079919726838 -0.1590044961535387 0 0.29971096641729777 -0.18154131993676231 0 0.31498869866721663 -0.1848028620899877 0 0.3156660964210305 -0.17255688572053399 0 0.30809610970482848 -0.16795036279156811 0 0.29971096641729777 -0.18154131993676231 0 0.3156660964210305 -0.17255688572053399 0 0.30866677822314281 -0.19370433905286669 0 0.29971096641729777 -0.18154131993676231 0 0.31498869866721663 -0.1848028620899877 0 0.32729102930978993 -0.18432716657830939 0 0.3156660964210305 -0.17255688572053399 0 0.33199725769327038 -0.160182781354547 0 0.31498869866721663 -0.1848028620899877 0 0.32729102930978993 -0.18432716657830939 0 0.3156660964210305 -0.17255688572053399 0 0.3156660964210305 -0.17255688572053399 0 0.31557079919726838 -0.1590044961535387 0 0.33199725769327038 -0.160182781354547 0 0.30809610970482848 -0.16795036279156811 0 0.3156660964210305 -0.17255688572053399 0 0.31557079919726838 -0.1590044961535387 0 0.32729102930978993 -0.18432716657830939 0 0.34572674800851178 -0.17666980330527179 0 0.34152908302092871 -0.19789605564194099 0 0.32729102930978993 -0.18432716657830939 0 0.33199725769327038 -0.160182781354547 0 0.34572674800851178 -0.17666980330527179 0 0.32729102930978993 -0.18432716657830939 0 0.33199725769327038 -0.160182781354547 0 0.31854024801571379 -0.1183964408803808 0 0.30316218715013699 -0.13585617877411299 0 0.31993283661344418 -0.13594728745244961 0 0.31993283661344418 -0.13594728745244961 0 0.32334883616376942 -0.1477785311756023 0 0.33670348607675138 -0.13603839613078461 0 0.31854024801571379 -0.1183964408803808 0 0.31993283661344418 -0.13594728745244961 0 0.33718817445421712 -0.13355179710808501 0 0.31854024801571379 -0.1183964408803808 0 0.33718817445421712 -0.13355179710808501 0 0.31557079919726838 -0.1590044961535387 0 0.33199725769327038 -0.160182781354547 0 0.32334883616376942 -0.1477785311756023 0 0.31993283661344418 -0.13594728745244961 0 0.32334883616376942 -0.1477785311756023 0 0.31253980123811259 -0.14771969478669131 0 0.31557079919726838 -0.1590044961535387 0 0.32334883616376942 -0.1477785311756023 0 0.31253980123811259 -0.14771969478669131 0 0.33199725769327038 -0.160182781354547 0 0.34027166502062639 -0.13605778071504529 0 0.33670348607675138 -0.13603839613078461 0 0.33199725769327038 -0.160182781354547 0 0.32334883616376942 -0.1477785311756023 0 0.33670348607675138 -0.13603839613078461 0 0.33199725769327038 -0.160182781354547 0 0.33670348607675138 -0.13603839613078461 0 0.31993283661344418 -0.13594728745244961 0 0.33670348607675138 -0.13603839613078461 0 0.31993283661344418 -0.13594728745244961 0 0.33670348607675138 -0.13603839613078461 0 0.33718817445421712 -0.13355179710808501 0 0.34025414842832208 -0.11782241666052221 0 0.33718817445421712 -0.13355179710808501 0 0.34381162934489939 -0.12854128697128539 0 0.34025414842832208 -0.11782241666052221 0 0.33718817445421712 -0.13355179710808501 0 0.34027166502062639 -0.13605778071504529 0 0.33670348607675138 -0.13603839613078461 0 0.33718817445421712 -0.13355179710808501 0 0.34027166502062639 -0.13605778071504529 0 0.33718817445421712 -0.13355179710808501 0 0.34027166502062639 -0.13605778071504529 0 0.33670348607675138 -0.13603839613078461 0 0.33670348607675138 -0.13603839613078461 0 0.33718817445421712 -0.13355179710808501 0 0.34027166502062639 -0.13605778071504529 0 0.33718817445421712 -0.13355179710808501 0 0.34381162934489939 -0.12854128697128539 0 0.33199725769327038 -0.160182781354547 0 0.34027166502062639 -0.13605778071504529 0 0.36359383050920879 -0.15501193774405861 0 0.35355367174401742 -0.1211945845718113 0 0.34381162934489939 -0.12854128697128539 0 0.34779048707731292 -0.1340798558009649 0 0.34027166502062639 -0.13605778071504529 0 0.34884821061351562 -0.13610437388577321 0 0.35664352332635268 -0.13060513793896061 0 0.34779048707731292 -0.1340798558009649 0 0.34884821061351562 -0.13610437388577321 0 0.34027166502062639 -0.13605778071504529 0 0.34779048707731292 -0.1340798558009649 0 0.34884821061351562 -0.13610437388577321 0 0.34027166502062639 -0.13605778071504529 0 0.34381162934489939 -0.12854128697128539 0 0.34779048707731292 -0.1340798558009649 0 0.35664352332635268 -0.13060513793896061 0 0.34884821061351562 -0.13610437388577321 0 0.36374720336072303 -0.13810563056468389 0 0.34884821061351562 -0.13610437388577321 0 0.36359383050920879 -0.15501193774405861 0 0.36374720336072303 -0.13810563056468389 0 0.34027166502062639 -0.13605778071504529 0 0.36359383050920879 -0.15501193774405861 0 0.34027166502062639 -0.13605778071504529 0 0.34884821061351562 -0.13610437388577321 0 0.36359383050920879 -0.15501193774405861 0 0.36359383050920879 -0.15501193774405861 0 0.36374720336072303 -0.13810563056468389 0 0.37656812491251679 -0.13846106794218549 0 0.3785150876385216 -0.1195111518185689 0 0.36779594019891898 -0.12729788290040461 0 0.37656812491251679 -0.13846106794218549 0 0.36374720336072303 -0.13810563056468389 0 0.36779594019891898 -0.12729788290040461 0 0.37656812491251679 -0.13846106794218549 0 0.35664352332635268 -0.13060513793896061 0 0.36374720336072303 -0.13810563056468389 0 0.36779594019891898 -0.12729788290040461 0 0.33199725769327038 -0.160182781354547 0 0.36359383050920879 -0.15501193774405861 0 0.34572674800851178 -0.17666980330527179 0 0.34572674800851178 -0.17666980330527179 0 0.36422253950936112 -0.1859310752075029 0 0.34152908302092871 -0.19789605564194099 0 0.36359383050920879 -0.15501193774405861 0 0.34572674800851178 -0.17666980330527179 0 0.36422253950936112 -0.1859310752075029 0 0.36359383050920879 -0.15501193774405861 0 0.36422253950936112 -0.1859310752075029 0 0.38691599599779503 -0.1739660947730671 0 0.36422253950936112 -0.1859310752075029 0 0.37220629557919183 -0.19612338441269381 0 0.37910290544765168 -0.18685571494790659 0 0.36422253950936112 -0.1859310752075029 0 0.37220629557919183 -0.19612338441269381 0 0.35685044422528578 -0.20027094664828951 0 0.37220629557919183 -0.19612338441269381 0 0.3556522221671049 -0.2162457527497984 0 0.35685044422528578 -0.20027094664828951 0 0.37220629557919183 -0.19612338441269381 0 0.3556522221671049 -0.2162457527497984 0 0.37273333868611941 -0.2093978965492076 0 0.3556522221671049 -0.2162457527497984 0 0.3731990688381891 -0.2228302363117915 0 0.37220629557919183 -0.19612338441269381 0 0.37273333868611941 -0.2093978965492076 0 0.3556522221671049 -0.2162457527497984 0 0.34913249600123192 -0.20719712371303781 0 0.34152908302092871 -0.19789605564194099 0 0.34144894007629428 -0.2139395960038605 0 0.3556522221671049 -0.2162457527497984 0 0.34913249600123192 -0.20719712371303781 0 0.35685044422528578 -0.20027094664828951 0 0.3556522221671049 -0.2162457527497984 0 0.34913249600123192 -0.20719712371303781 0 0.34144894007629428 -0.2139395960038605 0 0.36422253950936112 -0.1859310752075029 0 0.35685044422528578 -0.20027094664828951 0 0.34152908302092871 -0.19789605564194099 0 0.36422253950936112 -0.1859310752075029 0 0.34152908302092871 -0.19789605564194099 0 0.34913249600123192 -0.20719712371303781 0 0.35685044422528578 -0.20027094664828951 0 0.34152908302092871 -0.19789605564194099 0 0.32729102930978993 -0.18432716657830939 0 0.34152908302092871 -0.19789605564194099 0 0.32289957828838461 -0.19876131457419149 0 0.34152908302092871 -0.19789605564194099 0 0.31883562653249692 -0.20986103607638071 0 0.34152908302092871 -0.19789605564194099 0 0.34144894007629428 -0.2139395960038605 0 0.31883562653249692 -0.20986103607638071 0 0.34144894007629428 -0.2139395960038605 0 0.31883562653249692 -0.20986103607638071 0 0.32331405575278033 -0.23055000204260581 0 0.31883562653249692 -0.20986103607638071 0 0.32289957828838461 -0.19876131457419149 0 0.30817512199612251 -0.208018461664154 0 0.31883562653249692 -0.20986103607638071 0 0.32289957828838461 -0.19876131457419149 0 0.30866677822314281 -0.19370433905286669 0 0.30817512199612251 -0.208018461664154 0 0.32289957828838461 -0.19876131457419149 0 0.34152908302092871 -0.19789605564194099 0 0.31883562653249692 -0.20986103607638071 0 0.32289957828838461 -0.19876131457419149 0 0.30866677822314281 -0.19370433905286669 0 0.31498869866721663 -0.1848028620899877 0 0.32289957828838461 -0.19876131457419149 0 0.31498869866721663 -0.1848028620899877 0 0.32729102930978993 -0.18432716657830939 0 0.32289957828838461 -0.19876131457419149 0 0.30517917142926537 -0.24716040808135001 0 0.32331405575278033 -0.23055000204260581 0 0.30517917142926537 -0.24716040808135001 0 0.32331405575278033 -0.23055000204260581 0 0.322544075342931 -0.25649048942400782 0 0.31200739898088131 -0.22851072207886541 0 0.30517917142926537 -0.24716040808135001 0 0.32331405575278033 -0.23055000204260581 0 0.31200739898088131 -0.22851072207886541 0 0.31883562653249692 -0.20986103607638071 0 0.31200739898088131 -0.22851072207886541 0 0.31883562653249692 -0.20986103607638071 0 0.32331405575278033 -0.23055000204260581 0 0.34144894007629428 -0.2139395960038605 0 0.32331405575278033 -0.23055000204260581 0 0.34144894007629428 -0.2139395960038605 0 0.32331405575278033 -0.23055000204260581 0 0.33909814875501798 -0.23636812108690311 0 0.33909814875501798 -0.23636812108690311 0 0.322544075342931 -0.25649048942400782 0 0.32331405575278033 -0.23055000204260581 0 0.33909814875501798 -0.23636812108690311 0 0.322544075342931 -0.25649048942400782 0 0.33909814875501798 -0.23636812108690311 0 0.35007299243335749 -0.24785688602667111 0 0.33700232267718733 -0.25494009872172468 0 0.33909814875501798 -0.23636812108690311 0 0.322544075342931 -0.25649048942400782 0 0.33700232267718733 -0.25494009872172468 0 0.33909814875501798 -0.23636812108690311 0 0.35007299243335749 -0.24785688602667111 0 0.35471840821638012 -0.232162972911199 0 0.35007299243335749 -0.24785688602667111 0 0.35471840821638012 -0.232162972911199 0 0.36225179838031341 -0.2439392928582107 0 0.35007299243335749 -0.24785688602667111 0 0.36225179838031341 -0.2439392928582107 0 0.36124693131331159 -0.25807728632712912 0 0.3556522221671049 -0.2162457527497984 0 0.33909814875501798 -0.23636812108690311 0 0.3556522221671049 -0.2162457527497984 0 0.33909814875501798 -0.23636812108690311 0 0.35471840821638012 -0.232162972911199 0 0.3556522221671049 -0.2162457527497984 0 0.34144894007629428 -0.2139395960038605 0 0.33909814875501798 -0.23636812108690311 0 0.35471840821638012 -0.232162972911199 0 0.3731990688381891 -0.2228302363117915 0 0.36225179838031341 -0.2439392928582107 0 0.3556522221671049 -0.2162457527497984 0 0.35471840821638012 -0.232162972911199 0 0.3731990688381891 -0.2228302363117915 0 0.3731990688381891 -0.2228302363117915 0 0.36225179838031341 -0.2439392928582107 0 0.3731990688381891 -0.2228302363117915 0 0.36225179838031341 -0.2439392928582107 0 0.38186963046980549 -0.2367879359972051 0 0.36225179838031341 -0.2439392928582107 0 0.38186963046980549 -0.2367879359972051 0 0.37510228513818711 -0.25237727586059511 0 0.38186963046980549 -0.2367879359972051 0 0.39206528024080278 -0.24921397013056479 0 0.37510228513818711 -0.25237727586059511 0 0.39206528024080278 -0.24921397013056479 0 0.40137725565661481 -0.22692044649349019 0 0.4148006158986044 -0.24103970595398019 0 0.39206528024080278 -0.24921397013056479 0 0.4148006158986044 -0.24103970595398019 0 0.40884184876520419 -0.25890250189124958 0 0.38186963046980549 -0.2367879359972051 0 0.39206528024080278 -0.24921397013056479 0 0.40137725565661481 -0.22692044649349019 0 0.40137725565661481 -0.22692044649349019 0 0.39915185452682361 -0.21610044156742811 0 0.41396763236883027 -0.21470461273584779 0 0.40137725565661481 -0.22692044649349019 0 0.38700545273377529 -0.2233412248148075 0 0.39915185452682361 -0.21610044156742811 0 0.38186963046980549 -0.2367879359972051 0 0.40137725565661481 -0.22692044649349019 0 0.38700545273377529 -0.2233412248148075 0 0.3731990688381891 -0.2228302363117915 0 0.38186963046980549 -0.2367879359972051 0 0.38700545273377529 -0.2233412248148075 0 0.3731990688381891 -0.2228302363117915 0 0.38414633929606479 -0.2017211797653724 0 0.37273333868611941 -0.2093978965492076 0 0.3731990688381891 -0.2228302363117915 0 0.38414633929606479 -0.2017211797653724 0 0.3731990688381891 -0.2228302363117915 0 0.38675328488958288 -0.2095276895359276 0 0.38414633929606479 -0.2017211797653724 0 0.3731990688381891 -0.2228302363117915 0 0.38700545273377529 -0.2233412248148075 0 0.38675328488958288 -0.2095276895359276 0 0.38675328488958288 -0.2095276895359276 0 0.38414633929606479 -0.2017211797653724 0 0.39287005569986072 -0.20314648074516001 0 0.38414633929606479 -0.2017211797653724 0 0.38373621375160438 -0.1885238144486111 0 0.39509360975394031 -0.18061212321895309 0 0.38414633929606479 -0.2017211797653724 0 0.39509360975394031 -0.18061212321895309 0 0.37999921147615667 -0.19503406661491049 0 0.38373621375160438 -0.1885238144486111 0 0.37910290544765168 -0.18685571494790659 0 0.37999921147615667 -0.19503406661491049 0 0.38414633929606479 -0.2017211797653724 0 0.38373621375160438 -0.1885238144486111 0 0.37220629557919183 -0.19612338441269381 0 0.37999921147615667 -0.19503406661491049 0 0.37910290544765168 -0.18685571494790659 0 0.37220629557919183 -0.19612338441269381 0 0.37273333868611941 -0.2093978965492076 0 0.38414633929606479 -0.2017211797653724 0 0.37220629557919183 -0.19612338441269381 0 0.37999921147615667 -0.19503406661491049 0 0.38414633929606479 -0.2017211797653724 0 0.38414633929606479 -0.2017211797653724 0 0.39694758591794982 -0.18886739411602391 0 0.39509360975394031 -0.18061212321895309 0 0.39694758591794982 -0.18886739411602391 0 0.3969424320709618 -0.1972324897541754 0 0.40101572763622523 -0.19231380306325679 0 0.38414633929606479 -0.2017211797653724 0 0.39694758591794982 -0.18886739411602391 0 0.3969424320709618 -0.1972324897541754 0 0.38414633929606479 -0.2017211797653724 0 0.3969424320709618 -0.1972324897541754 0 0.39287005569986072 -0.20314648074516001 0 0.3969424320709618 -0.1972324897541754 0 0.400612395600416 -0.20053006859666331 0 0.39287005569986072 -0.20314648074516001 0 0.3969424320709618 -0.1972324897541754 0 0.4059814476455269 -0.19573306963025069 0 0.400612395600416 -0.20053006859666331 0 0.4059814476455269 -0.19573306963025069 0 0.400612395600416 -0.20053006859666331 0 0.40665564698531481 -0.2060082342570673 0 0.3969424320709618 -0.1972324897541754 0 0.4059814476455269 -0.19573306963025069 0 0.40101572763622523 -0.19231380306325679 0 0.4059814476455269 -0.19573306963025069 0 0.40101572763622523 -0.19231380306325679 0 0.40419144491046238 -0.1874222587525772 0 0.39694758591794982 -0.18886739411602391 0 0.40101572763622523 -0.19231380306325679 0 0.40419144491046238 -0.1874222587525772 0 0.38675328488958288 -0.2095276895359276 0 0.40665564698531481 -0.2060082342570673 0 0.38675328488958288 -0.2095276895359276 0 0.39915185452682361 -0.21610044156742811 0 0.40665564698531481 -0.2060082342570673 0 0.38675328488958288 -0.2095276895359276 0 0.39287005569986072 -0.20314648074516001 0 0.40665564698531481 -0.2060082342570673 0 0.38700545273377529 -0.2233412248148075 0 0.38675328488958288 -0.2095276895359276 0 0.39915185452682361 -0.21610044156742811 0 0.400612395600416 -0.20053006859666331 0 0.39287005569986072 -0.20314648074516001 0 0.40665564698531481 -0.2060082342570673 0 0.41396763236883027 -0.21470461273584779 0 0.40665564698531481 -0.2060082342570673 0 0.42655800908104652 -0.20248877897820619 0 0.40665564698531481 -0.2060082342570673 0 0.42655800908104652 -0.20248877897820619 0 0.39915185452682361 -0.21610044156742811 0 0.41396763236883027 -0.21470461273584779 0 0.40665564698531481 -0.2060082342570673 0 0.41396763236883027 -0.21470461273584779 0 0.42655800908104652 -0.20248877897820619 0 0.40665564698531481 -0.2060082342570673 0 0.41640017291144837 -0.19588579121564459 0 0.42655800908104652 -0.20248877897820619 0 0.4059814476455269 -0.19573306963025069 0 0.41640017291144837 -0.19588579121564459 0 0.41453364601533049 -0.1862870086825022 0 0.4059814476455269 -0.19573306963025069 0 0.40419144491046238 -0.1874222587525772 0 0.41453364601533049 -0.1862870086825022 0 0.4059814476455269 -0.19573306963025069 0 0.40665564698531481 -0.2060082342570673 0 0.41640017291144837 -0.19588579121564459 0 0.41640017291144837 -0.19588579121564459 0 0.42581299264578848 -0.18832250896932939 0 0.41453364601533049 -0.1862870086825022 0 0.42655800908104652 -0.20248877897820619 0 0.444302871767289 -0.18527179670816579 0 0.42581299264578848 -0.18832250896932939 0 0.42655800908104652 -0.20248877897820619 0 0.444302871767289 -0.18527179670816579 0 0.41640017291144837 -0.19588579121564459 0 0.42581299264578848 -0.18832250896932939 0 0.42655800908104652 -0.20248877897820619 0 0.42655800908104652 -0.20248877897820619 0 0.43237997939727391 -0.21969514264188619 0 0.44995934289594253 -0.19835057932979169 0 0.41396763236883027 -0.21470461273584779 0 0.42655800908104652 -0.20248877897820619 0 0.43237997939727391 -0.21969514264188619 0 0.43237997939727391 -0.21969514264188619 0 0.43199948472716282 -0.23703470349933331 0 0.4148006158986044 -0.24103970595398019 0 0.43237997939727391 -0.21969514264188619 0 0.4148006158986044 -0.24103970595398019 0 0.43199948472716282 -0.23703470349933331 0 0.4148006158986044 -0.24103970595398019 0 0.42892204251950339 -0.2594807324876427 0 0.43199948472716282 -0.23703470349933331 0 0.44338493428344739 -0.24574379201886831 0 0.42892204251950339 -0.2594807324876427 0 0.43237997939727391 -0.21969514264188619 0 0.4148006158986044 -0.24103970595398019 0 0.41563137083033092 -0.22558997695630109 0 0.41396763236883027 -0.21470461273584779 0 0.43237997939727391 -0.21969514264188619 0 0.41563137083033092 -0.22558997695630109 0 0.40137725565661481 -0.22692044649349019 0 0.4148006158986044 -0.24103970595398019 0 0.41563137083033092 -0.22558997695630109 0 0.40137725565661481 -0.22692044649349019 0 0.41396763236883027 -0.21470461273584779 0 0.40137725565661481 -0.22692044649349019 0 0.41396763236883027 -0.21470461273584779 0 0.41563137083033092 -0.22558997695630109 0 0.39237070121405998 -0.13164091544729051 0 0.39988799210863701 -0.14408364481314989 0 0.41368108829086198 -0.13554811058748131 0 0.40604313277712428 -0.1171380761358455 0 0.39237070121405998 -0.13164091544729051 0 0.41368108829086198 -0.13554811058748131 0 0.39237070121405998 -0.13164091544729051 0 0.37656812491251679 -0.13846106794218549 0 0.38605620033535121 -0.1499684147877679 0 0.3785150876385216 -0.1195111518185689 0 0.39237070121405998 -0.13164091544729051 0 0.37656812491251679 -0.13846106794218549 0 0.36359383050920879 -0.15501193774405861 0 0.37656812491251679 -0.13846106794218549 0 0.38605620033535121 -0.1499684147877679 0 0.39237070121405998 -0.13164091544729051 0 0.38605620033535121 -0.1499684147877679 0 0.39988799210863701 -0.14408364481314989 0 0.38605620033535121 -0.1499684147877679 0 0.39988799210863701 -0.14408364481314989 0 0.39700055726989097 -0.15664682800685811 0 0.39988799210863701 -0.14408364481314989 0 0.39700055726989097 -0.15664682800685811 0 0.40766935758353628 -0.1563629578155839 0 0.40291487034120532 -0.16553079014728059 0 0.39700055726989097 -0.15664682800685811 0 0.38691599599779503 -0.1739660947730671 0 0.40291487034120532 -0.16553079014728059 0 0.38691599599779503 -0.1739660947730671 0 0.40291487034120532 -0.16553079014728059 0 0.39700055726989097 -0.15664682800685811 0 0.40766935758353628 -0.1563629578155839 0 0.40291487034120532 -0.16553079014728059 0 0.40766935758353628 -0.1563629578155839 0 0.38605620033535121 -0.1499684147877679 0 0.39700055726989097 -0.15664682800685811 0 0.38691599599779503 -0.1739660947730671 0 0.36359383050920879 -0.15501193774405861 0 0.38691599599779503 -0.1739660947730671 0 0.36359383050920879 -0.15501193774405861 0 0.38605620033535121 -0.1499684147877679 0 0.38691599599779503 -0.1739660947730671 0 0.36422253950936112 -0.1859310752075029 0 0.38691599599779503 -0.1739660947730671 0 0.37910290544765168 -0.18685571494790659 0 0.36422253950936112 -0.1859310752075029 0 0.38691599599779503 -0.1739660947730671 0 0.38691599599779503 -0.1739660947730671 0 0.38753717637180268 -0.18155585423065651 0 0.39509360975394031 -0.18061212321895309 0 0.38373621375160438 -0.1885238144486111 0 0.38753717637180268 -0.18155585423065651 0 0.39509360975394031 -0.18061212321895309 0 0.38691599599779503 -0.1739660947730671 0 0.37910290544765168 -0.18685571494790659 0 0.38753717637180268 -0.18155585423065651 0 0.38373621375160438 -0.1885238144486111 0 0.37910290544765168 -0.18685571494790659 0 0.38753717637180268 -0.18155585423065651 0 0.40291487034120532 -0.16553079014728059 0 0.38691599599779503 -0.1739660947730671 0 0.39509360975394031 -0.18061212321895309 0 0.39694758591794982 -0.18886739411602391 0 0.39665445354372708 -0.18451779314135289 0 0.39509360975394031 -0.18061212321895309 0 0.39694758591794982 -0.18886739411602391 0 0.39665445354372708 -0.18451779314135289 0 0.40021252966215071 -0.18382207331845951 0 0.39665445354372708 -0.18451779314135289 0 0.39509360975394031 -0.18061212321895309 0 0.40021252966215071 -0.18382207331845951 0 0.38691599599779503 -0.1739660947730671 0 0.39509360975394031 -0.18061212321895309 0 0.40291487034120532 -0.16553079014728059 0 0.39509360975394031 -0.18061212321895309 0 0.40549068313545528 -0.17742909809594989 0 0.40291487034120532 -0.16553079014728059 0 0.39509360975394031 -0.18061212321895309 0 0.40549068313545528 -0.17742909809594989 0 0.40419144491046238 -0.1874222587525772 0 0.40021252966215071 -0.18382207331845951 0 0.39509360975394031 -0.18061212321895309 0 0.40549068313545528 -0.17742909809594989 0 0.40021252966215071 -0.18382207331845951 0 0.39694758591794982 -0.18886739411602391 0 0.40419144491046238 -0.1874222587525772 0 0.40021252966215071 -0.18382207331845951 0 0.42581299264578848 -0.18832250896932939 0 0.41453364601533049 -0.1862870086825022 0 0.42235201908535791 -0.17050045814039369 0 0.40549068313545528 -0.17742909809594989 0 0.41453364601533049 -0.1862870086825022 0 0.42235201908535791 -0.17050045814039369 0 0.40549068313545528 -0.17742909809594989 0 0.40419144491046238 -0.1874222587525772 0 0.41453364601533049 -0.1862870086825022 0 0.42235201908535791 -0.17050045814039369 0 0.44127751826325029 -0.16493106072254701 0 0.444302871767289 -0.18527179670816579 0 0.42581299264578848 -0.18832250896932939 0 0.42235201908535791 -0.17050045814039369 0 0.444302871767289 -0.18527179670816579 0 0.42235201908535791 -0.17050045814039369 0 0.42606808286872072 -0.1533234062687002 0 0.44127751826325029 -0.16493106072254701 0 0.40291487034120532 -0.16553079014728059 0 0.40766935758353628 -0.1563629578155839 0 0.42606808286872072 -0.1533234062687002 0 0.40291487034120532 -0.16553079014728059 0 0.42606808286872072 -0.1533234062687002 0 0.40291487034120532 -0.16553079014728059 0 0.42235201908535791 -0.17050045814039369 0 0.42606808286872072 -0.1533234062687002 0 0.40291487034120532 -0.16553079014728059 0 0.40549068313545528 -0.17742909809594989 0 0.42235201908535791 -0.17050045814039369 0 0.41182663021293903 -0.1473295298712288 0 0.42606808286872072 -0.1533234062687002 0 0.41368108829086198 -0.13554811058748131 0 0.40766935758353628 -0.1563629578155839 0 0.41182663021293903 -0.1473295298712288 0 0.42606808286872072 -0.1533234062687002 0 0.39988799210863701 -0.14408364481314989 0 0.40766935758353628 -0.1563629578155839 0 0.41182663021293903 -0.1473295298712288 0 0.39988799210863701 -0.14408364481314989 0 0.41182663021293903 -0.1473295298712288 0 0.41368108829086198 -0.13554811058748131 0 0.42606808286872072 -0.1533234062687002 0 0.430889964195386 -0.135117951771525 0 0.44922129539623712 -0.14111602239012119 0 0.42606808286872072 -0.1533234062687002 0 0.430889964195386 -0.135117951771525 0 0.41368108829086198 -0.13554811058748131 0 0.42080162445294911 -0.1170697999396166 0 0.430889964195386 -0.135117951771525 0 0.41368108829086198 -0.13554811058748131 0 0.45825176112352212 -0.1171944005084963 0 0.44922129539623712 -0.14111602239012119 0 0.47461064769812122 -0.12772964805397971 0 0.44922129539623712 -0.14111602239012119 0 0.47461064769812122 -0.12772964805397971 0 0.44922129539623712 -0.14111602239012119 0 0.47041229806123103 -0.14236165737458781 0 0.47461064769812122 -0.12772964805397971 0 0.43893170590200609 -0.1195052611799315 0 0.430889964195386 -0.135117951771525 0 0.44922129539623712 -0.14111602239012119 0 0.43893170590200609 -0.1195052611799315 0 0.45825176112352212 -0.1171944005084963 0 0.44922129539623712 -0.14111602239012119 0 0.43893170590200609 -0.1195052611799315 0 0.44922129539623712 -0.14111602239012119 0 0.42606808286872072 -0.1533234062687002 0 0.44922129539623712 -0.14111602239012119 0 0.44127751826325029 -0.16493106072254701 0 0.42606808286872072 -0.1533234062687002 0 0.44922129539623712 -0.14111602239012119 0 0.44922129539623712 -0.14111602239012119 0 0.46204773445353348 -0.16805481443812731 0 0.44922129539623712 -0.14111602239012119 0 0.46204773445353348 -0.16805481443812731 0 0.47041229806123103 -0.14236165737458781 0 0.44922129539623712 -0.14111602239012119 0 0.46204773445353348 -0.16805481443812731 0 0.44127751826325029 -0.16493106072254701 0 0.46204773445353348 -0.16805481443812731 0 0.44127751826325029 -0.16493106072254701 0 0.444302871767289 -0.18527179670816579 0 0.46204773445353348 -0.16805481443812731 0 0.444302871767289 -0.18527179670816579 0 0.46675991992270621 -0.1779516052682695 0 0.47013600328087812 -0.185042241033678 0 0.44995934289594253 -0.19835057932979169 0 0.444302871767289 -0.18527179670816579 0 0.46675991992270621 -0.1779516052682695 0 0.44995934289594253 -0.19835057932979169 0 0.46204773445353348 -0.16805481443812731 0 0.444302871767289 -0.18527179670816579 0 0.46675991992270621 -0.1779516052682695 0 0.46204773445353348 -0.16805481443812731 0 0.46675991992270621 -0.1779516052682695 0 0.46675991992270621 -0.1779516052682695 0 0.47013600328087812 -0.185042241033678 0 0.46675991992270621 -0.1779516052682695 0 0.48388214138120561 -0.17390417728894431 0 0.47927416581767118 -0.18397687174081401 0 0.46675991992270621 -0.1779516052682695 0 0.47013600328087812 -0.185042241033678 0 0.47927416581767118 -0.18397687174081401 0 0.48388214138120561 -0.17390417728894431 0 0.47927416581767118 -0.18397687174081401 0 0.48987334582395858 -0.18140433091368091 0 0.48987334582395858 -0.18140433091368091 0 0.5 -0.16492372169971509 0 0.5 -0.19225537639104809 0 0.48388214138120561 -0.17390417728894431 0 0.48987334582395858 -0.18140433091368091 0 0.5 -0.16492372169971509 0 0.47927416581767118 -0.18397687174081401 0 0.48987334582395858 -0.18140433091368091 0 0.48552241192915191 -0.19206174635411891 0 0.48388214138120561 -0.17390417728894431 0 0.5 -0.16492372169971509 0 0.48337995996135552 -0.1577718361383266 0 0.46675991992270621 -0.1779516052682695 0 0.48388214138120561 -0.17390417728894431 0 0.48337995996135552 -0.1577718361383266 0 0.46204773445353348 -0.16805481443812731 0 0.46675991992270621 -0.1779516052682695 0 0.48337995996135552 -0.1577718361383266 0 0.46204773445353348 -0.16805481443812731 0 0.48337995996135552 -0.1577718361383266 0 0.47713463147989749 -0.15341672773068571 0 0.46675991992270621 -0.1779516052682695 0 0.48337995996135552 -0.1577718361383266 0 0.46204773445353348 -0.16805481443812731 0 0.47713463147989749 -0.15341672773068571 0 0.46204773445353348 -0.16805481443812731 0 0.47041229806123103 -0.14236165737458781 0 0.47713463147989749 -0.15341672773068571 0 0.48337995996135552 -0.1577718361383266 0 0.47713463147989749 -0.15341672773068571 0 0.48456351921585428 -0.1397192317593817 0 0.47041229806123103 -0.14236165737458781 0 0.47713463147989749 -0.15341672773068571 0 0.48456351921585428 -0.1397192317593817 0 0.48337995996135552 -0.1577718361383266 0 0.50000000000000311 -0.1375920670083822 0 0.48456351921585428 -0.1397192317593817 0 0.5 -0.16492372169971509 0 0.48337995996135552 -0.1577718361383266 0 0.50000000000000311 -0.1375920670083822 0 0.48337995996135552 -0.1577718361383266 0 0.50000000000000311 -0.1375920670083822 0 0.50000000000000433 -0.1143432737178363 0 0.50000000000000311 -0.1375920670083822 0 0.48456351921585428 -0.1397192317593817 0 0.50000000000000433 -0.1143432737178363 0 0.48456351921585428 -0.1397192317593817 0 0.47461064769812122 -0.12772964805397971 0 0.47041229806123103 -0.14236165737458781 0 0.48456351921585428 -0.1397192317593817 0 0.47461064769812122 -0.12772964805397971 0 0.46695018322910392 -0.22473955239466681 0 0.44975785303280541 -0.2255898949688982 0 0.46528918090086291 -0.2095084705765255 0 0.46695018322910392 -0.22473955239466681 0 0.46086119099944728 -0.24298014516654151 0 0.44975785303280541 -0.2255898949688982 0 0.46086119099944728 -0.24298014516654151 0 0.44338493428344739 -0.24574379201886831 0 0.44975785303280541 -0.2255898949688982 0 0.43199948472716282 -0.23703470349933331 0 0.44338493428344739 -0.24574379201886831 0 0.44975785303280541 -0.2255898949688982 0 0.46086119099944728 -0.24298014516654151 0 0.44338493428344739 -0.24574379201886831 0 0.45165913482636821 -0.26068325523694041 0 0.43237997939727391 -0.21969514264188619 0 0.43199948472716282 -0.23703470349933331 0 0.44975785303280541 -0.2255898949688982 0 0.43237997939727391 -0.21969514264188619 0 0.44975785303280541 -0.2255898949688982 0 0.44995934289594253 -0.19835057932979169 0 0.43237997939727391 -0.21969514264188619 0 0.44995934289594253 -0.19835057932979169 0 0.42655800908104652 -0.20248877897820619 0 0.444302871767289 -0.18527179670816579 0 0.44995934289594253 -0.19835057932979169 0 0.42655800908104652 -0.20248877897820619 0 0.44995934289594253 -0.19835057932979169 0 0.46675991992270621 -0.1779516052682695 0 0.44995934289594253 -0.19835057932979169 0 0.44995934289594253 -0.19835057932979169 0 0.46774087741254722 -0.19520616284195491 0 0.47013600328087812 -0.185042241033678 0 0.44995934289594253 -0.19835057932979169 0 0.46774087741254722 -0.19520616284195491 0 0.44995934289594253 -0.19835057932979169 0 0.46774087741254722 -0.19520616284195491 0 0.46528918090086291 -0.2095084705765255 0 0.44975785303280541 -0.2255898949688982 0 0.44995934289594253 -0.19835057932979169 0 0.46528918090086291 -0.2095084705765255 0 0.46695018322910392 -0.22473955239466681 0 0.46528918090086291 -0.2095084705765255 0 0.48029579162163721 -0.21558854579597769 0 0.46528918090086291 -0.2095084705765255 0 0.47801733861628259 -0.20339364304417529 0 0.48029579162163721 -0.21558854579597769 0 0.47801733861628259 -0.20339364304417529 0 0.48029579162163721 -0.21558854579597769 0 0.48876710843341442 -0.20457726853354019 0 0.46774087741254722 -0.19520616284195491 0 0.47801733861628259 -0.20339364304417529 0 0.48552241192915191 -0.19206174635411891 0 0.47927416581767118 -0.18397687174081401 0 0.46774087741254722 -0.19520616284195491 0 0.48552241192915191 -0.19206174635411891 0 0.46774087741254722 -0.19520616284195491 0 0.48552241192915191 -0.19206174635411891 0 0.47013600328087812 -0.185042241033678 0 0.47927416581767118 -0.18397687174081401 0 0.46774087741254722 -0.19520616284195491 0 0.46774087741254722 -0.19520616284195491 0 0.46528918090086291 -0.2095084705765255 0 0.47801733861628259 -0.20339364304417529 0 0.47801733861628259 -0.20339364304417529 0 0.48552241192915191 -0.19206174635411891 0 0.48876710843341442 -0.20457726853354019 0 0.48987334582395858 -0.18140433091368091 0 0.48552241192915191 -0.19206174635411891 0 0.5 -0.19225537639104809 0 0.48552241192915191 -0.19206174635411891 0 0.5 -0.19225537639104809 0 0.48876710843341442 -0.20457726853354019 0 0.5 -0.19225537639104809 0 0.48876710843341442 -0.20457726853354019 0 0.5 -0.21958703108238101 0 0.48029579162163721 -0.21558854579597769 0 0.48876710843341442 -0.20457726853354019 0 0.5 -0.21958703108238101 0 0.5 -0.21958703108238101 0 0.48033598971293961 -0.23536730169414519 0 0.5 -0.24691868577371379 0 0.48029579162163721 -0.21558854579597769 0 0.5 -0.21958703108238101 0 0.48033598971293961 -0.23536730169414519 0 0.46695018322910392 -0.22473955239466681 0 0.46086119099944728 -0.24298014516654151 0 0.48033598971293961 -0.23536730169414519 0 0.46695018322910392 -0.22473955239466681 0 0.48029579162163721 -0.21558854579597769 0 0.48033598971293961 -0.23536730169414519 0 0.46086119099944728 -0.24298014516654151 0 0.48033598971293961 -0.23536730169414519 0 0.47450143065275591 -0.2599846894272051 0 0.48033598971293961 -0.23536730169414519 0 0.5 -0.24691868577371379 0 0.47450143065275591 -0.2599846894272051 0 0.5 -0.24691868577371379 0 0.50000000000000222 -0.27425034046504659 0 0.47450143065275591 -0.2599846894272051 0 0.50000000000000222 -0.27425034046504659 0 0.47605513413645029 -0.28008102786359129 0 0.47450143065275591 -0.2599846894272051 0 0.47605513413645029 -0.28008102786359129 0 0.47450143065275591 -0.2599846894272051 0 0.45931845050930209 -0.27772900618102819 0 0.46086119099944728 -0.24298014516654151 0 0.47450143065275591 -0.2599846894272051 0 0.45165913482636821 -0.26068325523694041 0 0.47450143065275591 -0.2599846894272051 0 0.45931845050930209 -0.27772900618102819 0 0.45165913482636821 -0.26068325523694041 0 0.45931845050930209 -0.27772900618102819 0 0.44355941821905998 -0.27577600561597132 0 0.45165913482636821 -0.26068325523694041 0 0.44338493428344739 -0.24574379201886831 0 0.45165913482636821 -0.26068325523694041 0 0.42892204251950339 -0.2594807324876427 0 0.44355941821905998 -0.27577600561597132 0 0.45165913482636821 -0.26068325523694041 0 0.42892204251950339 -0.2594807324876427 0 0.44743457629936911 -0.29125199491084608 0 0.45088585771739531 -0.31517042999936162 0 0.43686388954492023 -0.30206384222820981 0 0.45088585771739531 -0.31517042999936162 0 0.43602078127065758 -0.31524868357114688 0 0.43686388954492023 -0.30206384222820981 0 0.45931845050930209 -0.27772900618102819 0 0.44355941821905998 -0.27577600561597132 0 0.44743457629936911 -0.29125199491084608 0 0.44355941821905998 -0.27577600561597132 0 0.44743457629936911 -0.29125199491084608 0 0.42611848489587972 -0.28658767974219163 0 0.47605513413645029 -0.28008102786359129 0 0.45931845050930209 -0.27772900618102819 0 0.46516191830632447 -0.295844547827811 0 0.45931845050930209 -0.27772900618102819 0 0.44743457629936911 -0.29125199491084608 0 0.46516191830632447 -0.295844547827811 0 0.44743457629936911 -0.29125199491084608 0 0.46516191830632447 -0.295844547827811 0 0.45088585771739531 -0.31517042999936162 0 0.46516191830632447 -0.295844547827811 0 0.47218478901913252 -0.31616939882945228 0 0.45088585771739531 -0.31517042999936162 0 0.4860923945095682 -0.29520986964724988 0 0.47218478901913252 -0.31616939882945228 0 0.50000000000000222 -0.27425034046504659 0 0.4860923945095682 -0.29520986964724988 0 0.5 -0.307151228172029 0 0.46516191830632447 -0.295844547827811 0 0.4860923945095682 -0.29520986964724988 0 0.47218478901913252 -0.31616939882945228 0 0.47605513413645029 -0.28008102786359129 0 0.46516191830632447 -0.295844547827811 0 0.4860923945095682 -0.29520986964724988 0 0.50000000000000222 -0.27425034046504659 0 0.47605513413645029 -0.28008102786359129 0 0.4860923945095682 -0.29520986964724988 0 0.50000000000000222 -0.27425034046504659 0 0.4860923945095682 -0.29520986964724988 0 0.4860923945095682 -0.29520986964724988 0 0.5 -0.307151228172029 0 0.47218478901913252 -0.31616939882945228 0 0.5 -0.307151228172029 0 0.47500442815187882 -0.33618410333150461 0 0.5 -0.35237408365171952 0 0.5 -0.307151228172029 0 0.47500442815187882 -0.33618410333150461 0 0.47218478901913252 -0.31616939882945228 0 0.47500442815187882 -0.33618410333150461 0 0.5 -0.35237408365171952 0 0.46252966193221051 -0.36479181955861489 0 0.5 -0.35237408365171952 0 0.46252966193221051 -0.36479181955861489 0 0.4680243894331878 -0.39009447735167219 0 0.46252966193221051 -0.36479181955861489 0 0.44439653888602387 -0.37108278870097211 0 0.45518384933885458 -0.37953704158418422 0 0.46252966193221051 -0.36479181955861489 0 0.4490308344886651 -0.35295870566956811 0 0.45703493443123322 -0.33948916176555749 0 0.47500442815187882 -0.33618410333150461 0 0.46252966193221051 -0.36479181955861489 0 0.45703493443123322 -0.33948916176555749 0 0.46252966193221051 -0.36479181955861489 0 0.45703493443123322 -0.33948916176555749 0 0.4490308344886651 -0.35295870566956811 0 0.44439653888602387 -0.37108278870097211 0 0.43547581015886039 -0.35374612963373181 0 0.44432011104097457 -0.34600420025309703 0 0.4490308344886651 -0.35295870566956811 0 0.45042795048268808 -0.34263813410543531 0 0.4490308344886651 -0.35295870566956811 0 0.45703493443123322 -0.33948916176555749 0 0.45042795048268808 -0.34263813410543531 0 0.44432011104097457 -0.34600420025309703 0 0.4490308344886651 -0.35295870566956811 0 0.43547581015886039 -0.35374612963373181 0 0.44432011104097457 -0.34600420025309703 0 0.43877314986606192 -0.33818418946214152 0 0.43547581015886039 -0.35374612963373181 0 0.46252966193221051 -0.36479181955861489 0 0.4490308344886651 -0.35295870566956811 0 0.44439653888602387 -0.37108278870097211 0 0.47218478901913252 -0.31616939882945228 0 0.45845081404400378 -0.32484725803309861 0 0.45088585771739531 -0.31517042999936162 0 0.47218478901913252 -0.31616939882945228 0 0.45845081404400378 -0.32484725803309861 0 0.45827718352869679 -0.33712892801165451 0 0.47218478901913252 -0.31616939882945228 0 0.45827718352869679 -0.33712892801165451 0 0.45845081404400378 -0.32484725803309861 0 0.45465012105844921 -0.33200612518688721 0 0.44755831468875862 -0.32470483606049327 0 0.47500442815187882 -0.33618410333150461 0 0.45703493443123322 -0.33948916176555749 0 0.45827718352869679 -0.33712892801165451 0 0.47500442815187882 -0.33618410333150461 0 0.47218478901913252 -0.31616939882945228 0 0.45827718352869679 -0.33712892801165451 0 0.45703493443123322 -0.33948916176555749 0 0.4547926195999189 -0.33699511694280199 0 0.45042795048268808 -0.34263813410543531 0 0.45703493443123322 -0.33948916176555749 0 0.45827718352869679 -0.33712892801165451 0 0.4547926195999189 -0.33699511694280199 0 0.45845081404400378 -0.32484725803309861 0 0.45827718352869679 -0.33712892801165451 0 0.45465012105844921 -0.33200612518688721 0 0.4547926195999189 -0.33699511694280199 0 0.45465012105844921 -0.33200612518688721 0 0.45190540097192972 -0.33615439765103378 0 0.45827718352869679 -0.33712892801165451 0 0.4547926195999189 -0.33699511694280199 0 0.45465012105844921 -0.33200612518688721 0 0.45465012105844921 -0.33200612518688721 0 0.44749393872662357 -0.33307274595813069 0 0.44755831468875862 -0.32470483606049327 0 0.45465012105844921 -0.33200612518688721 0 0.44749393872662357 -0.33307274595813069 0 0.45190540097192972 -0.33615439765103378 0 0.4547926195999189 -0.33699511694280199 0 0.45042795048268808 -0.34263813410543531 0 0.45190540097192972 -0.33615439765103378 0 0.45042795048268808 -0.34263813410543531 0 0.45190540097192972 -0.33615439765103378 0 0.44691761172297523 -0.33872250108465612 0 0.44749393872662357 -0.33307274595813069 0 0.45190540097192972 -0.33615439765103378 0 0.44691761172297523 -0.33872250108465612 0 0.44432011104097457 -0.34600420025309703 0 0.45042795048268808 -0.34263813410543531 0 0.44691761172297523 -0.33872250108465612 0 0.44432011104097457 -0.34600420025309703 0 0.44691761172297523 -0.33872250108465612 0 0.43877314986606192 -0.33818418946214152 0 0.44749393872662357 -0.33307274595813069 0 0.44691761172297523 -0.33872250108465612 0 0.43877314986606192 -0.33818418946214152 0 0.44749393872662357 -0.33307274595813069 0 0.43877314986606192 -0.33818418946214152 0 0.43784837531542259 -0.32788377361433518 0 0.44749393872662357 -0.33307274595813069 0 0.43784837531542259 -0.32788377361433518 0 0.44755831468875862 -0.32470483606049327 0 0.43784837531542259 -0.32788377361433518 0 0.44755831468875862 -0.32470483606049327 0 0.43602078127065758 -0.31524868357114688 0 0.45845081404400378 -0.32484725803309861 0 0.44755831468875862 -0.32470483606049327 0 0.45088585771739531 -0.31517042999936162 0 0.44755831468875862 -0.32470483606049327 0 0.45088585771739531 -0.31517042999936162 0 0.43602078127065758 -0.31524868357114688 0 0.43784837531542259 -0.32788377361433518 0 0.42583518759170652 -0.33528639298719382 0 0.41775460495295358 -0.31793141321765611 0 0.43784837531542259 -0.32788377361433518 0 0.43602078127065758 -0.31524868357114688 0 0.41775460495295358 -0.31793141321765611 0 0.43877314986606192 -0.33818418946214152 0 0.43784837531542259 -0.32788377361433518 0 0.42583518759170652 -0.33528639298719382 0 0.43877314986606192 -0.33818418946214152 0 0.42583518759170652 -0.33528639298719382 0 0.43547581015886039 -0.35374612963373181 0 0.41250416259223432 -0.33960725990233392 0 0.41775460495295358 -0.31793141321765611 0 0.39805431729583179 -0.33510365622952631 0 0.41250416259223432 -0.33960725990233392 0 0.41775460495295358 -0.31793141321765611 0 0.42583518759170652 -0.33528639298719382 0 0.41250416259223432 -0.33960725990233392 0 0.41775460495295358 -0.31793141321765611 0 0.42583518759170652 -0.33528639298719382 0 0.41250416259223432 -0.33960725990233392 0 0.42034794007649889 -0.35298104146800569 0 0.43547581015886039 -0.35374612963373181 0 0.42034794007649889 -0.35298104146800569 0 0.42578668388574042 -0.37577956855813549 0 0.44439653888602387 -0.37108278870097211 0 0.43547581015886039 -0.35374612963373181 0 0.42578668388574042 -0.37577956855813549 0 0.42583518759170652 -0.33528639298719382 0 0.43547581015886039 -0.35374612963373181 0 0.42034794007649889 -0.35298104146800569 0 0.41250416259223432 -0.33960725990233392 0 0.42034794007649889 -0.35298104146800569 0 0.40725372023151529 -0.36128310658701179 0 0.41250416259223432 -0.33960725990233392 0 0.40725372023151529 -0.36128310658701179 0 0.40725372023151529 -0.36128310658701179 0 0.42578668388574042 -0.37577956855813549 0 0.40193856510946419 -0.3832261124550107 0 0.40725372023151529 -0.36128310658701179 0 0.42578668388574042 -0.37577956855813549 0 0.42034794007649889 -0.35298104146800569 0 0.40725372023151529 -0.36128310658701179 0 0.42578668388574042 -0.37577956855813549 0 0.40725372023151529 -0.36128310658701179 0 0.39425043507280438 -0.36432915978129837 0 0.40193856510946419 -0.3832261124550107 0 0.40725372023151529 -0.36128310658701179 0 0.40193856510946419 -0.3832261124550107 0 0.39425043507280438 -0.36432915978129837 0 0.38081427771294768 -0.36737052156009248 0 0.40193856510946419 -0.3832261124550107 0 0.40725372023151529 -0.36128310658701179 0 0.38699517723729038 -0.34543689852307891 0 0.39805431729583179 -0.33510365622952631 0 0.40725372023151529 -0.36128310658701179 0 0.39425043507280438 -0.36432915978129837 0 0.38699517723729038 -0.34543689852307891 0 0.40725372023151529 -0.36128310658701179 0 0.38699517723729038 -0.34543689852307891 0 0.41250416259223432 -0.33960725990233392 0 0.40725372023151529 -0.36128310658701179 0 0.39805431729583179 -0.33510365622952631 0 0.38699517723729038 -0.34543689852307891 0 0.38081427771294768 -0.36737052156009248 0 0.37640125955739012 -0.35149107478397351 0 0.38465179156333151 -0.34360390505586791 0 0.36805061276354478 -0.3427907498460791 0 0.39425043507280438 -0.36432915978129837 0 0.38699517723729038 -0.34543689852307891 0 0.38081427771294768 -0.36737052156009248 0 0.38699517723729038 -0.34543689852307891 0 0.37640125955739012 -0.35149107478397351 0 0.38081427771294768 -0.36737052156009248 0 0.38699517723729038 -0.34543689852307891 0 0.38465179156333151 -0.34360390505586791 0 0.38699517723729038 -0.34543689852307891 0 0.37640125955739012 -0.35149107478397351 0 0.38465179156333151 -0.34360390505586791 0 0.41775460495295358 -0.31793141321765611 0 0.39401776620237461 -0.32051644503610022 0 0.39805431729583179 -0.33510365622952631 0 0.38699517723729038 -0.34543689852307891 0 0.39401776620237461 -0.32051644503610022 0 0.39805431729583179 -0.33510365622952631 0 0.38699517723729038 -0.34543689852307891 0 0.39401776620237461 -0.32051644503610022 0 0.38465179156333151 -0.34360390505586791 0 0.37858644206980091 -0.32769985780377792 0 0.36805061276354478 -0.3427907498460791 0 0.38699517723729038 -0.34543689852307891 0 0.39401776620237461 -0.32051644503610022 0 0.38465179156333151 -0.34360390505586791 0 0.39401776620237461 -0.32051644503610022 0 0.38465179156333151 -0.34360390505586791 0 0.37858644206980091 -0.32769985780377792 0 0.39401776620237461 -0.32051644503610022 0 0.37858644206980091 -0.32769985780377792 0 0.37861767820969228 -0.30691821554646831 0 0.41775460495295358 -0.31793141321765611 0 0.39401776620237461 -0.32051644503610022 0 0.40104035516745928 -0.29559599154912142 0 0.39401776620237461 -0.32051644503610022 0 0.37861767820969228 -0.30691821554646831 0 0.40104035516745928 -0.29559599154912142 0 0.39401776620237461 -0.32051644503610022 0 0.40104035516745928 -0.29559599154912142 0 0.40104035516745928 -0.29559599154912142 0 0.38498320530945151 -0.287592927137584 0 0.39655653748852282 -0.27284147297554762 0 0.38498320530945151 -0.287592927137584 0 0.37764450162479901 -0.26965755496232408 0 0.36873774536035581 -0.28861226174546889 0 0.37861767820969228 -0.30691821554646831 0 0.40104035516745928 -0.29559599154912142 0 0.38498320530945151 -0.287592927137584 0 0.37861767820969228 -0.30691821554646831 0 0.38498320530945151 -0.287592927137584 0 0.36873774536035581 -0.28861226174546889 0 0.38498320530945151 -0.287592927137584 0 0.37764450162479901 -0.26965755496232408 0 0.39655653748852282 -0.27284147297554762 0 0.39206528024080278 -0.24921397013056479 0 0.37764450162479901 -0.26965755496232408 0 0.39655653748852282 -0.27284147297554762 0 0.39206528024080278 -0.24921397013056479 0 0.37764450162479901 -0.26965755496232408 0 0.37510228513818711 -0.25237727586059511 0 0.39206528024080278 -0.24921397013056479 0 0.39655653748852282 -0.27284147297554762 0 0.40884184876520419 -0.25890250189124958 0 0.40104035516745928 -0.29559599154912142 0 0.39655653748852282 -0.27284147297554762 0 0.4136044294752057 -0.2739163227279473 0 0.39655653748852282 -0.27284147297554762 0 0.4136044294752057 -0.2739163227279473 0 0.40884184876520419 -0.25890250189124958 0 0.4148006158986044 -0.24103970595398019 0 0.40884184876520419 -0.25890250189124958 0 0.42892204251950339 -0.2594807324876427 0 0.4136044294752057 -0.2739163227279473 0 0.40884184876520419 -0.25890250189124958 0 0.42892204251950339 -0.2594807324876427 0 0.4136044294752057 -0.2739163227279473 0 0.42892204251950339 -0.2594807324876427 0 0.42611848489587972 -0.28658767974219163 0 0.44355941821905998 -0.27577600561597132 0 0.42892204251950339 -0.2594807324876427 0 0.42611848489587972 -0.28658767974219163 0 0.44743457629936911 -0.29125199491084608 0 0.42611848489587972 -0.28658767974219163 0 0.43686388954492023 -0.30206384222820981 0 0.43602078127065758 -0.31524868357114688 0 0.41775460495295358 -0.31793141321765611 0 0.42179240152309172 -0.30222108271158582 0 0.42611848489587972 -0.28658767974219163 0 0.43686388954492023 -0.30206384222820981 0 0.42179240152309172 -0.30222108271158582 0 0.43602078127065758 -0.31524868357114688 0 0.43686388954492023 -0.30206384222820981 0 0.42179240152309172 -0.30222108271158582 0 0.41775460495295358 -0.31793141321765611 0 0.40104035516745928 -0.29559599154912142 0 0.42179240152309172 -0.30222108271158582 0 0.40104035516745928 -0.29559599154912142 0 0.4136044294752057 -0.2739163227279473 0 0.42611848489587972 -0.28658767974219163 0 0.40104035516745928 -0.29559599154912142 0 0.42611848489587972 -0.28658767974219163 0 0.42179240152309172 -0.30222108271158582 0 0.5 -0.5 0 0.478892924595126 -0.45923392689990328 0 0.5 -0.41454166856117469 0 0.5 -0.5 0 0.47943423265092072 -0.49342116463239621 0 0.40014079662082208 -0.5 0 0.43983937115661631 -0.46972557693384148 0 0.47943423265092072 -0.49342116463239621 0 0.40014079662082208 -0.5 0 0.43983937115661631 -0.46972557693384148 0 0.46715606132834708 -0.47012790102379598 0 0.47943423265092072 -0.49342116463239621 0 0.5 -0.5 0 0.47943423265092072 -0.49342116463239621 0 0.478892924595126 -0.45923392689990328 0 0.46715606132834708 -0.47012790102379598 0 0.47943423265092072 -0.49342116463239621 0 0.478892924595126 -0.45923392689990328 0 0.46715606132834708 -0.47012790102379598 0 0.47943423265092072 -0.49342116463239621 0 0.478892924595126 -0.45923392689990328 0 0.45487789000577361 -0.44683463741519602 0 0.47188936358571532 -0.4304781897668572 0 0.46715606132834708 -0.47012790102379598 0 0.45487789000577361 -0.44683463741519602 0 0.46715606132834708 -0.47012790102379598 0 0.478892924595126 -0.45923392689990328 0 0.45487789000577361 -0.44683463741519602 0 0.43983937115661631 -0.46972557693384148 0 0.46715606132834708 -0.47012790102379598 0 0.45487789000577361 -0.44683463741519602 0 0.43983937115661631 -0.46972557693384148 0 0.45487789000577361 -0.44683463741519602 0 0.43095981599733307 -0.44753658110846528 0 0.45487789000577361 -0.44683463741519602 0 0.43408281430989271 -0.43319973453275151 0 0.43095981599733307 -0.44753658110846528 0 0.45487789000577361 -0.44683463741519602 0 0.44259971868320003 -0.42354137380659601 0 0.45487789000577361 -0.44683463741519602 0 0.44259971868320003 -0.42354137380659601 0 0.43408281430989271 -0.43319973453275151 0 0.45487789000577361 -0.44683463741519602 0 0.44259971868320003 -0.42354137380659601 0 0.45959372781066021 -0.42263882295877442 0 0.44259971868320003 -0.42354137380659601 0 0.45186952978880229 -0.40983589673226128 0 0.45959372781066021 -0.42263882295877442 0 0.44259971868320003 -0.42354137380659601 0 0.45186952978880229 -0.40983589673226128 0 0.44161148704613862 -0.40579593671517361 0 0.44259971868320003 -0.42354137380659601 0 0.44161148704613862 -0.40579593671517361 0 0.43098246877755192 -0.41858878846052949 0 0.45186952978880229 -0.40983589673226128 0 0.45959372781066021 -0.42263882295877442 0 0.46285261119418991 -0.40477249250038388 0 0.45959372781066021 -0.42263882295877442 0 0.4735191169341651 -0.41539713514472942 0 0.46285261119418991 -0.40477249250038388 0 0.45959372781066021 -0.42263882295877442 0 0.47188936358571532 -0.4304781897668572 0 0.4735191169341651 -0.41539713514472942 0 0.45487789000577361 -0.44683463741519602 0 0.45959372781066021 -0.42263882295877442 0 0.47188936358571532 -0.4304781897668572 0 0.5 -0.41454166856117469 0 0.4735191169341651 -0.41539713514472942 0 0.4680243894331878 -0.39009447735167219 0 0.478892924595126 -0.45923392689990328 0 0.47188936358571532 -0.4304781897668572 0 0.5 -0.41454166856117469 0 0.47188936358571532 -0.4304781897668572 0 0.5 -0.41454166856117469 0 0.4735191169341651 -0.41539713514472942 0 0.5 -0.35237408365171952 0 0.5 -0.41454166856117469 0 0.4680243894331878 -0.39009447735167219 0 0.4735191169341651 -0.41539713514472942 0 0.4680243894331878 -0.39009447735167219 0 0.46252966193221051 -0.36479181955861489 0 0.45518384933885458 -0.37953704158418422 0 0.4680243894331878 -0.39009447735167219 0 0.45518384933885458 -0.37953704158418422 0 0.4680243894331878 -0.39009447735167219 0 0.44431964753996511 -0.39027603052925969 0 0.46252966193221051 -0.36479181955861489 0 0.4680243894331878 -0.39009447735167219 0 0.4735191169341651 -0.41539713514472942 0 0.4680243894331878 -0.39009447735167219 0 0.46285261119418991 -0.40477249250038388 0 0.4680243894331878 -0.39009447735167219 0 0.46285261119418991 -0.40477249250038388 0 0.44431964753996511 -0.39027603052925969 0 0.46285261119418991 -0.40477249250038388 0 0.44431964753996511 -0.39027603052925969 0 0.45186952978880229 -0.40983589673226128 0 0.44161148704613862 -0.40579593671517361 0 0.44431964753996511 -0.39027603052925969 0 0.45186952978880229 -0.40983589673226128 0 0.46285261119418991 -0.40477249250038388 0 0.44431964753996511 -0.39027603052925969 0 0.44439653888602387 -0.37108278870097211 0 0.44431964753996511 -0.39027603052925969 0 0.42578668388574042 -0.37577956855813549 0 0.44439653888602387 -0.37108278870097211 0 0.45518384933885458 -0.37953704158418422 0 0.44431964753996511 -0.39027603052925969 0 0.44431964753996511 -0.39027603052925969 0 0.42578668388574042 -0.37577956855813549 0 0.42627525148907153 -0.39512359141131242 0 0.44431964753996511 -0.39027603052925969 0 0.42578668388574042 -0.37577956855813549 0 0.44161148704613862 -0.40579593671517361 0 0.44431964753996511 -0.39027603052925969 0 0.42627525148907153 -0.39512359141131242 0 0.44161148704613862 -0.40579593671517361 0 0.42627525148907153 -0.39512359141131242 0 0.41380476734409732 -0.40903711363024231 0 0.41288573556315727 -0.39366710087554208 0 0.39662340998741341 -0.40516911832300972 0 0.41380476734409732 -0.40903711363024231 0 0.42627525148907153 -0.39512359141131242 0 0.41288573556315727 -0.39366710087554208 0 0.41380476734409732 -0.40903711363024231 0 0.42578668388574042 -0.37577956855813549 0 0.41288573556315727 -0.39366710087554208 0 0.40193856510946419 -0.3832261124550107 0 0.42578668388574042 -0.37577956855813549 0 0.42627525148907153 -0.39512359141131242 0 0.41288573556315727 -0.39366710087554208 0 0.38081427771294768 -0.36737052156009248 0 0.37463337818860382 -0.38930414459710588 0 0.3737028077843495 -0.38742295831448542 0 0.38081427771294768 -0.36737052156009248 0 0.38897026210220897 -0.39170162293651239 0 0.37463337818860382 -0.38930414459710588 0 0.38081427771294768 -0.36737052156009248 0 0.37463337818860382 -0.38930414459710588 0 0.38081427771294768 -0.36737052156009248 0 0.40193856510946419 -0.3832261124550107 0 0.38897026210220897 -0.39170162293651239 0 0.38599804764205609 -0.41227829054531151 0 0.37463337818860382 -0.38930414459710588 0 0.38897026210220897 -0.39170162293651239 0 0.39662340998741341 -0.40516911832300972 0 0.38599804764205609 -0.41227829054531151 0 0.38599804764205609 -0.41227829054531151 0 0.36755341006792419 -0.41442821452601158 0 0.37463337818860382 -0.38930414459710588 0 0.38897026210220897 -0.39170162293651239 0 0.38599804764205609 -0.41227829054531151 0 0.37463337818860382 -0.38930414459710588 0 0.40193856510946419 -0.3832261124550107 0 0.38897026210220897 -0.39170162293651239 0 0.39662340998741341 -0.40516911832300972 0 0.41288573556315727 -0.39366710087554208 0 0.40193856510946419 -0.3832261124550107 0 0.39662340998741341 -0.40516911832300972 0 0.40193856510946419 -0.3832261124550107 0 0.39662340998741341 -0.40516911832300972 0 0.38599804764205609 -0.41227829054531151 0 0.41380476734409732 -0.40903711363024231 0 0.39662340998741341 -0.40516911832300972 0 0.38599804764205609 -0.41227829054531151 0 0.41380476734409732 -0.40903711363024231 0 0.40147331832312588 -0.42054231308375889 0 0.38599804764205609 -0.41227829054531151 0 0.41380476734409732 -0.40903711363024231 0 0.38599804764205609 -0.41227829054531151 0 0.36755341006792419 -0.41442821452601158 0 0.38599804764205609 -0.41227829054531151 0 0.37837193070639508 -0.43074191130029282 0 0.36755341006792419 -0.41442821452601158 0 0.38599804764205609 -0.41227829054531151 0 0.37837193070639508 -0.43074191130029282 0 0.39716653888589531 -0.43485585418744782 0 0.37837193070639508 -0.43074191130029282 0 0.39716653888589531 -0.43485585418744782 0 0.38455236834147782 -0.44235831893697952 0 0.38599804764205609 -0.41227829054531151 0 0.39716653888589531 -0.43485585418744782 0 0.40147331832312588 -0.42054231308375889 0 0.38599804764205609 -0.41227829054531151 0 0.39716653888589531 -0.43485585418744782 0 0.40147331832312588 -0.42054231308375889 0 0.39716653888589531 -0.43485585418744782 0 0.40988830344794153 -0.42850982814637428 0 0.39716653888589531 -0.43485585418744782 0 0.40988830344794153 -0.42850982814637428 0 0.41424956646142452 -0.44145335337101582 0 0.40988830344794153 -0.42850982814637428 0 0.42255857874347952 -0.42798536962106742 0 0.41424956646142452 -0.44145335337101582 0 0.40147331832312588 -0.42054231308375889 0 0.40988830344794153 -0.42850982814637428 0 0.41380476734409732 -0.40903711363024231 0 0.40988830344794153 -0.42850982814637428 0 0.41380476734409732 -0.40903711363024231 0 0.42255857874347952 -0.42798536962106742 0 0.44161148704613862 -0.40579593671517361 0 0.41380476734409732 -0.40903711363024231 0 0.43098246877755192 -0.41858878846052949 0 0.44161148704613862 -0.40579593671517361 0 0.41380476734409732 -0.40903711363024231 0 0.41380476734409732 -0.40903711363024231 0 0.43098246877755192 -0.41858878846052949 0 0.42255857874347952 -0.42798536962106742 0 0.43408281430989271 -0.43319973453275151 0 0.42255857874347952 -0.42798536962106742 0 0.43095981599733307 -0.44753658110846528 0 0.44259971868320003 -0.42354137380659601 0 0.43098246877755192 -0.41858878846052949 0 0.43408281430989271 -0.43319973453275151 0 0.43098246877755192 -0.41858878846052949 0 0.43408281430989271 -0.43319973453275151 0 0.42255857874347952 -0.42798536962106742 0 0.42255857874347952 -0.42798536962106742 0 0.43095981599733307 -0.44753658110846528 0 0.41424956646142452 -0.44145335337101582 0 0.43983937115661631 -0.46972557693384148 0 0.42706067288056998 -0.45966910190407051 0 0.41707216494033877 -0.46659444091922031 0 0.43983937115661631 -0.46972557693384148 0 0.43095981599733307 -0.44753658110846528 0 0.42706067288056998 -0.45966910190407051 0 0.43095981599733307 -0.44753658110846528 0 0.42706067288056998 -0.45966910190407051 0 0.42037133942799187 -0.45481980865475502 0 0.42037133942799187 -0.45481980865475502 0 0.41707216494033877 -0.46659444091922031 0 0.40833503012973449 -0.45743341782958391 0 0.42706067288056998 -0.45966910190407051 0 0.42037133942799187 -0.45481980865475502 0 0.41707216494033877 -0.46659444091922031 0 0.41707216494033877 -0.46659444091922031 0 0.40833503012973449 -0.45743341782958391 0 0.39424227281986102 -0.46676003377889269 0 0.43095981599733307 -0.44753658110846528 0 0.42037133942799187 -0.45481980865475502 0 0.41424956646142452 -0.44145335337101582 0 0.42037133942799187 -0.45481980865475502 0 0.40833503012973449 -0.45743341782958391 0 0.41424956646142452 -0.44145335337101582 0 0.39716653888589531 -0.43485585418744782 0 0.40833503012973449 -0.45743341782958391 0 0.41424956646142452 -0.44145335337101582 0 0.39716653888589531 -0.43485585418744782 0 0.39345157537004599 -0.45057062730194619 0 0.38455236834147782 -0.44235831893697952 0 0.39716653888589531 -0.43485585418744782 0 0.40833503012973449 -0.45743341782958391 0 0.39345157537004599 -0.45057062730194619 0 0.39716653888589531 -0.43485585418744782 0 0.40833503012973449 -0.45743341782958391 0 0.39345157537004599 -0.45057062730194619 0 0.38455236834147782 -0.44235831893697952 0 0.38182359321740972 -0.45292134106576409 0 0.38455236834147782 -0.44235831893697952 0 0.38182359321740972 -0.45292134106576409 0 0.37194820352764257 -0.4427018608294464 0 0.37837193070639508 -0.43074191130029282 0 0.38455236834147782 -0.44235831893697952 0 0.37194820352764257 -0.4427018608294464 0 0.38182359321740972 -0.45292134106576409 0 0.39424227281986102 -0.46676003377889269 0 0.37141238069938332 -0.46692562663856529 0 0.39345157537004599 -0.45057062730194619 0 0.38182359321740972 -0.45292134106576409 0 0.39424227281986102 -0.46676003377889269 0 0.39424227281986102 -0.46676003377889269 0 0.37141238069938332 -0.46692562663856529 0 0.40833503012973449 -0.45743341782958391 0 0.39345157537004599 -0.45057062730194619 0 0.39424227281986102 -0.46676003377889269 0 0.41707216494033877 -0.46659444091922031 0 0.39424227281986102 -0.46676003377889269 0 0.41707216494033877 -0.46659444091922031 0 0.39424227281986102 -0.46676003377889269 0 0.40014079662082208 -0.5 0 0.39424227281986102 -0.46676003377889269 0 0.40014079662082208 -0.5 0 0.37141238069938332 -0.46692562663856529 0 0.43983937115661631 -0.46972557693384148 0 0.41707216494033877 -0.46659444091922031 0 0.40014079662082208 -0.5 0 0.40014079662082208 -0.5 0 0.32546065004022617 -0.5 0 0.3462765218470546 -0.48033279556006703 0 0.32546065004022617 -0.5 0 0.3462765218470546 -0.48033279556006703 0 0.30631021868456298 -0.48072311486568892 0 0.3462765218470546 -0.48033279556006703 0 0.32575259645842791 -0.46725681235791028 0 0.30631021868456298 -0.48072311486568892 0 0.3462765218470546 -0.48033279556006703 0 0.3485824885789055 -0.46709121949823779 0 0.32575259645842791 -0.46725681235791028 0 0.40014079662082208 -0.5 0 0.3462765218470546 -0.48033279556006703 0 0.37141238069938332 -0.46692562663856529 0 0.3462765218470546 -0.48033279556006703 0 0.3485824885789055 -0.46709121949823779 0 0.37141238069938332 -0.46692562663856529 0 0.3485824885789055 -0.46709121949823779 0 0.37141238069938332 -0.46692562663856529 0 0.35324569388809701 -0.44989359131069062 0 0.3485824885789055 -0.46709121949823779 0 0.35324569388809701 -0.44989359131069062 0 0.33806214337105372 -0.45777686618061397 0 0.38182359321740972 -0.45292134106576409 0 0.37141238069938332 -0.46692562663856529 0 0.35324569388809701 -0.44989359131069062 0 0.3485824885789055 -0.46709121949823779 0 0.37141238069938332 -0.46692562663856529 0 0.36060935802898147 -0.43906997082244181 0 0.37194820352764257 -0.4427018608294464 0 0.35324569388809701 -0.44989359131069062 0 0.38182359321740972 -0.45292134106576409 0 0.35324569388809701 -0.44989359131069062 0 0.37837193070639508 -0.43074191130029282 0 0.36060935802898147 -0.43906997082244181 0 0.37194820352764257 -0.4427018608294464 0 0.38182359321740972 -0.45292134106576409 0 0.37194820352764257 -0.4427018608294464 0 0.35324569388809701 -0.44989359131069062 0 0.36060935802898147 -0.43906997082244181 0 0.35324569388809701 -0.44989359131069062 0 0.34315104194743368 -0.43483422324315929 0 0.32466779455878442 -0.44686584155561709 0 0.32761501992215097 -0.43116249501185328 0 0.34315104194743368 -0.43483422324315929 0 0.35324569388809701 -0.44989359131069062 0 0.33806214337105372 -0.45777686618061397 0 0.32466779455878442 -0.44686584155561709 0 0.35324569388809701 -0.44989359131069062 0 0.32466779455878442 -0.44686584155561709 0 0.34315104194743368 -0.43483422324315929 0 0.35324569388809701 -0.44989359131069062 0 0.32466779455878442 -0.44686584155561709 0 0.3485824885789055 -0.46709121949823779 0 0.32575259645842791 -0.46725681235791028 0 0.3485824885789055 -0.46709121949823779 0 0.33806214337105372 -0.45777686618061397 0 0.32575259645842791 -0.46725681235791028 0 0.33806214337105372 -0.45777686618061397 0 0.32575259645842791 -0.46725681235791028 0 0.32466779455878442 -0.44686584155561709 0 0.32575259645842791 -0.46725681235791028 0 0.30904716904302271 -0.45792120175055678 0 0.30631021868456298 -0.48072311486568892 0 0.32575259645842791 -0.46725681235791028 0 0.32466779455878442 -0.44686584155561709 0 0.30904716904302271 -0.45792120175055678 0 0.32466779455878442 -0.44686584155561709 0 0.31800868577585262 -0.43516031519895321 0 0.30735360635596409 -0.43632211706289747 0 0.32466779455878442 -0.44686584155561709 0 0.32761501992215097 -0.43116249501185328 0 0.31800868577585262 -0.43516031519895321 0 0.32761501992215097 -0.43116249501185328 0 0.32339131420283213 -0.41656724990055422 0 0.31239832226651099 -0.42629080716544471 0 0.32761501992215097 -0.43116249501185328 0 0.31800868577585262 -0.43516031519895321 0 0.31239832226651099 -0.42629080716544471 0 0.31800868577585262 -0.43516031519895321 0 0.31239832226651099 -0.42629080716544471 0 0.30735360635596409 -0.43632211706289747 0 0.32339131420283213 -0.41656724990055422 0 0.31120060169272079 -0.4133373498197 0 0.31239832226651099 -0.42629080716544471 0 0.32339131420283213 -0.41656724990055422 0 0.319673984964159 -0.40346676889879052 0 0.31120060169272079 -0.4133373498197 0 0.319673984964159 -0.40346676889879052 0 0.30884060304287331 -0.40229515593698711 0 0.31120060169272079 -0.4133373498197 0 0.32339131420283213 -0.41656724990055422 0 0.33281994217864741 -0.40778505865636938 0 0.319673984964159 -0.40346676889879052 0 0.32761501992215097 -0.43116249501185328 0 0.32339131420283213 -0.41656724990055422 0 0.33796042338316851 -0.41787760036937549 0 0.32339131420283213 -0.41656724990055422 0 0.33281994217864741 -0.40778505865636938 0 0.33796042338316851 -0.41787760036937549 0 0.33281994217864741 -0.40778505865636938 0 0.33796042338316851 -0.41787760036937549 0 0.34601675315157321 -0.40486547886918423 0 0.32761501992215097 -0.43116249501185328 0 0.33796042338316851 -0.41787760036937549 0 0.34315104194743368 -0.43483422324315929 0 0.33796042338316851 -0.41787760036937549 0 0.34315104194743368 -0.43483422324315929 0 0.35231855835687692 -0.42655250224024699 0 0.36060935802898147 -0.43906997082244181 0 0.34315104194743368 -0.43483422324315929 0 0.35231855835687692 -0.42655250224024699 0 0.37837193070639508 -0.43074191130029282 0 0.36060935802898147 -0.43906997082244181 0 0.36755341006792419 -0.41442821452601158 0 0.36060935802898147 -0.43906997082244181 0 0.35231855835687692 -0.42655250224024699 0 0.36755341006792419 -0.41442821452601158 0 0.36060935802898147 -0.43906997082244181 0 0.36755341006792419 -0.41442821452601158 0 0.33796042338316851 -0.41787760036937549 0 0.35231855835687692 -0.42655250224024699 0 0.36755341006792419 -0.41442821452601158 0 0.33796042338316851 -0.41787760036937549 0 0.36755341006792419 -0.41442821452601158 0 0.34601675315157321 -0.40486547886918423 0 0.33796042338316851 -0.41787760036937549 0 0.36755341006792419 -0.41442821452601158 0 0.36755341006792419 -0.41442821452601158 0 0.34601675315157321 -0.40486547886918423 0 0.35566250251704978 -0.3975177511027051 0 0.34601675315157321 -0.40486547886918423 0 0.34667365318154342 -0.39629832909528578 0 0.35566250251704978 -0.3975177511027051 0 0.34667365318154342 -0.39629832909528578 0 0.34795812186604658 -0.38666189116531141 0 0.33705723519150399 -0.3961481952439429 0 0.34667365318154342 -0.39629832909528578 0 0.35566250251704978 -0.3975177511027051 0 0.34795812186604658 -0.38666189116531141 0 0.36755341006792419 -0.41442821452601158 0 0.35566250251704978 -0.3975177511027051 0 0.36706103815962848 -0.39187921332532882 0 0.36755341006792419 -0.41442821452601158 0 0.37463337818860382 -0.38930414459710588 0 0.36755341006792419 -0.41442821452601158 0 0.36706103815962848 -0.39187921332532882 0 0.37463337818860382 -0.38930414459710588 0 0.35566250251704978 -0.3975177511027051 0 0.36706103815962848 -0.39187921332532882 0 0.35924801608749379 -0.38543857686598643 0 0.38081427771294768 -0.36737052156009248 0 0.36848073339739068 -0.37517807712711049 0 0.3737028077843495 -0.38742295831448542 0 0.36848073339739068 -0.37517807712711049 0 0.3737028077843495 -0.38742295831448542 0 0.36599997940964812 -0.38379980358563692 0 0.36706103815962848 -0.39187921332532882 0 0.3737028077843495 -0.38742295831448542 0 0.36599997940964812 -0.38379980358563692 0 0.36706103815962848 -0.39187921332532882 0 0.37463337818860382 -0.38930414459710588 0 0.3737028077843495 -0.38742295831448542 0 0.37463337818860382 -0.38930414459710588 0 0.3737028077843495 -0.38742295831448542 0 0.36706103815962848 -0.39187921332532882 0 0.36599997940964812 -0.38379980358563692 0 0.35924801608749379 -0.38543857686598643 0 0.36599997940964812 -0.38379980358563692 0 0.36207090148421361 -0.37959838259465167 0 0.35924801608749379 -0.38543857686598643 0 0.36848073339739068 -0.37517807712711049 0 0.36599997940964812 -0.38379980358563692 0 0.36207090148421361 -0.37959838259465167 0 0.36848073339739068 -0.37517807712711049 0 0.36207090148421361 -0.37959838259465167 0 0.3554566368260581 -0.37480617727887811 0 0.36207090148421361 -0.37959838259465167 0 0.35924801608749379 -0.38543857686598643 0 0.3554566368260581 -0.37480617727887811 0 0.35924801608749379 -0.38543857686598643 0 0.34795812186604658 -0.38666189116531141 0 0.3554566368260581 -0.37480617727887811 0 0.35566250251704978 -0.3975177511027051 0 0.35924801608749379 -0.38543857686598643 0 0.34795812186604658 -0.38666189116531141 0 0.34795812186604658 -0.38666189116531141 0 0.34537995690420659 -0.3737828605913362 0 0.3554566368260581 -0.37480617727887811 0 0.34795812186604658 -0.38666189116531141 0 0.33323562740676532 -0.37769939737979058 0 0.34537995690420659 -0.3737828605913362 0 0.34795812186604658 -0.38666189116531141 0 0.33323562740676532 -0.37769939737979058 0 0.33705723519150399 -0.3961481952439429 0 0.33323562740676532 -0.37769939737979058 0 0.33705723519150399 -0.3961481952439429 0 0.319673984964159 -0.40346676889879052 0 0.33281994217864741 -0.40778505865636938 0 0.33705723519150399 -0.3961481952439429 0 0.319673984964159 -0.40346676889879052 0 0.33281994217864741 -0.40778505865636938 0 0.34601675315157321 -0.40486547886918423 0 0.33705723519150399 -0.3961481952439429 0 0.34601675315157321 -0.40486547886918423 0 0.34667365318154342 -0.39629832909528578 0 0.33705723519150399 -0.3961481952439429 0 0.33323562740676532 -0.37769939737979058 0 0.319673984964159 -0.40346676889879052 0 0.31422368515007948 -0.393427126581603 0 0.319673984964159 -0.40346676889879052 0 0.31422368515007948 -0.393427126581603 0 0.30884060304287331 -0.40229515593698711 0 0.33323562740676532 -0.37769939737979058 0 0.319673984964159 -0.40346676889879052 0 0.31422368515007948 -0.393427126581603 0 0.30591552541026101 -0.37751124227982003 0 0.32002671755222051 -0.36641101040373808 0 0.33323562740676532 -0.37769939737979058 0 0.31422368515007948 -0.393427126581603 0 0.32002671755222051 -0.36641101040373808 0 0.31422368515007948 -0.393427126581603 0 0.32002671755222051 -0.36641101040373808 0 0.30591552541026101 -0.37751124227982003 0 0.29934269892459558 -0.39453707190143028 0 0.28871394442674109 -0.38265385864092483 0 0.31422368515007948 -0.393427126581603 0 0.30591552541026101 -0.37751124227982003 0 0.29934269892459558 -0.39453707190143028 0 0.31422368515007948 -0.393427126581603 0 0.30884060304287331 -0.40229515593698711 0 0.29934269892459558 -0.39453707190143028 0 0.30884060304287331 -0.40229515593698711 0 0.29934269892459558 -0.39453707190143028 0 0.29896657827583012 -0.40866065312134409 0 0.28871394442674109 -0.38265385864092483 0 0.27786210523133942 -0.40981541802129928 0 0.29934269892459558 -0.39453707190143028 0 0.27786210523133942 -0.40981541802129928 0 0.29896657827583012 -0.40866065312134409 0 0.29934269892459558 -0.39453707190143028 0 0.28871394442674109 -0.38265385864092483 0 0.27786210523133942 -0.40981541802129928 0 0.28871394442674109 -0.38265385864092483 0 0.26416245427686541 -0.38049931320234009 0 0.26125098829365018 -0.39969694482297641 0 0.28871394442674109 -0.38265385864092483 0 0.26416245427686541 -0.38049931320234009 0 0.27571190406721402 -0.36345127203525351 0 0.26416245427686541 -0.38049931320234009 0 0.24971336314328341 -0.36520417674804972 0 0.24502858373403441 -0.39146921073642488 0 0.26416245427686541 -0.38049931320234009 0 0.26125098829365018 -0.39969694482297641 0 0.24502858373403441 -0.39146921073642488 0 0.28871394442674109 -0.38265385864092483 0 0.26125098829365018 -0.39969694482297641 0 0.27786210523133942 -0.40981541802129928 0 0.26125098829365018 -0.39969694482297641 0 0.25610826383841628 -0.42120346698794331 0 0.2333640889907381 -0.41241884790723538 0 0.26125098829365018 -0.39969694482297641 0 0.27786210523133942 -0.40981541802129928 0 0.25610826383841628 -0.42120346698794331 0 0.25610826383841628 -0.42120346698794331 0 0.26701026603593758 -0.43697697740167368 0 0.2518592606704963 -0.43815060111373921 0 0.27786210523133942 -0.40981541802129928 0 0.26701026603593758 -0.43697697740167368 0 0.28078102790119369 -0.4274552938509788 0 0.27786210523133942 -0.40981541802129928 0 0.26701026603593758 -0.43697697740167368 0 0.27786210523133942 -0.40981541802129928 0 0.25610826383841628 -0.42120346698794331 0 0.26701026603593758 -0.43697697740167368 0 0.26701026603593758 -0.43697697740167368 0 0.28078102790119369 -0.4274552938509788 0 0.27712236562531017 -0.4375193999175232 0 0.28078102790119369 -0.4274552938509788 0 0.28865243891263809 -0.43215364344327012 0 0.27712236562531017 -0.4375193999175232 0 0.28865243891263809 -0.43215364344327012 0 0.28959476197880307 -0.44168956347039928 0 0.27712236562531017 -0.4375193999175232 0 0.28865243891263809 -0.43215364344327012 0 0.29503220707493127 -0.43614369036708622 0 0.29829711678041942 -0.42866378264525379 0 0.28865243891263809 -0.43215364344327012 0 0.29503220707493127 -0.43614369036708622 0 0.28959476197880307 -0.44168956347039928 0 0.28865243891263809 -0.43215364344327012 0 0.29108715411517122 -0.42145013040837909 0 0.29829711678041942 -0.42866378264525379 0 0.28078102790119369 -0.4274552938509788 0 0.28865243891263809 -0.43215364344327012 0 0.29108715411517122 -0.42145013040837909 0 0.27786210523133942 -0.40981541802129928 0 0.28078102790119369 -0.4274552938509788 0 0.29108715411517122 -0.42145013040837909 0 0.27786210523133942 -0.40981541802129928 0 0.29108715411517122 -0.42145013040837909 0 0.29896657827583012 -0.40866065312134409 0 0.29108715411517122 -0.42145013040837909 0 0.30377653118007591 -0.4205559058691733 0 0.29896657827583012 -0.40866065312134409 0 0.30377653118007591 -0.4205559058691733 0 0.29896657827583012 -0.40866065312134409 0 0.31120060169272079 -0.4133373498197 0 0.30884060304287331 -0.40229515593698711 0 0.29896657827583012 -0.40866065312134409 0 0.31120060169272079 -0.4133373498197 0 0.30377653118007591 -0.4205559058691733 0 0.31120060169272079 -0.4133373498197 0 0.31239832226651099 -0.42629080716544471 0 0.30377653118007591 -0.4205559058691733 0 0.31239832226651099 -0.42629080716544471 0 0.29829711678041942 -0.42866378264525379 0 0.31239832226651099 -0.42629080716544471 0 0.30735360635596409 -0.43632211706289747 0 0.29829711678041942 -0.42866378264525379 0 0.29503220707493127 -0.43614369036708622 0 0.30735360635596409 -0.43632211706289747 0 0.29829711678041942 -0.42866378264525379 0 0.29108715411517122 -0.42145013040837909 0 0.30377653118007591 -0.4205559058691733 0 0.29829711678041942 -0.42866378264525379 0 0.32466779455878442 -0.44686584155561709 0 0.30904716904302271 -0.45792120175055678 0 0.29608989522947149 -0.44383809180054362 0 0.32466779455878442 -0.44686584155561709 0 0.29608989522947149 -0.44383809180054362 0 0.32466779455878442 -0.44686584155561709 0 0.30735360635596409 -0.43632211706289747 0 0.29608989522947149 -0.44383809180054362 0 0.30904716904302271 -0.45792120175055678 0 0.29860320416278402 -0.45529674645956592 0 0.29608989522947149 -0.44383809180054362 0 0.29503220707493127 -0.43614369036708622 0 0.30735360635596409 -0.43632211706289747 0 0.29608989522947149 -0.44383809180054362 0 0.30904716904302271 -0.45792120175055678 0 0.29721119201091789 -0.46522563712477349 0 0.30631021868456298 -0.48072311486568892 0 0.30904716904302271 -0.45792120175055678 0 0.29721119201091789 -0.46522563712477349 0 0.29860320416278402 -0.45529674645956592 0 0.28932919617959602 -0.45338424297023883 0 0.27756010650442758 -0.45518222858252849 0 0.28072062580449653 -0.47155582870540619 0 0.29721119201091789 -0.46522563712477349 0 0.28932919617959602 -0.45338424297023883 0 0.28072062580449653 -0.47155582870540619 0 0.29721119201091789 -0.46522563712477349 0 0.29860320416278402 -0.45529674645956592 0 0.28932919617959602 -0.45338424297023883 0 0.28932919617959602 -0.45338424297023883 0 0.28959476197880307 -0.44168956347039928 0 0.27756010650442758 -0.45518222858252849 0 0.29860320416278402 -0.45529674645956592 0 0.28932919617959602 -0.45338424297023883 0 0.29608989522947149 -0.44383809180054362 0 0.28932919617959602 -0.45338424297023883 0 0.29608989522947149 -0.44383809180054362 0 0.28959476197880307 -0.44168956347039928 0 0.29503220707493127 -0.43614369036708622 0 0.29608989522947149 -0.44383809180054362 0 0.28959476197880307 -0.44168956347039928 0 0.28959476197880307 -0.44168956347039928 0 0.26138620688844749 -0.44792543592233808 0 0.26701026603593758 -0.43697697740167368 0 0.27712236562531017 -0.4375193999175232 0 0.26138620688844749 -0.44792543592233808 0 0.28959476197880307 -0.44168956347039928 0 0.26138620688844749 -0.44792543592233808 0 0.27756010650442758 -0.45518222858252849 0 0.28959476197880307 -0.44168956347039928 0 0.27712236562531017 -0.4375193999175232 0 0.26138620688844749 -0.44792543592233808 0 0.26701026603593758 -0.43697697740167368 0 0.26138620688844749 -0.44792543592233808 0 0.2518592606704963 -0.43815060111373921 0 0.26138620688844749 -0.44792543592233808 0 0.26339579246569877 -0.46312143350125029 0 0.23317765179809191 -0.45416130837427687 0 0.26138620688844749 -0.44792543592233808 0 0.26339579246569877 -0.46312143350125029 0 0.27756010650442758 -0.45518222858252849 0 0.26339579246569877 -0.46312143350125029 0 0.27756010650442758 -0.45518222858252849 0 0.28072062580449653 -0.47155582870540619 0 0.28072062580449653 -0.47155582870540619 0 0.2532296876789632 -0.47497352743918242 0 0.27004646425256568 -0.5 0 0.26339579246569877 -0.46312143350125029 0 0.28072062580449653 -0.47155582870540619 0 0.2532296876789632 -0.47497352743918242 0 0.32546065004022617 -0.5 0 0.27004646425256568 -0.5 0 0.30631021868456298 -0.48072311486568892 0 0.28072062580449653 -0.47155582870540619 0 0.27004646425256568 -0.5 0 0.30631021868456298 -0.48072311486568892 0 0.29721119201091789 -0.46522563712477349 0 0.28072062580449653 -0.47155582870540619 0 0.30631021868456298 -0.48072311486568892 0 0.33743581475864359 -0.28536266187014298 0 0.3388307833371127 -0.27886836189579028 0 0.34706744656536048 -0.28007479224216619 0 0.33743581475864359 -0.28536266187014298 0 0.3388307833371127 -0.27886836189579028 0 0.33743581475864359 -0.28536266187014298 0 0.33163278235650262 -0.31237877804800812 0 0.33743581475864359 -0.28536266187014298 0 0.33163278235650262 -0.31237877804800812 0 0.34308905326158867 -0.30070827197480321 0 0.33743581475864359 -0.28536266187014298 0 0.33163278235650262 -0.31237877804800812 0 0.32364365619397351 -0.29600562892690968 0 0.33163278235650262 -0.31237877804800812 0 0.32364365619397351 -0.29600562892690968 0 0.30954970221622308 -0.30462347215273478 0 0.31296692944630888 -0.29314018565426941 0 0.32364365619397351 -0.29600562892690968 0 0.30954970221622308 -0.30462347215273478 0 0.31296692944630888 -0.29314018565426941 0 0.32364365619397351 -0.29600562892690968 0 0.31569414790308259 -0.28159305760617132 0 0.33743581475864359 -0.28536266187014298 0 0.32364365619397351 -0.29600562892690968 0 0.31569414790308259 -0.28159305760617132 0 0.33743581475864359 -0.28536266187014298 0 0.31569414790308259 -0.28159305760617132 0 0.33743581475864359 -0.28536266187014298 0 0.31569414790308259 -0.28159305760617132 0 0.32852563272885182 -0.27784073863383552 0 0.31569414790308259 -0.28159305760617132 0 0.31275786215232049 -0.27168837282467972 0 0.32066228436037369 -0.27402337931129878 0 0.31275786215232049 -0.27168837282467972 0 0.32001527731196461 -0.26686042829596718 0 0.31054181011664339 -0.26140137874582919 0 0.31275786215232049 -0.27168837282467972 0 0.32001527731196461 -0.26686042829596718 0 0.32066228436037369 -0.27402337931129878 0 0.32001527731196461 -0.26686042829596718 0 0.32631850170564902 -0.27213429919584042 0 0.32066228436037369 -0.27402337931129878 0 0.32001527731196461 -0.26686042829596718 0 0.32631850170564902 -0.27213429919584042 0 0.32861545200372733 -0.26431566092564712 0 0.32631850170564902 -0.27213429919584042 0 0.32066228436037369 -0.27402337931129878 0 0.32852563272885182 -0.27784073863383552 0 0.31569414790308259 -0.28159305760617132 0 0.32066228436037369 -0.27402337931129878 0 0.32852563272885182 -0.27784073863383552 0 0.30517917142926537 -0.24716040808135001 0 0.322544075342931 -0.25649048942400782 0 0.31054181011664339 -0.26140137874582919 0 0.32001527731196461 -0.26686042829596718 0 0.322544075342931 -0.25649048942400782 0 0.31054181011664339 -0.26140137874582919 0 0.32001527731196461 -0.26686042829596718 0 0.322544075342931 -0.25649048942400782 0 0.32861545200372733 -0.26431566092564712 0 0.322544075342931 -0.25649048942400782 0 0.32861545200372733 -0.26431566092564712 0 0.33700232267718733 -0.25494009872172468 0 0.32861545200372733 -0.26431566092564712 0 0.33700232267718733 -0.25494009872172468 0 0.3370936559567923 -0.26597622971595652 0 0.33700232267718733 -0.25494009872172468 0 0.3370936559567923 -0.26597622971595652 0 0.34612034525793539 -0.26165354425485998 0 0.32852563272885182 -0.27784073863383552 0 0.33374486488877292 -0.2728357791174113 0 0.3388307833371127 -0.27886836189579028 0 0.33743581475864359 -0.28536266187014298 0 0.32852563272885182 -0.27784073863383552 0 0.3388307833371127 -0.27886836189579028 0 0.32631850170564902 -0.27213429919584042 0 0.32852563272885182 -0.27784073863383552 0 0.33374486488877292 -0.2728357791174113 0 0.32631850170564902 -0.27213429919584042 0 0.32861545200372733 -0.26431566092564712 0 0.33374486488877292 -0.2728357791174113 0 0.32861545200372733 -0.26431566092564712 0 0.33374486488877292 -0.2728357791174113 0 0.3370936559567923 -0.26597622971595652 0 0.34349817463331772 -0.27223575233246988 0 0.3370936559567923 -0.26597622971595652 0 0.34612034525793539 -0.26165354425485998 0 0.33374486488877292 -0.2728357791174113 0 0.34349817463331772 -0.27223575233246988 0 0.3370936559567923 -0.26597622971595652 0 0.33374486488877292 -0.2728357791174113 0 0.34349817463331772 -0.27223575233246988 0 0.3388307833371127 -0.27886836189579028 0 0.34349817463331772 -0.27223575233246988 0 0.3388307833371127 -0.27886836189579028 0 0.34706744656536048 -0.28007479224216619 0 0.34349817463331772 -0.27223575233246988 0 0.34706744656536048 -0.28007479224216619 0 0.35711558672006172 -0.27354793744083078 0 0.34349817463331772 -0.27223575233246988 0 0.35711558672006172 -0.27354793744083078 0 0.34612034525793539 -0.26165354425485998 0 0.34706744656536048 -0.28007479224216619 0 0.35711558672006172 -0.27354793744083078 0 0.35357832102308678 -0.28816147489813743 0 0.35007299243335749 -0.24785688602667111 0 0.33700232267718733 -0.25494009872172468 0 0.34612034525793539 -0.26165354425485998 0 0.35711558672006172 -0.27354793744083078 0 0.34612034525793539 -0.26165354425485998 0 0.36124693131331159 -0.25807728632712912 0 0.35007299243335749 -0.24785688602667111 0 0.34612034525793539 -0.26165354425485998 0 0.36124693131331159 -0.25807728632712912 0 0.37764450162479901 -0.26965755496232408 0 0.37510228513818711 -0.25237727586059511 0 0.36124693131331159 -0.25807728632712912 0 0.36225179838031341 -0.2439392928582107 0 0.37510228513818711 -0.25237727586059511 0 0.36124693131331159 -0.25807728632712912 0 0.37764450162479901 -0.26965755496232408 0 0.35711558672006172 -0.27354793744083078 0 0.36124693131331159 -0.25807728632712912 0 0.37764450162479901 -0.26965755496232408 0 0.35711558672006172 -0.27354793744083078 0 0.36873774536035581 -0.28861226174546889 0 0.36873774536035581 -0.28861226174546889 0 0.35357832102308678 -0.28816147489813743 0 0.36087634202934032 -0.30211297570133377 0 0.35711558672006172 -0.27354793744083078 0 0.36873774536035581 -0.28861226174546889 0 0.35357832102308678 -0.28816147489813743 0 0.33743581475864359 -0.28536266187014298 0 0.35357832102308678 -0.28816147489813743 0 0.33743581475864359 -0.28536266187014298 0 0.34706744656536048 -0.28007479224216619 0 0.35357832102308678 -0.28816147489813743 0 0.33743581475864359 -0.28536266187014298 0 0.34308905326158867 -0.30070827197480321 0 0.35357832102308678 -0.28816147489813743 0 0.34308905326158867 -0.30070827197480321 0 0.36087634202934032 -0.30211297570133377 0 0.3603589122919777 -0.32616465434179109 0 0.34308905326158867 -0.30070827197480321 0 0.35357832102308678 -0.28816147489813743 0 0.36087634202934032 -0.30211297570133377 0 0.37861767820969228 -0.30691821554646831 0 0.36873774536035581 -0.28861226174546889 0 0.36087634202934032 -0.30211297570133377 0 0.37861767820969228 -0.30691821554646831 0 0.36087634202934032 -0.30211297570133377 0 0.3603589122919777 -0.32616465434179109 0 0.37858644206980091 -0.32769985780377792 0 0.37861767820969228 -0.30691821554646831 0 0.3603589122919777 -0.32616465434179109 0 0.37858644206980091 -0.32769985780377792 0 0.3603589122919777 -0.32616465434179109 0 0.36805061276354478 -0.3427907498460791 0 0.3603589122919777 -0.32616465434179109 0 0.34679726984937148 -0.35193202586079081 0 0.3603589122919777 -0.32616465434179109 0 0.34679726984937148 -0.35193202586079081 0 0.3423644242317993 -0.33453707324987059 0 0.3603589122919777 -0.32616465434179109 0 0.36805061276354478 -0.3427907498460791 0 0.34679726984937148 -0.35193202586079081 0 0.33163278235650262 -0.31237877804800812 0 0.34308905326158867 -0.30070827197480321 0 0.3603589122919777 -0.32616465434179109 0 0.33163278235650262 -0.31237877804800812 0 0.3603589122919777 -0.32616465434179109 0 0.3423644242317993 -0.33453707324987059 0 0.37640125955739012 -0.35149107478397351 0 0.38081427771294768 -0.36737052156009248 0 0.36600013168445039 -0.36059477107615401 0 0.36848073339739068 -0.37517807712711049 0 0.36600013168445039 -0.36059477107615401 0 0.3554566368260581 -0.37480617727887811 0 0.38081427771294768 -0.36737052156009248 0 0.36848073339739068 -0.37517807712711049 0 0.36600013168445039 -0.36059477107615401 0 0.36805061276354478 -0.3427907498460791 0 0.36600013168445039 -0.36059477107615401 0 0.34679726984937148 -0.35193202586079081 0 0.37640125955739012 -0.35149107478397351 0 0.36805061276354478 -0.3427907498460791 0 0.36600013168445039 -0.36059477107615401 0 0.36600013168445039 -0.36059477107615401 0 0.34679726984937148 -0.35193202586079081 0 0.3554566368260581 -0.37480617727887811 0 0.34679726984937148 -0.35193202586079081 0 0.34537995690420659 -0.3737828605913362 0 0.3554566368260581 -0.37480617727887811 0 0.33323562740676532 -0.37769939737979058 0 0.33171275220581908 -0.35441984147836231 0 0.32002671755222051 -0.36641101040373808 0 0.33323562740676532 -0.37769939737979058 0 0.34679726984937148 -0.35193202586079081 0 0.33323562740676532 -0.37769939737979058 0 0.34679726984937148 -0.35193202586079081 0 0.34537995690420659 -0.3737828605913362 0 0.33323562740676532 -0.37769939737979058 0 0.34679726984937148 -0.35193202586079081 0 0.33171275220581908 -0.35441984147836231 0 0.34679726984937148 -0.35193202586079081 0 0.33171275220581908 -0.35441984147836231 0 0.3423644242317993 -0.33453707324987059 0 0.33171275220581908 -0.35441984147836231 0 0.32002671755222051 -0.36641101040373808 0 0.32582974995436148 -0.33939489422587321 0 0.32002671755222051 -0.36641101040373808 0 0.32582974995436148 -0.33939489422587321 0 0.31500009593534162 -0.35119999692538878 0 0.32002671755222051 -0.36641101040373808 0 0.32582974995436148 -0.33939489422587321 0 0.33163278235650262 -0.31237877804800812 0 0.32582974995436148 -0.33939489422587321 0 0.33163278235650262 -0.31237877804800812 0 0.3423644242317993 -0.33453707324987059 0 0.32582974995436148 -0.33939489422587321 0 0.33171275220581908 -0.35441984147836231 0 0.3423644242317993 -0.33453707324987059 0 0.32582974995436148 -0.33939489422587321 0 0.31500009593534162 -0.35119999692538878 0 0.32582974995436148 -0.33939489422587321 0 0.31041762281754448 -0.32833073988017608 0 0.33163278235650262 -0.31237877804800812 0 0.32582974995436148 -0.33939489422587321 0 0.31041762281754448 -0.32833073988017608 0 0.33163278235650262 -0.31237877804800812 0 0.31041762281754448 -0.32833073988017608 0 0.30954970221622308 -0.30462347215273478 0 0.31041762281754448 -0.32833073988017608 0 0.29592063247569211 -0.31558436997640987 0 0.30954970221622308 -0.30462347215273478 0 0.31041762281754448 -0.32833073988017608 0 0.29132656616613523 -0.33188180257029998 0 0.29592063247569211 -0.31558436997640987 0 0.31041762281754448 -0.32833073988017608 0 0.29132656616613523 -0.33188180257029998 0 0.29956578362214281 -0.35549229926055048 0 0.31041762281754448 -0.32833073988017608 0 0.29956578362214281 -0.35549229926055048 0 0.29132656616613523 -0.33188180257029998 0 0.28219501787468609 -0.34702129220438421 0 0.27282035448602859 -0.33554085100614839 0 0.29132656616613523 -0.33188180257029998 0 0.29592063247569211 -0.31558436997640987 0 0.27986439667319313 -0.31630171845149863 0 0.29132656616613523 -0.33188180257029998 0 0.27986439667319313 -0.31630171845149863 0 0.27282035448602859 -0.33554085100614839 0 0.30591552541026101 -0.37751124227982003 0 0.28871394442674109 -0.38265385864092483 0 0.29956578362214281 -0.35549229926055048 0 0.30591552541026101 -0.37751124227982003 0 0.32002671755222051 -0.36641101040373808 0 0.29956578362214281 -0.35549229926055048 0 0.31500009593534162 -0.35119999692538878 0 0.32002671755222051 -0.36641101040373808 0 0.29956578362214281 -0.35549229926055048 0 0.31500009593534162 -0.35119999692538878 0 0.31041762281754448 -0.32833073988017608 0 0.29956578362214281 -0.35549229926055048 0 0.29956578362214281 -0.35549229926055048 0 0.28219501787468609 -0.34702129220438421 0 0.27571190406721402 -0.36345127203525351 0 0.29132656616613523 -0.33188180257029998 0 0.29956578362214281 -0.35549229926055048 0 0.28219501787468609 -0.34702129220438421 0 0.28871394442674109 -0.38265385864092483 0 0.29956578362214281 -0.35549229926055048 0 0.27571190406721402 -0.36345127203525351 0 0.28871394442674109 -0.38265385864092483 0 0.29956578362214281 -0.35549229926055048 0 0.28219501787468609 -0.34702129220438421 0 0.27571190406721402 -0.36345127203525351 0 0.2669677564247489 -0.35003134695070198 0 0.28219501787468609 -0.34702129220438421 0 0.2669677564247489 -0.35003134695070198 0 0.27282035448602859 -0.33554085100614839 0 0.2669677564247489 -0.35003134695070198 0 0.2543981425525324 -0.33893914275967452 0 0.24971336314328341 -0.36520417674804972 0 0.2543981425525324 -0.33893914275967452 0 0.24971336314328341 -0.36520417674804972 0 0.26416245427686541 -0.38049931320234009 0 0.27571190406721402 -0.36345127203525351 0 0.24971336314328341 -0.36520417674804972 0 0.27571190406721402 -0.36345127203525351 0 0.2669677564247489 -0.35003134695070198 0 0.24971336314328341 -0.36520417674804972 0 0.27986439667319313 -0.31630171845149863 0 0.27282035448602859 -0.33554085100614839 0 0.27986439667319313 -0.31630171845149863 0 0.27282035448602859 -0.33554085100614839 0 0.2590829219617814 -0.31267410877129931 0 0.2669677564247489 -0.35003134695070198 0 0.27282035448602859 -0.33554085100614839 0 0.2543981425525324 -0.33893914275967452 0 0.27282035448602859 -0.33554085100614839 0 0.2543981425525324 -0.33893914275967452 0 0.2590829219617814 -0.31267410877129931 0 0.2543981425525324 -0.33893914275967452 0 0.2590829219617814 -0.31267410877129931 0 0.24087195768162309 -0.32614810142562012 0 0.2543981425525324 -0.33893914275967452 0 0.2590829219617814 -0.31267410877129931 0 0.2590829219617814 -0.31267410877129931 0 0.26376770137103039 -0.2864090747829241 0 0.27385105082646688 -0.29718155094811333 0 0.2590829219617814 -0.31267410877129931 0 0.26376770137103039 -0.2864090747829241 0 0.24821325608307901 -0.29522124281265988 0 0.2590829219617814 -0.31267410877129931 0 0.26376770137103039 -0.2864090747829241 0 0.26376770137103039 -0.2864090747829241 0 0.24785603391849151 -0.27709942466880599 0 0.24821325608307901 -0.29522124281265988 0 0.26376770137103039 -0.2864090747829241 0 0.27275834958840189 -0.28372268528309152 0 0.2724225943816766 -0.27409056785933389 0 0.26376770137103039 -0.2864090747829241 0 0.27275834958840189 -0.28372268528309152 0 0.27385105082646688 -0.29718155094811333 0 0.28072449650403741 -0.28691913250301798 0 0.27385105082646688 -0.29718155094811333 0 0.2869084388603575 -0.29706258589684881 0 0.27275834958840189 -0.28372268528309152 0 0.28072449650403741 -0.28691913250301798 0 0.27385105082646688 -0.29718155094811333 0 0.27275834958840189 -0.28372268528309152 0 0.28072449650403741 -0.28691913250301798 0 0.27996448038040939 -0.28063895974691061 0 0.27986439667319313 -0.31630171845149863 0 0.2590829219617814 -0.31267410877129931 0 0.27385105082646688 -0.29718155094811333 0 0.27986439667319313 -0.31630171845149863 0 0.27385105082646688 -0.29718155094811333 0 0.2869084388603575 -0.29706258589684881 0 0.27986439667319313 -0.31630171845149863 0 0.2869084388603575 -0.29706258589684881 0 0.29592063247569211 -0.31558436997640987 0 0.27986439667319313 -0.31630171845149863 0 0.2869084388603575 -0.29706258589684881 0 0.2869084388603575 -0.29706258589684881 0 0.30298021147195658 -0.29033858393126172 0 0.29395248104752192 -0.27782345334219888 0 0.28072449650403741 -0.28691913250301798 0 0.2869084388603575 -0.29706258589684881 0 0.29395248104752192 -0.27782345334219888 0 0.2869084388603575 -0.29706258589684881 0 0.29395248104752192 -0.27782345334219888 0 0.28072449650403741 -0.28691913250301798 0 0.29395248104752192 -0.27782345334219888 0 0.27996448038040939 -0.28063895974691061 0 0.31569414790308259 -0.28159305760617132 0 0.30298021147195658 -0.29033858393126172 0 0.29395248104752192 -0.27782345334219888 0 0.31296692944630888 -0.29314018565426941 0 0.31569414790308259 -0.28159305760617132 0 0.30298021147195658 -0.29033858393126172 0 0.31296692944630888 -0.29314018565426941 0 0.30298021147195658 -0.29033858393126172 0 0.30954970221622308 -0.30462347215273478 0 0.2869084388603575 -0.29706258589684881 0 0.30298021147195658 -0.29033858393126172 0 0.30954970221622308 -0.30462347215273478 0 0.29592063247569211 -0.31558436997640987 0 0.2869084388603575 -0.29706258589684881 0 0.30954970221622308 -0.30462347215273478 0 0.30517917142926537 -0.24716040808135001 0 0.31054181011664339 -0.26140137874582919 0 0.2976408850071105 -0.26774945168120262 0 0.30517917142926537 -0.24716040808135001 0 0.2976408850071105 -0.26774945168120262 0 0.31275786215232049 -0.27168837282467972 0 0.2976408850071105 -0.26774945168120262 0 0.29395248104752192 -0.27782345334219888 0 0.31275786215232049 -0.27168837282467972 0 0.2976408850071105 -0.26774945168120262 0 0.31275786215232049 -0.27168837282467972 0 0.31054181011664339 -0.26140137874582919 0 0.2976408850071105 -0.26774945168120262 0 0.31569414790308259 -0.28159305760617132 0 0.29395248104752192 -0.27782345334219888 0 0.31569414790308259 -0.28159305760617132 0 0.31275786215232049 -0.27168837282467972 0 0.29395248104752192 -0.27782345334219888 0 0.2976408850071105 -0.26774945168120262 0 0.28600938745522969 -0.26471871668720698 0 0.2976408850071105 -0.26774945168120262 0 0.29395248104752192 -0.27782345334219888 0 0.29395248104752192 -0.27782345334219888 0 0.27996448038040939 -0.28063895974691061 0 0.2724225943816766 -0.27409056785933389 0 0.29395248104752192 -0.27782345334219888 0 0.28600938745522969 -0.26471871668720698 0 0.27658132089261911 -0.27335422882897692 0 0.2976408850071105 -0.26774945168120262 0 0.29395248104752192 -0.27782345334219888 0 0.28600938745522969 -0.26471871668720698 0 0.29395248104752192 -0.27782345334219888 0 0.2724225943816766 -0.27409056785933389 0 0.28600938745522969 -0.26471871668720698 0 0.27658132089261911 -0.27335422882897692 0 0.30517917142926537 -0.24716040808135001 0 0.28600938745522969 -0.26471871668720698 0 0.30517917142926537 -0.24716040808135001 0 0.2976408850071105 -0.26774945168120262 0 0.28600938745522969 -0.26471871668720698 0 0.30517917142926537 -0.24716040808135001 0 0.28765229627979871 -0.24304032400626949 0 0.28600938745522969 -0.26471871668720698 0 0.28600938745522969 -0.26471871668720698 0 0.26845248078028039 -0.26014404079454911 0 0.28765229627979871 -0.24304032400626949 0 0.28600938745522969 -0.26471871668720698 0 0.26845248078028039 -0.26014404079454911 0 0.26376770137103039 -0.2864090747829241 0 0.26845248078028039 -0.26014404079454911 0 0.2724225943816766 -0.27409056785933389 0 0.28600938745522969 -0.26471871668720698 0 0.26845248078028039 -0.26014404079454911 0 0.27658132089261911 -0.27335422882897692 0 0.26376770137103039 -0.2864090747829241 0 0.26845248078028039 -0.26014404079454911 0 0.29395248104752192 -0.27782345334219888 0 0.27658132089261911 -0.27335422882897692 0 0.2724225943816766 -0.27409056785933389 0 0.27275834958840189 -0.28372268528309152 0 0.27996448038040939 -0.28063895974691061 0 0.2724225943816766 -0.27409056785933389 0 0.26845248078028039 -0.26014404079454911 0 0.27658132089261911 -0.27335422882897692 0 0.2724225943816766 -0.27409056785933389 0 0.26376770137103039 -0.2864090747829241 0 0.26845248078028039 -0.26014404079454911 0 0.24785603391849151 -0.27709942466880599 0 0.26845248078028039 -0.26014404079454911 0 0.2410490216361528 -0.25300372010805161 0 0.26845248078028039 -0.26014404079454911 0 0.2410490216361528 -0.25300372010805161 0 0.24785603391849151 -0.27709942466880599 0 0.25787859859726192 -0.24372773219337371 0 0.26845248078028039 -0.26014404079454911 0 0.2410490216361528 -0.25300372010805161 0 0.2410490216361528 -0.25300372010805161 0 0.24785603391849151 -0.27709942466880599 0 0.23139485578507429 -0.27647983237136509 0 0.23139485578507429 -0.27647983237136509 0 0.2171028506536257 -0.26700629366950379 0 0.21674952071488601 -0.28686299221921707 0 0.2410490216361528 -0.25300372010805161 0 0.23139485578507429 -0.27647983237136509 0 0.2171028506536257 -0.26700629366950379 0 0.2410490216361528 -0.25300372010805161 0 0.2171028506536257 -0.26700629366950379 0 0.2136455624920251 -0.24586339942155419 0 0.2171028506536257 -0.26700629366950379 0 0.1960217485778272 -0.26205501631648559 0 0.2136455624920251 -0.24586339942155419 0 0.2171028506536257 -0.26700629366950379 0 0.2037572178097509 -0.27803645254629672 0 0.1960217485778272 -0.26205501631648559 0 0.2171028506536257 -0.26700629366950379 0 0.2037572178097509 -0.27803645254629672 0 0.21674952071488601 -0.28686299221921707 0 0.2037572178097509 -0.27803645254629672 0 0.1960217485778272 -0.26205501631648559 0 0.18672217274589489 -0.28463667424064248 0 0.1960217485778272 -0.26205501631648559 0 0.2136455624920251 -0.24586339942155419 0 0.1970165427207646 -0.2431475676051908 0 0.1960217485778272 -0.26205501631648559 0 0.1970165427207646 -0.2431475676051908 0 0.18013525364959199 -0.24590787480667409 0 0.19163287831415901 -0.30538761534618902 0 0.20219697373587131 -0.29192032270869461 0 0.2153952098199983 -0.30425933719731207 0 0.2037572178097509 -0.27803645254629672 0 0.20219697373587131 -0.29192032270869461 0 0.18672217274589489 -0.28463667424064248 0 0.19163287831415901 -0.30538761534618902 0 0.20219697373587131 -0.29192032270869461 0 0.18672217274589489 -0.28463667424064248 0 0.20219697373587131 -0.29192032270869461 0 0.21674952071488601 -0.28686299221921707 0 0.2153952098199983 -0.30425933719731207 0 0.2037572178097509 -0.27803645254629672 0 0.20219697373587131 -0.29192032270869461 0 0.21674952071488601 -0.28686299221921707 0 0.19163287831415901 -0.30538761534618902 0 0.2153952098199983 -0.30425933719731207 0 0.20381788977078771 -0.32236963909420019 0 0.2153952098199983 -0.30425933719731207 0 0.2333373149176502 -0.29099433783704243 0 0.2370223082464416 -0.30892926800322767 0 0.2153952098199983 -0.30425933719731207 0 0.2370223082464416 -0.30892926800322767 0 0.22300958304019269 -0.32335118517261402 0 0.21674952071488601 -0.28686299221921707 0 0.2153952098199983 -0.30425933719731207 0 0.2333373149176502 -0.29099433783704243 0 0.23139485578507429 -0.27647983237136509 0 0.21674952071488601 -0.28686299221921707 0 0.2333373149176502 -0.29099433783704243 0 0.24785603391849151 -0.27709942466880599 0 0.2333373149176502 -0.29099433783704243 0 0.24821325608307901 -0.29522124281265988 0 0.24785603391849151 -0.27709942466880599 0 0.23139485578507429 -0.27647983237136509 0 0.2333373149176502 -0.29099433783704243 0 0.2333373149176502 -0.29099433783704243 0 0.24821325608307901 -0.29522124281265988 0 0.2370223082464416 -0.30892926800322767 0 0.2590829219617814 -0.31267410877129931 0 0.24821325608307901 -0.29522124281265988 0 0.2370223082464416 -0.30892926800322767 0 0.2590829219617814 -0.31267410877129931 0 0.2370223082464416 -0.30892926800322767 0 0.24087195768162309 -0.32614810142562012 0 0.2543981425525324 -0.33893914275967452 0 0.24087195768162309 -0.32614810142562012 0 0.2308468326071676 -0.34684680242128502 0 0.24087195768162309 -0.32614810142562012 0 0.22300958304019269 -0.32335118517261402 0 0.2308468326071676 -0.34684680242128502 0 0.22300958304019269 -0.32335118517261402 0 0.2308468326071676 -0.34684680242128502 0 0.21275128108028149 -0.33749920242868869 0 0.2370223082464416 -0.30892926800322767 0 0.24087195768162309 -0.32614810142562012 0 0.22300958304019269 -0.32335118517261402 0 0.24971336314328341 -0.36520417674804972 0 0.2308468326071676 -0.34684680242128502 0 0.229200177642885 -0.36995291413531828 0 0.2543981425525324 -0.33893914275967452 0 0.24971336314328341 -0.36520417674804972 0 0.2308468326071676 -0.34684680242128502 0 0.229200177642885 -0.36995291413531828 0 0.20725651587090471 -0.36571099534901208 0 0.22031030243082139 -0.38906492162812378 0 0.2308468326071676 -0.34684680242128502 0 0.229200177642885 -0.36995291413531828 0 0.20725651587090471 -0.36571099534901208 0 0.2308468326071676 -0.34684680242128502 0 0.20725651587090471 -0.36571099534901208 0 0.21275128108028149 -0.33749920242868869 0 0.20725651587090471 -0.36571099534901208 0 0.21275128108028149 -0.33749920242868869 0 0.194202729310988 -0.34235706906990038 0 0.20725651587090471 -0.36571099534901208 0 0.194202729310988 -0.34235706906990038 0 0.180238718969634 -0.3612454971324468 0 0.20725651587090471 -0.36571099534901208 0 0.194202729310988 -0.34235706906990038 0 0.20725651587090471 -0.36571099534901208 0 0.19261827162763251 -0.374541644607297 0 0.180238718969634 -0.3612454971324468 0 0.22300958304019269 -0.32335118517261402 0 0.20381788977078771 -0.32236963909420019 0 0.21275128108028149 -0.33749920242868869 0 0.2153952098199983 -0.30425933719731207 0 0.22300958304019269 -0.32335118517261402 0 0.20381788977078771 -0.32236963909420019 0 0.20381788977078771 -0.32236963909420019 0 0.21275128108028149 -0.33749920242868869 0 0.194202729310988 -0.34235706906990038 0 0.20381788977078771 -0.32236963909420019 0 0.194202729310988 -0.34235706906990038 0 0.18384400034678741 -0.32250280289756078 0 0.19163287831415901 -0.30538761534618902 0 0.20381788977078771 -0.32236963909420019 0 0.18384400034678741 -0.32250280289756078 0 0.18384400034678741 -0.32250280289756078 0 0.17702055828029431 -0.33666004199980942 0 0.15719449589681389 -0.32866913917705798 0 0.194202729310988 -0.34235706906990038 0 0.18384400034678741 -0.32250280289756078 0 0.17702055828029431 -0.33666004199980942 0 0.15719449589681389 -0.32866913917705798 0 0.16581699513551909 -0.35306125248096398 0 0.17702055828029431 -0.33666004199980942 0 0.15719449589681389 -0.32866913917705798 0 0.16581699513551909 -0.35306125248096398 0 0.18384400034678741 -0.32250280289756078 0 0.15719449589681389 -0.32866913917705798 0 0.17186855286937899 -0.30453082832045192 0 0.180238718969634 -0.3612454971324468 0 0.1834568796589737 -0.38583095226508418 0 0.17443949437422429 -0.37745336578486988 0 0.180238718969634 -0.3612454971324468 0 0.16581699513551909 -0.35306125248096398 0 0.17443949437422429 -0.37745336578486988 0 0.180238718969634 -0.3612454971324468 0 0.1834568796589737 -0.38583095226508418 0 0.19261827162763251 -0.374541644607297 0 0.180238718969634 -0.3612454971324468 0 0.1834568796589737 -0.38583095226508418 0 0.17702055828029431 -0.33666004199980942 0 0.180238718969634 -0.3612454971324468 0 0.16581699513551909 -0.35306125248096398 0 0.17702055828029431 -0.33666004199980942 0 0.180238718969634 -0.3612454971324468 0 0.194202729310988 -0.34235706906990038 0 0.17702055828029431 -0.33666004199980942 0 0.180238718969634 -0.3612454971324468 0 0.16581699513551909 -0.35306125248096398 0 0.1602354860011011 -0.36875954027416918 0 0.14952990885070691 -0.36034775620209553 0 0.16581699513551909 -0.35306125248096398 0 0.17443949437422429 -0.37745336578486988 0 0.16581699513551909 -0.35306125248096398 0 0.1602354860011011 -0.36875954027416918 0 0.17443949437422429 -0.37745336578486988 0 0.1602354860011011 -0.36875954027416918 0 0.14673951295096799 -0.37363029079717242 0 0.14952990885070691 -0.36034775620209553 0 0.16581699513551909 -0.35306125248096398 0 0.14952990885070691 -0.36034775620209553 0 0.144826286403443 -0.34676284914488159 0 0.14952990885070691 -0.36034775620209553 0 0.144826286403443 -0.34676284914488159 0 0.12334710111447229 -0.36406834251145731 0 0.144826286403443 -0.34676284914488159 0 0.12334710111447229 -0.36406834251145731 0 0.144826286403443 -0.34676284914488159 0 0.12334710111447229 -0.36406834251145731 0 0.11573058637367541 -0.34380091622275832 0 0.13273239812562251 -0.3803535413873157 0 0.1208593498238435 -0.38006314209191833 0 0.12334710111447229 -0.36406834251145731 0 0.14673951295096799 -0.37363029079717242 0 0.14952990885070691 -0.36034775620209553 0 0.12334710111447229 -0.36406834251145731 0 0.14673951295096799 -0.37363029079717242 0 0.13273239812562251 -0.3803535413873157 0 0.12334710111447229 -0.36406834251145731 0 0.15719449589681389 -0.32866913917705798 0 0.13978194378111039 -0.33004063130878142 0 0.14857199665810869 -0.30427702587315197 0 0.15719449589681389 -0.32866913917705798 0 0.14857199665810869 -0.30427702587315197 0 0.15719449589681389 -0.32866913917705798 0 0.144826286403443 -0.34676284914488159 0 0.13978194378111039 -0.33004063130878142 0 0.15719449589681389 -0.32866913917705798 0 0.16581699513551909 -0.35306125248096398 0 0.144826286403443 -0.34676284914488159 0 0.13978194378111039 -0.33004063130878142 0 0.1249111379911398 -0.32186001205002218 0 0.11573058637367541 -0.34380091622275832 0 0.144826286403443 -0.34676284914488159 0 0.13978194378111039 -0.33004063130878142 0 0.11573058637367541 -0.34380091622275832 0 0.13978194378111039 -0.33004063130878142 0 0.14857199665810869 -0.30427702587315197 0 0.1249111379911398 -0.32186001205002218 0 0.14857199665810869 -0.30427702587315197 0 0.13584279120622419 -0.29064916595208462 0 0.1212075847983899 -0.30357596212866123 0 0.14857199665810869 -0.30427702587315197 0 0.1212075847983899 -0.30357596212866123 0 0.1249111379911398 -0.32186001205002218 0 0.14857199665810869 -0.30427702587315197 0 0.14941647374314521 -0.28066083506566319 0 0.1659314811884508 -0.28303851802095531 0 0.14857199665810869 -0.30427702587315197 0 0.13584279120622419 -0.29064916595208462 0 0.14941647374314521 -0.28066083506566319 0 0.13554841089854469 -0.28148943716570812 0 0.13584279120622419 -0.29064916595208462 0 0.14941647374314521 -0.28066083506566319 0 0.13554841089854469 -0.28148943716570812 0 0.13584279120622419 -0.29064916595208462 0 0.1176113560141319 -0.2851589593963586 0 0.1376178273856396 -0.2676878026278281 0 0.13932302263067731 -0.26948878824872591 0 0.1176113560141319 -0.2851589593963586 0 0.13554841089854469 -0.28148943716570812 0 0.13932302263067731 -0.26948878824872591 0 0.1176113560141319 -0.2851589593963586 0 0.13932302263067731 -0.26948878824872591 0 0.1176113560141319 -0.2851589593963586 0 0.1376178273856396 -0.2676878026278281 0 0.1200034520355143 -0.24749468667538321 0 0.1376178273856396 -0.2676878026278281 0 0.1200034520355143 -0.24749468667538321 0 0.1412434604122122 -0.24631040783256791 0 0.1376178273856396 -0.2676878026278281 0 0.16103468924722281 -0.25381861710109321 0 0.1412434604122122 -0.24631040783256791 0 0.1376178273856396 -0.2676878026278281 0 0.13932302263067731 -0.26948878824872591 0 0.16103468924722281 -0.25381861710109321 0 0.13932302263067731 -0.26948878824872591 0 0.16103468924722281 -0.25381861710109321 0 0.13932302263067731 -0.26948878824872591 0 0.14941647374314521 -0.28066083506566319 0 0.16103468924722281 -0.25381861710109321 0 0.13554841089854469 -0.28148943716570812 0 0.13932302263067731 -0.26948878824872591 0 0.14941647374314521 -0.28066083506566319 0 0.14941647374314521 -0.28066083506566319 0 0.16103468924722281 -0.25381861710109321 0 0.1659314811884508 -0.28303851802095531 0 0.16103468924722281 -0.25381861710109321 0 0.1779690690817976 -0.26589134009717008 0 0.1659314811884508 -0.28303851802095531 0 0.16103468924722281 -0.25381861710109321 0 0.1779690690817976 -0.26589134009717008 0 0.18013525364959199 -0.24590787480667409 0 0.1960217485778272 -0.26205501631648559 0 0.1779690690817976 -0.26589134009717008 0 0.18013525364959199 -0.24590787480667409 0 0.1960217485778272 -0.26205501631648559 0 0.1779690690817976 -0.26589134009717008 0 0.18672217274589489 -0.28463667424064248 0 0.1779690690817976 -0.26589134009717008 0 0.18672217274589489 -0.28463667424064248 0 0.1659314811884508 -0.28303851802095531 0 0.18672217274589489 -0.28463667424064248 0 0.17186855286937899 -0.30453082832045192 0 0.1659314811884508 -0.28303851802095531 0 0.19163287831415901 -0.30538761534618902 0 0.18384400034678741 -0.32250280289756078 0 0.17186855286937899 -0.30453082832045192 0 0.19163287831415901 -0.30538761534618902 0 0.18672217274589489 -0.28463667424064248 0 0.17186855286937899 -0.30453082832045192 0 0.14857199665810869 -0.30427702587315197 0 0.17186855286937899 -0.30453082832045192 0 0.1659314811884508 -0.28303851802095531 0 0.15719449589681389 -0.32866913917705798 0 0.14857199665810869 -0.30427702587315197 0 0.17186855286937899 -0.30453082832045192 0 0.27004646425256568 -0.5 0 0.19840125792562099 -0.499999999999995 0 0.2258071254777905 -0.47806137695806639 0 0.19840125792562099 -0.499999999999995 0 0.1955652389629654 -0.47833395417678298 0 0.19840125792562099 -0.499999999999995 0 0.1955652389629654 -0.47833395417678298 0 0.1857239970351309 -0.48926605560099218 0 0.1955652389629654 -0.47833395417678298 0 0.2258071254777905 -0.47806137695806639 0 0.20496909670773639 -0.46039718082621561 0 0.19840125792562099 -0.499999999999995 0 0.1955652389629654 -0.47833395417678298 0 0.2258071254777905 -0.47806137695806639 0 0.2532296876789632 -0.47497352743918242 0 0.27004646425256568 -0.5 0 0.2258071254777905 -0.47806137695806639 0 0.2532296876789632 -0.47497352743918242 0 0.2258071254777905 -0.47806137695806639 0 0.23317765179809191 -0.45416130837427687 0 0.2258071254777905 -0.47806137695806639 0 0.23317765179809191 -0.45416130837427687 0 0.20496909670773639 -0.46039718082621561 0 0.23317765179809191 -0.45416130837427687 0 0.20496909670773639 -0.46039718082621561 0 0.26339579246569877 -0.46312143350125029 0 0.2532296876789632 -0.47497352743918242 0 0.23317765179809191 -0.45416130837427687 0 0.26138620688844749 -0.44792543592233808 0 0.2518592606704963 -0.43815060111373921 0 0.23317765179809191 -0.45416130837427687 0 0.26138620688844749 -0.44792543592233808 0 0.23317765179809191 -0.45416130837427687 0 0.2518592606704963 -0.43815060111373921 0 0.23317765179809191 -0.45416130837427687 0 0.24161391479158839 -0.43048581688246368 0 0.23317765179809191 -0.45416130837427687 0 0.21274467024756119 -0.44537306322652892 0 0.22596778666418391 -0.43195218695593612 0 0.23317765179809191 -0.45416130837427687 0 0.22596778666418391 -0.43195218695593612 0 0.24161391479158839 -0.43048581688246368 0 0.20738663592967541 -0.43977689630152639 0 0.21274467024756119 -0.44537306322652892 0 0.21231789143938981 -0.43260924517595267 0 0.20738663592967541 -0.43977689630152639 0 0.20306963394956029 -0.44528763306514119 0 0.2014143480821905 -0.43583764373848299 0 0.20738663592967541 -0.43977689630152639 0 0.21274467024756119 -0.44537306322652892 0 0.20306963394956029 -0.44528763306514119 0 0.21274467024756119 -0.44537306322652892 0 0.20306963394956029 -0.44528763306514119 0 0.20202636709778779 -0.45196992376671852 0 0.21274467024756119 -0.44537306322652892 0 0.20496909670773639 -0.46039718082621561 0 0.20202636709778779 -0.45196992376671852 0 0.23317765179809191 -0.45416130837427687 0 0.21274467024756119 -0.44537306322652892 0 0.20496909670773639 -0.46039718082621561 0 0.1955652389629654 -0.47833395417678298 0 0.20496909670773639 -0.46039718082621561 0 0.1927292200003092 -0.45666790835357102 0 0.1955652389629654 -0.47833395417678298 0 0.1927292200003092 -0.45666790835357102 0 0.1955652389629654 -0.47833395417678298 0 0.19047701204926121 -0.46094242075341862 0 0.1927292200003092 -0.45666790835357102 0 0.20496909670773639 -0.46039718082621561 0 0.1927292200003092 -0.45666790835357102 0 0.20202636709778779 -0.45196992376671852 0 0.19047701204926121 -0.46094242075341862 0 0.1927292200003092 -0.45666790835357102 0 0.1876592352144193 -0.45673372923780892 0 0.1927292200003092 -0.45666790835357102 0 0.1876592352144193 -0.45673372923780892 0 0.18777566972406101 -0.44981142861604279 0 0.1927292200003092 -0.45666790835357102 0 0.19595067699787469 -0.4453334870477933 0 0.18989320103765239 -0.43500186253035911 0 0.1927292200003092 -0.45666790835357102 0 0.18989320103765239 -0.43500186253035911 0 0.1927292200003092 -0.45666790835357102 0 0.18777566972406101 -0.44981142861604279 0 0.18989320103765239 -0.43500186253035911 0 0.19521760998379711 -0.43854214036159178 0 0.19595067699787469 -0.4453334870477933 0 0.1916906899727929 -0.43609695451772118 0 0.19595067699787469 -0.4453334870477933 0 0.1916906899727929 -0.43609695451772118 0 0.18989320103765239 -0.43500186253035911 0 0.19521760998379711 -0.43854214036159178 0 0.19821003569121751 -0.44088076654097252 0 0.19595067699787469 -0.4453334870477933 0 0.19821003569121751 -0.44088076654097252 0 0.20306963394956029 -0.44528763306514119 0 0.19595067699787469 -0.4453334870477933 0 0.19821003569121751 -0.44088076654097252 0 0.20306963394956029 -0.44528763306514119 0 0.2014143480821905 -0.43583764373848299 0 0.19521760998379711 -0.43854214036159178 0 0.19821003569121751 -0.44088076654097252 0 0.19632921389935129 -0.43529695882979857 0 0.20306963394956029 -0.44528763306514119 0 0.20202636709778779 -0.45196992376671852 0 0.19595067699787469 -0.4453334870477933 0 0.1927292200003092 -0.45666790835357102 0 0.20202636709778779 -0.45196992376671852 0 0.19595067699787469 -0.4453334870477933 0 0.18989320103765239 -0.43500186253035911 0 0.193210065479164 -0.42351508711829272 0 0.18667504034831339 -0.41041640739772162 0 0.18989320103765239 -0.43500186253035911 0 0.18667504034831339 -0.41041640739772162 0 0.1973860855611401 -0.42692030526330021 0 0.193210065479164 -0.42351508711829272 0 0.19846083006015189 -0.42045811652912207 0 0.1973860855611401 -0.42692030526330021 0 0.19846083006015189 -0.42045811652912207 0 0.20326441538295181 -0.42746054266679712 0 0.1973860855611401 -0.42692030526330021 0 0.19826447490927249 -0.43151164360587502 0 0.20326441538295181 -0.42746054266679712 0 0.2014143480821905 -0.43583764373848299 0 0.19826447490927249 -0.43151164360587502 0 0.20326441538295181 -0.42746054266679712 0 0.19821003569121751 -0.44088076654097252 0 0.2014143480821905 -0.43583764373848299 0 0.19632921389935129 -0.43529695882979857 0 0.2014143480821905 -0.43583764373848299 0 0.19632921389935129 -0.43529695882979857 0 0.19826447490927249 -0.43151164360587502 0 0.19632921389935129 -0.43529695882979857 0 0.19826447490927249 -0.43151164360587502 0 0.1929283116207289 -0.43204276753099607 0 0.1973860855611401 -0.42692030526330021 0 0.19826447490927249 -0.43151164360587502 0 0.1929283116207289 -0.43204276753099607 0 0.1929283116207289 -0.43204276753099607 0 0.18989320103765239 -0.43500186253035911 0 0.193210065479164 -0.42351508711829272 0 0.19521760998379711 -0.43854214036159178 0 0.19632921389935129 -0.43529695882979857 0 0.19377820557052011 -0.43520734882518619 0 0.19521760998379711 -0.43854214036159178 0 0.19377820557052011 -0.43520734882518619 0 0.1916906899727929 -0.43609695451772118 0 0.19632921389935129 -0.43529695882979857 0 0.1929283116207289 -0.43204276753099607 0 0.19377820557052011 -0.43520734882518619 0 0.1929283116207289 -0.43204276753099607 0 0.19210490899723079 -0.4345610298626873 0 0.18989320103765239 -0.43500186253035911 0 0.19377820557052011 -0.43520734882518619 0 0.19210490899723079 -0.4345610298626873 0 0.1916906899727929 -0.43609695451772118 0 0.1929283116207289 -0.43204276753099607 0 0.19377820557052011 -0.43520734882518619 0 0.19210490899723079 -0.4345610298626873 0 0.1916906899727929 -0.43609695451772118 0 0.18989320103765239 -0.43500186253035911 0 0.19210490899723079 -0.4345610298626873 0 0.1916906899727929 -0.43609695451772118 0 0.18989320103765239 -0.43500186253035911 0 0.1973860855611401 -0.42692030526330021 0 0.1929283116207289 -0.43204276753099607 0 0.193210065479164 -0.42351508711829272 0 0.193210065479164 -0.42351508711829272 0 0.1939169242469973 -0.41625106345825691 0 0.18667504034831339 -0.41041640739772162 0 0.193210065479164 -0.42351508711829272 0 0.1939169242469973 -0.41625106345825691 0 0.19846083006015189 -0.42045811652912207 0 0.1968341740193896 -0.41150644481021997 0 0.19418069224578771 -0.40518464808912641 0 0.18667504034831339 -0.41041640739772162 0 0.1939169242469973 -0.41625106345825691 0 0.1968341740193896 -0.41150644481021997 0 0.18667504034831339 -0.41041640739772162 0 0.1968341740193896 -0.41150644481021997 0 0.20469814770209749 -0.41520386531910081 0 0.20485234226760879 -0.40188257102108682 0 0.19846083006015189 -0.42045811652912207 0 0.20469814770209749 -0.41520386531910081 0 0.20326441538295181 -0.42746054266679712 0 0.1939169242469973 -0.41625106345825691 0 0.1968341740193896 -0.41150644481021997 0 0.19846083006015189 -0.42045811652912207 0 0.1968341740193896 -0.41150644481021997 0 0.19846083006015189 -0.42045811652912207 0 0.20469814770209749 -0.41520386531910081 0 0.20469814770209749 -0.41520386531910081 0 0.21626227209603979 -0.41615869782113413 0 0.20326441538295181 -0.42746054266679712 0 0.20469814770209749 -0.41520386531910081 0 0.21626227209603979 -0.41615869782113413 0 0.20485234226760879 -0.40188257102108682 0 0.21626227209603979 -0.41615869782113413 0 0.20326441538295181 -0.42746054266679712 0 0.21231789143938981 -0.43260924517595267 0 0.21626227209603979 -0.41615869782113413 0 0.21231789143938981 -0.43260924517595267 0 0.22596778666418391 -0.43195218695593612 0 0.20738663592967541 -0.43977689630152639 0 0.2014143480821905 -0.43583764373848299 0 0.21231789143938981 -0.43260924517595267 0 0.2014143480821905 -0.43583764373848299 0 0.20326441538295181 -0.42746054266679712 0 0.21231789143938981 -0.43260924517595267 0 0.21274467024756119 -0.44537306322652892 0 0.21231789143938981 -0.43260924517595267 0 0.22596778666418391 -0.43195218695593612 0 0.22596778666418391 -0.43195218695593612 0 0.24161391479158839 -0.43048581688246368 0 0.2333640889907381 -0.41241884790723538 0 0.25610826383841628 -0.42120346698794331 0 0.2518592606704963 -0.43815060111373921 0 0.24161391479158839 -0.43048581688246368 0 0.25610826383841628 -0.42120346698794331 0 0.24161391479158839 -0.43048581688246368 0 0.2333640889907381 -0.41241884790723538 0 0.21626227209603979 -0.41615869782113413 0 0.22596778666418391 -0.43195218695593612 0 0.2333640889907381 -0.41241884790723538 0 0.2333640889907381 -0.41241884790723538 0 0.24502858373403441 -0.39146921073642488 0 0.22031030243082139 -0.38906492162812378 0 0.21626227209603979 -0.41615869782113413 0 0.2333640889907381 -0.41241884790723538 0 0.22031030243082139 -0.38906492162812378 0 0.2333640889907381 -0.41241884790723538 0 0.22031030243082139 -0.38906492162812378 0 0.26125098829365018 -0.39969694482297641 0 0.2333640889907381 -0.41241884790723538 0 0.24502858373403441 -0.39146921073642488 0 0.24971336314328341 -0.36520417674804972 0 0.24502858373403441 -0.39146921073642488 0 0.24971336314328341 -0.36520417674804972 0 0.229200177642885 -0.36995291413531828 0 0.24502858373403441 -0.39146921073642488 0 0.229200177642885 -0.36995291413531828 0 0.24502858373403441 -0.39146921073642488 0 0.22031030243082139 -0.38906492162812378 0 0.20725651587090471 -0.36571099534901208 0 0.22031030243082139 -0.38906492162812378 0 0.19952097201101759 -0.38537913368264481 0 0.20725651587090471 -0.36571099534901208 0 0.22031030243082139 -0.38906492162812378 0 0.21626227209603979 -0.41615869782113413 0 0.22031030243082139 -0.38906492162812378 0 0.20485234226760879 -0.40188257102108682 0 0.22031030243082139 -0.38906492162812378 0 0.20485234226760879 -0.40188257102108682 0 0.19952097201101759 -0.38537913368264481 0 0.20485234226760879 -0.40188257102108682 0 0.19159455078491761 -0.39726910731705511 0 0.19952097201101759 -0.38537913368264481 0 0.1968341740193896 -0.41150644481021997 0 0.20485234226760879 -0.40188257102108682 0 0.19418069224578771 -0.40518464808912641 0 0.20485234226760879 -0.40188257102108682 0 0.19418069224578771 -0.40518464808912641 0 0.19159455078491761 -0.39726910731705511 0 0.19418069224578771 -0.40518464808912641 0 0.19159455078491761 -0.39726910731705511 0 0.18667504034831339 -0.41041640739772162 0 0.20725651587090471 -0.36571099534901208 0 0.19261827162763251 -0.374541644607297 0 0.19952097201101759 -0.38537913368264481 0 0.19261827162763251 -0.374541644607297 0 0.19952097201101759 -0.38537913368264481 0 0.1834568796589737 -0.38583095226508418 0 0.19159455078491761 -0.39726910731705511 0 0.19952097201101759 -0.38537913368264481 0 0.1834568796589737 -0.38583095226508418 0 0.17443949437422429 -0.37745336578486988 0 0.18306199361292941 -0.40184547908877583 0 0.1834568796589737 -0.38583095226508418 0 0.17443949437422429 -0.37745336578486988 0 0.18306199361292941 -0.40184547908877583 0 0.17443949437422429 -0.37745336578486988 0 0.18306199361292941 -0.40184547908877583 0 0.1699565165384864 -0.39219147373696051 0 0.19159455078491761 -0.39726910731705511 0 0.1834568796589737 -0.38583095226508418 0 0.18667504034831339 -0.41041640739772162 0 0.1834568796589737 -0.38583095226508418 0 0.18667504034831339 -0.41041640739772162 0 0.1834568796589737 -0.38583095226508418 0 0.18306199361292941 -0.40184547908877583 0 0.18667504034831339 -0.41041640739772162 0 0.18306199361292941 -0.40184547908877583 0 0.1699565165384864 -0.39219147373696051 0 0.17103987791038719 -0.40450309618882169 0 0.18306199361292941 -0.40184547908877583 0 0.17103987791038719 -0.40450309618882169 0 0.1814131781600461 -0.40758752999736902 0 0.1699565165384864 -0.39219147373696051 0 0.17103987791038719 -0.40450309618882169 0 0.15993177942481909 -0.39557864441750712 0 0.17103987791038719 -0.40450309618882169 0 0.15993177942481909 -0.39557864441750712 0 0.14638679418839309 -0.40849626541203388 0 0.1699565165384864 -0.39219147373696051 0 0.15993177942481909 -0.39557864441750712 0 0.1595700277473481 -0.38298567724053401 0 0.17443949437422429 -0.37745336578486988 0 0.1699565165384864 -0.39219147373696051 0 0.1595700277473481 -0.38298567724053401 0 0.1602354860011011 -0.36875954027416918 0 0.17443949437422429 -0.37745336578486988 0 0.1595700277473481 -0.38298567724053401 0 0.1602354860011011 -0.36875954027416918 0 0.14673951295096799 -0.37363029079717242 0 0.1595700277473481 -0.38298567724053401 0 0.14673951295096799 -0.37363029079717242 0 0.1595700277473481 -0.38298567724053401 0 0.14586341328622179 -0.39002728499933198 0 0.14673951295096799 -0.37363029079717242 0 0.14586341328622179 -0.39002728499933198 0 0.13273239812562251 -0.3803535413873157 0 0.15993177942481909 -0.39557864441750712 0 0.1595700277473481 -0.38298567724053401 0 0.14586341328622179 -0.39002728499933198 0 0.14586341328622179 -0.39002728499933198 0 0.13273239812562251 -0.3803535413873157 0 0.12412735500694751 -0.39493505064503392 0 0.13273239812562251 -0.3803535413873157 0 0.12412735500694751 -0.39493505064503392 0 0.1208593498238435 -0.38006314209191833 0 0.14586341328622179 -0.39002728499933198 0 0.14638679418839309 -0.40849626541203388 0 0.12412735500694751 -0.39493505064503392 0 0.14638679418839309 -0.40849626541203388 0 0.1185943653130178 -0.41089393958744808 0 0.12412735500694751 -0.39493505064503392 0 0.14638679418839309 -0.40849626541203388 0 0.12412735500694751 -0.39493505064503392 0 0.15993177942481909 -0.39557864441750712 0 0.14586341328622179 -0.39002728499933198 0 0.14638679418839309 -0.40849626541203388 0 0.14638679418839309 -0.40849626541203388 0 0.12945713117598301 -0.42527718494859718 0 0.1185943653130178 -0.41089393958744808 0 0.12945713117598301 -0.42527718494859718 0 0.1521605439778134 -0.43517333823265708 0 0.13567485458578729 -0.448289196286278 0 0.14638679418839309 -0.40849626541203388 0 0.12945713117598301 -0.42527718494859718 0 0.1521605439778134 -0.43517333823265708 0 0.14638679418839309 -0.40849626541203388 0 0.1521605439778134 -0.43517333823265708 0 0.16864623336983819 -0.42205748017903449 0 0.1521605439778134 -0.43517333823265708 0 0.16864623336983819 -0.42205748017903449 0 0.1521605439778134 -0.43517333823265708 0 0.16864623336983819 -0.42205748017903449 0 0.16573483381671769 -0.43911683261624462 0 0.16864623336983819 -0.42205748017903449 0 0.17670256027174869 -0.43608133600128551 0 0.16573483381671769 -0.43911683261624462 0 0.17103987791038719 -0.40450309618882169 0 0.14638679418839309 -0.40849626541203388 0 0.16962733287145829 -0.41306172809692981 0 0.14638679418839309 -0.40849626541203388 0 0.16864623336983819 -0.42205748017903449 0 0.14638679418839309 -0.40849626541203388 0 0.16864623336983819 -0.42205748017903449 0 0.16962733287145829 -0.41306172809692981 0 0.16864623336983819 -0.42205748017903449 0 0.17965678171287719 -0.41329759239238029 0 0.18989320103765239 -0.43500186253035911 0 0.17965678171287719 -0.41329759239238029 0 0.18667504034831339 -0.41041640739772162 0 0.16864623336983819 -0.42205748017903449 0 0.16962733287145829 -0.41306172809692981 0 0.17965678171287719 -0.41329759239238029 0 0.17103987791038719 -0.40450309618882169 0 0.16962733287145829 -0.41306172809692981 0 0.17965678171287719 -0.41329759239238029 0 0.17103987791038719 -0.40450309618882169 0 0.17965678171287719 -0.41329759239238029 0 0.1814131781600461 -0.40758752999736902 0 0.18306199361292941 -0.40184547908877583 0 0.1814131781600461 -0.40758752999736902 0 0.18667504034831339 -0.41041640739772162 0 0.17965678171287719 -0.41329759239238029 0 0.1814131781600461 -0.40758752999736902 0 0.18667504034831339 -0.41041640739772162 0 0.18989320103765239 -0.43500186253035911 0 0.16864623336983819 -0.42205748017903449 0 0.18989320103765239 -0.43500186253035911 0 0.16864623336983819 -0.42205748017903449 0 0.17965678171287719 -0.41329759239238029 0 0.18989320103765239 -0.43500186253035911 0 0.16864623336983819 -0.42205748017903449 0 0.17670256027174869 -0.43608133600128551 0 0.18989320103765239 -0.43500186253035911 0 0.17670256027174869 -0.43608133600128551 0 0.18208037526260021 -0.440172852945236 0 0.17851738694434799 -0.45081987712854771 0 0.17618275988476059 -0.44374183802639611 0 0.18401323307134959 -0.44581129240036288 0 0.17851738694434799 -0.45081987712854771 0 0.1776998484129505 -0.456552179461992 0 0.17120073938054131 -0.45123220200337888 0 0.17851738694434799 -0.45081987712854771 0 0.17618275988476059 -0.44374183802639611 0 0.17120073938054131 -0.45123220200337888 0 0.17670256027174869 -0.43608133600128551 0 0.17618275988476059 -0.44374183802639611 0 0.16573483381671769 -0.43911683261624462 0 0.17670256027174869 -0.43608133600128551 0 0.17618275988476059 -0.44374183802639611 0 0.18208037526260021 -0.440172852945236 0 0.18989320103765239 -0.43500186253035911 0 0.18208037526260021 -0.440172852945236 0 0.18401323307134959 -0.44581129240036288 0 0.18777566972406101 -0.44981142861604279 0 0.18989320103765239 -0.43500186253035911 0 0.18401323307134959 -0.44581129240036288 0 0.17618275988476059 -0.44374183802639611 0 0.18208037526260021 -0.440172852945236 0 0.18401323307134959 -0.44581129240036288 0 0.18777566972406101 -0.44981142861604279 0 0.18401323307134959 -0.44581129240036288 0 0.18385690407389799 -0.45446609953290928 0 0.17851738694434799 -0.45081987712854771 0 0.18401323307134959 -0.44581129240036288 0 0.18385690407389799 -0.45446609953290928 0 0.19047701204926121 -0.46094242075341862 0 0.1876592352144193 -0.45673372923780892 0 0.1806900259799068 -0.46227126151247672 0 0.1876592352144193 -0.45673372923780892 0 0.18777566972406101 -0.44981142861604279 0 0.18385690407389799 -0.45446609953290928 0 0.19047701204926121 -0.46094242075341862 0 0.1806900259799068 -0.46227126151247672 0 0.17298031468751371 -0.48047121037671059 0 0.1876592352144193 -0.45673372923780892 0 0.18385690407389799 -0.45446609953290928 0 0.1806900259799068 -0.46227126151247672 0 0.18385690407389799 -0.45446609953290928 0 0.1806900259799068 -0.46227126151247672 0 0.1776998484129505 -0.456552179461992 0 0.17851738694434799 -0.45081987712854771 0 0.18385690407389799 -0.45446609953290928 0 0.1776998484129505 -0.456552179461992 0 0.1806900259799068 -0.46227126151247672 0 0.1776998484129505 -0.456552179461992 0 0.17146684144139809 -0.46446192971202138 0 0.1776998484129505 -0.456552179461992 0 0.17146684144139809 -0.46446192971202138 0 0.17120073938054131 -0.45123220200337888 0 0.17146684144139809 -0.46446192971202138 0 0.15759213853868431 -0.45113306297151079 0 0.14900727366634989 -0.46501884712825781 0 0.17146684144139809 -0.46446192971202138 0 0.15759213853868431 -0.45113306297151079 0 0.17120073938054131 -0.45123220200337888 0 0.1521605439778134 -0.43517333823265708 0 0.15759213853868431 -0.45113306297151079 0 0.16573483381671769 -0.43911683261624462 0 0.15759213853868431 -0.45113306297151079 0 0.17120073938054131 -0.45123220200337888 0 0.16573483381671769 -0.43911683261624462 0 0.17618275988476059 -0.44374183802639611 0 0.17120073938054131 -0.45123220200337888 0 0.16573483381671769 -0.43911683261624462 0 0.1521605439778134 -0.43517333823265708 0 0.15759213853868431 -0.45113306297151079 0 0.13567485458578729 -0.448289196286278 0 0.1521605439778134 -0.43517333823265708 0 0.13567485458578729 -0.448289196286278 0 0.13567485458578729 -0.448289196286278 0 0.1191891651937612 -0.46140505433989892 0 0.12203304576274319 -0.43975504748265359 0 0.12945713117598301 -0.42527718494859718 0 0.13567485458578729 -0.448289196286278 0 0.12203304576274319 -0.43975504748265359 0 0.13567485458578729 -0.448289196286278 0 0.1191891651937612 -0.46140505433989892 0 0.13567485458578729 -0.448289196286278 0 0.13480127744719991 -0.46410976413563299 0 0.1191891651937612 -0.46140505433989892 0 0.13567485458578729 -0.448289196286278 0 0.13480127744719991 -0.46410976413563299 0 0.14900727366634989 -0.46501884712825781 0 0.15759213853868431 -0.45113306297151079 0 0.13567485458578729 -0.448289196286278 0 0.14900727366634989 -0.46501884712825781 0 0.14900727366634989 -0.46501884712825781 0 0.15577652408963519 -0.48266000469618581 0 0.13873200589539489 -0.47945912496791759 0 0.13480127744719991 -0.46410976413563299 0 0.14900727366634989 -0.46501884712825781 0 0.13873200589539489 -0.47945912496791759 0 0.13480127744719991 -0.46410976413563299 0 0.13873200589539489 -0.47945912496791759 0 0.11801755443736479 -0.48060781756800708 0 0.13873200589539489 -0.47945912496791759 0 0.13581988522262109 -0.50000000000000244 0 0.11801755443736479 -0.48060781756800708 0 0.13581988522262109 -0.50000000000000244 0 0.11801755443736479 -0.48060781756800708 0 0.15577652408963519 -0.48266000469618581 0 0.13873200589539489 -0.47945912496791759 0 0.13581988522262109 -0.50000000000000244 0 0.15577652408963519 -0.48266000469618581 0 0.13581988522262109 -0.50000000000000244 0 0.15548361732576529 -0.50000000000000178 0 0.15577652408963519 -0.48266000469618581 0 0.15548361732576529 -0.50000000000000178 0 0.17298031468751371 -0.48047121037671059 0 0.15548361732576529 -0.50000000000000178 0 0.17298031468751371 -0.48047121037671059 0 0.1769424376256932 -0.5 0 0.15548361732576529 -0.50000000000000178 0 0.17298031468751371 -0.48047121037671059 0 0.17146684144139809 -0.46446192971202138 0 0.15577652408963519 -0.48266000469618581 0 0.17298031468751371 -0.48047121037671059 0 0.17146684144139809 -0.46446192971202138 0 0.14900727366634989 -0.46501884712825781 0 0.15577652408963519 -0.48266000469618581 0 0.19047701204926121 -0.46094242075341862 0 0.17298031468751371 -0.48047121037671059 0 0.1806900259799068 -0.46227126151247672 0 0.17146684144139809 -0.46446192971202138 0 0.17298031468751371 -0.48047121037671059 0 0.1955652389629654 -0.47833395417678298 0 0.19047701204926121 -0.46094242075341862 0 0.17298031468751371 -0.48047121037671059 0 0.1955652389629654 -0.47833395417678298 0 0.17298031468751371 -0.48047121037671059 0 0.1857239970351309 -0.48926605560099218 0 0.19840125792562099 -0.499999999999995 0 0.1857239970351309 -0.48926605560099218 0 0.1769424376256932 -0.5 0 0.17298031468751371 -0.48047121037671059 0 0.1857239970351309 -0.48926605560099218 0 0.1769424376256932 -0.5 0 0.074737975103940479 -0.48487994098964171 0 0.071046826552429457 -0.50000000000000733 0 0.059434139084113012 -0.47963991399004141 0 0.071046826552429457 -0.50000000000000733 0 0.059434139084113012 -0.47963991399004141 0 0.074737975103940479 -0.48487994098964171 0 0.05802097188470097 -0.46975988197928431 0 0.059434139084113012 -0.47963991399004141 0 0.074737975103940479 -0.48487994098964171 0 0.071955909258469009 -0.46877079283141743 0 0.05802097188470097 -0.46975988197928431 0 0.074737975103940479 -0.48487994098964171 0 0.071955909258469009 -0.46877079283141743 0 0.082737354296077953 -0.47427357099325013 0 0.074737975103940479 -0.48487994098964171 0 0.05802097188470097 -0.46975988197928431 0 0.074737975103940479 -0.48487994098964171 0 0.082737354296077953 -0.47427357099325013 0 0.094811061721812542 -0.48112121468145302 0 0.082737354296077953 -0.47427357099325013 0 0.094811061721812542 -0.48112121468145302 0 0.1002152236521098 -0.46121563513601083 0 0.074737975103940479 -0.48487994098964171 0 0.091454978323179614 -0.49999999999999939 0 0.094811061721812542 -0.48112121468145302 0 0.074737975103940479 -0.48487994098964171 0 0.091454978323179614 -0.49999999999999939 0 0.074737975103940479 -0.48487994098964171 0 0.071046826552429457 -0.50000000000000733 0 0.091454978323179614 -0.49999999999999939 0 0.1136374317729003 -0.5 0 0.11801755443736479 -0.48060781756800708 0 0.094811061721812542 -0.48112121468145302 0 0.091454978323179614 -0.49999999999999939 0 0.1136374317729003 -0.5 0 0.094811061721812542 -0.48112121468145302 0 0.13581988522262109 -0.50000000000000244 0 0.1136374317729003 -0.5 0 0.11801755443736479 -0.48060781756800708 0 0.11801755443736479 -0.48060781756800708 0 0.094811061721812542 -0.48112121468145302 0 0.1002152236521098 -0.46121563513601083 0 0.11801755443736479 -0.48060781756800708 0 0.1002152236521098 -0.46121563513601083 0 0.1002152236521098 -0.46121563513601083 0 0.1191891651937612 -0.46140505433989892 0 0.1082504500781146 -0.44478934181291102 0 0.11801755443736479 -0.48060781756800708 0 0.1002152236521098 -0.46121563513601083 0 0.1191891651937612 -0.46140505433989892 0 0.13480127744719991 -0.46410976413563299 0 0.11801755443736479 -0.48060781756800708 0 0.1191891651937612 -0.46140505433989892 0 0.1191891651937612 -0.46140505433989892 0 0.12203304576274319 -0.43975504748265359 0 0.1082504500781146 -0.44478934181291102 0 0.1002152236521098 -0.46121563513601083 0 0.1082504500781146 -0.44478934181291102 0 0.082412892866854714 -0.44182345270401441 0 0.1002152236521098 -0.46121563513601083 0 0.082412892866854714 -0.44182345270401441 0 0.082737354296077953 -0.47427357099325013 0 0.1002152236521098 -0.46121563513601083 0 0.07989865607697158 -0.46093656822545309 0 0.1002152236521098 -0.46121563513601083 0 0.082412892866854714 -0.44182345270401441 0 0.07989865607697158 -0.46093656822545309 0 0.071955909258469009 -0.46877079283141743 0 0.082737354296077953 -0.47427357099325013 0 0.07989865607697158 -0.46093656822545309 0 0.071955909258469009 -0.46877079283141743 0 0.07989865607697158 -0.46093656822545309 0 0.064942869781788204 -0.45298741250561531 0 0.071955909258469009 -0.46877079283141743 0 0.064942869781788204 -0.45298741250561531 0 0.05802097188470097 -0.46975988197928431 0 0.082412892866854714 -0.44182345270401441 0 0.07989865607697158 -0.46093656822545309 0 0.064942869781788204 -0.45298741250561531 0 0.082412892866854714 -0.44182345270401441 0 0.064942869781788204 -0.45298741250561531 0 0.064610562081599654 -0.42243127027201799 0 0.082412892866854714 -0.44182345270401441 0 0.064610562081599654 -0.42243127027201799 0 0.085410796704641828 -0.41553833344022301 0 0.082412892866854714 -0.44182345270401441 0 0.064610562081599654 -0.42243127027201799 0 0.064610562081599654 -0.42243127027201799 0 0.085410796704641828 -0.41553833344022301 0 0.071260751408415451 -0.40583032332525898 0 0.082412892866854714 -0.44182345270401441 0 0.085410796704641828 -0.41553833344022301 0 0.10565257718969159 -0.42402980380391259 0 0.1082504500781146 -0.44478934181291102 0 0.10565257718969159 -0.42402980380391259 0 0.1082504500781146 -0.44478934181291102 0 0.082412892866854714 -0.44182345270401441 0 0.10565257718969159 -0.42402980380391259 0 0.12203304576274319 -0.43975504748265359 0 0.1082504500781146 -0.44478934181291102 0 0.10565257718969159 -0.42402980380391259 0 0.12945713117598301 -0.42527718494859718 0 0.12203304576274319 -0.43975504748265359 0 0.10565257718969159 -0.42402980380391259 0 0.12945713117598301 -0.42527718494859718 0 0.10565257718969159 -0.42402980380391259 0 0.1185943653130178 -0.41089393958744808 0 0.10565257718969159 -0.42402980380391259 0 0.10305470430126849 -0.40327026579491432 0 0.10565257718969159 -0.42402980380391259 0 0.1185943653130178 -0.41089393958744808 0 0.10305470430126849 -0.40327026579491432 0 0.085410796704641828 -0.41553833344022301 0 0.10565257718969159 -0.42402980380391259 0 0.10305470430126849 -0.40327026579491432 0 0.10305470430126849 -0.40327026579491432 0 0.1092296532162271 -0.39195520602732847 0 0.1018679158255022 -0.38137383587803358 0 0.10305470430126849 -0.40327026579491432 0 0.1018679158255022 -0.38137383587803358 0 0.084827885114816814 -0.39510276155480978 0 0.10305470430126849 -0.40327026579491432 0 0.1018679158255022 -0.38137383587803358 0 0.1185943653130178 -0.41089393958744808 0 0.10305470430126849 -0.40327026579491432 0 0.1092296532162271 -0.39195520602732847 0 0.1185943653130178 -0.41089393958744808 0 0.1092296532162271 -0.39195520602732847 0 0.12412735500694751 -0.39493505064503392 0 0.12412735500694751 -0.39493505064503392 0 0.1208593498238435 -0.38006314209191833 0 0.1018679158255022 -0.38137383587803358 0 0.1092296532162271 -0.39195520602732847 0 0.12412735500694751 -0.39493505064503392 0 0.1018679158255022 -0.38137383587803358 0 0.12412735500694751 -0.39493505064503392 0 0.1018679158255022 -0.38137383587803358 0 0.1208593498238435 -0.38006314209191833 0 0.1018679158255022 -0.38137383587803358 0 0.12334710111447229 -0.36406834251145731 0 0.1018679158255022 -0.38137383587803358 0 0.1001863568717406 -0.38034937241650962 0 0.10879209213087419 -0.36797725762153549 0 0.1018679158255022 -0.38137383587803358 0 0.1001863568717406 -0.38034937241650962 0 0.092680417082859706 -0.38189565836938699 0 0.1018679158255022 -0.38137383587803358 0 0.1001863568717406 -0.38034937241650962 0 0.1001863568717406 -0.38034937241650962 0 0.092680417082859706 -0.38189565836938699 0 0.078941289569781151 -0.36740614783332631 0 0.1018679158255022 -0.38137383587803358 0 0.084827885114816814 -0.39510276155480978 0 0.1018679158255022 -0.38137383587803358 0 0.092680417082859706 -0.38189565836938699 0 0.084827885114816814 -0.39510276155480978 0 0.083667078469080447 -0.3817485906143725 0 0.076461538166658155 -0.38231907318138902 0 0.078941289569781151 -0.36740614783332631 0 0.092680417082859706 -0.38189565836938699 0 0.083667078469080447 -0.3817485906143725 0 0.078941289569781151 -0.36740614783332631 0 0.084827885114816814 -0.39510276155480978 0 0.073546264855348126 -0.39398280964304111 0 0.076461538166658155 -0.38231907318138902 0 0.083667078469080447 -0.3817485906143725 0 0.084827885114816814 -0.39510276155480978 0 0.076461538166658155 -0.38231907318138902 0 0.092680417082859706 -0.38189565836938699 0 0.083667078469080447 -0.3817485906143725 0 0.084827885114816814 -0.39510276155480978 0 0.085410796704641828 -0.41553833344022301 0 0.10305470430126849 -0.40327026579491432 0 0.084827885114816814 -0.39510276155480978 0 0.085410796704641828 -0.41553833344022301 0 0.084827885114816814 -0.39510276155480978 0 0.071260751408415451 -0.40583032332525898 0 0.084827885114816814 -0.39510276155480978 0 0.073546264855348126 -0.39398280964304111 0 0.071260751408415451 -0.40583032332525898 0 0.073546264855348126 -0.39398280964304111 0 0.071260751408415451 -0.40583032332525898 0 0.061634884731502082 -0.39267908051070671 0 0.076461538166658155 -0.38231907318138902 0 0.061634884731502082 -0.39267908051070671 0 0.076461538166658155 -0.38231907318138902 0 0.061634884731502082 -0.39267908051070671 0 0.061904282875925747 -0.37237526148823941 0 0.073546264855348126 -0.39398280964304111 0 0.076461538166658155 -0.38231907318138902 0 0.061634884731502082 -0.39267908051070671 0 0.051370350477500881 -0.3764161884637201 0 0.045801185216693012 -0.38580832539780119 0 0.043663507306638913 -0.36868104746756258 0 0.051370350477500881 -0.3764161884637201 0 0.061634884731502082 -0.39267908051070671 0 0.045801185216693012 -0.38580832539780119 0 0.051370350477500881 -0.3764161884637201 0 0.061634884731502082 -0.39267908051070671 0 0.061904282875925747 -0.37237526148823941 0 0.071260751408415451 -0.40583032332525898 0 0.061634884731502082 -0.39267908051070671 0 0.04680823129634433 -0.40303908784002201 0 0.061634884731502082 -0.39267908051070671 0 0.04680823129634433 -0.40303908784002201 0 0.045801185216693012 -0.38580832539780119 0 0.061634884731502082 -0.39267908051070671 0 0.04680823129634433 -0.40303908784002201 0 0.04680823129634433 -0.40303908784002201 0 0.02837172461734 -0.38295609391969199 0 0.04680823129634433 -0.40303908784002201 0 0.02837172461734 -0.38295609391969199 0 0.028215565298714249 -0.40094151263492078 0 0.045801185216693012 -0.38580832539780119 0 0.02837172461734 -0.38295609391969199 0 0.043663507306638913 -0.36868104746756258 0 0.04680823129634433 -0.40303908784002201 0 0.045801185216693012 -0.38580832539780119 0 0.02837172461734 -0.38295609391969199 0 0.02837172461734 -0.38295609391969199 0 0.0122991559467155 -0.37891225603134221 0 0.011208636448502229 -0.39508796301279092 0 -0.002178803782163227 -0.37161627006544062 0 0.0122991559467155 -0.37891225603134221 0 0.011208636448502229 -0.39508796301279092 0 -0.002178803782163227 -0.37161627006544062 0 0.011208636448502229 -0.39508796301279092 0 -0.002178803782163227 -0.37161627006544062 0 -0.0066930742226519926 -0.39143820132839208 0 0.011208636448502229 -0.39508796301279092 0 -0.001728596279610697 -0.40597762003102339 0 0.011208636448502229 -0.39508796301279092 0 0.0082246319185010179 -0.41465428951275207 0 -0.0066930742226519926 -0.39143820132839208 0 -0.001728596279610697 -0.40597762003102339 0 0.011208636448502229 -0.39508796301279092 0 0.011208636448502229 -0.39508796301279092 0 0.028215565298714249 -0.40094151263492078 0 0.024596076679173799 -0.41855965596013778 0 0.02837172461734 -0.38295609391969199 0 0.011208636448502229 -0.39508796301279092 0 0.028215565298714249 -0.40094151263492078 0 0.011208636448502229 -0.39508796301279092 0 0.024596076679173799 -0.41855965596013778 0 0.011208636448502229 -0.39508796301279092 0 0.024596076679173799 -0.41855965596013778 0 0.0082246319185010179 -0.41465428951275207 0 0.024596076679173799 -0.41855965596013778 0 0.0082246319185010179 -0.41465428951275207 0 0.01039378864355619 -0.42848339288335913 0 -0.009537301248459449 -0.42510302968362512 0 0.0082246319185010179 -0.41465428951275207 0 0.01039378864355619 -0.42848339288335913 0 0.024596076679173799 -0.41855965596013778 0 0.036208764147486278 -0.43891974197010591 0 0.024596076679173799 -0.41855965596013778 0 0.036208764147486278 -0.43891974197010591 0 0.020713539006084219 -0.44010250100644183 0 0.024596076679173799 -0.41855965596013778 0 0.01039378864355619 -0.42848339288335913 0 0.020713539006084219 -0.44010250100644183 0 0.024596076679173799 -0.41855965596013778 0 0.01039378864355619 -0.42848339288335913 0 0.024596076679173799 -0.41855965596013778 0 0.043950702345966319 -0.42295947833088071 0 0.036208764147486278 -0.43891974197010591 0 0.043950702345966319 -0.42295947833088071 0 0.051347790295756007 -0.43901682978775403 0 0.036208764147486278 -0.43891974197010591 0 0.04680823129634433 -0.40303908784002201 0 0.024596076679173799 -0.41855965596013778 0 0.04680823129634433 -0.40303908784002201 0 0.028215565298714249 -0.40094151263492078 0 0.024596076679173799 -0.41855965596013778 0 0.04680823129634433 -0.40303908784002201 0 0.024596076679173799 -0.41855965596013778 0 0.043950702345966319 -0.42295947833088071 0 0.064610562081599654 -0.42243127027201799 0 0.071260751408415451 -0.40583032332525898 0 0.04680823129634433 -0.40303908784002201 0 0.064610562081599654 -0.42243127027201799 0 0.04680823129634433 -0.40303908784002201 0 0.064610562081599654 -0.42243127027201799 0 0.04680823129634433 -0.40303908784002201 0 0.043950702345966319 -0.42295947833088071 0 0.064610562081599654 -0.42243127027201799 0 0.043950702345966319 -0.42295947833088071 0 0.051347790295756007 -0.43901682978775403 0 0.064942869781788204 -0.45298741250561531 0 0.064610562081599654 -0.42243127027201799 0 0.051347790295756007 -0.43901682978775403 0 0.064942869781788204 -0.45298741250561531 0 0.051347790295756007 -0.43901682978775403 0 0.047821451615799627 -0.45927982798007361 0 0.064942869781788204 -0.45298741250561531 0 0.047821451615799627 -0.45927982798007361 0 0.05802097188470097 -0.46975988197928431 0 0.047821451615799627 -0.45927982798007361 0 0.023714967739582489 -0.4565662814222432 0 0.032020960621095843 -0.47777188036233098 0 0.047821451615799627 -0.45927982798007361 0 0.036208764147486278 -0.43891974197010591 0 0.051347790295756007 -0.43901682978775403 0 0.047821451615799627 -0.45927982798007361 0 0.036208764147486278 -0.43891974197010591 0 0.047821451615799627 -0.45927982798007361 0 0.036208764147486278 -0.43891974197010591 0 0.023714967739582489 -0.4565662814222432 0 0.036208764147486278 -0.43891974197010591 0 0.020713539006084219 -0.44010250100644183 0 0.023714967739582489 -0.4565662814222432 0 -0.0013374034004768371 -0.44947558896604423 0 0.01039378864355619 -0.42848339288335913 0 0.020713539006084219 -0.44010250100644183 0 -0.0013374034004768371 -0.44947558896604423 0 0.020713539006084219 -0.44010250100644183 0 0.023714967739582489 -0.4565662814222432 0 -0.0013374034004768371 -0.44947558896604423 0 0.0068624944475057766 -0.47384814824846327 0 -0.0013374034004768371 -0.44947558896604423 0 0.023714967739582489 -0.4565662814222432 0 0.0068624944475057766 -0.47384814824846327 0 0.023714967739582489 -0.4565662814222432 0 0.0068624944475057766 -0.47384814824846327 0 0.032020960621095843 -0.47777188036233098 0 0.0068624944475057766 -0.47384814824846327 0 0.0150623922954884 -0.49822070753088238 0 0.032020960621095843 -0.47777188036233098 0 -0.015217900669161011 -0.5 0 0.0024053695883212941 -0.48891336768777249 0 0.013537008404702511 -0.5 0 0.0068624944475057766 -0.47384814824846327 0 0.0024053695883212941 -0.48891336768777249 0 0.0150623922954884 -0.49822070753088238 0 0.0068624944475057766 -0.47384814824846327 0 0.0150623922954884 -0.49822070753088238 0 0.0024053695883212941 -0.48891336768777249 0 0.0150623922954884 -0.49822070753088238 0 0.013537008404702511 -0.5 0 0.0150623922954884 -0.49822070753088238 0 0.013537008404702511 -0.5 0 0.042291917478565873 -0.5 0 0.0150623922954884 -0.49822070753088238 0 0.042291917478565873 -0.5 0 0.032020960621095843 -0.47777188036233098 0 0.042291917478565873 -0.5 0 0.032020960621095843 -0.47777188036233098 0 0.059434139084113012 -0.47963991399004141 0 0.047821451615799627 -0.45927982798007361 0 0.032020960621095843 -0.47777188036233098 0 0.059434139084113012 -0.47963991399004141 0 0.047821451615799627 -0.45927982798007361 0 0.05802097188470097 -0.46975988197928431 0 0.059434139084113012 -0.47963991399004141 0 0.047821451615799627 -0.45927982798007361 0 0.059434139084113012 -0.47963991399004141 0 0.071046826552429457 -0.50000000000000733 0 0.042291917478565873 -0.5 0 0.059434139084113012 -0.47963991399004141 0 0.078456545354339768 -0.28525100698693651 0 0.075192778843485145 -0.3004755496101415 0 0.095899689397586599 -0.3008291305439913 0 0.078456545354339768 -0.28525100698693651 0 0.095711127176573443 -0.2751242682777974 0 0.095899689397586599 -0.3008291305439913 0 0.075192778843485145 -0.3004755496101415 0 0.095899689397586599 -0.3008291305439913 0 0.074188022781041252 -0.31649930169162399 0 0.095899689397586599 -0.3008291305439913 0 0.074188022781041252 -0.31649930169162399 0 0.075192778843485145 -0.3004755496101415 0 0.074188022781041252 -0.31649930169162399 0 0.058270312985904418 -0.30816514798469019 0 0.075192778843485145 -0.3004755496101415 0 0.068995976747761104 -0.2945131319279734 0 0.058270312985904418 -0.30816514798469019 0 0.068995976747761104 -0.2945131319279734 0 0.064064269807315097 -0.28416082313012542 0 0.058270312985904418 -0.30816514798469019 0 0.078456545354339768 -0.28525100698693651 0 0.075192778843485145 -0.3004755496101415 0 0.068995976747761104 -0.2945131319279734 0 0.078456545354339768 -0.28525100698693651 0 0.068995976747761104 -0.2945131319279734 0 0.064064269807315097 -0.28416082313012542 0 0.064064269807315097 -0.28416082313012542 0 0.069858226628725775 -0.26015649827556059 0 0.078456545354339768 -0.28525100698693651 0 0.064064269807315097 -0.28416082313012542 0 0.069858226628725775 -0.26015649827556059 0 0.069858226628725775 -0.26015649827556059 0 0.095711127176573443 -0.2751242682777974 0 0.096521476943682558 -0.25181800011133371 0 0.078456545354339768 -0.28525100698693651 0 0.069858226628725775 -0.26015649827556059 0 0.095711127176573443 -0.2751242682777974 0 0.095711127176573443 -0.2751242682777974 0 0.114720785939063 -0.26575264298982931 0 0.1176113560141319 -0.2851589593963586 0 0.095711127176573443 -0.2751242682777974 0 0.096521476943682558 -0.25181800011133371 0 0.114720785939063 -0.26575264298982931 0 0.1376178273856396 -0.2676878026278281 0 0.114720785939063 -0.26575264298982931 0 0.1200034520355143 -0.24749468667538321 0 0.096521476943682558 -0.25181800011133371 0 0.114720785939063 -0.26575264298982931 0 0.1200034520355143 -0.24749468667538321 0 0.1376178273856396 -0.2676878026278281 0 0.114720785939063 -0.26575264298982931 0 0.1176113560141319 -0.2851589593963586 0 0.13584279120622419 -0.29064916595208462 0 0.1176113560141319 -0.2851589593963586 0 0.1212075847983899 -0.30357596212866123 0 0.1176113560141319 -0.2851589593963586 0 0.095899689397586599 -0.3008291305439913 0 0.1212075847983899 -0.30357596212866123 0 0.1176113560141319 -0.2851589593963586 0 0.095899689397586599 -0.3008291305439913 0 0.095711127176573443 -0.2751242682777974 0 0.1176113560141319 -0.2851589593963586 0 0.095899689397586599 -0.3008291305439913 0 0.095899689397586599 -0.3008291305439913 0 0.1212075847983899 -0.30357596212866123 0 0.1047724191350739 -0.31963875894108951 0 0.1212075847983899 -0.30357596212866123 0 0.1249111379911398 -0.32186001205002218 0 0.1047724191350739 -0.31963875894108951 0 0.1249111379911398 -0.32186001205002218 0 0.1047724191350739 -0.31963875894108951 0 0.11573058637367541 -0.34380091622275832 0 0.094619564876377599 -0.33586527524184762 0 0.1047724191350739 -0.31963875894108951 0 0.11573058637367541 -0.34380091622275832 0 0.094619564876377599 -0.33586527524184762 0 0.1047724191350739 -0.31963875894108951 0 0.086339338786571823 -0.32698567366184278 0 0.095899689397586599 -0.3008291305439913 0 0.1047724191350739 -0.31963875894108951 0 0.086339338786571823 -0.32698567366184278 0 0.1018679158255022 -0.38137383587803358 0 0.12334710111447229 -0.36406834251145731 0 0.1018679158255022 -0.38137383587803358 0 0.12334710111447229 -0.36406834251145731 0 0.10879209213087419 -0.36797725762153549 0 0.12334710111447229 -0.36406834251145731 0 0.11573058637367541 -0.34380091622275832 0 0.10879209213087419 -0.36797725762153549 0 0.11573058637367541 -0.34380091622275832 0 0.097402960874061584 -0.35810732382917831 0 0.10879209213087419 -0.36797725762153549 0 0.094619564876377599 -0.33586527524184762 0 0.11573058637367541 -0.34380091622275832 0 0.097402960874061584 -0.35810732382917831 0 0.094619564876377599 -0.33586527524184762 0 0.097402960874061584 -0.35810732382917831 0 0.1001863568717406 -0.38034937241650962 0 0.097402960874061584 -0.35810732382917831 0 0.1001863568717406 -0.38034937241650962 0 0.097402960874061584 -0.35810732382917831 0 0.10879209213087419 -0.36797725762153549 0 0.1001863568717406 -0.38034937241650962 0 0.097402960874061584 -0.35810732382917831 0 0.078941289569781151 -0.36740614783332631 0 0.1001863568717406 -0.38034937241650962 0 0.078941289569781151 -0.36740614783332631 0 0.094619564876377599 -0.33586527524184762 0 0.097402960874061584 -0.35810732382917831 0 0.084740357312199394 -0.34701535865000288 0 0.078941289569781151 -0.36740614783332631 0 0.084740357312199394 -0.34701535865000288 0 0.072564810466095128 -0.35396504242622201 0 0.097402960874061584 -0.35810732382917831 0 0.078941289569781151 -0.36740614783332631 0 0.084740357312199394 -0.34701535865000288 0 0.078941289569781151 -0.36740614783332631 0 0.072564810466095128 -0.35396504242622201 0 0.057696222267823373 -0.35446292325014028 0 0.084740357312199394 -0.34701535865000288 0 0.072564810466095128 -0.35396504242622201 0 0.073102422775426085 -0.33909783780230318 0 0.064643683218506637 -0.34920539315333932 0 0.072564810466095128 -0.35396504242622201 0 0.073102422775426085 -0.33909783780230318 0 0.064643683218506637 -0.34920539315333932 0 0.072564810466095128 -0.35396504242622201 0 0.057696222267823373 -0.35446292325014028 0 0.078941289569781151 -0.36740614783332631 0 0.057696222267823373 -0.35446292325014028 0 0.076461538166658155 -0.38231907318138902 0 0.078941289569781151 -0.36740614783332631 0 0.061904282875925747 -0.37237526148823941 0 0.078941289569781151 -0.36740614783332631 0 0.061904282875925747 -0.37237526148823941 0 0.057696222267823373 -0.35446292325014028 0 0.095899689397586599 -0.3008291305439913 0 0.086339338786571823 -0.32698567366184278 0 0.074188022781041252 -0.31649930169162399 0 0.094619564876377599 -0.33586527524184762 0 0.084740357312199394 -0.34701535865000288 0 0.086339338786571823 -0.32698567366184278 0 0.084740357312199394 -0.34701535865000288 0 0.086339338786571823 -0.32698567366184278 0 0.073102422775426085 -0.33909783780230318 0 0.073102422775426085 -0.33909783780230318 0 0.074188022781041252 -0.31649930169162399 0 0.052476356164494947 -0.33216947283925541 0 0.064643683218506637 -0.34920539315333932 0 0.073102422775426085 -0.33909783780230318 0 0.060945063747813971 -0.34285112352430303 0 0.074188022781041252 -0.31649930169162399 0 0.052476356164494947 -0.33216947283925541 0 0.086339338786571823 -0.32698567366184278 0 0.073102422775426085 -0.33909783780230318 0 0.074188022781041252 -0.31649930169162399 0 0.052476356164494947 -0.33216947283925541 0 0.058270312985904418 -0.30816514798469019 0 0.052476356164494947 -0.33216947283925541 0 0.044648526871603783 -0.31770081170742831 0 0.058270312985904418 -0.30816514798469019 0 0.074188022781041252 -0.31649930169162399 0 0.052476356164494947 -0.33216947283925541 0 0.058270312985904418 -0.30816514798469019 0 0.052476356164494947 -0.33216947283925541 0 0.047583047975914103 -0.35244241635483559 0 0.073102422775426085 -0.33909783780230318 0 0.060945063747813971 -0.34285112352430303 0 0.052476356164494947 -0.33216947283925541 0 0.060945063747813971 -0.34285112352430303 0 0.052476356164494947 -0.33216947283925541 0 0.054181307711507642 -0.34983992205818981 0 0.052476356164494947 -0.33216947283925541 0 0.04071506683574927 -0.34065806194451792 0 0.047583047975914103 -0.35244241635483559 0 0.052476356164494947 -0.33216947283925541 0 0.04071506683574927 -0.34065806194451792 0 0.044648526871603783 -0.31770081170742831 0 0.04071506683574927 -0.34065806194451792 0 0.03015636661650286 -0.3225410253719756 0 0.04071506683574927 -0.34065806194451792 0 0.03015636661650286 -0.3225410253719756 0 0.02636863849756152 -0.33688388254537838 0 0.052476356164494947 -0.33216947283925541 0 0.04071506683574927 -0.34065806194451792 0 0.04071506683574927 -0.34065806194451792 0 0.044648526871603783 -0.31770081170742831 0 0.03015636661650286 -0.3225410253719756 0 0.044648526871603783 -0.31770081170742831 0 0.03015636661650286 -0.3225410253719756 0 0.034491627806478041 -0.30853974567073322 0 0.061904282875925747 -0.37237526148823941 0 0.053259535722039633 -0.3641180164926533 0 0.057696222267823373 -0.35446292325014028 0 0.051370350477500881 -0.3764161884637201 0 0.053259535722039633 -0.3641180164926533 0 0.043663507306638913 -0.36868104746756258 0 0.051370350477500881 -0.3764161884637201 0 0.061904282875925747 -0.37237526148823941 0 0.053259535722039633 -0.3641180164926533 0 0.053259535722039633 -0.3641180164926533 0 0.048773826387857627 -0.3544856011778737 0 0.043663507306638913 -0.36868104746756258 0 0.052476356164494947 -0.33216947283925541 0 0.047583047975914103 -0.35244241635483559 0 0.054181307711507642 -0.34983992205818981 0 0.053259535722039633 -0.3641180164926533 0 0.053244657324237762 -0.3582642649149802 0 0.048773826387857627 -0.3544856011778737 0 0.053244657324237762 -0.3582642649149802 0 0.048773826387857627 -0.3544856011778737 0 0.054181307711507642 -0.34983992205818981 0 0.048773826387857627 -0.3544856011778737 0 0.047583047975914103 -0.35244241635483559 0 0.054181307711507642 -0.34983992205818981 0 0.048773826387857627 -0.3544856011778737 0 0.047583047975914103 -0.35244241635483559 0 0.053259535722039633 -0.3641180164926533 0 0.053244657324237762 -0.3582642649149802 0 0.057696222267823373 -0.35446292325014028 0 0.053244657324237762 -0.3582642649149802 0 0.057696222267823373 -0.35446292325014028 0 0.054181307711507642 -0.34983992205818981 0 0.064643683218506637 -0.34920539315333932 0 0.057696222267823373 -0.35446292325014028 0 0.054181307711507642 -0.34983992205818981 0 0.064643683218506637 -0.34920539315333932 0 0.060945063747813971 -0.34285112352430303 0 0.054181307711507642 -0.34983992205818981 0 0.048773826387857627 -0.3544856011778737 0 0.047583047975914103 -0.35244241635483559 0 0.043663507306638913 -0.36868104746756258 0 0.04071506683574927 -0.34065806194451792 0 0.047583047975914103 -0.35244241635483559 0 0.04071506683574927 -0.34065806194451792 0 0.047583047975914103 -0.35244241635483559 0 0.03985573710467899 -0.35136837444597901 0 0.04071506683574927 -0.34065806194451792 0 0.03985573710467899 -0.35136837444597901 0 0.03205896378917665 -0.35434441690964041 0 0.04071506683574927 -0.34065806194451792 0 0.03205896378917665 -0.35434441690964041 0 0.025431496553892478 -0.35168882095041942 0 0.04071506683574927 -0.34065806194451792 0 0.025431496553892478 -0.35168882095041942 0 0.03985573710467899 -0.35136837444597901 0 0.03205896378917665 -0.35434441690964041 0 0.039065869817875902 -0.35802860257492208 0 0.047583047975914103 -0.35244241635483559 0 0.03985573710467899 -0.35136837444597901 0 0.039065869817875902 -0.35802860257492208 0 0.02837172461734 -0.38295609391969199 0 0.033371525452051833 -0.36592480980272157 0 0.043663507306638913 -0.36868104746756258 0 0.047583047975914103 -0.35244241635483559 0 0.039065869817875902 -0.35802860257492208 0 0.043663507306638913 -0.36868104746756258 0 0.047583047975914103 -0.35244241635483559 0 0.043663507306638913 -0.36868104746756258 0 0.039065869817875902 -0.35802860257492208 0 0.033371525452051833 -0.36592480980272157 0 0.043663507306638913 -0.36868104746756258 0 0.03205896378917665 -0.35434441690964041 0 0.039065869817875902 -0.35802860257492208 0 0.033371525452051833 -0.36592480980272157 0 0.02837172461734 -0.38295609391969199 0 0.0099352179383349771 -0.36287309999936251 0 0.02837172461734 -0.38295609391969199 0 0.023697561729227701 -0.3656138881417908 0 0.0099352179383349771 -0.36287309999936251 0 0.02837172461734 -0.38295609391969199 0 0.033371525452051833 -0.36592480980272157 0 0.023697561729227701 -0.3656138881417908 0 0.02837172461734 -0.38295609391969199 0 0.0122991559467155 -0.37891225603134221 0 0.0099352179383349771 -0.36287309999936251 0 0.03205896378917665 -0.35434441690964041 0 0.033371525452051833 -0.36592480980272157 0 0.023697561729227701 -0.3656138881417908 0 0.023697561729227701 -0.3656138881417908 0 0.025431496553892478 -0.35168882095041942 0 0.0099352179383349771 -0.36287309999936251 0 0.025431496553892478 -0.35168882095041942 0 0.0075807645751098419 -0.34453611388615663 0 0.025431496553892478 -0.35168882095041942 0 0.0075807645751098419 -0.34453611388615663 0 0.02636863849756152 -0.33688388254537838 0 0.025431496553892478 -0.35168882095041942 0 0.0099352179383349771 -0.36287309999936251 0 0.03205896378917665 -0.35434441690964041 0 0.023697561729227701 -0.3656138881417908 0 0.025431496553892478 -0.35168882095041942 0 0.03205896378917665 -0.35434441690964041 0 0.025431496553892478 -0.35168882095041942 0 -0.0096343958099064687 -0.34155580596031437 0 0.0099352179383349771 -0.36287309999936251 0 -0.0096343958099064687 -0.34155580596031437 0 0.0075807645751098419 -0.34453611388615663 0 0.0099352179383349771 -0.36287309999936251 0 0.025431496553892478 -0.35168882095041942 0 0.0075807645751098419 -0.34453611388615663 0 0.0099352179383349771 -0.36287309999936251 0 -0.002178803782163227 -0.37161627006544062 0 0.0122991559467155 -0.37891225603134221 0 0.0099352179383349771 -0.36287309999936251 0 -0.0070150904897389628 -0.35875101633193152 0 -0.002178803782163227 -0.37161627006544062 0 0.0099352179383349771 -0.36287309999936251 0 -0.002178803782163227 -0.37161627006544062 0 0.0099352179383349771 -0.36287309999936251 0 0.03015636661650286 -0.3225410253719756 0 0.019597666397256509 -0.30442398879943339 0 0.03015636661650286 -0.3225410253719756 0 0.014793392922354411 -0.31628120652474823 0 0.019597666397256509 -0.30442398879943339 0 0.03015636661650286 -0.3225410253719756 0 0.01453256369494863 -0.32953892791496292 0 0.014793392922354411 -0.31628120652474823 0 0.03015636661650286 -0.3225410253719756 0 0.02636863849756152 -0.33688388254537838 0 0.01453256369494863 -0.32953892791496292 0 0.0075807645751098419 -0.34453611388615663 0 0.02636863849756152 -0.33688388254537838 0 0.01453256369494863 -0.32953892791496292 0 0.04071506683574927 -0.34065806194451792 0 0.025431496553892478 -0.35168882095041942 0 0.02636863849756152 -0.33688388254537838 0 0.0075807645751098419 -0.34453611388615663 0 0.01453256369494863 -0.32953892791496292 0 0.0034794820758208261 -0.33361449123698089 0 -0.010269967403673339 -0.33738340682189533 0 0.0075807645751098419 -0.34453611388615663 0 0.0034794820758208261 -0.33361449123698089 0 0.01453256369494863 -0.32953892791496292 0 0.0034794820758208261 -0.33361449123698089 0 0.001904989571353899 -0.32214434476741449 0 0.001904989571353899 -0.32214434476741449 0 0.014793392922354411 -0.31628120652474823 0 0.0019518825097332619 -0.30029273945570772 0 0.01453256369494863 -0.32953892791496292 0 0.001904989571353899 -0.32214434476741449 0 0.014793392922354411 -0.31628120652474823 0 0.0019518825097332619 -0.30029273945570772 0 0.0090389661780101715 -0.28630695222689118 0 0.019597666397256509 -0.30442398879943339 0 0.014793392922354411 -0.31628120652474823 0 0.0019518825097332619 -0.30029273945570772 0 0.019597666397256509 -0.30442398879943339 0 -0.0020851015340006161 -0.28052611142458661 0 0.0019518825097332619 -0.30029273945570772 0 0.0090389661780101715 -0.28630695222689118 0 0.0090389661780101715 -0.28630695222689118 0 0.019597666397256509 -0.30442398879943339 0 0.0090389661780101715 -0.28630695222689118 0 0.019597666397256509 -0.30442398879943339 0 0.033821918158706138 -0.27707393290215671 0 0.03015636661650286 -0.3225410253719756 0 0.019597666397256509 -0.30442398879943339 0 0.034491627806478041 -0.30853974567073322 0 0.019597666397256509 -0.30442398879943339 0 0.034491627806478041 -0.30853974567073322 0 0.043330632548044458 -0.29475484461045087 0 0.044648526871603783 -0.31770081170742831 0 0.034491627806478041 -0.30853974567073322 0 0.043330632548044458 -0.29475484461045087 0 0.019597666397256509 -0.30442398879943339 0 0.043330632548044458 -0.29475484461045087 0 0.033821918158706138 -0.27707393290215671 0 0.043330632548044458 -0.29475484461045087 0 0.062049371387241412 -0.28749956346879602 0 0.033821918158706138 -0.27707393290215671 0 0.064064269807315097 -0.28416082313012542 0 0.058270312985904418 -0.30816514798469019 0 0.062049371387241412 -0.28749956346879602 0 0.033821918158706138 -0.27707393290215671 0 0.064064269807315097 -0.28416082313012542 0 0.062049371387241412 -0.28749956346879602 0 0.058270312985904418 -0.30816514798469019 0 0.043330632548044458 -0.29475484461045087 0 0.062049371387241412 -0.28749956346879602 0 0.058270312985904418 -0.30816514798469019 0 0.044648526871603783 -0.31770081170742831 0 0.043330632548044458 -0.29475484461045087 0 0.058270312985904418 -0.30816514798469019 0 0.069858226628725775 -0.26015649827556059 0 0.051624075113339378 -0.26919050519125598 0 0.046498349670861652 -0.24826912251879649 0 0.064064269807315097 -0.28416082313012542 0 0.069858226628725775 -0.26015649827556059 0 0.051624075113339378 -0.26919050519125598 0 0.062049371387241412 -0.28749956346879602 0 0.051624075113339378 -0.26919050519125598 0 0.033821918158706138 -0.27707393290215671 0 0.064064269807315097 -0.28416082313012542 0 0.062049371387241412 -0.28749956346879602 0 0.051624075113339378 -0.26919050519125598 0 0.051624075113339378 -0.26919050519125598 0 0.033821918158706138 -0.27707393290215671 0 0.034240698289148337 -0.25967273023798509 0 0.051624075113339378 -0.26919050519125598 0 0.034240698289148337 -0.25967273023798509 0 0.046498349670861652 -0.24826912251879649 0 0.034240698289148337 -0.25967273023798509 0 0.02296875629887114 -0.2464092256209898 0 0.046498349670861652 -0.24826912251879649 0 0.034240698289148337 -0.25967273023798509 0 0.0055944649301708496 -0.26664830233551728 0 0.02296875629887114 -0.2464092256209898 0 0.0090389661780101715 -0.28630695222689118 0 0.033821918158706138 -0.27707393290215671 0 0.0055944649301708496 -0.26664830233551728 0 0.033821918158706138 -0.27707393290215671 0 0.034240698289148337 -0.25967273023798509 0 0.0055944649301708496 -0.26664830233551728 0 0.033821918158706138 -0.27707393290215671 0 0.0055944649301708496 -0.26664830233551728 0 -0.0020851015340006161 -0.28052611142458661 0 0.0090389661780101715 -0.28630695222689118 0 0.0055944649301708496 -0.26664830233551728 0 0.0055944649301708496 -0.26664830233551728 0 0.0055632338660241776 -0.24332209518663511 0 0.02296875629887114 -0.2464092256209898 0 -0.0080727856436109482 -0.2481099565327444 0 0.0055944649301708496 -0.26664830233551728 0 0.0055632338660241776 -0.24332209518663511 0 0.0055632338660241776 -0.24332209518663511 0 0.0032521440618358652 -0.23009641691855939 0 0.019268989126464159 -0.2308348024940351 0 -0.0084819670471955304 -0.2367225590632196 0 0.0055632338660241776 -0.24332209518663511 0 0.0032521440618358652 -0.23009641691855939 0 -0.0075276580997289226 -0.21896018305478171 0 0.0032521440618358652 -0.23009641691855939 0 0.012041166441398349 -0.21677938876306921 0 0.0032521440618358652 -0.23009641691855939 0 0.019268989126464159 -0.2308348024940351 0 0.012041166441398349 -0.21677938876306921 0 0.019268989126464159 -0.2308348024940351 0 0.028464877365028059 -0.21915571909051779 0 0.012041166441398349 -0.21677938876306921 0 0.019268989126464159 -0.2308348024940351 0 0.028464877365028059 -0.21915571909051779 0 0.041174919052571327 -0.22964645066930789 0 0.0055632338660241776 -0.24332209518663511 0 0.019268989126464159 -0.2308348024940351 0 0.02296875629887114 -0.2464092256209898 0 0.019268989126464159 -0.2308348024940351 0 0.02296875629887114 -0.2464092256209898 0 0.041174919052571327 -0.22964645066930789 0 -0.0075276580997289226 -0.21896018305478171 0 0.003555539334036632 -0.19934620758084881 0 0.012041166441398349 -0.21677938876306921 0 0.003555539334036632 -0.19934620758084881 0 0.012041166441398349 -0.21677938876306921 0 0.02523310686075431 -0.20228300343967229 0 0.028464877365028059 -0.21915571909051779 0 0.012041166441398349 -0.21677938876306921 0 0.02523310686075431 -0.20228300343967229 0 0.02523310686075431 -0.20228300343967229 0 0.033125333554059701 -0.1865598477748947 0 0.018588522793563201 -0.18166153924030251 0 0.003555539334036632 -0.19934620758084881 0 0.02523310686075431 -0.20228300343967229 0 0.018588522793563201 -0.18166153924030251 0 0.048648578511840943 -0.20623258170594561 0 0.049880579816306267 -0.17970719815632741 0 0.033125333554059701 -0.1865598477748947 0 0.02523310686075431 -0.20228300343967229 0 0.048648578511840943 -0.20623258170594561 0 0.033125333554059701 -0.1865598477748947 0 0.028464877365028059 -0.21915571909051779 0 0.02523310686075431 -0.20228300343967229 0 0.048648578511840943 -0.20623258170594561 0 0.028464877365028059 -0.21915571909051779 0 0.048648578511840943 -0.20623258170594561 0 0.041174919052571327 -0.22964645066930789 0 0.048648578511840943 -0.20623258170594561 0 0.059757914812518881 -0.22869522271940709 0 0.066598585428591164 -0.21133354617687591 0 0.048648578511840943 -0.20623258170594561 0 0.067160325985138131 -0.18691533881804831 0 0.049880579816306267 -0.17970719815632741 0 0.048648578511840943 -0.20623258170594561 0 0.066598585428591164 -0.21133354617687591 0 0.067160325985138131 -0.18691533881804831 0 0.069858226628725775 -0.26015649827556059 0 0.046498349670861652 -0.24826912251879649 0 0.059757914812518881 -0.22869522271940709 0 0.02296875629887114 -0.2464092256209898 0 0.046498349670861652 -0.24826912251879649 0 0.041174919052571327 -0.22964645066930789 0 0.048648578511840943 -0.20623258170594561 0 0.041174919052571327 -0.22964645066930789 0 0.059757914812518881 -0.22869522271940709 0 0.046498349670861652 -0.24826912251879649 0 0.041174919052571327 -0.22964645066930789 0 0.059757914812518881 -0.22869522271940709 0 0.069858226628725775 -0.26015649827556059 0 0.059757914812518881 -0.22869522271940709 0 0.080941623453078815 -0.2334444244951252 0 0.069858226628725775 -0.26015649827556059 0 0.096521476943682558 -0.25181800011133371 0 0.080941623453078815 -0.2334444244951252 0 0.096521476943682558 -0.25181800011133371 0 0.080941623453078815 -0.2334444244951252 0 0.102389076685389 -0.22730157072293841 0 0.080941623453078815 -0.2334444244951252 0 0.084774701335263575 -0.20710845477049339 0 0.102389076685389 -0.22730157072293841 0 0.059757914812518881 -0.22869522271940709 0 0.080941623453078815 -0.2334444244951252 0 0.066598585428591164 -0.21133354617687591 0 0.080941623453078815 -0.2334444244951252 0 0.066598585428591164 -0.21133354617687591 0 0.084774701335263575 -0.20710845477049339 0 0.084774701335263575 -0.20710845477049339 0 0.067160325985138131 -0.18691533881804831 0 0.066598585428591164 -0.21133354617687591 0 0.084774701335263575 -0.20710845477049339 0 0.067160325985138131 -0.18691533881804831 0 0.092537347032927528 -0.18889969997864839 0 0.084774701335263575 -0.20710845477049339 0 0.067160325985138131 -0.18691533881804831 0 0.084774701335263575 -0.20710845477049339 0 0.102389076685389 -0.22730157072293841 0 0.084774701335263575 -0.20710845477049339 0 0.10575093398731179 -0.20517541990618701 0 0.102389076685389 -0.22730157072293841 0 0.092537347032927528 -0.18889969997864839 0 0.10575093398731179 -0.20517541990618701 0 0.11404320040195411 -0.17785048998131209 0 0.092537347032927528 -0.18889969997864839 0 0.084774701335263575 -0.20710845477049339 0 0.10575093398731179 -0.20517541990618701 0 0.10575093398731179 -0.20517541990618701 0 0.11404320040195411 -0.17785048998131209 0 0.12592289232087811 -0.19910656028939411 0 0.10575093398731179 -0.20517541990618701 0 0.1284413173888232 -0.22347585252773641 0 0.12592289232087811 -0.19910656028939411 0 0.10575093398731179 -0.20517541990618701 0 0.102389076685389 -0.22730157072293841 0 0.1284413173888232 -0.22347585252773641 0 0.1200034520355143 -0.24749468667538321 0 0.102389076685389 -0.22730157072293841 0 0.1284413173888232 -0.22347585252773641 0 0.1200034520355143 -0.24749468667538321 0 0.102389076685389 -0.22730157072293841 0 0.096521476943682558 -0.25181800011133371 0 0.1200034520355143 -0.24749468667538321 0 0.102389076685389 -0.22730157072293841 0 0.099885875260422058 -0.15149088269105351 0 0.1161887790728692 -0.1476769396888597 0 0.1105045846919957 -0.16013033574144619 0 0.099885875260422058 -0.15149088269105351 0 0.099597293261818404 -0.1347502866929414 0 0.1161887790728692 -0.1476769396888597 0 0.099597293261818404 -0.1347502866929414 0 0.1161887790728692 -0.1476769396888597 0 0.099597293261818404 -0.1347502866929414 0 0.1047785765018954 -0.13712350701568179 0 0.1161887790728692 -0.1476769396888597 0 0.099597293261818404 -0.1347502866929414 0 0.093527805260815264 -0.13002146576964491 0 0.104312872852085 -0.12243825994362539 0 0.099597293261818404 -0.1347502866929414 0 0.093527805260815264 -0.13002146576964491 0 0.099597293261818404 -0.1347502866929414 0 0.093527805260815264 -0.13002146576964491 0 0.092996203934319052 -0.1329056080468716 0 0.099597293261818404 -0.1347502866929414 0 0.1088944047617572 -0.13480079442927331 0 0.104312872852085 -0.12243825994362539 0 0.099597293261818404 -0.1347502866929414 0 0.1047785765018954 -0.13712350701568179 0 0.1088944047617572 -0.13480079442927331 0 0.099597293261818404 -0.1347502866929414 0 0.1088944047617572 -0.13480079442927331 0 0.1047785765018954 -0.13712350701568179 0 0.1088944047617572 -0.13480079442927331 0 0.1088944047617572 -0.13480079442927331 0 0.1161887790728692 -0.1476769396888597 0 0.13638976604354719 -0.13495016646355951 0 0.1088944047617572 -0.13480079442927331 0 0.12800820934211829 -0.12401417466047961 0 0.13638976604354719 -0.13495016646355951 0 0.1047785765018954 -0.13712350701568179 0 0.1088944047617572 -0.13480079442927331 0 0.1161887790728692 -0.1476769396888597 0 0.1088944047617572 -0.13480079442927331 0 0.104312872852085 -0.12243825994362539 0 0.12800820934211829 -0.12401417466047961 0 0.1088944047617572 -0.13480079442927331 0 0.12800820934211829 -0.12401417466047961 0 0.1088944047617572 -0.13480079442927331 0 0.13638976604354719 -0.13495016646355951 0 0.1161887790728692 -0.1476769396888597 0 0.1105045846919957 -0.16013033574144619 0 0.1305387904294309 -0.15561497697083931 0 0.1105045846919957 -0.16013033574144619 0 0.11404320040195411 -0.17785048998131209 0 0.1305387904294309 -0.15561497697083931 0 0.092537347032927528 -0.18889969997864839 0 0.11404320040195411 -0.17785048998131209 0 0.090957573454969964 -0.1674487964172009 0 0.1105045846919957 -0.16013033574144619 0 0.11404320040195411 -0.17785048998131209 0 0.090957573454969964 -0.1674487964172009 0 0.099885875260422058 -0.15149088269105351 0 0.1105045846919957 -0.16013033574144619 0 0.090957573454969964 -0.1674487964172009 0 0.099885875260422058 -0.15149088269105351 0 0.090957573454969964 -0.1674487964172009 0 0.080257725164813276 -0.1505404030764457 0 0.090957573454969964 -0.1674487964172009 0 0.065342325237630991 -0.1650228072456788 0 0.080257725164813276 -0.1505404030764457 0 0.092537347032927528 -0.18889969997864839 0 0.090957573454969964 -0.1674487964172009 0 0.067160325985138131 -0.18691533881804831 0 0.090957573454969964 -0.1674487964172009 0 0.067160325985138131 -0.18691533881804831 0 0.065342325237630991 -0.1650228072456788 0 0.065342325237630991 -0.1650228072456788 0 0.080257725164813276 -0.1505404030764457 0 0.056224073158944461 -0.14994265306170279 0 0.080257725164813276 -0.1505404030764457 0 0.069539210615093855 -0.1345869923500955 0 0.056224073158944461 -0.14994265306170279 0 0.099885875260422058 -0.15149088269105351 0 0.099597293261818404 -0.1347502866929414 0 0.080257725164813276 -0.1505404030764457 0 0.099597293261818404 -0.1347502866929414 0 0.080257725164813276 -0.1505404030764457 0 0.069539210615093855 -0.1345869923500955 0 0.099597293261818404 -0.1347502866929414 0 0.092996203934319052 -0.1329056080468716 0 0.069539210615093855 -0.1345869923500955 0 0.099597293261818404 -0.1347502866929414 0 0.069539210615093855 -0.1345869923500955 0 0.092996203934319052 -0.1329056080468716 0 0.069539210615093855 -0.1345869923500955 0 0.079322302472514483 -0.11895376470488229 0 0.093527805260815264 -0.13002146576964491 0 0.092996203934319052 -0.1329056080468716 0 0.079322302472514483 -0.11895376470488229 0 0.093527805260815264 -0.13002146576964491 0 0.092996203934319052 -0.1329056080468716 0 0.069539210615093855 -0.1345869923500955 0 0.052298963826290519 -0.1211548808236817 0 0.066569319149528045 -0.1206454253796948 0 0.069539210615093855 -0.1345869923500955 0 0.039481127968369292 -0.1344236980072451 0 0.052298963826290519 -0.1211548808236817 0 0.069539210615093855 -0.1345869923500955 0 0.056224073158944461 -0.14994265306170279 0 0.039481127968369292 -0.1344236980072451 0 0.069539210615093855 -0.1345869923500955 0 0.039481127968369292 -0.1344236980072451 0 0.056224073158944461 -0.14994265306170279 0 0.038811693183881758 -0.15444647348478721 0 0.047368807546727579 -0.16279517251764489 0 0.056224073158944461 -0.14994265306170279 0 0.038811693183881758 -0.15444647348478721 0 0.039481127968369292 -0.1344236980072451 0 0.038811693183881758 -0.15444647348478721 0 0.039481127968369292 -0.1344236980072451 0 0.019056913867763529 -0.155566515408149 0 0.034777770017858589 -0.1343981464191871 0 0.039481127968369292 -0.1344236980072451 0 0.022320289212787989 -0.1422177528203018 0 0.034777770017858589 -0.1343981464191871 0 0.039481127968369292 -0.1344236980072451 0 0.034777770017858589 -0.1343981464191871 0 0.029299678594365521 -0.12697140115214181 0 0.037800108132664212 -0.12348471533883321 0 0.034777770017858589 -0.1343981464191871 0 0.039481127968369292 -0.1344236980072451 0 0.037800108132664212 -0.12348471533883321 0 0.039481127968369292 -0.1344236980072451 0 0.052298963826290519 -0.1211548808236817 0 0.039481127968369292 -0.1344236980072451 0 0.052298963826290519 -0.1211548808236817 0 0.037800108132664212 -0.12348471533883321 0 0.067160325985138131 -0.18691533881804831 0 0.065342325237630991 -0.1650228072456788 0 0.049880579816306267 -0.17970719815632741 0 0.065342325237630991 -0.1650228072456788 0 0.049880579816306267 -0.17970719815632741 0 0.047368807546727579 -0.16279517251764489 0 0.065342325237630991 -0.1650228072456788 0 0.056224073158944461 -0.14994265306170279 0 0.047368807546727579 -0.16279517251764489 0 0.049880579816306267 -0.17970719815632741 0 0.047368807546727579 -0.16279517251764489 0 0.031927543377605602 -0.16950432842919569 0 0.038811693183881758 -0.15444647348478721 0 0.047368807546727579 -0.16279517251764489 0 0.031927543377605602 -0.16950432842919569 0 0.049880579816306267 -0.17970719815632741 0 0.031927543377605602 -0.16950432842919569 0 0.033125333554059701 -0.1865598477748947 0 0.031927543377605602 -0.16950432842919569 0 0.033125333554059701 -0.1865598477748947 0 0.018588522793563201 -0.18166153924030251 0 0.031927543377605602 -0.16950432842919569 0 0.018588522793563201 -0.18166153924030251 0 0.019056913867763529 -0.155566515408149 0 0.038811693183881758 -0.15444647348478721 0 0.031927543377605602 -0.16950432842919569 0 0.019056913867763529 -0.155566515408149 0 -0.0013673002328405961 -0.1767093328090546 0 0.018588522793563201 -0.18166153924030251 0 0.019056913867763529 -0.155566515408149 0 -0.0013673002328405961 -0.1767093328090546 0 0.019056913867763529 -0.155566515408149 0 -0.0013673002328405961 -0.1767093328090546 0 0.019056913867763529 -0.155566515408149 0 0.0027310736070901482 -0.15493719994590471 0 -0.0013673002328405961 -0.1767093328090546 0 0.003555539334036632 -0.19934620758084881 0 0.018588522793563201 -0.18166153924030251 0 0.020222670022858619 -0.12863691797839069 0 0.022320289212787989 -0.1422177528203018 0 0.0088678229424013627 -0.13941235935176011 0 0.020222670022858619 -0.12863691797839069 0 0.02665510196196769 -0.1330560545925053 0 0.022320289212787989 -0.1422177528203018 0 0.034777770017858589 -0.1343981464191871 0 0.029299678594365521 -0.12697140115214181 0 0.02665510196196769 -0.1330560545925053 0 0.020222670022858619 -0.12863691797839069 0 0.029299678594365521 -0.12697140115214181 0 0.02665510196196769 -0.1330560545925053 0 0.034777770017858589 -0.1343981464191871 0 0.02665510196196769 -0.1330560545925053 0 0.022320289212787989 -0.1422177528203018 0 0.039481127968369292 -0.1344236980072451 0 0.019056913867763529 -0.155566515408149 0 0.019056913867763529 -0.155566515408149 0 0.022320289212787989 -0.1422177528203018 0 0.0088678229424013627 -0.13941235935176011 0 0.039481127968369292 -0.1344236980072451 0 0.019056913867763529 -0.155566515408149 0 0.022320289212787989 -0.1422177528203018 0 0.019056913867763529 -0.155566515408149 0 0.0027310736070901482 -0.15493719994590471 0 0.0088678229424013627 -0.13941235935176011 0 0.020222670022858619 -0.12863691797839069 0 0.0088678229424013627 -0.13941235935176011 0 0.0015243557028834459 -0.11711868301268021 0 0.020222670022858619 -0.12863691797839069 0 0.0015243557028834459 -0.11711868301268021 0 0.0144479962461943 -0.1082343501681014 0 0.020222670022858619 -0.12863691797839069 0 0.02728947708542654 -0.1146689930447462 0 0.0144479962461943 -0.1082343501681014 0 0.020222670022858619 -0.12863691797839069 0 0.029299678594365521 -0.12697140115214181 0 0.02728947708542654 -0.1146689930447462 0 0.0144479962461943 -0.1082343501681014 0 0.01674231050701382 -0.093658367309864349 0 0.03170108987002046 -0.10050694789866579 0 0.02728947708542654 -0.1146689930447462 0 0.0144479962461943 -0.1082343501681014 0 0.03170108987002046 -0.10050694789866579 0 0.01674231050701382 -0.093658367309864349 0 0.02745527456064175 -0.089089442263575569 0 0.03170108987002046 -0.10050694789866579 0 0.0144479962461943 -0.1082343501681014 0 0.001856719827670471 -0.098182337095309047 0 0.01674231050701382 -0.093658367309864349 0 0.0015243557028834459 -0.11711868301268021 0 0.0144479962461943 -0.1082343501681014 0 0.001856719827670471 -0.098182337095309047 0 0.001856719827670471 -0.098182337095309047 0 0.0065051428120863272 -0.082127796022149757 0 0.01674231050701382 -0.093658367309864349 0 0.0065051428120863272 -0.082127796022149757 0 0.018539693253586439 -0.071597204448153262 0 0.01731060528333208 -0.084118202510935727 0 0.0065051428120863272 -0.082127796022149757 0 0.01674231050701382 -0.093658367309864349 0 0.01731060528333208 -0.084118202510935727 0 0.0065051428120863272 -0.082127796022149757 0 0.018539693253586439 -0.071597204448153262 0 0.00035237720396625368 -0.061086817302918282 0 0.018539693253586439 -0.071597204448153262 0 0.00035237720396625368 -0.061086817302918282 0 0.029337839486141829 -0.062098975348790997 0 0.018539693253586439 -0.071597204448153262 0 0.036998616429076953 -0.080413518666692163 0 0.029337839486141829 -0.062098975348790997 0 0.018539693253586439 -0.071597204448153262 0 0.039278739387756327 -0.087755278287702396 0 0.018539693253586439 -0.071597204448153262 0 0.02745527456064175 -0.089089442263575569 0 0.039278739387756327 -0.087755278287702396 0 0.018539693253586439 -0.071597204448153262 0 0.01731060528333208 -0.084118202510935727 0 0.02745527456064175 -0.089089442263575569 0 0.01674231050701382 -0.093658367309864349 0 0.01731060528333208 -0.084118202510935727 0 0.02745527456064175 -0.089089442263575569 0 0.018539693253586439 -0.071597204448153262 0 0.036998616429076953 -0.080413518666692163 0 0.039278739387756327 -0.087755278287702396 0 0.02745527456064175 -0.089089442263575569 0 0.039278739387756327 -0.087755278287702396 0 0.036114206476440321 -0.094502097047588079 0 0.036998616429076953 -0.080413518666692163 0 0.039278739387756327 -0.087755278287702396 0 0.050747139898636717 -0.081209848062237813 0 0.058323301768317432 -0.063111133394663815 0 0.029337839486141829 -0.062098975348790997 0 0.036998616429076953 -0.080413518666692163 0 0.058323301768317432 -0.063111133394663815 0 0.029337839486141829 -0.062098975348790997 0 0.036998616429076953 -0.080413518666692163 0 0.058323301768317432 -0.063111133394663815 0 0.058323301768317432 -0.063111133394663815 0 0.050747139898636717 -0.081209848062237813 0 0.060228637404373828 -0.081759239016750626 0 0.036998616429076953 -0.080413518666692163 0 0.058323301768317432 -0.063111133394663815 0 0.050747139898636717 -0.081209848062237813 0 0.039278739387756327 -0.087755278287702396 0 0.050747139898636717 -0.081209848062237813 0 0.060818353003097771 -0.090653503469919336 0 0.050747139898636717 -0.081209848062237813 0 0.060228637404373828 -0.081759239016750626 0 0.060818353003097771 -0.090653503469919336 0 0.060017785521926562 -0.10391335212725129 0 0.042153090511964017 -0.099193769589441219 0 0.043653631303676513 -0.1092911725859987 0 0.060017785521926562 -0.10391335212725129 0 0.043653631303676513 -0.1092911725859987 0 0.039278739387756327 -0.087755278287702396 0 0.060818353003097771 -0.090653503469919336 0 0.060017785521926562 -0.10391335212725129 0 0.060017785521926562 -0.10391335212725129 0 0.053375718786791107 -0.1112883554404277 0 0.043653631303676513 -0.1092911725859987 0 0.039278739387756327 -0.087755278287702396 0 0.060017785521926562 -0.10391335212725129 0 0.039278739387756327 -0.087755278287702396 0 0.060017785521926562 -0.10391335212725129 0 0.042153090511964017 -0.099193769589441219 0 0.060017785521926562 -0.10391335212725129 0 0.053375718786791107 -0.1112883554404277 0 0.065116799684213397 -0.10788606364011991 0 0.052298963826290519 -0.1211548808236817 0 0.066569319149528045 -0.1206454253796948 0 0.065116799684213397 -0.10788606364011991 0 0.052298963826290519 -0.1211548808236817 0 0.065116799684213397 -0.10788606364011991 0 0.052298963826290519 -0.1211548808236817 0 0.053375718786791107 -0.1112883554404277 0 0.065116799684213397 -0.10788606364011991 0 0.052298963826290519 -0.1211548808236817 0 0.053375718786791107 -0.1112883554404277 0 0.043653631303676513 -0.1092911725859987 0 0.02728947708542654 -0.1146689930447462 0 0.037800108132664212 -0.12348471533883321 0 0.043653631303676513 -0.1092911725859987 0 0.02728947708542654 -0.1146689930447462 0 0.043653631303676513 -0.1092911725859987 0 0.052298963826290519 -0.1211548808236817 0 0.037800108132664212 -0.12348471533883321 0 0.043653631303676513 -0.1092911725859987 0 0.029299678594365521 -0.12697140115214181 0 0.02728947708542654 -0.1146689930447462 0 0.037800108132664212 -0.12348471533883321 0 0.02728947708542654 -0.1146689930447462 0 0.03170108987002046 -0.10050694789866579 0 0.043653631303676513 -0.1092911725859987 0 0.036114206476440321 -0.094502097047588079 0 0.03170108987002046 -0.10050694789866579 0 0.042153090511964017 -0.099193769589441219 0 0.02745527456064175 -0.089089442263575569 0 0.036114206476440321 -0.094502097047588079 0 0.03170108987002046 -0.10050694789866579 0 0.039278739387756327 -0.087755278287702396 0 0.036114206476440321 -0.094502097047588079 0 0.042153090511964017 -0.099193769589441219 0 0.03170108987002046 -0.10050694789866579 0 0.042153090511964017 -0.099193769589441219 0 0.043653631303676513 -0.1092911725859987 0 0.025695344612614111 0.0095801541182225364 0 0.02812452509478746 -0.0099579005571815878 0 0.006935528729737548 -0.0054826371559186567 0 0.02812452509478746 -0.0099579005571815878 0 0.006935528729737548 -0.0054826371559186567 0 0.01889941714368459 -0.025130787452367569 0 0.006935528729737548 -0.0054826371559186567 0 0.0027408304473846411 -0.028176541972939319 0 0.01889941714368459 -0.025130787452367569 0 0.02812452509478746 -0.0099579005571815878 0 0.01889941714368459 -0.025130787452367569 0 0.035567370731091272 -0.02454493013615917 0 0.01889941714368459 -0.025130787452367569 0 0.02846567832778216 -0.042756626880165419 0 0.035567370731091272 -0.02454493013615917 0 0.01889941714368459 -0.025130787452367569 0 0.02846567832778216 -0.042756626880165419 0 0.0096258971738255473 -0.043108802377643002 0 0.02846567832778216 -0.042756626880165419 0 0.0096258971738255473 -0.043108802377643002 0 0.016945448047928951 -0.052262805477379423 0 0.01889941714368459 -0.025130787452367569 0 0.0096258971738255473 -0.043108802377643002 0 -0.01026660782967455 -0.041229232136501717 0 0.0027408304473846411 -0.028176541972939319 0 0.0096258971738255473 -0.043108802377643002 0 0.0027408304473846411 -0.028176541972939319 0 0.01889941714368459 -0.025130787452367569 0 0.0096258971738255473 -0.043108802377643002 0 0.0096258971738255473 -0.043108802377643002 0 0.00035237720396625368 -0.061086817302918282 0 0.016945448047928951 -0.052262805477379423 0 0.00035237720396625368 -0.061086817302918282 0 0.016945448047928951 -0.052262805477379423 0 0.029337839486141829 -0.062098975348790997 0 0.0096258971738255473 -0.043108802377643002 0 0.00035237720396625368 -0.061086817302918282 0 0.00035237720396625368 -0.061086817302918282 0 0.029337839486141829 -0.062098975348790997 0 0.02846567832778216 -0.042756626880165419 0 0.016945448047928951 -0.052262805477379423 0 0.029337839486141829 -0.062098975348790997 0 0.02846567832778216 -0.042756626880165419 0 0.029337839486141829 -0.062098975348790997 0 0.044041605111135473 -0.049431168693685697 0 0.058323301768317432 -0.063111133394663815 0 0.029337839486141829 -0.062098975348790997 0 0.044041605111135473 -0.049431168693685697 0 0.058323301768317432 -0.063111133394663815 0 0.044041605111135473 -0.049431168693685697 0 0.059903341899081253 -0.040049795258846832 0 0.059903341899081253 -0.040049795258846832 0 0.045154502468205723 -0.035444412579530127 0 0.052999286202529479 -0.022291816621987929 0 0.044041605111135473 -0.049431168693685697 0 0.059903341899081253 -0.040049795258846832 0 0.045154502468205723 -0.035444412579530127 0 0.02846567832778216 -0.042756626880165419 0 0.044041605111135473 -0.049431168693685697 0 0.045154502468205723 -0.035444412579530127 0 0.02846567832778216 -0.042756626880165419 0 0.045154502468205723 -0.035444412579530127 0 0.035567370731091272 -0.02454493013615917 0 0.045154502468205723 -0.035444412579530127 0 0.035567370731091272 -0.02454493013615917 0 0.052999286202529479 -0.022291816621987929 0 0.035567370731091272 -0.02454493013615917 0 0.052999286202529479 -0.022291816621987929 0 0.04138045704507981 -0.013293391242584921 0 0.02812452509478746 -0.0099579005571815878 0 0.035567370731091272 -0.02454493013615917 0 0.04138045704507981 -0.013293391242584921 0 0.059903341899081253 -0.040049795258846832 0 0.052999286202529479 -0.022291816621987929 0 0.073093181043766914 -0.026775388104941698 0 0.052999286202529479 -0.022291816621987929 0 0.049896637954744763 -0.0073960790217490677 0 0.04138045704507981 -0.013293391242584921 0 0.052999286202529479 -0.022291816621987929 0 0.049896637954744763 -0.0073960790217490677 0 0.066530330394949447 -0.012320269852860621 0 0.049896637954744763 -0.0073960790217490677 0 0.040314465242246092 -0.002276229875846851 0 0.04138045704507981 -0.013293391242584921 0 0.025695344612614111 0.0095801541182225364 0 0.02812452509478746 -0.0099579005571815878 0 0.040314465242246092 -0.002276229875846851 0 0.046640351189982193 0.001482106492276504 0 0.049896637954744763 -0.0073960790217490677 0 0.040314465242246092 -0.002276229875846851 0 0.02812452509478746 -0.0099579005571815878 0 0.040314465242246092 -0.002276229875846851 0 0.04138045704507981 -0.013293391242584921 0 0.075461568133428525 0.0044331687040122013 0 0.081703970602104437 -0.011974759962048749 0 0.098011391193308373 -0.0056982583262641584 0 0.075461568133428525 0.0044331687040122013 0 0.049896637954744763 -0.0073960790217490677 0 0.075461568133428525 0.0044331687040122013 0 0.049896637954744763 -0.0073960790217490677 0 0.066530330394949447 -0.012320269852860621 0 0.075461568133428525 0.0044331687040122013 0 0.081703970602104437 -0.011974759962048749 0 0.066530330394949447 -0.012320269852860621 0 0.081703970602104437 -0.011974759962048749 0 0.066530330394949447 -0.012320269852860621 0 0.073093181043766914 -0.026775388104941698 0 0.052999286202529479 -0.022291816621987929 0 0.066530330394949447 -0.012320269852860621 0 0.073093181043766914 -0.026775388104941698 0 0.081703970602104437 -0.011974759962048749 0 0.097837743661838034 -0.031049975793767819 0 0.098011391193308373 -0.0056982583262641584 0 0.081703970602104437 -0.011974759962048749 0 0.073093181043766914 -0.026775388104941698 0 0.097837743661838034 -0.031049975793767819 0 0.078080522715077566 -0.047080554594215653 0 0.097861902682226248 -0.045151270938537998 0 0.097837743661838034 -0.031049975793767819 0 0.073093181043766914 -0.026775388104941698 0 0.078080522715077566 -0.047080554594215653 0 0.097837743661838034 -0.031049975793767819 0 0.078080522715077566 -0.047080554594215653 0 0.097837743661838034 -0.031049975793767819 0 0.059903341899081253 -0.040049795258846832 0 0.073093181043766914 -0.026775388104941698 0 0.078080522715077566 -0.047080554594215653 0 0.058323301768317432 -0.063111133394663815 0 0.078080522715077566 -0.047080554594215653 0 0.058323301768317432 -0.063111133394663815 0 0.059903341899081253 -0.040049795258846832 0 0.078080522715077566 -0.047080554594215653 0 0.058323301768317432 -0.063111133394663815 0 0.078080522715077566 -0.047080554594215653 0 0.081939961595450139 -0.063935815506958552 0 0.078080522715077566 -0.047080554594215653 0 0.094142039140793971 -0.055881476276546937 0 0.081939961595450139 -0.063935815506958552 0 0.078080522715077566 -0.047080554594215653 0 0.094142039140793971 -0.055881476276546937 0 0.097861902682226248 -0.045151270938537998 0 0.094142039140793971 -0.055881476276546937 0 0.081939961595450139 -0.063935815506958552 0 0.1067368008806147 -0.064801708903802782 0 0.094142039140793971 -0.055881476276546937 0 0.1075629424949773 -0.053875431803618333 0 0.097861902682226248 -0.045151270938537998 0 0.094142039140793971 -0.055881476276546937 0 0.1075629424949773 -0.053875431803618333 0 0.1067368008806147 -0.064801708903802782 0 0.1075629424949773 -0.053875431803618333 0 0.1067368008806147 -0.064801708903802782 0 0.1075629424949773 -0.053875431803618333 0 0.1232921759667842 -0.047663851323270827 0 0.1067368008806147 -0.064801708903802782 0 0.1232921759667842 -0.047663851323270827 0 0.1067368008806147 -0.064801708903802782 0 0.1075629424949773 -0.053875431803618333 0 0.1232921759667842 -0.047663851323270827 0 0.1109518143893137 -0.039435966374661548 0 0.1232921759667842 -0.047663851323270827 0 0.1067368008806147 -0.064801708903802782 0 0.13548767730717889 -0.06580567532731052 0 0.1232921759667842 -0.047663851323270827 0 0.1109518143893137 -0.039435966374661548 0 0.124582941869709 -0.030507807285028901 0 0.1109518143893137 -0.039435966374661548 0 0.097861902682226248 -0.045151270938537998 0 0.097837743661838034 -0.031049975793767819 0 0.1075629424949773 -0.053875431803618333 0 0.1109518143893137 -0.039435966374661548 0 0.097861902682226248 -0.045151270938537998 0 0.097837743661838034 -0.031049975793767819 0 0.1175949646085984 -0.015019396993320021 0 0.097837743661838034 -0.031049975793767819 0 0.1175949646085984 -0.015019396993320021 0 0.098011391193308373 -0.0056982583262641584 0 0.1109518143893137 -0.039435966374661548 0 0.097837743661838034 -0.031049975793767819 0 0.1175949646085984 -0.015019396993320021 0 0.1109518143893137 -0.039435966374661548 0 0.124582941869709 -0.030507807285028901 0 0.1175949646085984 -0.015019396993320021 0 0.124582941869709 -0.030507807285028901 0 0.1175949646085984 -0.015019396993320021 0 0.13165260102391191 -0.019660205177744808 0 0.11882011836095251 0.0065886106746579649 0 0.1175949646085984 -0.015019396993320021 0 0.098011391193308373 -0.0056982583262641584 0 0.11882011836095251 0.0065886106746579649 0 0.13735218555535891 0.001011181807127467 0 0.1175949646085984 -0.015019396993320021 0 0.073111172643960082 -0.099610417542301155 0 0.10058413041743761 -0.090581864498492995 0 0.088608598291174498 -0.101420796185217 0 0.073111172643960082 -0.099610417542301155 0 0.10058413041743761 -0.090581864498492995 0 0.083297568291202648 -0.10670285905343881 0 0.088608598291174498 -0.101420796185217 0 0.073111172643960082 -0.099610417542301155 0 0.083297568291202648 -0.10670285905343881 0 0.088608598291174498 -0.101420796185217 0 0.097441521812097198 -0.10878804364663471 0 0.093527805260815264 -0.13002146576964491 0 0.079322302472514483 -0.11895376470488229 0 0.097441521812097198 -0.10878804364663471 0 0.083297568291202648 -0.10670285905343881 0 0.079322302472514483 -0.11895376470488229 0 0.097441521812097198 -0.10878804364663471 0 0.093527805260815264 -0.13002146576964491 0 0.079322302472514483 -0.11895376470488229 0 0.079322302472514483 -0.11895376470488229 0 0.065116799684213397 -0.10788606364011991 0 0.083297568291202648 -0.10670285905343881 0 0.079322302472514483 -0.11895376470488229 0 0.065116799684213397 -0.10788606364011991 0 0.079322302472514483 -0.11895376470488229 0 0.066569319149528045 -0.1206454253796948 0 0.065116799684213397 -0.10788606364011991 0 0.069539210615093855 -0.1345869923500955 0 0.079322302472514483 -0.11895376470488229 0 0.066569319149528045 -0.1206454253796948 0 0.060017785521926562 -0.10391335212725129 0 0.065116799684213397 -0.10788606364011991 0 0.060017785521926562 -0.10391335212725129 0 0.073111172643960082 -0.099610417542301155 0 0.065116799684213397 -0.10788606364011991 0 0.073111172643960082 -0.099610417542301155 0 0.083297568291202648 -0.10670285905343881 0 0.065116799684213397 -0.10788606364011991 0 0.073111172643960082 -0.099610417542301155 0 0.060017785521926562 -0.10391335212725129 0 0.065116799684213397 -0.10788606364011991 0 0.073111172643960082 -0.099610417542301155 0 0.060818353003097771 -0.090653503469919336 0 0.060017785521926562 -0.10391335212725129 0 0.073111172643960082 -0.099610417542301155 0 0.060818353003097771 -0.090653503469919336 0 0.073111172643960082 -0.099610417542301155 0 0.074211161232423301 -0.082716200610011378 0 0.060228637404373828 -0.081759239016750626 0 0.060818353003097771 -0.090653503469919336 0 0.074211161232423301 -0.082716200610011378 0 0.058323301768317432 -0.063111133394663815 0 0.081939961595450139 -0.063935815506958552 0 0.058323301768317432 -0.063111133394663815 0 0.074211161232423301 -0.082716200610011378 0 0.081939961595450139 -0.063935815506958552 0 0.058323301768317432 -0.063111133394663815 0 0.060228637404373828 -0.081759239016750626 0 0.074211161232423301 -0.082716200610011378 0 0.074211161232423301 -0.082716200610011378 0 0.081939961595450139 -0.063935815506958552 0 0.089190063779311518 -0.082965808471458069 0 0.081939961595450139 -0.063935815506958552 0 0.089190063779311518 -0.082965808471458069 0 0.1052689549146623 -0.0663211994006144 0 0.073111172643960082 -0.099610417542301155 0 0.074211161232423301 -0.082716200610011378 0 0.089190063779311518 -0.082965808471458069 0 0.073111172643960082 -0.099610417542301155 0 0.089190063779311518 -0.082965808471458069 0 0.073111172643960082 -0.099610417542301155 0 0.089190063779311518 -0.082965808471458069 0 0.10058413041743761 -0.090581864498492995 0 0.089190063779311518 -0.082965808471458069 0 0.1017080788123951 -0.087804556385465471 0 0.1052689549146623 -0.0663211994006144 0 0.089190063779311518 -0.082965808471458069 0 0.10058413041743761 -0.090581864498492995 0 0.1017080788123951 -0.087804556385465471 0 0.1017080788123951 -0.087804556385465471 0 0.1084674426683357 -0.077888137089068013 0 0.1052689549146623 -0.0663211994006144 0 0.089190063779311518 -0.082965808471458069 0 0.1052689549146623 -0.0663211994006144 0 0.081939961595450139 -0.063935815506958552 0 0.1067368008806147 -0.064801708903802782 0 0.1052689549146623 -0.0663211994006144 0 0.081939961595450139 -0.063935815506958552 0 0.1067368008806147 -0.064801708903802782 0 0.1017080788123951 -0.087804556385465471 0 0.1052689549146623 -0.0663211994006144 0 0.1084674426683357 -0.077888137089068013 0 0.1067368008806147 -0.064801708903802782 0 0.1052689549146623 -0.0663211994006144 0 0.1067368008806147 -0.064801708903802782 0 0.1052689549146623 -0.0663211994006144 0 0.1067368008806147 -0.064801708903802782 0 0.13548767730717889 -0.06580567532731052 0 0.1084674426683357 -0.077888137089068013 0 0.1067368008806147 -0.064801708903802782 0 0.1232061248222129 -0.075206297362028066 0 0.1067368008806147 -0.064801708903802782 0 0.1232061248222129 -0.075206297362028066 0 0.13548767730717889 -0.06580567532731052 0 0.1017080788123951 -0.087804556385465471 0 0.1084674426683357 -0.077888137089068013 0 0.1272797878356694 -0.088593758706814907 0 0.1017080788123951 -0.087804556385465471 0 0.1272797878356694 -0.088593758706814907 0 0.1084674426683357 -0.077888137089068013 0 0.1232061248222129 -0.075206297362028066 0 0.1272797878356694 -0.088593758706814907 0 0.1017080788123951 -0.087804556385465471 0 0.11567178204704499 -0.10568275569041199 0 0.1272797878356694 -0.088593758706814907 0 0.1017080788123951 -0.087804556385465471 0 0.11567178204704499 -0.10568275569041199 0 0.097441521812097198 -0.10878804364663471 0 0.1017080788123951 -0.087804556385465471 0 0.097441521812097198 -0.10878804364663471 0 0.088608598291174498 -0.101420796185217 0 0.10058413041743761 -0.090581864498492995 0 0.097441521812097198 -0.10878804364663471 0 0.10058413041743761 -0.090581864498492995 0 0.1017080788123951 -0.087804556385465471 0 0.097441521812097198 -0.10878804364663471 0 0.093527805260815264 -0.13002146576964491 0 0.097441521812097198 -0.10878804364663471 0 0.104312872852085 -0.12243825994362539 0 0.093527805260815264 -0.13002146576964491 0 0.097441521812097198 -0.10878804364663471 0 0.11567178204704499 -0.10568275569041199 0 0.097441521812097198 -0.10878804364663471 0 0.104312872852085 -0.12243825994362539 0 0.11567178204704499 -0.10568275569041199 0 0.104312872852085 -0.12243825994362539 0 0.12800820934211829 -0.12401417466047961 0 0.12800820934211829 -0.12401417466047961 0 0.14712201392247631 -0.1132275548916801 0 0.13655559816636781 -0.1031347463460832 0 0.12800820934211829 -0.12401417466047961 0 0.14712201392247631 -0.1132275548916801 0 0.11567178204704499 -0.10568275569041199 0 0.12800820934211829 -0.12401417466047961 0 0.13655559816636781 -0.1031347463460832 0 0.12800820934211829 -0.12401417466047961 0 0.14712201392247631 -0.1132275548916801 0 0.1486045981545247 -0.12747252536747111 0 0.14712201392247631 -0.1132275548916801 0 0.16095359288685571 -0.1184472051676727 0 0.1486045981545247 -0.12747252536747111 0 0.15146120268426411 -0.099532086410862586 0 0.13655559816636781 -0.1031347463460832 0 0.1528514968589437 -0.089382961028164357 0 0.14712201392247631 -0.1132275548916801 0 0.15146120268426411 -0.099532086410862586 0 0.16623581850283431 -0.10244093512288061 0 0.14712201392247631 -0.1132275548916801 0 0.15146120268426411 -0.099532086410862586 0 0.13655559816636781 -0.1031347463460832 0 0.11567178204704499 -0.10568275569041199 0 0.13655559816636781 -0.1031347463460832 0 0.1272797878356694 -0.088593758706814907 0 0.1272797878356694 -0.088593758706814907 0 0.13805891541926751 -0.078942206783145619 0 0.1528514968589437 -0.089382961028164357 0 0.1272797878356694 -0.088593758706814907 0 0.1528514968589437 -0.089382961028164357 0 0.13655559816636781 -0.1031347463460832 0 0.1272797878356694 -0.088593758706814907 0 0.1528514968589437 -0.089382961028164357 0 0.1232061248222129 -0.075206297362028066 0 0.1272797878356694 -0.088593758706814907 0 0.13805891541926751 -0.078942206783145619 0 0.1232061248222129 -0.075206297362028066 0 0.13805891541926751 -0.078942206783145619 0 0.13548767730717889 -0.06580567532731052 0 0.13548767730717889 -0.06580567532731052 0 0.16423855373374319 -0.066809641750814969 0 0.13548767730717889 -0.06580567532731052 0 0.1516507619880918 -0.076739651506421189 0 0.16423855373374319 -0.066809641750814969 0 0.13548767730717889 -0.06580567532731052 0 0.16423855373374319 -0.066809641750814969 0 0.16004124225532049 -0.061841453839887157 0 0.13805891541926751 -0.078942206783145619 0 0.13548767730717889 -0.06580567532731052 0 0.1516507619880918 -0.076739651506421189 0 0.13805891541926751 -0.078942206783145619 0 0.1516507619880918 -0.076739651506421189 0 0.1528514968589437 -0.089382961028164357 0 0.15146120268426411 -0.099532086410862586 0 0.1528514968589437 -0.089382961028164357 0 0.15581646250916109 -0.090151240212135456 0 0.1528514968589437 -0.089382961028164357 0 0.15581646250916109 -0.090151240212135456 0 0.17842320588221819 -0.090172163349513806 0 0.1528514968589437 -0.089382961028164357 0 0.17842320588221819 -0.090172163349513806 0 0.15581646250916109 -0.090151240212135456 0 0.16859491992305889 -0.093070393687126218 0 0.17842320588221819 -0.090172163349513806 0 0.1528514968589437 -0.089382961028164357 0 0.1653897445003264 -0.079862578323319361 0 0.17842320588221819 -0.090172163349513806 0 0.1516507619880918 -0.076739651506421189 0 0.1528514968589437 -0.089382961028164357 0 0.1653897445003264 -0.079862578323319361 0 0.1516507619880918 -0.076739651506421189 0 0.1653897445003264 -0.079862578323319361 0 0.16423855373374319 -0.066809641750814969 0 0.1653897445003264 -0.079862578323319361 0 0.16423855373374319 -0.066809641750814969 0 0.17833356117891219 -0.077628002067558224 0 0.16423855373374319 -0.066809641750814969 0 0.1727598808088672 -0.056322389892066158 0 0.1929894301603077 -0.067813608174319001 0 0.16423855373374319 -0.066809641750814969 0 0.1929894301603077 -0.067813608174319001 0 0.16423855373374319 -0.066809641750814969 0 0.17833356117891219 -0.077628002067558224 0 0.1929894301603077 -0.067813608174319001 0 0.17833356117891219 -0.077628002067558224 0 0.19040307974074269 -0.080139672987034255 0 0.1929894301603077 -0.067813608174319001 0 0.16859491992305889 -0.093070393687126218 0 0.17842320588221819 -0.090172163349513806 0 0.17335524666804841 -0.094081054567607611 0 0.17842320588221819 -0.090172163349513806 0 0.17824607109877541 -0.095663109832525739 0 0.17335524666804841 -0.094081054567607611 0 0.1653897445003264 -0.079862578323319361 0 0.17833356117891219 -0.077628002067558224 0 0.17842320588221819 -0.090172163349513806 0 0.17833356117891219 -0.077628002067558224 0 0.1854866420256687 -0.084161575248007242 0 0.19040307974074269 -0.080139672987034255 0 0.17833356117891219 -0.077628002067558224 0 0.17842320588221819 -0.090172163349513806 0 0.1854866420256687 -0.084161575248007242 0 0.18404025852736719 -0.096743595743047278 0 0.18504385230606449 -0.10434071571553651 0 0.19243594079672521 -0.096163448387799222 0 0.17824607109877541 -0.095663109832525739 0 0.18504385230606449 -0.10434071571553651 0 0.16623581850283431 -0.10244093512288061 0 0.18504385230606449 -0.10434071571553651 0 0.18014950107347269 -0.1188522098678762 0 0.16623581850283431 -0.10244093512288061 0 0.18404025852736719 -0.096743595743047278 0 0.17824607109877541 -0.095663109832525739 0 0.18504385230606449 -0.10434071571553651 0 0.17842320588221819 -0.090172163349513806 0 0.18404025852736719 -0.096743595743047278 0 0.19243594079672521 -0.096163448387799222 0 0.17842320588221819 -0.090172163349513806 0 0.18404025852736719 -0.096743595743047278 0 0.17824607109877541 -0.095663109832525739 0 0.17824607109877541 -0.095663109832525739 0 0.17335524666804841 -0.094081054567607611 0 0.16623581850283431 -0.10244093512288061 0 0.17824607109877541 -0.095663109832525739 0 0.16623581850283431 -0.10244093512288061 0 0.18504385230606449 -0.10434071571553651 0 0.18014950107347269 -0.1188522098678762 0 0.1922879604253335 -0.1099500278873989 0 0.18014950107347269 -0.1188522098678762 0 0.16623581850283431 -0.10244093512288061 0 0.18014950107347269 -0.1188522098678762 0 0.16095359288685571 -0.1184472051676727 0 0.16623581850283431 -0.10244093512288061 0 0.14712201392247631 -0.1132275548916801 0 0.16095359288685571 -0.1184472051676727 0 0.16623581850283431 -0.10244093512288061 0 0.18014950107347269 -0.1188522098678762 0 0.16095359288685571 -0.1184472051676727 0 0.16265603278097029 -0.1302428005884553 0 0.14712201392247631 -0.1132275548916801 0 0.16623581850283431 -0.10244093512288061 0 0.15581646250916109 -0.090151240212135456 0 0.16859491992305889 -0.093070393687126218 0 0.16623581850283431 -0.10244093512288061 0 0.15146120268426411 -0.099532086410862586 0 0.15581646250916109 -0.090151240212135456 0 0.16623581850283431 -0.10244093512288061 0 0.15581646250916109 -0.090151240212135456 0 0.16623581850283431 -0.10244093512288061 0 0.16859491992305889 -0.093070393687126218 0 0.17335524666804841 -0.094081054567607611 0 0.16623581850283431 -0.10244093512288061 0 0.13735218555535891 0.001011181807127467 0 0.1449152044553462 -0.019939696741877431 0 0.14216046477152491 0.0049125148476896544 0 0.15727218843160701 -0.01758578836774349 0 0.15849764294065671 -0.0060544572746906826 0 0.14216046477152491 0.0049125148476896544 0 0.15727218843160701 -0.01758578836774349 0 0.14216046477152491 0.0049125148476896544 0 0.1449152044553462 -0.019939696741877431 0 0.15727218843160701 -0.01758578836774349 0 0.14216046477152491 0.0049125148476896544 0 0.13735218555535891 0.001011181807127467 0 0.1449152044553462 -0.019939696741877431 0 0.13735218555535891 0.001011181807127467 0 0.1175949646085984 -0.015019396993320021 0 0.13735218555535891 0.001011181807127467 0 0.1175949646085984 -0.015019396993320021 0 0.13165260102391191 -0.019660205177744808 0 0.13735218555535891 0.001011181807127467 0 0.13165260102391191 -0.019660205177744808 0 0.1449152044553462 -0.019939696741877431 0 0.13165260102391191 -0.019660205177744808 0 0.13984755105295521 -0.030525993742740402 0 0.1449152044553462 -0.019939696741877431 0 0.124582941869709 -0.030507807285028901 0 0.13165260102391191 -0.019660205177744808 0 0.13984755105295521 -0.030525993742740402 0 0.1449152044553462 -0.019939696741877431 0 0.15247822335533329 -0.040890575290882317 0 0.15727218843160701 -0.01758578836774349 0 0.13984755105295521 -0.030525993742740402 0 0.1449152044553462 -0.019939696741877431 0 0.15247822335533329 -0.040890575290882317 0 0.1449152044553462 -0.019939696741877431 0 0.15247822335533329 -0.040890575290882317 0 0.15247822335533329 -0.040890575290882317 0 0.1379109625223634 -0.045605004272587249 0 0.14629243763992239 -0.054068479542427092 0 0.13984755105295521 -0.030525993742740402 0 0.15247822335533329 -0.040890575290882317 0 0.1379109625223634 -0.045605004272587249 0 0.1232921759667842 -0.047663851323270827 0 0.13984755105295521 -0.030525993742740402 0 0.1379109625223634 -0.045605004272587249 0 0.1232921759667842 -0.047663851323270827 0 0.124582941869709 -0.030507807285028901 0 0.13984755105295521 -0.030525993742740402 0 0.1232921759667842 -0.047663851323270827 0 0.13984755105295521 -0.030525993742740402 0 0.1232921759667842 -0.047663851323270827 0 0.13548767730717889 -0.06580567532731052 0 0.1379109625223634 -0.045605004272587249 0 0.13548767730717889 -0.06580567532731052 0 0.1379109625223634 -0.045605004272587249 0 0.14629243763992239 -0.054068479542427092 0 0.13548767730717889 -0.06580567532731052 0 0.14629243763992239 -0.054068479542427092 0 0.16004124225532049 -0.061841453839887157 0 0.15247822335533329 -0.040890575290882317 0 0.14629243763992239 -0.054068479542427092 0 0.16004124225532049 -0.061841453839887157 0 0.15247822335533329 -0.040890575290882317 0 0.16004124225532049 -0.061841453839887157 0 0.1644158146278025 -0.049784627651503079 0 0.1644158146278025 -0.049784627651503079 0 0.1727598808088672 -0.056322389892066158 0 0.1723839120916891 -0.040084091583176683 0 0.15247822335533329 -0.040890575290882317 0 0.16004124225532049 -0.061841453839887157 0 0.16423855373374319 -0.066809641750814969 0 0.16004124225532049 -0.061841453839887157 0 0.1727598808088672 -0.056322389892066158 0 0.16004124225532049 -0.061841453839887157 0 0.1644158146278025 -0.049784627651503079 0 0.1727598808088672 -0.056322389892066158 0 0.1727598808088672 -0.056322389892066158 0 0.18434240851125541 -0.050289724698312777 0 0.1723839120916891 -0.040084091583176683 0 0.1727598808088672 -0.056322389892066158 0 0.18434240851125541 -0.050289724698312777 0 0.1929894301603077 -0.067813608174319001 0 0.1723839120916891 -0.040084091583176683 0 0.18077822909658589 -0.032018797610549231 0 0.17598651952492231 -0.0227560541305885 0 0.18434240851125541 -0.050289724698312777 0 0.1723839120916891 -0.040084091583176683 0 0.18674227588606429 -0.037749552466939278 0 0.1723839120916891 -0.040084091583176683 0 0.18674227588606429 -0.037749552466939278 0 0.18077822909658589 -0.032018797610549231 0 0.18674227588606429 -0.037749552466939278 0 0.18077822909658589 -0.032018797610549231 0 0.18610830639217099 -0.030062433202775862 0 0.15247822335533329 -0.040890575290882317 0 0.1723839120916891 -0.040084091583176683 0 0.15727218843160701 -0.01758578836774349 0 0.15247822335533329 -0.040890575290882317 0 0.1644158146278025 -0.049784627651503079 0 0.1723839120916891 -0.040084091583176683 0 0.1723839120916891 -0.040084091583176683 0 0.15727218843160701 -0.01758578836774349 0 0.1723839120916891 -0.040084091583176683 0 0.1668946229318731 -0.019675061199070819 0 0.17598651952492231 -0.0227560541305885 0 0.1723839120916891 -0.040084091583176683 0 0.15727218843160701 -0.01758578836774349 0 0.1668946229318731 -0.019675061199070819 0 0.1668946229318731 -0.019675061199070819 0 0.17598651952492231 -0.0227560541305885 0 0.16985348277487761 -0.0099868764823510571 0 0.18077822909658589 -0.032018797610549231 0 0.18438258456793261 -0.021379302004443181 0 0.17598651952492231 -0.0227560541305885 0 0.18077822909658589 -0.032018797610549231 0 0.18610830639217099 -0.030062433202775862 0 0.18438258456793261 -0.021379302004443181 0 0.18438258456793261 -0.021379302004443181 0 0.17598651952492231 -0.0227560541305885 0 0.17878486519392331 -0.011645355321630489 0 0.17598651952492231 -0.0227560541305885 0 0.17878486519392331 -0.011645355321630489 0 0.16985348277487761 -0.0099868764823510571 0 0.17878486519392331 -0.011645355321630489 0 0.17506184651935949 -0.0021247232161890161 0 0.16985348277487761 -0.0099868764823510571 0 0.18438258456793261 -0.021379302004443181 0 0.17878486519392331 -0.011645355321630489 0 0.18863989258252481 -0.001979820774580698 0 0.17878486519392331 -0.011645355321630489 0 0.17506184651935949 -0.0021247232161890161 0 0.18863989258252481 -0.001979820774580698 0 0.1628037813635097 0.0015330777282007481 0 0.17506184651935949 -0.0021247232161890161 0 0.16985348277487761 -0.0099868764823510571 0 0.1668946229318731 -0.019675061199070819 0 0.16985348277487761 -0.0099868764823510571 0 0.15849764294065671 -0.0060544572746906826 0 0.15727218843160701 -0.01758578836774349 0 0.1668946229318731 -0.019675061199070819 0 0.15849764294065671 -0.0060544572746906826 0 0.1628037813635097 0.0015330777282007481 0 0.16985348277487761 -0.0099868764823510571 0 0.15849764294065671 -0.0060544572746906826 0 0.1628037813635097 0.0015330777282007481 0 0.15453230216132671 0.0032055715019124438 0 0.15849764294065671 -0.0060544572746906826 0 0.21174544862736719 0.0096628206364345465 0 0.20589386385567829 -0.0063134785331596111 0 0.2185782736923042 -0.0038367730406402641 0 0.20589386385567829 -0.0063134785331596111 0 0.2185782736923042 -0.0038367730406402641 0 0.2199828155312514 -0.0225516893132638 0 0.20589386385567829 -0.0063134785331596111 0 0.18863989258252481 -0.001979820774580698 0 0.1936475112771239 -0.030998707124919651 0 0.20589386385567829 -0.0063134785331596111 0 0.1936475112771239 -0.030998707124919651 0 0.20001428446098229 -0.034334459813343092 0 0.18863989258252481 -0.001979820774580698 0 0.1936475112771239 -0.030998707124919651 0 0.20589386385567829 -0.0063134785331596111 0 0.20001428446098229 -0.034334459813343092 0 0.18438258456793261 -0.021379302004443181 0 0.18863989258252481 -0.001979820774580698 0 0.1936475112771239 -0.030998707124919651 0 0.18610830639217099 -0.030062433202775862 0 0.18438258456793261 -0.021379302004443181 0 0.1936475112771239 -0.030998707124919651 0 0.20589386385567829 -0.0063134785331596111 0 0.20001428446098229 -0.034334459813343092 0 0.2199828155312514 -0.0225516893132638 0 0.20001428446098229 -0.034334459813343092 0 0.22061008072662569 -0.045125245157715169 0 0.20001428446098229 -0.034334459813343092 0 0.22061008072662569 -0.045125245157715169 0 0.2199828155312514 -0.0225516893132638 0 0.20001428446098229 -0.034334459813343092 0 0.19683654360934791 -0.049478981375062181 0 0.22061008072662569 -0.045125245157715169 0 0.1936475112771239 -0.030998707124919651 0 0.19683654360934791 -0.049478981375062181 0 0.18674227588606429 -0.037749552466939278 0 0.1936475112771239 -0.030998707124919651 0 0.19683654360934791 -0.049478981375062181 0 0.1936475112771239 -0.030998707124919651 0 0.20001428446098229 -0.034334459813343092 0 0.19683654360934791 -0.049478981375062181 0 0.1936475112771239 -0.030998707124919651 0 0.20001428446098229 -0.034334459813343092 0 0.18674227588606429 -0.037749552466939278 0 0.18610830639217099 -0.030062433202775862 0 0.1936475112771239 -0.030998707124919651 0 0.18434240851125541 -0.050289724698312777 0 0.18674227588606429 -0.037749552466939278 0 0.19683654360934791 -0.049478981375062181 0 0.20001428446098229 -0.034334459813343092 0 0.19683654360934791 -0.049478981375062181 0 0.19683654360934791 -0.049478981375062181 0 0.1929894301603077 -0.067813608174319001 0 0.2000429458732931 -0.068059913463883598 0 0.19683654360934791 -0.049478981375062181 0 0.21158346953455981 -0.057932445704329483 0 0.2000429458732931 -0.068059913463883598 0 0.19683654360934791 -0.049478981375062181 0 0.2000429458732931 -0.068059913463883598 0 0.19683654360934791 -0.049478981375062181 0 0.1929894301603077 -0.067813608174319001 0 0.18434240851125541 -0.050289724698312777 0 0.19683654360934791 -0.049478981375062181 0 0.1929894301603077 -0.067813608174319001 0 0.19683654360934791 -0.049478981375062181 0 0.21158346953455981 -0.057932445704329483 0 0.22061008072662569 -0.045125245157715169 0 0.24120587699226881 -0.055916030502087773 0 0.22061008072662569 -0.045125245157715169 0 0.2288443079289719 -0.069065642820655804 0 0.21158346953455981 -0.057932445704329483 0 0.22061008072662569 -0.045125245157715169 0 0.2288443079289719 -0.069065642820655804 0 0.24120587699226881 -0.055916030502087773 0 0.22061008072662569 -0.045125245157715169 0 0.25030159180115191 -0.034143426788088307 0 0.24120587699226881 -0.055916030502087773 0 0.23430517811137791 -0.037629801295311363 0 0.25030159180115191 -0.034143426788088307 0 0.23430517811137791 -0.037629801295311363 0 0.23651070060392609 -0.023431292744830981 0 0.22061008072662569 -0.045125245157715169 0 0.23430517811137791 -0.037629801295311363 0 0.2199828155312514 -0.0225516893132638 0 0.24120587699226881 -0.055916030502087773 0 0.22061008072662569 -0.045125245157715169 0 0.23430517811137791 -0.037629801295311363 0 0.2199828155312514 -0.0225516893132638 0 0.23651070060392609 -0.023431292744830981 0 0.2300866381754704 -0.0072438550720441714 0 0.23430517811137791 -0.037629801295311363 0 0.2199828155312514 -0.0225516893132638 0 0.23651070060392609 -0.023431292744830981 0 0.25030159180115191 -0.034143426788088307 0 0.23651070060392609 -0.023431292744830981 0 0.2464198669495459 -0.012097030270161889 0 0.23790413247208811 0.0091049515404343275 0 0.2464198669495459 -0.012097030270161889 0 0.2300866381754704 -0.0072438550720441714 0 0.23651070060392609 -0.023431292744830981 0 0.2464198669495459 -0.012097030270161889 0 0.2300866381754704 -0.0072438550720441714 0 0.2185782736923042 -0.0038367730406402641 0 0.2199828155312514 -0.0225516893132638 0 0.2300866381754704 -0.0072438550720441714 0 0.22518260227175371 0.0072623370788317187 0 0.2185782736923042 -0.0038367730406402641 0 0.2300866381754704 -0.0072438550720441714 0 0.20666963866093291 -0.1113398018781358 0 0.20399491490549271 -0.090961365670864353 0 0.20666963866093291 -0.1113398018781358 0 0.23081911420975029 -0.091789222750733895 0 0.20666963866093291 -0.1113398018781358 0 0.20399491490549271 -0.090961365670864353 0 0.23081911420975029 -0.091789222750733895 0 0.2184940671700534 -0.12394732724419751 0 0.20666963866093291 -0.1113398018781358 0 0.22056261316880149 -0.1108234873110058 0 0.2184940671700534 -0.12394732724419751 0 0.20975191972323501 -0.12432290509972491 0 0.20666963866093291 -0.1113398018781358 0 0.2184940671700534 -0.12394732724419751 0 0.20666963866093291 -0.1113398018781358 0 0.20975191972323501 -0.12432290509972491 0 0.20666963866093291 -0.1113398018781358 0 0.1971408692894723 -0.1190539635876471 0 0.20975191972323501 -0.12432290509972491 0 0.20666963866093291 -0.1113398018781358 0 0.18014950107347269 -0.1188522098678762 0 0.1971408692894723 -0.1190539635876471 0 0.19406318364410949 -0.13526348461287321 0 0.20666963866093291 -0.1113398018781358 0 0.1971408692894723 -0.1190539635876471 0 0.18014950107347269 -0.1188522098678762 0 0.1971408692894723 -0.1190539635876471 0 0.1922879604253335 -0.1099500278873989 0 0.20666963866093291 -0.1113398018781358 0 0.1971408692894723 -0.1190539635876471 0 0.1922879604253335 -0.1099500278873989 0 0.20666963866093291 -0.1113398018781358 0 0.19243594079672521 -0.096163448387799222 0 0.20399491490549271 -0.090961365670864353 0 0.18504385230606449 -0.10434071571553651 0 0.1922879604253335 -0.1099500278873989 0 0.19243594079672521 -0.096163448387799222 0 0.20666963866093291 -0.1113398018781358 0 0.1922879604253335 -0.1099500278873989 0 0.19243594079672521 -0.096163448387799222 0 0.20666963866093291 -0.1113398018781358 0 0.19243594079672521 -0.096163448387799222 0 0.1854866420256687 -0.084161575248007242 0 0.19040307974074269 -0.080139672987034255 0 0.20399491490549271 -0.090961365670864353 0 0.17842320588221819 -0.090172163349513806 0 0.19243594079672521 -0.096163448387799222 0 0.20399491490549271 -0.090961365670864353 0 0.17842320588221819 -0.090172163349513806 0 0.20399491490549271 -0.090961365670864353 0 0.17842320588221819 -0.090172163349513806 0 0.1854866420256687 -0.084161575248007242 0 0.20399491490549271 -0.090961365670864353 0 0.2000429458732931 -0.068059913463883598 0 0.20399491490549271 -0.090961365670864353 0 0.19040307974074269 -0.080139672987034255 0 0.2000429458732931 -0.068059913463883598 0 0.20399491490549271 -0.090961365670864353 0 0.19040307974074269 -0.080139672987034255 0 0.1929894301603077 -0.067813608174319001 0 0.2000429458732931 -0.068059913463883598 0 0.19040307974074269 -0.080139672987034255 0 0.1929894301603077 -0.067813608174319001 0 0.1929894301603077 -0.067813608174319001 0 0.2000429458732931 -0.068059913463883598 0 0.2000429458732931 -0.068059913463883598 0 0.2288443079289719 -0.069065642820655804 0 0.2000429458732931 -0.068059913463883598 0 0.21771238563745279 -0.081480669998114597 0 0.2288443079289719 -0.069065642820655804 0 0.21158346953455981 -0.057932445704329483 0 0.2000429458732931 -0.068059913463883598 0 0.2288443079289719 -0.069065642820655804 0 0.2000429458732931 -0.068059913463883598 0 0.20399491490549271 -0.090961365670864353 0 0.21771238563745279 -0.081480669998114597 0 0.20399491490549271 -0.090961365670864353 0 0.21771238563745279 -0.081480669998114597 0 0.23081911420975029 -0.091789222750733895 0 0.20399491490549271 -0.090961365670864353 0 0.23081911420975029 -0.091789222750733895 0 0.21771238563745279 -0.081480669998114597 0 0.23081911420975029 -0.091789222750733895 0 0.2288443079289719 -0.069065642820655804 0 0.25764566998465072 -0.070071372177431313 0 0.24120587699226881 -0.055916030502087773 0 0.2288443079289719 -0.069065642820655804 0 0.25764566998465072 -0.070071372177431313 0 0.2288443079289719 -0.069065642820655804 0 0.25764566998465072 -0.070071372177431313 0 0.2288443079289719 -0.069065642820655804 0 0.24423239209720191 -0.080930297464084477 0 0.25666672159796139 -0.092586939936295867 0 0.23081911420975029 -0.091789222750733895 0 0.23081911420975029 -0.091789222750733895 0 0.2288443079289719 -0.069065642820655804 0 0.24423239209720191 -0.080930297464084477 0 0.25666672159796139 -0.092586939936295867 0 0.23081911420975029 -0.091789222750733895 0 0.24423239209720191 -0.080930297464084477 0 0.23081911420975029 -0.091789222750733895 0 0.24423239209720191 -0.080930297464084477 0 0.25666672159796139 -0.092586939936295867 0 0.23081911420975029 -0.091789222750733895 0 0.23839025179526999 -0.1151992729885977 0 0.20666963866093291 -0.1113398018781358 0 0.23081911420975029 -0.091789222750733895 0 0.22056261316880149 -0.1108234873110058 0 0.23081911420975029 -0.091789222750733895 0 0.22056261316880149 -0.1108234873110058 0 0.23839025179526999 -0.1151992729885977 0 0.2184940671700534 -0.12394732724419751 0 0.22056261316880149 -0.1108234873110058 0 0.23839025179526999 -0.1151992729885977 0 0.2184940671700534 -0.12394732724419751 0 0.23839025179526999 -0.1151992729885977 0 0.22928680998153819 -0.13545484142638689 0 0.25915390151091949 -0.11811210275817149 0 0.25133622254172122 -0.13557462765415079 0 0.23839025179526999 -0.1151992729885977 0 0.25133622254172122 -0.13557462765415079 0 0.25208407187516418 -0.1419613505697605 0 0.23274332603383319 -0.13914027229300069 0 0.25133622254172122 -0.13557462765415079 0 0.23839025179526999 -0.1151992729885977 0 0.22928680998153819 -0.13545484142638689 0 0.25133622254172122 -0.13557462765415079 0 0.22928680998153819 -0.13545484142638689 0 0.25133622254172122 -0.13557462765415079 0 0.23274332603383319 -0.13914027229300069 0 0.22928680998153819 -0.13545484142638689 0 0.25208407187516418 -0.1419613505697605 0 0.23274332603383319 -0.13914027229300069 0 0.2530488896403309 -0.16079061319898569 0 0.23274332603383319 -0.13914027229300069 0 0.2530488896403309 -0.16079061319898569 0 0.23274332603383319 -0.13914027229300069 0 0.2334622085995452 -0.15779257262933219 0 0.2530488896403309 -0.16079061319898569 0 0.25208407187516418 -0.1419613505697605 0 0.23274332603383319 -0.13914027229300069 0 0.22694604844669111 -0.15137512496012309 0 0.2202725953444182 -0.1456731206256075 0 0.22100128495381829 -0.16152072110389429 0 0.22694604844669111 -0.15137512496012309 0 0.23274332603383319 -0.13914027229300069 0 0.2334622085995452 -0.15779257262933219 0 0.22694604844669111 -0.15137512496012309 0 0.2202725953444182 -0.1456731206256075 0 0.23274332603383319 -0.13914027229300069 0 0.23274332603383319 -0.13914027229300069 0 0.20959101376118139 -0.13576323162740581 0 0.22928680998153819 -0.13545484142638689 0 0.2116749968128239 -0.1353591630196288 0 0.23274332603383319 -0.13914027229300069 0 0.22928680998153819 -0.13545484142638689 0 0.2116749968128239 -0.1353591630196288 0 0.2184940671700534 -0.12394732724419751 0 0.22928680998153819 -0.13545484142638689 0 0.2116749968128239 -0.1353591630196288 0 0.2202725953444182 -0.1456731206256075 0 0.23274332603383319 -0.13914027229300069 0 0.20959101376118139 -0.13576323162740581 0 0.23274332603383319 -0.13914027229300069 0 0.22928680998153819 -0.13545484142638689 0 0.2184940671700534 -0.12394732724419751 0 0.22928680998153819 -0.13545484142638689 0 0.23274332603383319 -0.13914027229300069 0 0.20959101376118139 -0.13576323162740581 0 0.2116749968128239 -0.1353591630196288 0 0.20975191972323501 -0.12432290509972491 0 0.2116749968128239 -0.1353591630196288 0 0.19406318364410949 -0.13526348461287321 0 0.2184940671700534 -0.12394732724419751 0 0.20975191972323501 -0.12432290509972491 0 0.2116749968128239 -0.1353591630196288 0 0.20959101376118139 -0.13576323162740581 0 0.2116749968128239 -0.1353591630196288 0 0.19406318364410949 -0.13526348461287321 0 0.2202725953444182 -0.1456731206256075 0 0.21077041390333781 -0.15496976615408631 0 0.22100128495381829 -0.16152072110389429 0 0.2202725953444182 -0.1456731206256075 0 0.20959101376118139 -0.13576323162740581 0 0.21077041390333781 -0.15496976615408631 0 0.20959101376118139 -0.13576323162740581 0 0.21077041390333781 -0.15496976615408631 0 0.19406318364410949 -0.13526348461287321 0 0.21077041390333781 -0.15496976615408631 0 0.19019323353294471 -0.15547991582157239 0 0.19406318364410949 -0.13526348461287321 0 0.21077041390333781 -0.15496976615408631 0 0.19406318364410949 -0.13526348461287321 0 0.20975191972323501 -0.12432290509972491 0 0.1971408692894723 -0.1190539635876471 0 0.19406318364410949 -0.13526348461287321 0 0.2116749968128239 -0.1353591630196288 0 0.19406318364410949 -0.13526348461287321 0 0.2064216300685435 -0.1763378775815001 0 0.19333004299069351 -0.19482382871724169 0 0.185888281266576 -0.1738959907954824 0 0.21077041390333781 -0.15496976615408631 0 0.19019323353294471 -0.15547991582157239 0 0.2064216300685435 -0.1763378775815001 0 0.19019323353294471 -0.15547991582157239 0 0.2064216300685435 -0.1763378775815001 0 0.185888281266576 -0.1738959907954824 0 0.21077041390333781 -0.15496976615408631 0 0.2064216300685435 -0.1763378775815001 0 0.22100128495381829 -0.16152072110389429 0 0.2064216300685435 -0.1763378775815001 0 0.22637928715471201 -0.1750627007060517 0 0.22100128495381829 -0.16152072110389429 0 0.2064216300685435 -0.1763378775815001 0 0.22637928715471201 -0.1750627007060517 0 0.2213864998634191 -0.19074186604973761 0 0.22637928715471201 -0.1750627007060517 0 0.2363010186387848 -0.18586727398715949 0 0.2213864998634191 -0.19074186604973761 0 0.22637928715471201 -0.1750627007060517 0 0.22100128495381829 -0.16152072110389429 0 0.2334622085995452 -0.15779257262933219 0 0.22637928715471201 -0.1750627007060517 0 0.2334622085995452 -0.15779257262933219 0 0.24133419147104179 -0.17110858194103351 0 0.22694604844669111 -0.15137512496012309 0 0.22100128495381829 -0.16152072110389429 0 0.2334622085995452 -0.15779257262933219 0 0.2530488896403309 -0.16079061319898569 0 0.2334622085995452 -0.15779257262933219 0 0.24133419147104179 -0.17110858194103351 0 0.2550208565069661 -0.17514012483034949 0 0.2530488896403309 -0.16079061319898569 0 0.24133419147104179 -0.17110858194103351 0 0.22637928715471201 -0.1750627007060517 0 0.24133419147104179 -0.17110858194103351 0 0.2363010186387848 -0.18586727398715949 0 0.25030889548151403 -0.1837077448593728 0 0.2550208565069661 -0.17514012483034949 0 0.24133419147104179 -0.17110858194103351 0 0.25030889548151403 -0.1837077448593728 0 0.24133419147104179 -0.17110858194103351 0 0.2363010186387848 -0.18586727398715949 0 0.25030889548151403 -0.1837077448593728 0 0.2363010186387848 -0.18586727398715949 0 0.24624710011957149 -0.19756578472926509 0 0.2363010186387848 -0.18586727398715949 0 0.24624710011957149 -0.19756578472926509 0 0.23232272155890341 -0.19906227567560569 0 0.24624710011957149 -0.19756578472926509 0 0.2390873575194972 -0.2119906927462733 0 0.23232272155890341 -0.19906227567560569 0 0.25806059678156651 -0.21160485628964759 0 0.24624710011957149 -0.19756578472926509 0 0.2390873575194972 -0.2119906927462733 0 0.25806059678156651 -0.21160485628964759 0 0.2390873575194972 -0.2119906927462733 0 0.2485278721491469 -0.22983386195931649 0 0.22156570902884701 -0.2081716276760221 0 0.2275965143199381 -0.22680811778712909 0 0.21130945108473639 -0.22000441216527869 0 0.2390873575194972 -0.2119906927462733 0 0.22156570902884701 -0.2081716276760221 0 0.23232272155890341 -0.19906227567560569 0 0.2390873575194972 -0.2119906927462733 0 0.22156570902884701 -0.2081716276760221 0 0.2275965143199381 -0.22680811778712909 0 0.22156570902884701 -0.2081716276760221 0 0.2213864998634191 -0.19074186604973761 0 0.23232272155890341 -0.19906227567560569 0 0.2363010186387848 -0.18586727398715949 0 0.2213864998634191 -0.19074186604973761 0 0.23232272155890341 -0.19906227567560569 0 0.2410490216361528 -0.25300372010805161 0 0.2485278721491469 -0.22983386195931649 0 0.2275965143199381 -0.22680811778712909 0 0.25787859859726192 -0.24372773219337371 0 0.2410490216361528 -0.25300372010805161 0 0.2485278721491469 -0.22983386195931649 0 0.2390873575194972 -0.2119906927462733 0 0.2485278721491469 -0.22983386195931649 0 0.2275965143199381 -0.22680811778712909 0 0.2410490216361528 -0.25300372010805161 0 0.2275965143199381 -0.22680811778712909 0 0.2136455624920251 -0.24586339942155419 0 0.2410490216361528 -0.25300372010805161 0 0.2136455624920251 -0.24586339942155419 0 0.2136455624920251 -0.24586339942155419 0 0.1995187067769538 -0.22648505830905971 0 0.1970165427207646 -0.2431475676051908 0 0.2275965143199381 -0.22680811778712909 0 0.2136455624920251 -0.24586339942155419 0 0.21130945108473639 -0.22000441216527869 0 0.2136455624920251 -0.24586339942155419 0 0.21130945108473639 -0.22000441216527869 0 0.1995187067769538 -0.22648505830905971 0 0.1995187067769538 -0.22648505830905971 0 0.1970165427207646 -0.2431475676051908 0 0.1843931124890181 -0.23269732176232691 0 0.21130945108473639 -0.22000441216527869 0 0.1995187067769538 -0.22648505830905971 0 0.19847161958806309 -0.21206345826637629 0 0.2064216300685435 -0.1763378775815001 0 0.2213864998634191 -0.19074186604973761 0 0.20705859430259141 -0.20063481153153051 0 0.22156570902884701 -0.2081716276760221 0 0.2213864998634191 -0.19074186604973761 0 0.20705859430259141 -0.20063481153153051 0 0.22156570902884701 -0.2081716276760221 0 0.21130945108473639 -0.22000441216527869 0 0.20705859430259141 -0.20063481153153051 0 0.21130945108473639 -0.22000441216527869 0 0.20705859430259141 -0.20063481153153051 0 0.19847161958806309 -0.21206345826637629 0 0.19847161958806309 -0.21206345826637629 0 0.19333004299069351 -0.19482382871724169 0 0.184507054165965 -0.21658659277756609 0 0.1995187067769538 -0.22648505830905971 0 0.19847161958806309 -0.21206345826637629 0 0.184507054165965 -0.21658659277756609 0 0.20705859430259141 -0.20063481153153051 0 0.19847161958806309 -0.21206345826637629 0 0.19333004299069351 -0.19482382871724169 0 0.2064216300685435 -0.1763378775815001 0 0.20705859430259141 -0.20063481153153051 0 0.19333004299069351 -0.19482382871724169 0 0.1776330785524223 -0.18942424135099509 0 0.184507054165965 -0.21658659277756609 0 0.16837846483810831 -0.20319749351435479 0 0.19333004299069351 -0.19482382871724169 0 0.1776330785524223 -0.18942424135099509 0 0.184507054165965 -0.21658659277756609 0 0.1776330785524223 -0.18942424135099509 0 0.184507054165965 -0.21658659277756609 0 0.184507054165965 -0.21658659277756609 0 0.1749867686249286 -0.21735889230250449 0 0.16837846483810831 -0.20319749351435479 0 0.1749867686249286 -0.21735889230250449 0 0.16837846483810831 -0.20319749351435479 0 0.15045483047290331 -0.2082327262959493 0 0.1749867686249286 -0.21735889230250449 0 0.15045483047290331 -0.2082327262959493 0 0.1749867686249286 -0.21735889230250449 0 0.16226861639455931 -0.22172210758959859 0 0.15045483047290331 -0.2082327262959493 0 0.16837846483810831 -0.20319749351435479 0 0.15045483047290331 -0.2082327262959493 0 0.15431059237432221 -0.18438501484475869 0 0.1776330785524223 -0.18942424135099509 0 0.16837846483810831 -0.20319749351435479 0 0.15431059237432221 -0.18438501484475869 0 0.1970165427207646 -0.2431475676051908 0 0.18013525364959199 -0.24590787480667409 0 0.1843931124890181 -0.23269732176232691 0 0.18013525364959199 -0.24590787480667409 0 0.1843931124890181 -0.23269732176232691 0 0.17030829067285161 -0.2305872157882054 0 0.1995187067769538 -0.22648505830905971 0 0.1749867686249286 -0.21735889230250449 0 0.1995187067769538 -0.22648505830905971 0 0.1749867686249286 -0.21735889230250449 0 0.1843931124890181 -0.23269732176232691 0 0.1995187067769538 -0.22648505830905971 0 0.184507054165965 -0.21658659277756609 0 0.1749867686249286 -0.21735889230250449 0 0.1749867686249286 -0.21735889230250449 0 0.1843931124890181 -0.23269732176232691 0 0.17030829067285161 -0.2305872157882054 0 0.16226861639455931 -0.22172210758959859 0 0.17030829067285161 -0.2305872157882054 0 0.15332457580755371 -0.23070959597173549 0 0.1749867686249286 -0.21735889230250449 0 0.16226861639455931 -0.22172210758959859 0 0.17030829067285161 -0.2305872157882054 0 0.16103468924722281 -0.25381861710109321 0 0.18013525364959199 -0.24590787480667409 0 0.17030829067285161 -0.2305872157882054 0 0.16103468924722281 -0.25381861710109321 0 0.17030829067285161 -0.2305872157882054 0 0.15332457580755371 -0.23070959597173549 0 0.16103468924722281 -0.25381861710109321 0 0.1412434604122122 -0.24631040783256791 0 0.15332457580755371 -0.23070959597173549 0 0.1412434604122122 -0.24631040783256791 0 0.15332457580755371 -0.23070959597173549 0 0.1284413173888232 -0.22347585252773641 0 0.15332457580755371 -0.23070959597173549 0 0.1284413173888232 -0.22347585252773641 0 0.15045483047290331 -0.2082327262959493 0 0.16226861639455931 -0.22172210758959859 0 0.15332457580755371 -0.23070959597173549 0 0.15045483047290331 -0.2082327262959493 0 0.1200034520355143 -0.24749468667538321 0 0.1412434604122122 -0.24631040783256791 0 0.1284413173888232 -0.22347585252773641 0 0.15045483047290331 -0.2082327262959493 0 0.12592289232087811 -0.19910656028939411 0 0.15431059237432221 -0.18438501484475869 0 0.15045483047290331 -0.2082327262959493 0 0.12592289232087811 -0.19910656028939411 0 0.1284413173888232 -0.22347585252773641 0 0.15045483047290331 -0.2082327262959493 0 0.12592289232087811 -0.19910656028939411 0 0.11404320040195411 -0.17785048998131209 0 0.12592289232087811 -0.19910656028939411 0 0.1362427207560932 -0.1734399905344442 0 0.12592289232087811 -0.19910656028939411 0 0.1362427207560932 -0.1734399905344442 0 0.15431059237432221 -0.18438501484475869 0 0.1362427207560932 -0.1734399905344442 0 0.15431059237432221 -0.18438501484475869 0 0.1498051255961938 -0.157092757972084 0 0.11404320040195411 -0.17785048998131209 0 0.1362427207560932 -0.1734399905344442 0 0.1305387904294309 -0.15561497697083931 0 0.1362427207560932 -0.1734399905344442 0 0.1498051255961938 -0.157092757972084 0 0.1305387904294309 -0.15561497697083931 0 0.1498051255961938 -0.157092757972084 0 0.1305387904294309 -0.15561497697083931 0 0.13638976604354719 -0.13495016646355951 0 0.1161887790728692 -0.1476769396888597 0 0.1305387904294309 -0.15561497697083931 0 0.13638976604354719 -0.13495016646355951 0 0.12800820934211829 -0.12401417466047961 0 0.13638976604354719 -0.13495016646355951 0 0.1486045981545247 -0.12747252536747111 0 0.13638976604354719 -0.13495016646355951 0 0.16388512732533739 -0.13509953849785281 0 0.13638976604354719 -0.13495016646355951 0 0.1486045981545247 -0.12747252536747111 0 0.16388512732533739 -0.13509953849785281 0 0.1498051255961938 -0.157092757972084 0 0.13638976604354719 -0.13495016646355951 0 0.16388512732533739 -0.13509953849785281 0 0.16388512732533739 -0.13509953849785281 0 0.17075910293887969 -0.16226188992442411 0 0.1498051255961938 -0.157092757972084 0 0.16388512732533739 -0.13509953849785281 0 0.17075910293887969 -0.16226188992442411 0 0.18014950107347269 -0.1188522098678762 0 0.16265603278097029 -0.1302428005884553 0 0.16388512732533739 -0.13509953849785281 0 0.16095359288685571 -0.1184472051676727 0 0.1486045981545247 -0.12747252536747111 0 0.16265603278097029 -0.1302428005884553 0 0.1486045981545247 -0.12747252536747111 0 0.16265603278097029 -0.1302428005884553 0 0.16388512732533739 -0.13509953849785281 0 0.16265603278097029 -0.1302428005884553 0 0.16388512732533739 -0.13509953849785281 0 0.19406318364410949 -0.13526348461287321 0 0.16388512732533739 -0.13509953849785281 0 0.18014950107347269 -0.1188522098678762 0 0.19406318364410949 -0.13526348461287321 0 0.18014950107347269 -0.1188522098678762 0 0.19406318364410949 -0.13526348461287321 0 0.16388512732533739 -0.13509953849785281 0 0.19019323353294471 -0.15547991582157239 0 0.16388512732533739 -0.13509953849785281 0 0.17075910293887969 -0.16226188992442411 0 0.19019323353294471 -0.15547991582157239 0 0.19406318364410949 -0.13526348461287321 0 0.16388512732533739 -0.13509953849785281 0 0.19019323353294471 -0.15547991582157239 0 0.185888281266576 -0.1738959907954824 0 0.17075910293887969 -0.16226188992442411 0 0.1776330785524223 -0.18942424135099509 0 0.185888281266576 -0.1738959907954824 0 0.17075910293887969 -0.16226188992442411 0 0.1776330785524223 -0.18942424135099509 0 0.17075910293887969 -0.16226188992442411 0 0.19333004299069351 -0.19482382871724169 0 0.1776330785524223 -0.18942424135099509 0 0.185888281266576 -0.1738959907954824 0 0.1776330785524223 -0.18942424135099509 0 0.15431059237432221 -0.18438501484475869 0 0.17075910293887969 -0.16226188992442411 0 0.15431059237432221 -0.18438501484475869 0 0.1498051255961938 -0.157092757972084 0 0.17075910293887969 -0.16226188992442411 0 
</DataArray>
</Points>
<Cells>
<DataArray type="UInt32" Name="connectivity" format="ascii">
0 1 2 3 4 5 6 7 8 9 10 11 12 13 14 15 16 17 18 19 20 21 22 23 24 25 26 27 28 29 30 31 32 33 34 35 36 37 38 39 40 41 42 43 44 45 46 47 48 49 50 51 52 53 54 55 56 57 58 59 60 61 62 63 64 65 66 67 68 69 70 71 72 73 74 75 76 77 78 79 80 81 82 83 84 85 86 87 88 89 90 91 92 93 94 95 96 97 98 99 100 101 102 103 104 105 106 107 108 109 110 111 112 113 114 115 116 117 118 119 120 121 122 123 124 125 126 127 128 129 130 131 132 133 134 135 136 137 138 139 140 141 142 143 144 145 146 147 148 149 150 151 152 153 154 155 156 157 158 159 160 161 162 163 164 165 166 167 168 169 170 171 172 173 174 175 176 177 178 179 180 181 182 183 184 185 186 187 188 189 190 191 192 193 194 195 196 197 198 199 200 201 202 203 204 205 206 207 208 209 210 211 212 213 214 215 216 217 218 219 220 221 222 223 224 225 226 227 228 229 230 231 232 233 234 235 236 237 238 239 240 241 242 243 244 245 246 247 248 249 250 251 252 253 254 255 256 257 258 259 260 261 262 263 264 265 266 267 268 269 270 271 272 273 274 275 276 277 278 279 280 281 282 283 284 285 286 287 288 289 290 291 292 293 294 295 296 297 298 299 300 301 302 303 304 305 306 307 308 309 310 311 312 313 314 315 316 317 318 319 320 321 322 323 324 325 326 327 328 329 330 331 332 333 334 335 336 337 338 339 340 341 342 343 344 345 346 347 348 349 350 351 352 353 354 355 356 357 358 359 360 361 362 363 364 365 366 367 368 369 370 371 372 373 374 375 376 377 378 379 380 381 382 383 384 385 386 387 388 389 390 391 392 393 394 395 396 397 398 399 400 401 402 403 404 405 406 407 408 409 410 411 412 413 414 415 416 417 418 419 420 421 422 423 424 425 426 427 428 429 430 431 432 433 434 435 436 437 438 439 440 441 442 443 444 445 446 447 448 449 450 451 452 453 454 455 456 457 458 459 460 461 462 463 464 465 466 467 468 469 470 471 472 473 474 475 476 477 478 479 480 481 482 483 484 485 486 487 488 489 490 491 492 493 494 495 496 497 498 499 500 501 502 503 504 505 506 507 508 509 510 511 512 513 514 515 516 517 518 519 520 521 522 523 524 525 526 527 528 529 530 531 532 533 534 535 536 537 538 539 540 541 542 543 544 545 546 547 548 549 550 551 552 553 554 555 556 557 558 559 560 561 562 563 564 565 566 567 568 569 570 571 572 573 574 575 576 577 578 579 580 581 582 583 584 585 586 587 588 589 590 591 592 593 594 595 596 597 598 599 600 601 602 603 604 605 606 607 608 609 610 611 612 613 614 615 616 617 618 619 620 621 622 623 624 625 626 627 628 629 630 631 632 633 634 635 636 637 638 639 640 641 642 643 644 645 646 647 648 649 650 651 652 653 654 655 656 657 658 659 660 661 662 663 664 665 666 667 668 669 670 671 672 673 674 675 676 677 678 679 680 681 682 683 684 685 686 687 688 689 690 691 692 693 694 695 696 697 698 699 700 701 702 703 704 705 706 707 708 709 710 711 712 713 714 715 716 717 718 719 720 721 722 723 724 725 726 727 728 729 730 731 732 733 734 735 736 737 738 739 740 741 742 743 744 745 746 747 748 749 750 751 752 753 754 755 756 757 758 759 760 761 762 763 764 765 766 767 768 769 770 771 772 773 774 775 776 777 778 779 780 781 782 783 784 785 786 787 788 789 790 791 792 793 794 795 796 797 798 799 800 801 802 803 804 805 806 807 808 809 810 811 812 813 814 815 816 817 818 819 820 821 822 823 824 825 826 827 828 829 830 831 832 833 834 835 836 837 838 839 840 841 842 843 844 845 846 847 848 849 850 851 852 853 854 855 856 857 858 859 860 861 862 863 864 865 866 867 868 869 870 871 872 873 874 875 876 877 878 879 880 881 882 883 884 885 886 887 888 889 890 891 892 893 894 895 896 897 898 899 900 901 902 903 904 905 906 907 908 909 910 911 912 913 914 915 916 917 918 919 920 921 922 923 924 925 926 927 928 929 930 931 932 933 934 935 936 937 938 939 940 941 942 943 944 945 946 947 948 949 950 951 952 953 954 955 956 957 958 959 960 961 962 963 964 965 966 967 968 969 970 971 972 973 974 975 976 977 978 979 980 981 982 983 984 985 986 987 988 989 990 991 992 993 994 995 996 997 998 999 1000 1001 1002 1003 1004 1005 1006 1007 1008 1009 1010 1011 1012 1013 1014 1015 1016 1017 1018 1019 1020 1021 1022 1023 1024 1025 1026 1027 1028 1029 1030 1031 1032 1033 1034 1035 1036 1037 1038 1039 1040 1041 1042 1043 1044 1045 1046 1047 1048 1049 1050 1051 1052 1053 1054 1055 1056 1057 1058 1059 1060 1061 1062 1063 1064 1065 1066 1067 1068 1069 1070 1071 1072 1073 1074 1075 1076 1077 1078 1079 1080 1081 1082 1083 1084 1085 1086 1087 1088 1089 1090 1091 1092 1093 1094 1095 1096 1097 1098 1099 1100 1101 1102 1103 1104 1105 1106 1107 1108 1109 1110 1111 1112 1113 1114 1115 1116 1117 1118 1119 1120 1121 1122 1123 1124 1125 1126 1127 1128 1129 1130 1131 1132 1133 1134 1135 1136 1137 1138 1139 1140 1141 1142 1143 1144 1145 1146 1147 1148 1149 1150 1151 1152 1153 1154 1155 1156 1157 1158 1159 1160 1161 1162 1163 1164 1165 1166 1167 1168 1169 1170 1171 1172 1173 1174 1175 1176 1177 1178 1179 1180 1181 1182 1183 1184 1185 1186 1187 1188 1189 1190 1191 1192 1193 1194 1195 1196 1197 1198 1199 1200 1201 1202 1203 1204 1205 1206 1207 1208 1209 1210 1211 1212 1213 1214 1215 1216 1217 1218 1219 1220 1221 1222 1223 1224 1225 1226 1227 1228 1229 1230 1231 1232 1233 1234 1235 1236 1237 1238 1239 1240 1241 1242 1243 1244 1245 1246 1247 1248 1249 1250 1251 1252 1253 1254 1255 1256 1257 1258 1259 1260 1261 1262 1263 1264 1265 1266 1267 1268 1269 1270 1271 1272 1273 1274 1275 1276 1277 1278 1279 1280 1281 1282 1283 1284 1285 1286 1287 1288 1289 1290 1291 1292 1293 1294 1295 1296 1297 1298 1299 1300 1301 1302 1303 1304 1305 1306 1307 1308 1309 1310 1311 1312 1313 1314 1315 1316 1317 1318 1319 1320 1321 1322 1323 1324 1325 1326 1327 1328 1329 1330 1331 1332 1333 1334 1335 1336 1337 1338 1339 1340 1341 1342 1343 1344 1345 1346 1347 1348 1349 1350 1351 1352 1353 1354 1355 1356 1357 1358 1359 1360 1361 1362 1363 1364 1365 1366 1367 1368 1369 1370 1371 1372 1373 1374 1375 1376 1377 1378 1379 1380 1381 1382 1383 1384 1385 1386 1387 1388 1389 1390 1391 1392 1393 1394 1395 1396 1397 1398 1399 1400 1401 1402 1403 1404 1405 1406 1407 1408 1409 1410 1411 1412 1413 1414 1415 1416 1417 1418 1419 1420 1421 1422 1423 1424 1425 1426 1427 1428 1429 1430 1431 1432 1433 1434 1435 1436 1437 1438 1439 1440 1441 1442 1443 1444 1445 1446 1447 1448 1449 1450 1451 1452 1453 1454 1455 1456 1457 1458 1459 1460 1461 1462 1463 1464 1465 1466 1467 1468 1469 1470 1471 1472 1473 1474 1475 1476 1477 1478 1479 1480 1481 1482 1483 1484 1485 1486 1487 1488 1489 1490 1491 1492 1493 1494 1495 1496 1497 1498 1499 1500 1501 1502 1503 1504 1505 1506 1507 1508 1509 1510 1511 1512 1513 1514 1515 1516 1517 1518 1519 1520 1521 1522 1523 1524 1525 1526 1527 1528 1529 1530 1531 1532 1533 1534 1535 1536 1537 1538 1539 1540 1541 1542 1543 1544 1545 1546 1547 1548 1549 1550 1551 1552 1553 1554 1555 1556 1557 1558 1559 1560 1561 1562 1563 1564 1565 1566 1567 1568 1569 1570 1571 1572 1573 1574 1575 1576 1577 1578 1579 1580 1581 1582 1583 1584 1585 1586 1587 1588 1589 1590 1591 1592 1593 1594 1595 1596 1597 1598 1599 1600 1601 1602 1603 1604 1605 1606 1607 1608 1609 1610 1611 1612 1613 1614 1615 1616 1617 1618 1619 1620 1621 1622 1623 1624 1625 1626 1627 1628 1629 1630 1631 1632 1633 1634 1635 1636 1637 1638 1639 1640 1641 1642 1643 1644 1645 1646 1647 1648 1649 1650 1651 1652 1653 1654 1655 1656 1657 1658 1659 1660 1661 1662 1663 1664 1665 1666 1667 1668 1669 1670 1671 1672 1673 1674 1675 1676 1677 1678 1679 1680 1681 1682 1683 1684 1685 1686 1687 1688 1689 1690 1691 1692 1693 1694 1695 1696 1697 1698 1699 1700 1701 1702 1703 1704 1705 1706 1707 1708 1709 1710 1711 1712 1713 1714 1715 1716 1717 1718 1719 1720 1721 1722 1723 1724 1725 1726 1727 1728 1729 1730 1731 1732 1733 1734 1735 1736 1737 1738 1739 1740 1741 1742 1743 1744 1745 1746 1747 1748 1749 1750 1751 1752 1753 1754 1755 1756 1757 1758 1759 1760 1761 1762 1763 1764 1765 1766 1767 1768 1769 1770 1771 1772 1773 1774 1775 1776 1777 1778 1779 1780 1781 1782 1783 1784 1785 1786 1787 1788 1789 1790 1791 1792 1793 1794 1795 1796 1797 1798 1799 1800 1801 1802 1803 1804 1805 1806 1807 1808 1809 1810 1811 1812 1813 1814 1815 1816 1817 1818 1819 1820 1821 1822 1823 1824 1825 1826 1827 1828 1829 1830 1831 1832 1833 1834 1835 1836 1837 1838 1839 1840 1841 1842 1843 1844 1845 1846 1847 1848 1849 1850 1851 1852 1853 1854 1855 1856 1857 1858 1859 1860 1861 1862 1863 1864 1865 1866 1867 1868 1869 1870 1871 1872 1873 1874 1875 1876 1877 1878 1879 1880 1881 1882 1883 1884 1885 1886 1887 1888 1889 1890 1891 1892 1893 1894 1895 1896 1897 1898 1899 1900 1901 1902 1903 1904 1905 1906 1907 1908 1909 1910 1911 1912 1913 1914 1915 1916 1917 1918 1919 1920 1921 1922 1923 1924 1925 1926 1927 1928 1929 1930 1931 1932 1933 1934 1935 1936 1937 1938 1939 1940 1941 1942 1943 1944 1945 1946 1947 1948 1949 1950 1951 1952 1953 1954 1955 1956 1957 1958 1959 1960 1961 1962 1963 1964 1965 1966 1967 1968 1969 1970 1971 1972 1973 1974 1975 1976 1977 1978 1979 1980 1981 1982 1983 1984 1985 1986 1987 1988 1989 1990 1991 1992 1993 1994 1995 1996 1997 1998 1999 2000 2001 2002 2003 2004 2005 2006 2007 2008 2009 2010 2011 2012 2013 2014 2015 2016 2017 2018 2019 2020 2021 2022 2023 2024 2025 2026 2027 2028 2029 2030 2031 2032 2033 2034 2035 2036 2037 2038 2039 2040 2041 2042 2043 2044 2045 2046 2047 2048 2049 2050 2051 2052 2053 2054 2055 2056 2057 2058 2059 2060 2061 2062 2063 2064 2065 2066 2067 2068 2069 2070 2071 2072 2073 2074 2075 2076 2077 2078 2079 2080 2081 2082 2083 2084 2085 2086 2087 2088 2089 2090 2091 2092 2093 2094 2095 2096 2097 2098 2099 2100 2101 2102 2103 2104 2105 2106 2107 2108 2109 2110 2111 2112 2113 2114 2115 2116 2117 2118 2119 2120 2121 2122 2123 2124 2125 2126 2127 2128 2129 2130 2131 2132 2133 2134 2135 2136 2137 2138 2139 2140 2141 2142 2143 2144 2145 2146 2147 2148 2149 2150 2151 2152 2153 2154 2155 2156 2157 2158 2159 2160 2161 2162 2163 2164 2165 2166 2167 2168 2169 2170 2171 2172 2173 2174 2175 2176 2177 2178 2179 2180 2181 2182 2183 2184 2185 2186 2187 2188 2189 2190 2191 2192 2193 2194 2195 2196 2197 2198 2199 2200 2201 2202 2203 2204 2205 2206 2207 2208 2209 2210 2211 2212 2213 2214 2215 2216 2217 2218 2219 2220 2221 2222 2223 2224 2225 2226 2227 2228 2229 2230 2231 2232 2233 2234 2235 2236 2237 2238 2239 2240 2241 2242 2243 2244 2245 2246 2247 2248 2249 2250 2251 2252 2253 2254 2255 2256 2257 2258 2259 2260 2261 2262 2263 2264 2265 2266 2267 2268 2269 2270 2271 2272 2273 2274 2275 2276 2277 2278 2279 2280 2281 2282 2283 2284 2285 2286 2287 2288 2289 2290 2291 2292 2293 2294 2295 2296 2297 2298 2299 2300 2301 2302 2303 2304 2305 2306 2307 2308 2309 2310 2311 2312 2313 2314 2315 2316 2317 2318 2319 2320 2321 2322 2323 2324 2325 2326 2327 2328 2329 2330 2331 2332 2333 2334 2335 2336 2337 2338 2339 2340 2341 2342 2343 2344 2345 2346 2347 2348 2349 2350 2351 2352 2353 2354 2355 2356 2357 2358 2359 2360 2361 2362 2363 2364 2365 2366 2367 2368 2369 2370 2371 2372 2373 2374 2375 2376 2377 2378 2379 2380 2381 2382 2383 2384 2385 2386 2387 2388 2389 2390 2391 2392 2393 2394 2395 2396 2397 2398 2399 2400 2401 2402 2403 2404 2405 2406 2407 2408 2409 2410 2411 2412 2413 2414 2415 2416 2417 2418 2419 2420 2421 2422 2423 2424 2425 2426 2427 2428 2429 2430 2431 2432 2433 2434 2435 2436 2437 2438 2439 2440 2441 2442 2443 2444 2445 2446 2447 2448 2449 2450 2451 2452 2453 2454 2455 2456 2457 2458 2459 2460 2461 2462 2463 2464 2465 2466 2467 2468 2469 2470 2471 2472 2473 2474 2475 2476 2477 2478 2479 2480 2481 2482 2483 2484 2485 2486 2487 2488 2489 2490 2491 2492 2493 2494 2495 2496 2497 2498 2499 2500 2501 2502 2503 2504 2505 2506 2507 2508 2509 2510 2511 2512 2513 2514 2515 2516 2517 2518 2519 2520 2521 2522 2523 2524 2525 2526 2527 2528 2529 2530 2531 2532 2533 2534 2535 2536 2537 2538 2539 2540 2541 2542 2543 2544 2545 2546 2547 2548 2549 2550 2551 2552 2553 2554 2555 2556 2557 2558 2559 2560 2561 2562 2563 2564 2565 2566 2567 2568 2569 2570 2571 2572 2573 2574 2575 2576 2577 2578 2579 2580 2581 2582 2583 2584 2585 2586 2587 2588 2589 2590 2591 2592 2593 2594 2595 2596 2597 2598 2599 2600 2601 2602 2603 2604 2605 2606 2607 2608 2609 2610 2611 2612 2613 2614 2615 2616 2617 2618 2619 2620 2621 2622 2623 2624 2625 2626 2627 2628 2629 2630 2631 2632 2633 2634 2635 2636 2637 2638 2639 2640 2641 2642 2643 2644 2645 2646 2647 2648 2649 2650 2651 2652 2653 2654 2655 2656 2657 2658 2659 2660 2661 2662 2663 2664 2665 2666 2667 2668 2669 2670 2671 2672 2673 2674 2675 2676 2677 2678 2679 2680 2681 2682 2683 2684 2685 2686 2687 2688 2689 2690 2691 2692 2693 2694 2695 2696 2697 2698 2699 2700 2701 2702 2703 2704 2705 2706 2707 2708 2709 2710 2711 2712 2713 2714 2715 2716 2717 2718 2719 2720 2721 2722 2723 2724 2725 2726 2727 2728 2729 2730 2731 2732 2733 2734 2735 2736 2737 2738 2739 2740 2741 2742 2743 2744 2745 2746 2747 2748 2749 2750 2751 2752 2753 2754 2755 2756 2757 2758 2759 2760 2761 2762 2763 2764 2765 2766 2767 2768 2769 2770 2771 2772 2773 2774 2775 2776 2777 2778 2779 2780 2781 2782 2783 2784 2785 2786 2787 2788 2789 2790 2791 2792 2793 2794 2795 2796 2797 2798 2799 2800 2801 2802 2803 2804 2805 2806 2807 2808 2809 2810 2811 2812 2813 2814 2815 2816 2817 2818 2819 2820 2821 2822 2823 2824 2825 2826 2827 2828 2829 2830 2831 2832 2833 2834 2835 2836 2837 2838 2839 2840 2841 2842 2843 2844 2845 2846 2847 2848 2849 2850 2851 2852 2853 2854 2855 2856 2857 2858 2859 2860 2861 2862 2863 2864 2865 2866 2867 2868 2869 2870 2871 2872 2873 2874 2875 2876 2877 2878 2879 2880 2881 2882 2883 2884 2885 2886 2887 2888 2889 2890 2891 2892 2893 2894 2895 2896 2897 2898 2899 2900 2901 2902 2903 2904 2905 2906 2907 2908 2909 2910 2911 2912 2913 2914 2915 2916 2917 2918 2919 2920 2921 2922 2923 2924 2925 2926 2927 2928 2929 2930 2931 2932 2933 2934 2935 2936 2937 2938 2939 2940 2941 2942 2943 2944 2945 2946 2947 2948 2949 2950 2951 2952 2953 2954 2955 2956 2957 2958 2959 2960 2961 2962 2963 2964 2965 2966 2967 2968 2969 2970 2971 2972 2973 2974 2975 2976 2977 2978 2979 2980 2981 2982 2983 2984 2985 2986 2987 2988 2989 2990 2991 2992 2993 2994 2995 2996 2997 2998 2999 3000 3001 3002 3003 3004 3005 3006 3007 3008 3009 3010 3011 3012 3013 3014 3015 3016 3017 3018 3019 3020 3021 3022 3023 3024 3025 3026 3027 3028 3029 3030 3031 3032 3033 3034 3035 3036 3037 3038 3039 3040 3041 3042 3043 3044 3045 3046 3047 3048 3049 3050 3051 3052 3053 3054 3055 3056 3057 3058 3059 3060 3061 3062 3063 3064 3065 3066 3067 3068 3069 3070 3071 3072 3073 3074 3075 3076 3077 3078 3079 3080 3081 3082 3083 3084 3085 3086 3087 3088 3089 3090 3091 3092 3093 3094 3095 3096 3097 3098 3099 3100 3101 3102 3103 3104 3105 3106 3107 3108 3109 3110 3111 3112 3113 3114 3115 3116 3117 3118 3119 3120 3121 3122 3123 3124 3125 3126 3127 3128 3129 3130 3131 3132 3133 3134 3135 3136 3137 3138 3139 3140 3141 3142 3143 3144 3145 3146 3147 3148 3149 3150 3151 3152 3153 3154 3155 3156 3157 3158 3159 3160 3161 3162 3163 3164 3165 3166 3167 3168 3169 3170 3171 3172 3173 3174 3175 3176 3177 3178 3179 3180 3181 3182 3183 3184 3185 3186 3187 3188 3189 3190 3191 3192 3193 3194 3195 3196 3197 3198 3199 3200 3201 3202 3203 3204 3205 3206 3207 3208 3209 3210 3211 3212 3213 3214 3215 3216 3217 3218 3219 3220 3221 3222 3223 3224 3225 3226 3227 3228 3229 3230 3231 3232 3233 3234 3235 3236 3237 3238 3239 3240 3241 3242 3243 3244 3245 3246 3247 3248 3249 3250 3251 3252 3253 3254 3255 3256 3257 3258 3259 3260 3261 3262 3263 3264 3265 3266 3267 3268 3269 3270 3271 3272 3273 3274 3275 3276 3277 3278 3279 3280 3281 3282 3283 3284 3285 3286 3287 3288 3289 3290 3291 3292 3293 3294 3295 3296 3297 3298 3299 3300 3301 3302 3303 3304 3305 3306 3307 3308 3309 3310 3311 3312 3313 3314 3315 3316 3317 3318 3319 3320 3321 3322 3323 3324 3325 3326 3327 3328 3329 3330 3331 3332 3333 3334 3335 3336 3337 3338 3339 3340 3341 3342 3343 3344 3345 3346 3347 3348 3349 3350 3351 3352 3353 3354 3355 3356 3357 3358 3359 3360 3361 3362 3363 3364 3365 3366 3367 3368 3369 3370 3371 3372 3373 3374 3375 3376 3377 3378 3379 3380 3381 3382 3383 3384 3385 3386 3387 3388 3389 3390 3391 3392 3393 3394 3395 3396 3397 3398 3399 3400 3401 3402 3403 3404 3405 3406 3407 3408 3409 3410 3411 3412 3413 3414 3415 3416 3417 3418 3419 3420 3421 3422 3423 3424 3425 3426 3427 3428 3429 3430 3431 3432 3433 3434 3435 3436 3437 3438 3439 3440 3441 3442 3443 3444 3445 3446 3447 3448 3449 3450 3451 3452 3453 3454 3455 3456 3457 3458 3459 3460 3461 3462 3463 3464 3465 3466 3467 3468 3469 3470 3471 3472 3473 3474 3475 3476 3477 3478 3479 3480 3481 3482 3483 3484 3485 3486 3487 3488 3489 3490 3491 3492 3493 3494 3495 3496 3497 3498 3499 3500 3501 3502 3503 3504 3505 3506 3507 3508 3509 3510 3511 3512 3513 3514 3515 3516 3517 3518 3519 3520 3521 3522 3523 3524 3525 3526 3527 3528 3529 3530 3531 3532 3533 3534 3535 3536 3537 3538 3539 3540 3541 3542 3543 3544 3545 3546 3547 3548 3549 3550 3551 3552 3553 3554 3555 3556 3557 3558 3559 3560 3561 3562 3563 3564 3565 3566 3567 3568 3569 3570 3571 3572 3573 3574 3575 3576 3577 3578 3579 3580 3581 3582 3583 3584 3585 3586 3587 3588 3589 3590 3591 3592 3593 3594 3595 3596 3597 3598 3599 3600 3601 3602 3603 3604 3605 3606 3607 3608 3609 3610 3611 3612 3613 3614 3615 3616 3617 3618 3619 3620 3621 3622 3623 3624 3625 3626 3627 3628 3629 3630 3631 3632 3633 3634 3635 3636 3637 3638 3639 3640 3641 3642 3643 3644 3645 3646 3647 3648 3649 3650 3651 3652 3653 3654 3655 3656 3657 3658 3659 3660 3661 3662 3663 3664 3665 3666 3667 3668 3669 3670 3671 3672 3673 3674 3675 3676 3677 3678 3679 3680 3681 3682 3683 3684 3685 3686 3687 3688 3689 3690 3691 3692 3693 3694 3695 3696 3697 3698 3699 3700 3701 3702 3703 3704 3705 3706 3707 3708 3709 3710 3711 3712 3713 3714 3715 3716 3717 3718 3719 3720 3721 3722 3723 3724 3725 3726 3727 3728 3729 3730 3731 3732 3733 3734 3735 3736 3737 3738 3739 3740 3741 3742 3743 3744 3745 3746 3747 3748 3749 3750 3751 3752 3753 3754 3755 3756 3757 3758 3759 3760 3761 3762 3763 3764 3765 3766 3767 3768 3769 3770 3771 3772 3773 3774 3775 3776 3777 3778 3779 3780 3781 3782 3783 3784 3785 3786 3787 3788 3789 3790 3791 3792 3793 3794 3795 3796 3797 3798 3799 3800 3801 3802 3803 3804 3805 3806 3807 3808 3809 3810 3811 3812 3813 3814 3815 3816 3817 3818 3819 3820 3821 3822 3823 3824 3825 3826 3827 3828 3829 3830 3831 3832 3833 3834 3835 3836 3837 3838 3839 3840 3841 3842 3843 3844 3845 3846 3847 3848 3849 3850 3851 3852 3853 3854 3855 3856 3857 3858 3859 3860 3861 3862 3863 3864 3865 3866 3867 3868 3869 3870 3871 3872 3873 3874 3875 3876 3877 3878 3879 3880 3881 3882 3883 3884 3885 3886 3887 3888 3889 3890 3891 3892 3893 3894 3895 3896 3897 3898 3899 3900 3901 3902 3903 3904 3905 3906 3907 3908 3909 3910 3911 3912 3913 3914 3915 3916 3917 3918 3919 3920 3921 3922 3923 3924 3925 3926 3927 3928 3929 3930 3931 3932 3933 3934 3935 3936 3937 3938 3939 3940 3941 3942 3943 3944 3945 3946 3947 3948 3949 3950 3951 3952 3953 3954 3955 3956 3957 3958 3959 3960 3961 3962 3963 3964 3965 3966 3967 3968 3969 3970 3971 3972 3973 3974 3975 3976 3977 3978 3979 3980 3981 3982 3983 3984 3985 3986 3987 3988 3989 3990 3991 3992 3993 3994 3995 3996 3997 3998 3999 4000 4001 4002 4003 4004 4005 4006 4007 4008 4009 4010 4011 4012 4013 4014 4015 4016 4017 4018 4019 4020 4021 4022 4023 4024 4025 4026 4027 4028 4029 4030 4031 4032 4033 4034 4035 4036 4037 4038 4039 4040 4041 4042 4043 4044 4045 4046 4047 4048 4049 4050 4051 4052 4053 4054 4055 4056 4057 4058 4059 4060 4061 4062 4063 4064 4065 4066 4067 4068 4069 4070 4071 4072 4073 4074 4075 4076 4077 4078 4079 4080 4081 4082 4083 4084 4085 4086 4087 4088 4089 4090 4091 4092 4093 4094 4095 4096 4097 4098 4099 4100 4101 4102 4103 4104 4105 4106 4107 4108 4109 4110 4111 4112 4113 4114 4115 4116 4117 4118 4119 4120 4121 4122 4123 4124 4125 4126 4127 4128 4129 4130 4131 4132 4133 4134 4135 4136 4137 4138 4139 4140 4141 4142 4143 4144 4145 4146 4147 4148 4149 4150 4151 4152 4153 4154 4155 4156 4157 4158 4159 4160 4161 4162 4163 4164 4165 4166 4167 4168 4169 4170 4171 4172 4173 4174 4175 4176 4177 4178 4179 4180 4181 4182 4183 4184 4185 4186 4187 4188 4189 4190 4191 4192 4193 4194 4195 4196 4197 4198 4199 4200 4201 4202 4203 4204 4205 4206 4207 4208 4209 4210 4211 4212 4213 4214 4215 4216 4217 4218 4219 4220 4221 4222 4223 4224 4225 4226 4227 4228 4229 4230 4231 4232 4233 4234 4235 4236 4237 4238 4239 4240 4241 4242 4243 4244 4245 4246 4247 4248 4249 4250 4251 4252 4253 4254 4255 4256 4257 4258 4259 4260 4261 4262 4263 4264 4265 4266 4267 4268 4269 4270 4271 4272 4273 4274 4275 4276 4277 4278 4279 4280 4281 4282 4283 4284 4285 4286 4287 4288 4289 4290 4291 4292 4293 4294 4295 4296 4297 4298 4299 4300 4301 4302 4303 4304 4305 4306 4307 4308 4309 4310 4311 4312 4313 4314 4315 4316 4317 4318 4319 4320 4321 4322 4323 4324 4325 4326 4327 4328 4329 4330 4331 4332 4333 4334 4335 4336 4337 4338 4339 4340 4341 4342 4343 4344 4345 4346 4347 4348 4349 4350 4351 4352 4353 4354 4355 4356 4357 4358 4359 4360 4361 4362 4363 4364 4365 4366 4367 4368 4369 4370 4371 4372 4373 4374 4375 4376 4377 4378 4379 4380 4381 4382 4383 4384 4385 4386 4387 4388 4389 4390 4391 4392 4393 4394 4395 4396 4397 4398 4399 4400 4401 4402 4403 4404 4405 4406 4407 4408 4409 4410 4411 4412 4413 4414 4415 4416 4417 4418 4419 4420 4421 4422 4423 4424 4425 4426 4427 4428 4429 4430 4431 4432 4433 4434 4435 4436 4437 4438 4439 4440 4441 4442 4443 4444 4445 4446 4447 4448 4449 4450 4451 4452 4453 4454 4455 4456 4457 4458 4459 4460 4461 4462 4463 4464 4465 4466 4467 4468 4469 4470 4471 4472 4473 4474 4475 4476 4477 4478 4479 4480 4481 4482 4483 4484 4485 4486 4487 4488 4489 4490 4491 4492 4493 4494 4495 4496 4497 4498 4499 4500 4501 4502 4503 4504 4505 4506 4507 4508 4509 4510 4511 4512 4513 4514 4515 4516 4517 4518 4519 4520 4521 4522 4523 4524 4525 4526 4527 4528 4529 4530 4531 4532 4533 4534 4535 4536 4537 4538 4539 4540 4541 4542 4543 4544 4545 4546 4547 4548 4549 4550 4551 4552 4553 4554 4555 4556 4557 4558 4559 4560 4561 4562 4563 4564 4565 4566 4567 4568 4569 4570 4571 4572 4573 4574 4575 4576 4577 4578 4579 4580 4581 4582 4583 4584 4585 4586 4587 4588 4589 4590 4591 4592 4593 4594 4595 4596 4597 4598 4599 4600 4601 4602 4603 4604 4605 4606 4607 4608 4609 4610 4611 4612 4613 4614 4615 4616 4617 4618 4619 4620 4621 4622 4623 4624 4625 4626 4627 4628 4629 4630 4631 4632 4633 4634 4635 4636 4637 4638 4639 4640 4641 4642 4643 4644 4645 4646 4647 4648 4649 4650 4651 4652 4653 4654 4655 4656 4657 4658 4659 4660 4661 4662 4663 4664 4665 4666 4667 4668 4669 4670 4671 4672 4673 4674 4675 4676 4677 4678 4679 4680 4681 4682 4683 4684 4685 4686 4687 4688 4689 4690 4691 4692 4693 4694 4695 4696 4697 4698 4699 4700 4701 4702 4703 4704 4705 4706 4707 4708 4709 4710 4711 4712 4713 4714 4715 4716 4717 4718 4719 4720 4721 4722 4723 4724 4725 4726 4727 4728 4729 4730 4731 4732 4733 4734 4735 4736 4737 4738 4739 4740 4741 4742 4743 4744 4745 4746 4747 4748 4749 4750 4751 4752 4753 4754 4755 4756 4757 4758 4759 4760 4761 4762 4763 4764 4765 4766 4767 4768 4769 4770 4771 4772 4773 4774 4775 4776 4777 4778 4779 4780 4781 4782 4783 4784 4785 4786 4787 4788 4789 4790 4791 4792 4793 4794 4795 4796 4797 4798 4799 4800 4801 4802 4803 4804 4805 4806 4807 4808 4809 4810 4811 4812 4813 4814 4815 4816 4817 4818 4819 4820 4821 4822 4823 4824 4825 4826 4827 4828 4829 4830 4831 4832 4833 4834 4835 4836 4837 4838 4839 4840 4841 4842 4843 4844 4845 4846 4847 4848 4849 4850 4851 4852 4853 4854 4855 4856 4857 4858 4859 4860 4861 4862 4863 4864 4865 4866 4867 4868 4869 4870 4871 4872 4873 4874 4875 4876 4877 4878 4879 4880 4881 4882 4883 4884 4885 4886 4887 4888 4889 4890 4891 4892 4893 4894 4895 4896 4897 4898 4899 4900 4901 4902 4903 4904 4905 4906 4907 4908 4909 4910 4911 4912 4913 4914 4915 4916 4917 4918 4919 4920 4921 4922 4923 4924 4925 4926 4927 4928 4929 4930 4931 4932 4933 4934 4935 4936 4937 4938 4939 4940 4941 4942 4943 4944 4945 4946 4947 4948 4949 4950 4951 4952 4953 4954 4955 4956 4957 4958 4959 4960 4961 4962 4963 4964 4965 4966 4967 4968 4969 4970 4971 4972 4973 4974 4975 4976 4977 4978 4979 4980 4981 4982 4983 4984 4985 4986 4987 4988 4989 4990 4991 4992 4993 4994 4995 4996 4997 4998 4999 5000 5001 5002 5003 5004 5005 5006 5007 5008 5009 5010 5011 5012 5013 5014 5015 5016 5017 5018 5019 5020 5021 5022 5023 5024 5025 5026 5027 5028 5029 5030 5031 5032 5033 5034 5035 5036 5037 5038 5039 5040 5041 5042 5043 5044 5045 5046 5047 5048 5049 5050 5051 5052 5053 5054 5055 5056 5057 5058 5059 5060 5061 5062 5063 5064 5065 5066 5067 5068 5069 5070 5071 5072 5073 5074 5075 5076 5077 5078 5079 5080 5081 5082 5083 5084 5085 5086 5087 5088 5089 5090 5091 5092 5093 5094 5095 5096 5097 5098 5099 5100 5101 5102 5103 5104 5105 5106 5107 5108 5109 5110 5111 5112 5113 5114 5115 5116 5117 5118 5119 5120 5121 5122 5123 5124 5125 5126 5127 5128 5129 5130 5131 5132 5133 5134 5135 5136 5137 5138 5139 5140 5141 5142 5143 5144 5145 5146 5147 5148 5149 5150 5151 5152 5153 5154 5155 5156 5157 5158 5159 5160 5161 5162 5163 5164 5165 5166 5167 5168 5169 5170 5171 5172 5173 5174 5175 5176 5177 5178 5179 5180 5181 5182 5183 5184 5185 5186 5187 5188 5189 5190 5191 5192 5193 5194 5195 5196 5197 5198 5199 5200 5201 5202 5203 5204 5205 5206 5207 5208 5209 5210 5211 5212 5213 5214 5215 5216 5217 5218 5219 5220 5221 5222 5223 5224 5225 5226 5227 5228 5229 5230 5231 5232 5233 5234 5235 5236 5237 5238 5239 5240 5241 5242 5243 5244 5245 5246 5247 5248 5249 5250 5251 5252 5253 5254 5255 5256 5257 5258 5259 5260 5261 5262 5263 5264 5265 5266 5267 5268 5269 5270 5271 5272 5273 5274 5275 5276 5277 5278 5279 5280 5281 5282 5283 5284 5285 5286 5287 5288 5289 5290 5291 5292 5293 5294 5295 5296 5297 5298 5299 5300 5301 5302 5303 5304 5305 5306 5307 5308 5309 5310 5311 5312 5313 5314 5315 5316 5317 5318 5319 5320 5321 5322 5323 5324 5325 5326 5327 5328 5329 5330 5331 5332 5333 5334 5335 5336 5337 5338 5339 5340 5341 5342 5343 5344 5345 5346 5347 5348 5349 5350 5351 5352 5353 5354 5355 5356 5357 5358 5359 5360 5361 5362 5363 5364 5365 5366 5367 5368 5369 5370 5371 5372 5373 5374 5375 5376 5377 5378 5379 5380 5381 5382 5383 5384 5385 5386 5387 5388 5389 5390 5391 5392 5393 5394 5395 5396 5397 5398 5399 5400 5401 5402 5403 5404 5405 5406 5407 5408 5409 5410 5411 5412 5413 5414 5415 5416 5417 5418 5419 5420 5421 5422 5423 5424 5425 5426 5427 5428 5429 5430 5431 5432 5433 5434 5435 5436 5437 5438 5439 5440 5441 5442 5443 5444 5445 5446 5447 5448 5449 5450 5451 5452 5453 5454 5455 5456 5457 5458 5459 5460 5461 5462 5463 5464 5465 5466 5467 5468 5469 5470 5471 5472 5473 5474 5475 5476 5477 5478 5479 5480 5481 5482 5483 5484 5485 5486 5487 5488 5489 5490 5491 5492 5493 5494 5495 5496 5497 5498 5499 5500 5501 5502 5503 5504 5505 5506 5507 5508 5509 5510 5511 5512 5513 5514 5515 5516 5517 5518 5519 5520 5521 5522 5523 5524 5525 5526 5527 5528 5529 5530 5531 5532 5533 5534 5535 5536 5537 5538 5539 5540 5541 5542 5543 5544 5545 5546 5547 5548 5549 5550 5551 5552 5553 5554 5555 5556 5557 5558 5559 5560 5561 5562 5563 5564 5565 5566 5567 5568 5569 5570 5571 5572 5573 5574 5575 5576 5577 5578 5579 5580 5581 5582 5583 5584 5585 5586 5587 5588 5589 5590 5591 5592 5593 5594 5595 5596 5597 5598 5599 5600 5601 5602 5603 5604 5605 5606 5607 5608 5609 5610 5611 5612 5613 5614 5615 5616 5617 5618 5619 5620 5621 5622 5623 5624 5625 5626 5627 5628 5629 5630 5631 5632 5633 5634 5635 5636 5637 5638 5639 5640 5641 5642 5643 5644 5645 5646 5647 5648 5649 5650 5651 5652 5653 5654 5655 5656 5657 5658 5659 5660 5661 5662 5663 5664 5665 5666 5667 5668 5669 5670 5671 5672 5673 5674 5675 5676 5677 5678 5679 5680 5681 5682 5683 5684 5685 5686 5687 5688 5689 5690 5691 5692 5693 5694 5695 5696 5697 5698 5699 5700 5701 5702 5703 5704 5705 5706 5707 5708 5709 5710 5711 5712 5713 5714 5715 5716 5717 5718 5719 5720 5721 5722 5723 5724 5725 5726 5727 5728 5729 5730 5731 5732 5733 5734 5735 5736 5737 5738 5739 5740 5741 5742 5743 5744 5745 5746 5747 5748 5749 5750 5751 5752 5753 5754 5755 5756 5757 5758 5759 5760 5761 5762 5763 5764 5765 5766 5767 5768 5769 5770 5771 5772 5773 5774 5775 5776 5777 5778 5779 5780 5781 5782 5783 5784 5785 5786 5787 5788 5789 5790 5791 5792 5793 5794 5795 5796 5797 5798 5799 5800 5801 5802 5803 5804 5805 5806 5807 5808 5809 5810 5811 5812 5813 5814 5815 5816 5817 5818 5819 5820 5821 5822 5823 5824 5825 5826 5827 5828 5829 5830 5831 5832 5833 5834 5835 5836 5837 5838 5839 5840 5841 5842 5843 5844 5845 5846 5847 5848 5849 5850 5851 5852 5853 5854 5855 5856 5857 5858 5859 5860 5861 5862 5863 5864 5865 5866 5867 5868 5869 5870 5871 5872 5873 5874 5875 5876 5877 5878 5879 5880 5881 5882 5883 5884 5885 5886 5887 5888 5889 5890 5891 5892 5893 5894 5895 5896 5897 5898 5899 5900 5901 5902 5903 5904 5905 5906 5907 5908 5909 5910 5911 5912 5913 5914 5915 5916 5917 5918 5919 5920 5921 5922 5923 5924 5925 5926 5927 5928 5929 5930 5931 5932 5933 5934 5935 5936 5937 5938 5939 5940 5941 5942 5943 5944 5945 5946 5947 5948 5949 5950 5951 5952 5953 5954 5955 5956 5957 5958 5959 5960 5961 5962 5963 5964 5965 5966 5967 5968 5969 5970 5971 5972 5973 5974 5975 5976 5977 5978 5979 5980 5981 5982 5983 5984 5985 5986 5987 5988 5989 5990 5991 5992 5993 5994 5995 5996 5997 5998 5999 6000 6001 6002 6003 6004 6005 6006 6007 6008 6009 6010 6011 6012 6013 6014 6015 6016 6017 6018 6019 6020 6021 6022 6023 6024 6025 6026 6027 6028 6029 6030 6031 6032 6033 6034 6035 6036 6037 6038 6039 6040 6041 6042 6043 6044 6045 6046 6047 6048 6049 6050 6051 6052 6053 6054 6055 6056 6057 6058 6059 6060 6061 6062 6063 6064 6065 6066 6067 6068 6069 6070 6071 6072 6073 6074 6075 6076 6077 6078 6079 6080 6081 6082 6083 6084 6085 6086 6087 6088 6089 6090 6091 6092 6093 6094 6095 6096 6097 6098 6099 6100 6101 6102 6103 6104 6105 6106 6107 6108 6109 6110 6111 6112 6113 6114 6115 6116 6117 6118 6119 6120 6121 6122 6123 6124 6125 6126 6127 6128 6129 6130 6131 6132 6133 6134 6135 6136 6137 6138 6139 6140 6141 6142 6143 6144 6145 6146 6147 6148 6149 6150 6151 6152 6153 6154 6155 6156 6157 6158 6159 6160 6161 6162 6163 6164 6165 6166 6167 6168 6169 6170 6171 6172 6173 6174 6175 6176 6177 6178 6179 6180 6181 6182 6183 6184 6185 6186 6187 6188 6189 6190 6191 6192 6193 6194 6195 6196 6197 6198 6199 6200 6201 6202 6203 6204 6205 6206 6207 6208 6209 6210 6211 6212 6213 6214 6215 6216 6217 6218 6219 6220 6221 6222 6223 6224 6225 6226 6227 6228 6229 6230 6231 6232 6233 6234 6235 6236 6237 6238 6239 6240 6241 6242 6243 6244 6245 6246 6247 6248 6249 6250 6251 6252 6253 6254 6255 6256 6257 6258 6259 6260 6261 6262 6263 6264 6265 6266 6267 6268 6269 6270 6271 6272 6273 6274 6275 6276 6277 6278 6279 6280 6281 6282 6283 6284 6285 6286 6287 6288 6289 6290 6291 6292 6293 6294 6295 6296 6297 6298 6299 6300 6301 6302 6303 6304 6305 6306 6307 6308 6309 6310 6311 6312 6313 6314 6315 6316 6317 6318 6319 6320 6321 6322 6323 6324 6325 6326 6327 6328 6329 6330 6331 6332 6333 6334 6335 6336 6337 6338 6339 6340 6341 6342 6343 6344 6345 6346 6347 6348 6349 6350 6351 6352 6353 6354 6355 6356 6357 6358 6359 6360 6361 6362 6363 6364 6365 6366 6367 6368 6369 6370 6371 6372 6373 6374 6375 6376 6377 6378 6379 6380 6381 6382 6383 6384 6385 6386 6387 6388 6389 6390 6391 6392 6393 6394 6395 6396 6397 6398 6399 6400 6401 6402 6403 6404 6405 6406 6407 6408 6409 6410 6411 6412 6413 6414 6415 6416 6417 6418 6419 6420 6421 6422 6423 6424 6425 6426 6427 6428 6429 6430 6431 6432 6433 6434 6435 6436 6437 6438 6439 6440 6441 6442 6443 6444 6445 6446 6447 6448 6449 6450 6451 6452 6453 6454 6455 6456 6457 6458 6459 6460 6461 6462 6463 6464 6465 6466 6467 6468 6469 6470 6471 6472 6473 6474 6475 6476 6477 6478 6479 6480 6481 6482 6483 6484 6485 6486 6487 6488 6489 6490 6491 6492 6493 6494 6495 6496 6497 6498 6499 6500 6501 6502 6503 6504 6505 6506 6507 6508 6509 6510 6511 6512 6513 6514 6515 6516 6517 6518 6519 6520 6521 6522 6523 6524 6525 6526 6527 6528 6529 6530 6531 6532 6533 6534 6535 6536 6537 6538 6539 6540 6541 6542 6543 6544 6545 6546 6547 6548 6549 6550 6551 6552 6553 6554 6555 6556 6557 6558 6559 6560 6561 6562 6563 6564 6565 6566 6567 6568 6569 6570 6571 6572 6573 6574 6575 6576 6577 6578 6579 6580 6581 6582 6583 6584 6585 6586 6587 6588 6589 6590 6591 6592 6593 6594 6595 6596 6597 6598 6599 6600 6601 6602 6603 6604 6605 6606 6607 6608 6609 6610 6611 6612 6613 6614 6615 6616 6617 6618 6619 6620 6621 6622 6623 6624 6625 6626 6627 6628 6629 6630 6631 6632 6633 6634 6635 6636 6637 6638 6639 6640 6641 6642 6643 6644 6645 6646 6647 6648 6649 6650 6651 6652 6653 6654 6655 6656 6657 6658 6659 6660 6661 6662 6663 6664 6665 6666 6667 6668 6669 6670 6671 6672 6673 6674 6675 6676 6677 6678 6679 6680 6681 6682 6683 6684 6685 6686 6687 6688 6689 6690 6691 6692 6693 6694 6695 6696 6697 6698 6699 6700 6701 6702 6703 6704 6705 6706 6707 6708 6709 6710 6711 6712 6713 6714 6715 6716 6717 6718 6719 6720 6721 6722 6723 6724 6725 6726 6727 6728 6729 6730 6731 6732 6733 6734 6735 6736 6737 6738 6739 6740 6741 6742 6743 6744 6745 6746 6747 6748 6749 6750 6751 6752 6753 6754 6755 6756 6757 6758 6759 6760 6761 6762 6763 6764 6765 6766 6767 6768 6769 6770 6771 6772 6773 6774 6775 6776 6777 6778 6779 6780 6781 6782 6783 6784 6785 6786 6787 6788 6789 6790 6791 6792 6793 6794 6795 6796 6797 6798 6799 6800 6801 6802 6803 6804 6805 6806 6807 6808 6809 6810 6811 6812 6813 6814 6815 6816 6817 6818 6819 6820 6821 6822 6823 6824 6825 6826 6827 6828 6829 6830 6831 6832 6833 6834 6835 6836 6837 6838 6839 6840 6841 6842 6843 6844 6845 6846 6847 6848 6849 6850 6851 6852 6853 6854 6855 6856 6857 6858 6859 6860 6861 6862 6863 6864 6865 6866 6867 6868 6869 6870 6871 6872 6873 6874 6875 6876 6877 6878 6879 6880 6881 6882 6883 6884 6885 6886 6887 6888 6889 6890 6891 6892 6893 6894 6895 6896 6897 6898 6899 6900 6901 6902 6903 6904 6905 6906 6907 6908 6909 6910 6911 6912 6913 6914 6915 6916 6917 6918 6919 6920 6921 6922 6923 6924 6925 6926 6927 6928 6929 6930 6931 6932 6933 6934 6935 6936 6937 6938 6939 6940 6941 6942 6943 6944 6945 6946 6947 6948 6949 6950 6951 6952 6953 6954 6955 6956 6957 6958 6959 6960 6961 6962 6963 6964 6965 6966 6967 6968 6969 6970 6971 6972 6973 6974 6975 6976 6977 6978 6979 6980 6981 6982 6983 6984 6985 6986 6987 6988 6989 6990 6991 6992 6993 6994 6995 6996 6997 6998 6999 7000 7001 7002 7003 7004 7005 7006 7007 7008 7009 7010 7011 7012 7013 7014 7015 7016 7017 7018 7019 7020 7021 7022 7023 7024 7025 7026 7027 7028 7029 7030 7031 7032 7033 7034 7035 7036 7037 7038 7039 7040 7041 7042 7043 7044 7045 7046 7047 7048 7049 7050 7051 7052 7053 7054 7055 7056 7057 7058 7059 7060 7061 7062 7063 7064 7065 7066 7067 7068 7069 7070 7071 7072 7073 7074 7075 7076 7077 7078 7079 7080 7081 7082 7083 7084 7085 7086 7087 7088 7089 7090 7091 7092 7093 7094 7095 7096 7097 7098 7099 7100 7101 7102 7103 7104 7105 7106 7107 7108 7109 7110 7111 7112 7113 7114 7115 7116 7117 7118 7119 7120 7121 7122 7123 7124 7125 7126 7127 7128 7129 7130 7131 7132 7133 7134 7135 7136 7137 7138 7139 7140 7141 7142 7143 7144 7145 7146 7147 7148 7149 7150 7151 7152 7153 7154 7155 7156 7157 7158 7159 7160 7161 7162 7163 7164 7165 7166 7167 7168 7169 7170 7171 7172 7173 7174 7175 7176 7177 7178 7179 7180 7181 7182 7183 7184 7185 7186 7187 7188 7189 7190 7191 7192 7193 7194 7195 7196 7197 7198 7199 7200 7201 7202 7203 7204 7205 7206 7207 7208 7209 7210 7211 7212 7213 7214 7215 7216 7217 7218 7219 7220 7221 7222 7223 7224 7225 7226 7227 7228 7229 7230 7231 7232 7233 7234 7235 7236 7237 7238 7239 7240 7241 7242 7243 7244 7245 7246 7247 7248 7249 7250 7251 7252 7253 7254 7255 7256 7257 7258 7259 7260 7261 7262 7263 7264 7265 7266 7267 7268 7269 7270 7271 7272 7273 7274 7275 7276 7277 7278 7279 7280 7281 7282 7283 7284 7285 7286 7287 7288 7289 7290 7291 7292 7293 7294 7295 7296 7297 7298 7299 7300 7301 7302 7303 7304 7305 7306 7307 7308 7309 7310 7311 7312 7313 7314 7315 7316 7317 7318 7319 7320 7321 7322 7323 7324 7325 7326 7327 7328 7329 7330 7331 7332 7333 7334 7335 7336 7337 7338 7339 7340 7341 7342 7343 7344 7345 7346 7347 7348 7349 7350 7351 7352 7353 7354 7355 7356 7357 7358 7359 7360 7361 7362 7363 7364 7365 7366 7367 7368 7369 7370 7371 7372 7373 7374 7375 7376 7377 7378 7379 7380 7381 7382 7383 7384 7385 7386 7387 7388 7389 7390 7391 7392 7393 7394 7395 7396 7397 7398 7399 7400 7401 7402 7403 7404 7405 7406 7407 7408 7409 7410 7411 7412 7413 7414 7415 7416 7417 7418 7419 7420 7421 7422 7423 7424 7425 7426 7427 7428 7429 7430 7431 7432 7433 7434 7435 7436 7437 7438 7439 7440 7441 7442 7443 7444 7445 7446 7447 7448 7449 7450 7451 7452 7453 7454 7455 7456 7457 7458 7459 7460 7461 7462 7463 7464 7465 7466 7467 7468 7469 7470 7471 7472 7473 7474 7475 7476 7477 7478 7479 7480 7481 7482 7483 7484 7485 7486 7487 7488 7489 7490 7491 7492 7493 7494 7495 7496 7497 7498 7499 7500 7501 7502 7503 7504 7505 7506 7507 7508 7509 7510 7511 7512 7513 7514 7515 7516 7517 7518 7519 7520 7521 7522 7523 7524 7525 7526 7527 7528 7529 7530 7531 7532 7533 7534 7535 7536 7537 7538 7539 7540 7541 7542 7543 7544 7545 7546 7547 7548 7549 7550 7551 7552 7553 7554 7555 7556 7557 7558 7559 7560 7561 7562 7563 7564 7565 7566 7567 7568 7569 7570 7571 7572 7573 7574 7575 7576 7577 7578 7579 7580 7581 7582 7583 7584 7585 7586 7587 7588 7589 7590 7591 7592 7593 7594 7595 7596 7597 7598 7599 7600 7601 7602 7603 7604 7605 7606 7607 7608 7609 7610 7611 7612 7613 7614 7615 7616 7617 7618 7619 7620 7621 7622 7623 7624 7625 7626 7627 7628 7629 7630 7631 7632 7633 7634 7635 7636 7637 7638 7639 7640 7641 7642 7643 7644 7645 7646 7647 7648 7649 7650 7651 7652 7653 7654 7655 7656 7657 7658 7659 7660 7661 7662 7663 7664 7665 7666 7667 7668 7669 7670 7671 7672 7673 7674 7675 7676 7677 7678 7679 7680 7681 7682 7683 7684 7685 7686 7687 7688 7689 7690 7691 7692 7693 7694 7695 7696 7697 7698 7699 7700 7701 7702 7703 7704 7705 7706 7707 7708 7709 7710 7711 7712 7713 7714 7715 7716 7717 7718 7719 7720 7721 7722 7723 7724 7725 7726 7727 7728 7729 7730 7731 7732 7733 7734 7735 7736 7737 7738 7739 7740 7741 7742 7743 7744 7745 7746 7747 7748 7749 7750 7751 7752 7753 7754 7755 7756 7757 7758 7759 7760 7761 7762 7763 7764 7765 7766 7767 7768 7769 7770 7771 7772 7773 7774 7775 7776 7777 7778 7779 7780 7781 7782 7783 7784 7785 7786 7787 7788 7789 7790 7791 7792 7793 7794 7795 7796 7797 7798 7799 7800 7801 7802 7803 7804 7805 7806 7807 7808 7809 7810 7811 7812 7813 7814 7815 7816 7817 7818 7819 7820 7821 7822 7823 7824 7825 7826 7827 7828 7829 7830 7831 7832 7833 7834 7835 7836 7837 7838 7839 7840 7841 7842 7843 7844 7845 7846 7847 7848 7849 7850 7851 7852 7853 7854 7855 7856 7857 7858 7859 7860 7861 7862 7863 7864 7865 7866 7867 7868 7869 7870 7871 7872 7873 7874 7875 7876 7877 7878 7879 7880 7881 7882 7883 7884 7885 7886 7887 7888 7889 7890 7891 7892 7893 7894 7895 7896 7897 7898 7899 7900 7901 7902 7903 7904 7905 7906 7907 7908 7909 7910 7911 7912 7913 7914 7915 7916 7917 7918 7919 7920 7921 7922 7923 7924 7925 7926 7927 7928 7929 7930 7931 7932 7933 7934 7935 7936 7937 7938 7939 7940 7941 7942 7943 7944 7945 7946 7947 7948 7949 7950 7951 7952 7953 7954 7955 7956 7957 7958 7959 7960 7961 7962 7963 7964 7965 7966 7967 7968 7969 7970 7971 7972 7973 7974 7975 7976 7977 7978 7979 7980 7981 7982 7983 7984 7985 7986 7987 7988 7989 7990 7991 7992 7993 7994 7995 7996 7997 7998 7999 8000 8001 8002 8003 8004 8005 8006 8007 8008 8009 8010 8011 8012 8013 8014 8015 8016 8017 8018 8019 8020 8021 8022 8023 8024 8025 8026 8027 8028 8029 8030 8031 8032 8033 8034 8035 8036 8037 8038 8039 8040 8041 8042 8043 8044 8045 8046 8047 8048 8049 8050 8051 8052 8053 8054 8055 8056 8057 8058 8059 8060 8061 8062 8063 8064 8065 8066 8067 8068 8069 8070 8071 8072 8073 8074 8075 8076 8077 8078 8079 8080 8081 8082 8083 8084 8085 8086 8087 8088 8089 8090 8091 8092 8093 8094 8095 8096 8097 8098 8099 8100 8101 8102 8103 8104 8105 8106 8107 8108 8109 8110 8111 8112 8113 8114 8115 8116 8117 8118 8119 8120 8121 8122 8123 8124 8125 8126 8127 8128 8129 8130 8131 8132 8133 8134 8135 8136 8137 8138 8139 8140 8141 8142 8143 8144 8145 8146 8147 8148 8149 8150 8151 8152 8153 8154 8155 8156 8157 8158 8159 8160 8161 8162 8163 8164 8165 8166 8167 8168 8169 8170 8171 8172 8173 8174 8175 8176 8177 8178 8179 8180 8181 8182 8183 8184 8185 8186 8187 8188 8189 8190 8191 8192 8193 8194 8195 8196 8197 8198 8199 8200 8201 8202 8203 8204 8205 8206 8207 8208 8209 8210 8211 8212 8213 8214 8215 8216 8217 8218 8219 8220 8221 8222 8223 8224 8225 8226 8227 8228 8229 8230 8231 8232 8233 8234 8235 8236 8237 8238 8239 8240 8241 8242 8243 8244 8245 8246 8247 8248 8249 8250 8251 8252 8253 8254 8255 8256 8257 8258 8259 8260 8261 8262 8263 8264 8265 8266 8267 8268 8269 8270 8271 8272 8273 8274 8275 8276 8277 8278 8279 8280 8281 8282 8283 8284 8285 8286 8287 8288 8289 8290 8291 8292 8293 8294 8295 8296 8297 8298 8299 8300 8301 8302 8303 8304 8305 8306 8307 8308 8309 8310 8311 8312 8313 8314 8315 8316 8317 8318 8319 8320 8321 8322 8323 8324 8325 8326 8327 8328 8329 8330 8331 8332 8333 8334 8335 8336 8337 8338 8339 8340 8341 8342 8343 8344 8345 8346 8347 8348 8349 8350 8351 8352 8353 8354 8355 8356 8357 8358 8359 8360 8361 8362 8363 8364 8365 8366 8367 8368 8369 8370 8371 8372 8373 8374 8375 8376 8377 8378 8379 8380 8381 8382 8383 8384 8385 8386 8387 8388 8389 8390 8391 8392 8393 8394 8395 8396 8397 8398 8399 8400 8401 8402 8403 8404 8405 8406 8407 8408 8409 8410 8411 8412 8413 8414 8415 8416 8417 8418 8419 8420 8421 8422 8423 8424 8425 8426 8427 8428 8429 8430 8431 8432 8433 8434 8435 8436 8437 8438 8439 8440 8441 8442 8443 8444 8445 8446 8447 8448 8449 8450 8451 8452 8453 8454 8455 8456 8457 8458 8459 8460 8461 8462 8463 8464 8465 8466 8467 8468 8469 8470 8471 8472 8473 8474 8475 8476 8477 8478 8479 8480 8481 8482 8483 8484 8485 8486 8487 8488 8489 8490 8491 8492 8493 8494 8495 8496 8497 8498 8499 8500 8501 8502 8503 8504 8505 8506 8507 8508 8509 8510 8511 8512 8513 8514 8515 8516 8517 8518 8519 8520 8521 8522 8523 8524 8525 8526 8527 8528 8529 8530 8531 8532 8533 8534 8535 8536 8537 8538 8539 8540 8541 8542 8543 8544 8545 8546 8547 8548 8549 8550 8551 8552 8553 8554 8555 8556 8557 8558 8559 8560 8561 8562 8563 8564 8565 8566 8567 8568 8569 8570 8571 8572 8573 8574 8575 8576 8577 8578 8579 8580 8581 8582 8583 8584 8585 8586 8587 8588 8589 8590 8591 8592 8593 8594 8595 8596 8597 8598 8599 8600 8601 8602 8603 8604 8605 8606 8607 8608 8609 8610 8611 8612 8613 8614 8615 8616 8617 8618 8619 8620 8621 8622 8623 8624 8625 8626 8627 8628 8629 8630 8631 8632 8633 8634 8635 8636 8637 8638 8639 8640 8641 8642 8643 8644 8645 8646 8647 8648 8649 8650 8651 8652 8653 8654 8655 8656 8657 8658 8659 8660 8661 8662 8663 8664 8665 8666 8667 8668 8669 8670 8671 8672 8673 8674 8675 8676 8677 8678 8679 8680 8681 8682 8683 8684 8685 8686 8687 8688 8689 8690 8691 8692 8693 8694 8695 8696 8697 8698 8699 8700 8701 8702 8703 8704 8705 8706 8707 8708 8709 8710 8711 8712 8713 8714 8715 8716 8717 8718 8719 8720 8721 8722 8723 8724 8725 8726 8727 8728 8729 8730 8731 8732 8733 8734 8735 8736 8737 8738 8739 8740 8741 8742 8743 8744 8745 8746 8747 8748 8749 8750 8751 8752 8753 8754 8755 8756 8757 8758 8759 8760 8761 8762 8763 8764 8765 8766 8767 8768 8769 8770 8771 8772 8773 8774 8775 8776 8777 8778 8779 8780 8781 8782 8783 8784 8785 8786 8787 8788 8789 8790 8791 8792 8793 8794 8795 8796 8797 8798 8799 8800 8801 8802 8803 8804 8805 8806 8807 8808 8809 8810 8811 8812 8813 8814 8815 8816 8817 8818 8819 8820 8821 8822 8823 8824 8825 8826 8827 8828 8829 8830 8831 8832 8833 8834 8835 8836 8837 8838 8839 8840 8841 8842 8843 8844 8845 8846 8847 8848 8849 8850 8851 8852 8853 8854 8855 8856 8857 8858 8859 8860 8861 8862 8863 8864 8865 8866 8867 8868 8869 8870 8871 8872 8873 8874 8875 8876 8877 8878 8879 8880 8881 8882 8883 8884 8885 8886 8887 8888 8889 8890 8891 8892 8893 8894 8895 8896 8897 8898 8899 8900 8901 8902 8903 8904 8905 8906 8907 8908 8909 8910 8911 8912 8913 8914 8915 8916 8917 8918 8919 8920 8921 8922 8923 8924 8925 8926 8927 8928 8929 8930 8931 8932 8933 8934 8935 8936 8937 8938 8939 8940 8941 8942 8943 8944 8945 8946 8947 8948 8949 8950 8951 8952 8953 8954 8955 8956 8957 8958 8959 8960 8961 8962 8963 8964 8965 8966 8967 8968 8969 8970 8971 8972 8973 8974 8975 8976 8977 8978 8979 8980 8981 8982 8983 8984 8985 8986 8987 8988 8989 8990 8991 8992 8993 8994 8995 8996 8997 8998 8999 9000 9001 9002 9003 9004 9005 9006 9007 9008 9009 9010 9011 9012 9013 9014 9015 9016 9017 9018 9019 9020 9021 9022 9023 9024 9025 9026 9027 9028 9029 9030 9031 9032 9033 9034 9035 9036 9037 9038 9039 9040 9041 9042 9043 9044 9045 9046 9047 9048 9049 9050 9051 9052 9053 9054 9055 9056 9057 9058 9059 9060 9061 9062 9063 9064 9065 9066 9067 9068 9069 9070 9071 9072 9073 9074 9075 9076 9077 9078 9079 9080 9081 9082 9083 9084 9085 9086 9087 9088 9089 9090 9091 9092 9093 9094 9095 9096 9097 9098 9099 9100 9101 9102 9103 9104 9105 9106 9107 9108 9109 9110 9111 9112 9113 9114 9115 9116 9117 9118 9119 9120 9121 9122 9123 9124 9125 9126 9127 9128 9129 9130 9131 9132 9133 9134 9135 9136 9137 9138 9139 9140 9141 9142 9143 9144 9145 9146 9147 9148 9149 9150 9151 9152 9153 9154 9155 9156 9157 9158 9159 9160 9161 9162 9163 9164 9165 9166 9167 9168 9169 9170 9171 9172 9173 9174 9175 9176 9177 9178 9179 9180 9181 9182 9183 9184 9185 9186 9187 9188 9189 9190 9191 9192 9193 9194 9195 9196 9197 9198 9199 9200 9201 9202 9203 9204 9205 9206 9207 9208 9209 9210 9211 9212 9213 9214 9215 9216 9217 9218 9219 9220 9221 9222 9223 9224 9225 9226 9227 9228 9229 9230 9231 9232 9233 9234 9235 9236 9237 9238 9239 9240 9241 9242 9243 9244 9245 9246 9247 9248 9249 9250 9251 9252 9253 9254 9255 9256 9257 9258 9259 9260 9261 9262 9263 9264 9265 9266 9267 9268 9269 9270 9271 9272 9273 9274 9275 9276 9277 9278 9279 9280 9281 9282 9283 9284 9285 9286 9287 9288 9289 9290 9291 9292 9293 9294 9295 9296 9297 9298 9299 9300 9301 9302 9303 9304 9305 9306 9307 9308 9309 9310 9311 9312 9313 9314 9315 9316 9317 9318 9319 9320 9321 9322 9323 9324 9325 9326 9327 9328 9329 9330 9331 9332 9333 9334 9335 9336 9337 9338 9339 9340 9341 9342 9343 9344 9345 9346 9347 9348 9349 9350 9351 9352 9353 9354 9355 9356 9357 9358 9359 9360 9361 9362 9363 9364 9365 9366 9367 9368 9369 9370 9371 9372 9373 9374 9375 9376 9377 9378 9379 9380 9381 9382 9383 9384 9385 9386 9387 9388 9389 9390 9391 9392 9393 9394 9395 9396 9397 9398 9399 9400 9401 9402 9403 9404 9405 9406 9407 9408 9409 9410 9411 9412 9413 9414 9415 9416 9417 9418 9419 9420 9421 9422 9423 9424 9425 9426 9427 9428 9429 9430 9431 9432 9433 9434 9435 9436 9437 9438 9439 9440 9441 9442 9443 9444 9445 9446 9447 9448 9449 9450 9451 9452 9453 9454 9455 9456 9457 9458 9459 9460 9461 9462 9463 9464 9465 9466 9467 9468 9469 9470 9471 9472 9473 9474 9475 9476 9477 9478 9479 9480 9481 9482 9483 9484 9485 9486 9487 9488 9489 9490 9491 9492 9493 9494 9495 9496 9497 9498 9499 9500 9501 9502 9503 9504 9505 9506 9507 9508 9509 9510 9511 9512 9513 9514 9515 9516 9517 9518 9519 9520 9521 9522 9523 9524 9525 9526 9527 9528 9529 9530 9531 9532 9533 9534 9535 9536 9537 9538 9539 9540 9541 9542 9543 9544 9545 9546 9547 9548 9549 9550 9551 9552 9553 9554 9555 9556 9557 9558 9559 9560 9561 9562 9563 9564 9565 9566 9567 9568 9569 9570 9571 9572 9573 9574 9575 9576 9577 9578 9579 9580 9581 9582 9583 9584 9585 9586 9587 9588 9589 9590 9591 9592 9593 9594 9595 9596 9597 9598 9599 9600 9601 9602 9603 9604 9605 9606 9607 9608 9609 9610 9611 9612 9613 9614 9615 9616 9617 9618 9619 9620 9621 9622 9623 9624 9625 9626 9627 9628 9629 9630 9631 9632 9633 9634 9635 9636 9637 9638 9639 9640 9641 9642 9643 9644 9645 9646 9647 9648 9649 9650 9651 9652 9653 9654 9655 9656 9657 9658 9659 9660 9661 9662 9663 9664 9665 9666 9667 9668 9669 9670 9671 9672 9673 9674 9675 9676 9677 9678 9679 9680 9681 9682 9683 9684 9685 9686 9687 9688 9689 9690 9691 9692 9693 9694 9695 9696 9697 9698 9699 9700 9701 9702 9703 9704 9705 9706 9707 9708 9709 9710 9711 9712 9713 9714 9715 9716 9717 9718 9719 9720 9721 9722 9723 9724 9725 9726 9727 9728 9729 9730 9731 9732 9733 9734 9735 9736 9737 9738 9739 9740 9741 9742 9743 9744 9745 9746 9747 9748 9749 9750 9751 9752 9753 9754 9755 9756 9757 9758 9759 9760 9761 9762 9763 9764 9765 9766 9767 9768 9769 9770 9771 9772 9773 9774 9775 9776 9777 9778 9779 9780 9781 9782 9783 9784 9785 9786 9787 9788 9789 9790 9791 9792 9793 9794 9795 9796 9797 9798 9799 9800 9801 9802 9803 9804 9805 9806 9807 9808 9809 9810 9811 9812 9813 9814 9815 9816 9817 9818 9819 9820 9821 9822 9823 9824 9825 9826 9827 9828 9829 9830 9831 9832 9833 9834 9835 9836 9837 9838 9839 9840 9841 9842 9843 9844 9845 9846 9847 9848 9849 9850 9851 9852 9853 9854 9855 9856 9857 9858 9859 9860 9861 9862 9863 9864 9865 9866 9867 9868 9869 9870 9871 9872 9873 9874 9875 9876 9877 9878 9879 9880 9881 9882 9883 9884 9885 9886 9887 9888 9889 9890 9891 9892 9893 9894 9895 9896 9897 9898 9899 9900 9901 9902 9903 9904 9905 9906 9907 9908 9909 9910 9911 9912 9913 9914 9915 9916 9917 9918 9919 9920 9921 9922 9923 9924 9925 9926 9927 9928 9929 9930 9931 9932 9933 9934 9935 9936 9937 9938 9939 9940 9941 9942 9943 9944 9945 9946 9947 9948 9949 9950 9951 9952 9953 9954 9955 9956 9957 9958 9959 9960 9961 9962 9963 9964 9965 9966 9967 9968 9969 9970 9971 9972 9973 9974 9975 9976 9977 9978 9979 9980 9981 9982 9983 9984 9985 9986 9987 9988 9989 9990 9991 9992 9993 9994 9995 9996 9997 9998 9999 10000 10001 10002 10003 10004 10005 10006 10007 10008 10009 10010 10011 10012 10013 10014 10015 10016 10017 10018 10019 10020 10021 10022 10023 10024 10025 10026 10027 10028 10029 10030 10031 10032 10033 10034 10035 10036 10037 10038 10039 10040 10041 10042 10043 10044 10045 10046 10047 10048 10049 10050 10051 10052 10053 10054 10055 10056 10057 10058 10059 10060 10061 10062 10063 10064 10065 10066 10067 10068 10069 10070 10071 10072 10073 10074 10075 10076 10077 10078 10079 10080 10081 10082 10083 10084 10085 10086 10087 10088 10089 10090 10091 10092 10093 10094 10095 10096 10097 10098 10099 10100 10101 10102 10103 10104 10105 10106 10107 10108 10109 10110 10111 10112 10113 10114 10115 10116 10117 10118 10119 10120 10121 10122 10123 10124 10125 10126 10127 10128 10129 10130 10131 10132 10133 10134 10135 10136 10137 10138 10139 10140 10141 10142 10143 10144 10145 10146 10147 10148 10149 10150 10151 10152 10153 10154 10155 10156 10157 10158 10159 10160 10161 10162 10163 10164 10165 10166 10167 10168 10169 10170 10171 10172 10173 10174 10175 10176 10177 10178 10179 10180 10181 10182 10183 10184 10185 10186 10187 10188 10189 10190 10191 10192 10193 10194 10195 10196 10197 10198 10199 10200 10201 10202 10203 10204 10205 10206 10207 10208 10209 10210 10211 10212 10213 10214 10215 10216 10217 10218 10219 10220 10221 10222 10223 10224 10225 10226 10227 10228 10229 10230 10231 10232 10233 10234 10235 10236 10237 10238 10239 10240 10241 10242 10243 10244 10245 10246 10247 10248 10249 10250 10251 10252 10253 10254 10255 10256 10257 10258 10259 10260 10261 10262 10263 10264 10265 10266 10267 10268 10269 10270 10271 10272 10273 10274 10275 10276 10277 10278 10279 10280 10281 10282 10283 10284 10285 10286 10287 10288 10289 10290 10291 10292 10293 10294 10295 10296 10297 10298 10299 10300 10301 10302 10303 10304 10305 10306 10307 10308 10309 10310 10311 10312 10313 10314 10315 10316 10317 10318 10319 10320 10321 10322 10323 10324 10325 10326 10327 10328 10329 10330 10331 10332 10333 10334 10335 10336 10337 10338 10339 10340 10341 10342 10343 10344 10345 10346 10347 10348 10349 10350 10351 10352 10353 10354 10355 10356 10357 10358 10359 10360 10361 10362 10363 10364 10365 10366 10367 10368 10369 10370 10371 10372 10373 10374 10375 10376 10377 10378 10379 10380 10381 10382 10383 10384 10385 10386 10387 10388 10389 10390 10391 10392 10393 10394 10395 10396 10397 10398 10399 10400 10401 10402 10403 10404 10405 10406 10407 10408 10409 10410 10411 10412 10413 10414 10415 10416 10417 10418 10419 10420 10421 10422 10423 10424 10425 10426 10427 10428 10429 10430 10431 10432 10433 10434 10435 10436 10437 10438 10439 10440 10441 10442 10443 10444 10445 10446 10447 10448 10449 10450 10451 10452 10453 10454 10455 10456 10457 10458 10459 10460 10461 10462 10463 10464 10465 10466 10467 10468 10469 10470 10471 10472 10473 10474 10475 10476 10477 10478 10479 10480 10481 10482 10483 10484 10485 10486 10487 10488 10489 10490 10491 10492 10493 10494 10495 10496 10497 10498 10499 10500 10501 10502 10503 10504 10505 10506 10507 10508 10509 10510 10511 10512 10513 10514 10515 10516 10517 10518 10519 10520 10521 10522 10523 10524 10525 10526 10527 10528 10529 10530 10531 10532 10533 10534 10535 10536 10537 10538 10539 10540 10541 10542 10543 10544 10545 10546 10547 10548 10549 10550 10551 10552 10553 10554 10555 10556 10557 10558 10559 10560 10561 10562 10563 10564 10565 10566 10567 10568 10569 10570 10571 10572 10573 10574 10575 10576 10577 10578 10579 10580 10581 10582 10583 10584 10585 10586 10587 10588 10589 10590 10591 10592 10593 10594 10595 10596 10597 10598 10599 10600 10601 10602 10603 10604 10605 10606 10607 10608 10609 10610 10611 10612 10613 10614 10615 10616 10617 10618 10619 10620 10621 10622 10623 10624 10625 10626 10627 10628 10629 10630 10631 10632 10633 10634 10635 10636 10637 10638 10639 10640 10641 10642 10643 10644 10645 10646 10647 10648 10649 10650 10651 10652 10653 10654 10655 10656 10657 10658 10659 10660 10661 10662 10663 10664 10665 10666 10667 10668 10669 10670 10671 10672 10673 10674 10675 10676 10677 10678 10679 10680 10681 10682 10683 10684 10685 10686 10687 10688 10689 10690 10691 10692 10693 10694 10695 10696 10697 10698 10699 10700 10701 10702 10703 10704 10705 10706 10707 10708 10709 10710 10711 10712 10713 10714 10715 10716 10717 10718 10719 10720 10721 10722 10723 10724 10725 10726 10727 10728 10729 10730 10731 10732 10733 10734 10735 10736 10737 10738 10739 10740 10741 10742 10743 10744 10745 10746 10747 10748 10749 10750 10751 10752 10753 10754 10755 10756 10757 10758 10759 10760 10761 10762 10763 10764 10765 10766 10767 10768 10769 10770 10771 10772 10773 10774 10775 10776 10777 10778 10779 10780 10781 10782 10783 10784 10785 10786 10787 10788 10789 10790 10791 10792 10793 10794 10795 10796 10797 10798 10799 10800 10801 10802 10803 10804 10805 10806 10807 10808 10809 10810 10811 10812 10813 10814 10815 10816 10817 10818 10819 10820 10821 10822 10823 10824 10825 10826 10827 10828 10829 10830 10831 10832 10833 10834 10835 10836 10837 10838 10839 10840 10841 10842 10843 10844 10845 10846 10847 10848 10849 10850 10851 10852 10853 10854 10855 10856 10857 10858 10859 10860 10861 10862 10863 10864 10865 10866 10867 10868 10869 10870 10871 10872 10873 10874 10875 10876 10877 10878 10879 10880 10881 10882 10883 10884 10885 10886 10887 10888 10889 10890 10891 10892 10893 10894 10895 10896 10897 10898 10899 10900 10901 10902 10903 10904 10905 10906 10907 10908 10909 10910 10911 10912 10913 10914 10915 10916 10917 10918 10919 10920 10921 10922 10923 10924 10925 10926 10927 10928 10929 10930 10931 10932 10933 10934 10935 10936 10937 10938 10939 10940 10941 10942 10943 10944 10945 10946 10947 10948 10949 10950 10951 10952 10953 10954 10955 10956 10957 10958 10959 10960 10961 10962 10963 10964 10965 10966 10967 10968 10969 10970 10971 10972 10973 10974 10975 10976 10977 10978 10979 10980 10981 10982 10983 10984 10985 10986 10987 10988 10989 10990 10991 10992 10993 10994 10995 10996 10997 10998 10999 11000 11001 11002 11003 11004 11005 11006 11007 11008 11009 11010 11011 11012 11013 11014 11015 11016 11017 11018 11019 11020 11021 11022 11023 11024 11025 11026 11027 11028 11029 11030 11031 11032 11033 11034 11035 11036 11037 11038 11039 11040 11041 11042 11043 11044 11045 11046 11047 11048 11049 11050 11051 11052 11053 11054 11055 11056 11057 11058 11059 11060 11061 11062 11063 11064 11065 11066 11067 11068 11069 11070 11071 11072 11073 11074 11075 11076 11077 11078 11079 11080 11081 11082 11083 11084 11085 11086 11087 11088 11089 11090 11091 11092 11093 11094 11095 11096 11097 11098 11099 11100 11101 11102 11103 11104 11105 11106 11107 11108 11109 11110 11111 11112 11113 11114 11115 11116 11117 11118 11119 11120 11121 11122 11123 11124 11125 11126 11127 11128 11129 11130 11131 11132 11133 11134 11135 11136 11137 11138 11139 11140 11141 11142 11143 11144 11145 11146 11147 11148 11149 11150 11151 11152 11153 11154 11155 11156 11157 11158 11159 11160 11161 11162 11163 11164 11165 11166 11167 11168 11169 11170 11171 11172 11173 11174 11175 11176 11177 11178 11179 11180 11181 11182 11183 11184 11185 11186 11187 11188 11189 11190 11191 11192 11193 11194 11195 11196 11197 11198 11199 11200 11201 11202 11203 11204 11205 11206 11207 11208 11209 11210 11211 11212 11213 11214 11215 11216 11217 11218 11219 11220 11221 11222 11223 11224 11225 11226 11227 11228 11229 11230 11231 11232 11233 11234 11235 11236 11237 11238 11239 11240 11241 11242 11243 11244 11245 11246 11247 11248 11249 11250 11251 11252 11253 11254 11255 11256 11257 11258 11259 11260 11261 11262 11263 11264 11265 11266 11267 11268 11269 11270 11271 11272 11273 11274 11275 11276 11277 11278 11279 11280 11281 11282 11283 11284 11285 11286 11287 11288 11289 11290 11291 11292 11293 11294 11295 11296 11297 11298 11299 11300 11301 11302 11303 11304 11305 11306 11307 11308 11309 11310 11311 11312 11313 11314 11315 11316 11317 11318 11319 11320 11321 11322 11323 11324 11325 11326 11327 11328 11329 11330 11331 11332 11333 11334 11335 11336 11337 11338 11339 11340 11341 11342 11343 11344 11345 11346 11347 11348 11349 11350 11351 11352 11353 11354 11355 11356 11357 11358 11359 11360 11361 11362 11363 11364 11365 11366 11367 11368 11369 11370 11371 11372 11373 11374 11375 11376 11377 11378 11379 11380 11381 11382 11383 11384 11385 11386 11387 11388 11389 11390 11391 11392 11393 11394 11395 11396 11397 11398 11399 11400 11401 11402 11403 11404 11405 11406 11407 11408 11409 11410 11411 11412 11413 11414 11415 11416 11417 11418 11419 11420 11421 11422 11423 11424 11425 11426 11427 11428 11429 11430 11431 11432 11433 11434 11435 11436 11437 11438 11439 11440 11441 11442 11443 11444 11445 11446 11447 11448 11449 11450 11451 11452 11453 11454 11455 11456 11457 11458 11459 11460 11461 11462 11463 11464 11465 11466 11467 11468 11469 11470 11471 11472 11473 11474 11475 11476 11477 11478 11479 11480 11481 11482 11483 11484 11485 11486 11487 11488 11489 11490 11491 11492 11493 11494 11495 11496 11497 11498 11499 11500 11501 11502 11503 11504 11505 11506 11507 11508 11509 11510 11511 11512 11513 11514 11515 11516 11517 11518 11519 11520 11521 11522 11523 11524 11525 11526 11527 11528 11529 11530 11531 11532 11533 11534 11535 11536 11537 11538 11539 11540 11541 11542 11543 11544 11545 11546 11547 11548 11549 11550 11551 11552 11553 11554 11555 11556 11557 11558 11559 11560 11561 11562 11563 11564 11565 11566 11567 11568 11569 11570 11571 11572 11573 11574 11575 11576 11577 11578 11579 11580 11581 11582 11583 11584 11585 11586 11587 11588 11589 11590 11591 11592 11593 11594 11595 11596 11597 11598 11599 11600 11601 11602 11603 11604 11605 11606 11607 11608 11609 11610 11611 11612 11613 11614 11615 11616 11617 11618 11619 11620 11621 11622 11623 11624 11625 11626 11627 11628 11629 11630 11631 11632 11633 11634 11635 11636 11637 11638 11639 11640 11641 11642 11643 11644 11645 11646 11647 11648 11649 11650 11651 11652 11653 11654 11655 11656 11657 11658 11659 11660 11661 11662 11663 11664 11665 11666 11667 11668 11669 11670 11671 11672 11673 11674 11675 11676 11677 11678 11679 11680 11681 11682 11683 11684 11685 11686 11687 11688 11689 11690 11691 11692 11693 11694 11695 11696 11697 11698 11699 11700 11701 11702 11703 11704 11705 11706 11707 11708 11709 11710 11711 11712 11713 11714 11715 11716 11717 11718 11719 11720 11721 11722 11723 11724 11725 11726 11727 11728 11729 11730 11731 11732 11733 11734 11735 11736 11737 11738 11739 11740 11741 11742 11743 11744 11745 11746 11747 11748 11749 11750 11751 11752 11753 11754 11755 11756 11757 11758 11759 11760 11761 11762 11763 11764 11765 11766 11767 11768 11769 11770 11771 11772 11773 11774 11775 11776 11777 11778 11779 11780 11781 11782 11783 11784 11785 11786 11787 11788 11789 11790 11791 11792 11793 11794 11795 11796 11797 11798 11799 11800 11801 11802 11803 11804 11805 11806 11807 11808 11809 11810 11811 11812 11813 11814 11815 11816 11817 11818 11819 11820 11821 11822 11823 11824 11825 11826 11827 11828 11829 11830 11831 11832 11833 11834 11835 11836 11837 11838 11839 11840 11841 11842 11843 11844 11845 11846 11847 11848 11849 11850 11851 11852 11853 11854 11855 11856 11857 11858 11859 11860 11861 11862 11863 11864 11865 11866 11867 11868 11869 11870 11871 11872 11873 11874 11875 11876 11877 11878 11879 11880 11881 11882 11883 11884 11885 11886 11887 11888 11889 11890 11891 11892 11893 11894 11895 11896 11897 11898 11899 11900 11901 11902 11903 11904 11905 11906 11907 11908 11909 11910 11911 11912 11913 11914 11915 11916 11917 11918 11919 11920 11921 11922 11923 11924 11925 11926 11927 11928 11929 11930 11931 11932 11933 11934 11935 11936 11937 11938 11939 11940 11941 11942 11943 11944 11945 11946 11947 11948 11949 11950 11951 11952 11953 11954 11955 11956 11957 11958 11959 11960 11961 11962 11963 11964 11965 11966 11967 11968 11969 11970 11971 11972 11973 11974 11975 11976 11977 11978 11979 11980 11981 11982 11983 11984 11985 11986 11987 11988 11989 11990 11991 11992 11993 11994 11995 11996 11997 11998 11999 12000 12001 12002 12003 12004 12005 12006 12007 12008 12009 12010 12011 12012 12013 12014 12015 12016 12017 12018 12019 12020 12021 12022 12023 12024 12025 12026 12027 12028 12029 12030 12031 12032 12033 12034 12035 12036 12037 12038 12039 12040 12041 12042 12043 12044 12045 12046 12047 12048 12049 12050 12051 12052 12053 12054 12055 12056 12057 12058 12059 12060 12061 12062 12063 12064 12065 12066 12067 12068 12069 12070 12071 12072 12073 12074 12075 12076 12077 12078 12079 12080 12081 12082 12083 12084 12085 12086 12087 12088 12089 12090 12091 12092 12093 12094 12095 12096 12097 12098 12099 12100 12101 12102 12103 12104 12105 12106 12107 12108 12109 12110 12111 12112 12113 12114 12115 12116 12117 12118 12119 12120 12121 12122 12123 12124 12125 12126 12127 12128 12129 12130 12131 12132 12133 12134 12135 12136 12137 12138 12139 12140 12141 12142 12143 12144 12145 12146 12147 12148 12149 12150 12151 12152 12153 12154 12155 12156 12157 12158 12159 12160 12161 12162 12163 12164 12165 12166 12167 12168 12169 12170 12171 12172 12173 12174 12175 12176 12177 12178 12179 12180 12181 12182 12183 12184 12185 12186 12187 12188 12189 12190 12191 12192 12193 12194 12195 12196 12197 12198 12199 12200 12201 12202 12203 12204 12205 12206 12207 12208 12209 12210 12211 12212 12213 12214 12215 12216 12217 12218 12219 12220 12221 12222 12223 12224 12225 12226 12227 12228 12229 12230 12231 12232 12233 12234 12235 12236 12237 12238 12239 12240 12241 12242 12243 12244 12245 12246 12247 12248 12249 12250 12251 12252 12253 12254 12255 12256 12257 12258 12259 12260 12261 12262 12263 12264 12265 12266 12267 12268 12269 12270 12271 12272 12273 12274 12275 12276 12277 12278 12279 12280 12281 12282 12283 12284 12285 12286 12287 12288 12289 12290 12291 12292 12293 12294 12295 12296 12297 12298 12299 12300 12301 12302 12303 12304 12305 12306 12307 12308 12309 12310 12311 12312 12313 12314 12315 12316 12317 12318 12319 12320 12321 12322 12323 12324 12325 12326 12327 12328 12329 12330 12331 12332 12333 12334 12335 12336 12337 12338 12339 12340 12341 12342 12343 12344 12345 12346 12347 12348 12349 12350 12351 12352 12353 12354 12355 12356 12357 12358 12359 12360 12361 12362 12363 12364 12365 12366 12367 12368 12369 12370 12371 12372 12373 12374 12375 12376 12377 12378 12379 12380 12381 12382 12383 12384 12385 12386 12387 12388 12389 12390 12391 12392 12393 12394 12395 12396 12397 12398 12399 12400 12401 12402 12403 12404 12405 12406 12407 12408 12409 12410 12411 12412 12413 12414 12415 12416 12417 12418 12419 12420 12421 12422 12423 12424 12425 12426 12427 12428 12429 12430 12431 12432 12433 12434 12435 12436 12437 12438 12439 12440 12441 12442 12443 12444 12445 12446 12447 12448 12449 12450 12451 12452 12453 12454 12455 12456 12457 12458 12459 12460 12461 12462 12463 12464 12465 12466 12467 12468 12469 12470 12471 12472 12473 12474 12475 12476 12477 12478 12479 12480 12481 12482 12483 12484 12485 12486 12487 12488 12489 12490 12491 12492 12493 12494 12495 12496 12497 12498 12499 12500 12501 12502 12503 12504 12505 12506 12507 12508 12509 12510 12511 12512 12513 12514 12515 12516 12517 12518 12519 12520 12521 12522 12523 12524 12525 12526 12527 12528 12529 12530 12531 12532 12533 12534 12535 12536 12537 12538 12539 12540 12541 12542 12543 12544 12545 12546 12547 12548 12549 12550 12551 12552 12553 12554 12555 12556 12557 12558 12559 12560 12561 12562 12563 12564 12565 12566 12567 12568 12569 12570 12571 12572 12573 12574 12575 12576 12577 12578 12579 12580 12581 12582 12583 12584 12585 12586 12587 12588 12589 12590 12591 12592 12593 12594 12595 12596 12597 12598 12599 12600 12601 12602 12603 12604 12605 12606 12607 12608 12609 12610 12611 12612 12613 12614 12615 12616 12617 12618 12619 12620 12621 12622 12623 12624 12625 12626 12627 12628 12629 12630 12631 12632 12633 12634 12635 12636 12637 12638 12639 12640 12641 12642 12643 12644 12645 12646 12647 12648 12649 12650 12651 12652 12653 12654 12655 12656 12657 12658 12659 12660 12661 12662 12663 12664 12665 12666 12667 12668 12669 12670 12671 12672 12673 12674 12675 12676 12677 12678 12679 12680 12681 12682 12683 12684 12685 12686 12687 12688 12689 12690 12691 12692 12693 12694 12695 12696 12697 12698 12699 12700 12701 12702 12703 12704 12705 12706 12707 12708 12709 12710 12711 12712 12713 12714 12715 12716 12717 12718 12719 12720 12721 12722 12723 12724 12725 12726 12727 12728 12729 12730 12731 12732 12733 12734 12735 12736 12737 12738 12739 12740 12741 12742 12743 12744 12745 12746 12747 12748 12749 12750 12751 12752 12753 12754 12755 12756 12757 12758 12759 12760 12761 12762 12763 12764 12765 12766 12767 12768 12769 12770 12771 12772 12773 12774 12775 12776 12777 12778 12779 12780 12781 12782 12783 12784 12785 12786 12787 12788 12789 12790 12791 12792 12793 12794 12795 12796 12797 12798 12799 12800 12801 12802 12803 12804 12805 12806 12807 12808 12809 12810 12811 12812 12813 12814 12815 12816 12817 12818 12819 12820 12821 12822 12823 12824 12825 12826 12827 12828 12829 12830 12831 12832 12833 12834 12835 12836 12837 12838 12839 12840 12841 12842 12843 12844 12845 12846 12847 12848 12849 12850 12851 12852 12853 12854 12855 12856 12857 12858 12859 12860 12861 12862 12863 12864 12865 12866 12867 12868 12869 12870 12871 12872 12873 12874 12875 12876 12877 12878 12879 12880 12881 12882 12883 12884 12885 12886 12887 12888 12889 12890 12891 12892 12893 12894 12895 12896 12897 12898 12899 12900 12901 12902 12903 12904 12905 12906 12907 12908 12909 12910 12911 12912 12913 12914 12915 12916 12917 12918 12919 12920 12921 12922 12923 12924 12925 12926 12927 12928 12929 12930 12931 12932 12933 12934 12935 12936 12937 12938 12939 12940 12941 12942 12943 12944 12945 12946 12947 12948 12949 12950 12951 12952 12953 12954 12955 12956 12957 12958 12959 12960 12961 12962 12963 12964 12965 12966 12967 12968 12969 12970 12971 12972 12973 12974 12975 12976 12977 12978 12979 12980 12981 12982 12983 12984 12985 12986 12987 12988 12989 12990 12991 12992 12993 12994 12995 12996 12997 12998 12999 13000 13001 13002 13003 13004 13005 13006 13007 13008 13009 13010 13011 13012 13013 13014 13015 13016 13017 13018 13019 13020 13021 13022 13023 13024 13025 13026 13027 13028 13029 13030 13031 13032 13033 13034 13035 13036 13037 13038 13039 13040 13041 13042 13043 13044 13045 13046 13047 13048 13049 13050 13051 13052 13053 13054 13055 13056 13057 13058 13059 13060 13061 13062 13063 13064 13065 13066 13067 13068 13069 13070 13071 13072 13073 13074 13075 13076 13077 13078 13079 13080 13081 13082 13083 13084 13085 13086 13087 13088 13089 13090 13091 13092 13093 13094 13095 13096 13097 13098 13099 13100 13101 13102 13103 13104 13105 13106 13107 13108 13109 13110 13111 13112 13113 13114 13115 13116 13117 13118 13119 13120 13121 13122 13123 13124 13125 13126 13127 13128 13129 13130 13131 13132 13133 13134 13135 13136 13137 13138 13139 13140 13141 13142 13143 13144 13145 13146 13147 13148 13149 13150 13151 13152 13153 13154 13155 13156 13157 13158 13159 13160 13161 13162 13163 13164 13165 13166 13167 13168 13169 13170 13171 13172 13173 13174 13175 13176 13177 13178 13179 13180 13181 13182 13183 13184 13185 13186 13187 13188 13189 13190 13191 13192 13193 13194 13195 13196 13197 13198 13199 13200 13201 13202 13203 13204 13205 13206 13207 13208 13209 13210 13211 13212 13213 13214 13215 13216 13217 13218 13219 13220 13221 13222 13223 13224 13225 13226 13227 13228 13229 13230 13231 13232 13233 13234 13235 13236 13237 13238 13239 13240 13241 13242 13243 13244 13245 13246 13247 13248 13249 13250 13251 13252 13253 13254 13255 13256 13257 13258 13259 13260 13261 13262 13263 13264 13265 13266 13267 13268 13269 13270 13271 13272 13273 13274 13275 13276 13277 13278 13279 13280 13281 13282 13283 13284 13285 13286 13287 13288 13289 13290 13291 13292 13293 13294 13295 13296 13297 13298 13299 13300 13301 13302 13303 13304 13305 13306 13307 13308 13309 13310 13311 13312 13313 13314 13315 13316 13317 13318 13319 13320 13321 13322 13323 13324 13325 13326 13327 13328 13329 13330 13331 13332 13333 13334 13335 13336 13337 13338 13339 13340 13341 13342 13343 13344 13345 13346 13347 13348 13349 13350 13351 13352 13353 13354 13355 13356 13357 13358 13359 13360 13361 13362 13363 13364 13365 13366 13367 13368 13369 13370 13371 13372 13373 13374 13375 13376 13377 13378 13379 13380 13381 13382 13383 13384 13385 13386 13387 13388 13389 13390 13391 13392 13393 13394 13395 13396 13397 13398 13399 13400 13401 13402 13403 13404 13405 13406 13407 13408 13409 13410 13411 13412 13413 13414 13415 13416 13417 13418 13419 13420 13421 13422 13423 13424 13425 13426 13427 13428 13429 13430 13431 13432 13433 13434 13435 13436 13437 13438 13439 13440 13441 13442 13443 13444 13445 13446 13447 13448 13449 13450 13451 13452 13453 13454 13455 13456 13457 13458 13459 13460 13461 13462 13463 13464 13465 13466 13467 13468 13469 13470 13471 13472 13473 13474 13475 13476 13477 13478 13479 13480 13481 13482 13483 13484 13485 13486 13487 13488 13489 13490 13491 13492 13493 13494 13495 13496 13497 13498 13499 13500 13501 13502 13503 13504 13505 13506 13507 13508 13509 13510 13511 13512 13513 13514 13515 13516 13517 13518 13519 13520 13521 13522 13523 13524 13525 13526 13527 13528 13529 13530 13531 13532 13533 13534 13535 13536 13537 13538 13539 13540 13541 13542 13543 13544 13545 13546 13547 13548 13549 13550 13551 13552 13553 13554 13555 13556 13557 13558 13559 13560 13561 13562 13563 13564 13565 13566 13567 13568 13569 13570 13571 13572 13573 13574 13575 13576 13577 13578 13579 13580 13581 13582 13583 13584 13585 13586 13587 13588 13589 13590 13591 13592 13593 13594 13595 13596 13597 13598 13599 13600 13601 13602 13603 13604 13605 13606 13607 13608 13609 13610 13611 13612 13613 13614 13615 13616 13617 13618 13619 13620 13621 13622 13623 13624 13625 13626 13627 13628 13629 13630 13631 13632 13633 13634 13635 13636 13637 13638 13639 13640 13641 13642 13643 13644 13645 13646 13647 13648 13649 13650 13651 13652 13653 13654 13655 13656 13657 13658 13659 13660 13661 13662 13663 13664 13665 13666 13667 13668 13669 13670 13671 13672 13673 13674 13675 13676 13677 13678 13679 13680 13681 13682 13683 13684 13685 13686 13687 13688 13689 13690 13691 13692 13693 13694 13695 13696 13697 13698 13699 13700 13701 13702 13703 13704 13705 13706 13707 13708 13709 13710 13711 13712 13713 13714 13715 13716 13717 13718 13719 13720 13721 13722 13723 13724 13725 13726 13727 13728 13729 13730 13731 13732 13733 13734 13735 13736 13737 13738 13739 13740 13741 13742 13743 13744 13745 13746 13747 13748 13749 13750 13751 13752 13753 13754 13755 13756 13757 13758 13759 13760 13761 13762 13763 13764 13765 13766 13767 13768 13769 13770 13771 13772 13773 13774 13775 13776 13777 13778 13779 13780 13781 13782 13783 13784 13785 13786 13787 13788 13789 13790 13791 13792 13793 13794 13795 13796 13797 13798 13799 13800 13801 13802 13803 13804 13805 13806 13807 13808 13809 13810 13811 13812 13813 13814 13815 13816 13817 13818 13819 13820 13821 13822 13823 13824 13825 13826 13827 13828 13829 13830 13831 13832 13833 13834 13835 13836 13837 13838 13839 13840 13841 13842 13843 13844 13845 13846 13847 13848 13849 13850 13851 13852 13853 13854 13855 13856 13857 13858 13859 13860 13861 13862 13863 13864 13865 13866 13867 13868 13869 13870 13871 13872 13873 13874 13875 13876 13877 13878 13879 13880 13881 13882 13883 13884 13885 13886 13887 13888 13889 13890 13891 13892 13893 13894 13895 13896 13897 13898 13899 13900 13901 13902 13903 13904 13905 13906 13907 13908 13909 13910 13911 13912 13913 13914 13915 13916 13917 13918 13919 13920 13921 13922 13923 13924 13925 13926 13927 13928 13929 13930 13931 13932 13933 13934 13935 13936 13937 13938 13939 13940 13941 13942 13943 13944 13945 13946 13947 13948 13949 13950 13951 13952 13953 13954 13955 13956 13957 13958 13959 13960 13961 13962 13963 13964 13965 13966 13967 13968 13969 13970 13971 13972 13973 13974 13975 13976 13977 13978 13979 13980 13981 13982 13983 13984 13985 13986 13987 13988 13989 13990 13991 13992 13993 13994 13995 13996 13997 13998 13999 14000 14001 14002 14003 14004 14005 14006 14007 14008 14009 14010 14011 14012 14013 14014 14015 14016 14017 14018 14019 14020 14021 14022 14023 14024 14025 14026 14027 14028 14029 14030 14031 14032 14033 14034 14035 14036 14037 14038 14039 14040 14041 14042 14043 14044 14045 14046 14047 14048 14049 14050 14051 14052 14053 14054 14055 14056 14057 14058 14059 14060 14061 14062 14063 14064 14065 14066 14067 14068 14069 14070 14071 14072 14073 14074 14075 14076 14077 14078 14079 14080 14081 14082 14083 14084 14085 14086 14087 14088 14089 14090 14091 14092 14093 14094 14095 14096 14097 14098 14099 14100 14101 14102 14103 14104 14105 14106 14107 14108 14109 14110 14111 14112 14113 14114 14115 14116 14117 14118 14119 14120 14121 14122 14123 14124 14125 14126 14127 14128 14129 14130 14131 14132 14133 14134 14135 14136 14137 14138 14139 14140 14141 14142 14143 14144 14145 14146 14147 14148 14149 14150 14151 14152 14153 14154 14155 14156 14157 14158 14159 14160 14161 14162 14163 14164 14165 14166 14167 14168 14169 14170 14171 14172 14173 14174 14175 14176 14177 14178 14179 14180 14181 14182 14183 14184 14185 14186 14187 14188 14189 14190 14191 14192 14193 14194 14195 14196 14197 14198 14199 14200 14201 14202 14203 14204 14205 14206 14207 14208 14209 14210 14211 14212 14213 14214 14215 14216 14217 14218 14219 14220 14221 14222 14223 14224 14225 14226 14227 14228 14229 14230 14231 14232 14233 14234 14235 14236 14237 14238 14239 14240 14241 14242 14243 14244 14245 14246 14247 14248 14249 14250 14251 14252 14253 14254 14255 14256 14257 14258 14259 14260 14261 14262 14263 14264 14265 14266 14267 14268 14269 14270 14271 14272 14273 14274 14275 14276 14277 14278 14279 14280 14281 14282 14283 14284 14285 14286 14287 14288 14289 14290 14291 14292 14293 14294 14295 14296 14297 14298 14299 14300 14301 14302 14303 14304 14305 14306 14307 14308 14309 14310 14311 14312 14313 14314 14315 14316 14317 14318 14319 14320 14321 14322 14323 14324 14325 14326 14327 14328 14329 14330 14331 14332 14333 14334 14335 14336 14337 14338 14339 14340 14341 14342 14343 14344 14345 14346 14347 14348 14349 14350 14351 14352 14353 14354 14355 14356 14357 14358 14359 14360 14361 14362 14363 14364 14365 14366 14367 14368 14369 14370 14371 14372 14373 14374 14375 14376 14377 14378 14379 14380 14381 14382 14383 14384 14385 14386 14387 14388 14389 14390 14391 14392 14393 14394 14395 14396 14397 14398 14399 14400 14401 14402 14403 14404 14405 14406 14407 14408 14409 14410 14411 14412 14413 14414 14415 14416 14417 14418 14419 14420 14421 14422 14423 14424 14425 14426 14427 14428 14429 14430 14431 14432 14433 14434 14435 14436 14437 14438 14439 14440 14441 14442 14443 14444 14445 14446 14447 14448 14449 14450 14451 14452 14453 14454 14455 14456 14457 14458 14459 14460 14461 14462 14463 14464 14465 14466 14467 14468 14469 14470 14471 14472 14473 14474 14475 14476 14477 14478 14479 14480 14481 14482 14483 14484 14485 14486 14487 14488 14489 14490 14491 14492 14493 14494 14495 14496 14497 14498 14499 14500 14501 14502 14503 14504 14505 14506 14507 14508 14509 14510 14511 14512 14513 14514 14515 14516 14517 14518 14519 14520 14521 14522 14523 14524 14525 14526 14527 14528 14529 14530 14531 14532 14533 14534 14535 14536 14537 14538 14539 14540 14541 14542 14543 14544 14545 14546 14547 14548 14549 14550 14551 14552 14553 14554 14555 14556 14557 14558 14559 14560 14561 14562 14563 14564 14565 14566 14567 14568 14569 14570 14571 14572 14573 14574 14575 14576 14577 14578 14579 14580 14581 14582 14583 14584 14585 14586 14587 14588 14589 14590 14591 14592 14593 14594 14595 14596 14597 14598 14599 14600 14601 14602 14603 14604 14605 14606 14607 14608 14609 14610 14611 14612 14613 14614 14615 14616 14617 14618 14619 14620 14621 14622 14623 14624 14625 14626 14627 14628 14629 14630 14631 14632 14633 14634 14635 14636 14637 14638 14639 14640 14641 14642 14643 14644 14645 14646 14647 14648 14649 14650 14651 14652 14653 14654 14655 14656 14657 14658 14659 14660 14661 14662 14663 14664 14665 14666 14667 14668 14669 14670 14671 14672 14673 14674 14675 14676 14677 14678 14679 14680 14681 14682 14683 14684 14685 14686 14687 14688 14689 14690 14691 14692 14693 14694 14695 14696 14697 14698 14699 14700 14701 14702 14703 14704 14705 14706 14707 14708 14709 14710 14711 14712 14713 14714 14715 14716 14717 14718 14719 14720 14721 14722 14723 14724 14725 14726 14727 14728 14729 14730 14731 14732 14733 14734 14735 14736 14737 14738 14739 14740 14741 14742 14743 14744 14745 14746 14747 14748 14749 14750 14751 14752 14753 14754 14755 14756 14757 14758 14759 14760 14761 14762 14763 14764 14765 14766 14767 14768 14769 14770 14771 14772 14773 14774 14775 14776 14777 14778 14779 14780 14781 14782 14783 14784 14785 14786 14787 14788 14789 14790 14791 14792 14793 14794 14795 14796 14797 14798 14799 14800 14801 14802 14803 14804 14805 14806 14807 14808 14809 14810 14811 14812 14813 14814 14815 14816 14817 14818 14819 14820 14821 14822 14823 14824 14825 14826 14827 14828 14829 14830 14831 14832 14833 14834 14835 14836 14837 14838 14839 14840 14841 14842 14843 14844 14845 14846 14847 14848 14849 14850 14851 14852 14853 14854 14855 14856 14857 14858 14859 14860 14861 14862 14863 14864 14865 14866 14867 14868 14869 14870 14871 14872 14873 14874 14875 14876 14877 14878 14879 14880 14881 14882 14883 14884 14885 14886 14887 14888 14889 14890 14891 14892 14893 14894 14895 14896 14897 14898 14899 14900 14901 14902 14903 14904 14905 14906 14907 14908 14909 14910 14911 14912 14913 14914 14915 14916 14917 14918 14919 14920 14921 14922 14923 14924 14925 14926 14927 14928 14929 14930 14931 14932 14933 14934 14935 14936 14937 14938 14939 14940 14941 14942 14943 14944 14945 14946 14947 14948 14949 14950 14951 14952 14953 14954 14955 14956 14957 14958 14959 14960 14961 14962 14963 14964 14965 14966 14967 14968 14969 14970 14971 14972 14973 14974 14975 14976 14977 14978 14979 14980 14981 14982 14983 14984 14985 14986 14987 14988 14989 14990 14991 14992 14993 14994 14995 14996 14997 14998 14999 15000 15001 15002 15003 15004 15005 15006 15007 15008 15009 15010 15011 15012 15013 15014 15015 15016 15017 15018 15019 15020 15021 15022 15023 15024 15025 15026 15027 15028 15029 15030 15031 15032 15033 15034 15035 15036 15037 15038 15039 15040 15041 15042 15043 15044 15045 15046 15047 15048 15049 15050 15051 15052 15053 15054 15055 15056 15057 15058 15059 15060 15061 15062 15063 15064 15065 15066 15067 15068 15069 15070 15071 15072 15073 15074 15075 15076 15077 15078 15079 15080 15081 15082 15083 15084 15085 15086 15087 15088 15089 15090 15091 15092 15093 15094 15095 15096 15097 15098 15099 15100 15101 15102 15103 15104 15105 15106 15107 15108 15109 15110 15111 15112 15113 15114 15115 15116 15117 15118 15119 15120 15121 15122 15123 15124 15125 15126 15127 15128 15129 15130 15131 15132 15133 15134 15135 15136 15137 15138 15139 15140 15141 15142 15143 15144 15145 15146 15147 15148 15149 15150 15151 15152 15153 15154 15155 15156 15157 15158 15159 15160 15161 15162 15163 15164 15165 15166 15167 15168 15169 15170 15171 15172 15173 15174 15175 15176 15177 15178 15179 15180 15181 15182 15183 15184 15185 15186 15187 15188 15189 15190 15191 15192 15193 15194 15195 15196 15197 15198 15199 15200 15201 15202 15203 15204 15205 15206 15207 15208 15209 15210 15211 15212 15213 15214 15215 15216 15217 15218 15219 15220 15221 15222 15223 15224 15225 15226 15227 15228 15229 15230 15231 15232 15233 15234 15235 15236 15237 15238 15239 15240 15241 15242 15243 15244 15245 15246 15247 15248 15249 15250 15251 15252 15253 15254 15255 15256 15257 15258 15259 15260 15261 15262 15263 15264 15265 15266 15267 15268 15269 15270 15271 15272 15273 15274 15275 15276 15277 15278 15279 15280 15281 15282 15283 15284 15285 15286 15287 15288 15289 15290 15291 15292 15293 15294 15295 15296 15297 15298 15299 15300 15301 15302 15303 15304 15305 15306 15307 15308 15309 15310 15311 15312 15313 15314 15315 15316 15317 15318 15319 15320 15321 15322 15323 15324 15325 15326 15327 15328 15329 15330 15331 15332 15333 15334 15335 15336 15337 15338 15339 15340 15341 15342 15343 15344 15345 15346 15347 15348 15349 15350 15351 15352 15353 15354 15355 15356 15357 15358 15359 15360 15361 15362 15363 15364 15365 15366 15367 15368 15369 15370 15371 15372 15373 15374 15375 15376 15377 15378 15379 15380 15381 15382 15383 15384 15385 15386 15387 15388 15389 15390 15391 15392 15393 15394 15395 15396 15397 15398 15399 15400 15401 15402 15403 15404 15405 15406 15407 15408 15409 15410 15411 15412 15413 15414 15415 15416 15417 15418 15419 15420 15421 15422 15423 15424 15425 15426 15427 15428 15429 15430 15431 15432 15433 15434 15435 15436 15437 15438 15439 15440 15441 15442 15443 15444 15445 15446 15447 15448 15449 15450 15451 15452 15453 15454 15455 15456 15457 15458 15459 15460 15461 15462 15463 15464 15465 15466 15467 15468 15469 15470 15471 15472 15473 15474 15475 15476 15477 15478 15479 15480 15481 15482 15483 15484 15485 15486 15487 15488 15489 15490 15491 15492 15493 15494 15495 15496 15497 15498 15499 15500 15501 15502 15503 15504 15505 15506 15507 15508 15509 15510 15511 15512 15513 15514 15515 15516 15517 15518 15519 15520 15521 15522 15523 15524 15525 15526 15527 15528 15529 15530 15531 15532 15533 15534 15535 15536 15537 15538 15539 15540 15541 15542 15543 15544 15545 15546 15547 15548 15549 15550 15551 15552 15553 15554 15555 15556 15557 15558 15559 15560 15561 15562 15563 15564 15565 15566 15567 15568 15569 15570 15571 15572 15573 15574 15575 15576 15577 15578 15579 15580 15581 15582 15583 15584 15585 15586 15587 15588 15589 15590 15591 15592 15593 15594 15595 15596 15597 15598 15599 15600 15601 15602 15603 15604 15605 15606 15607 15608 15609 15610 15611 15612 15613 15614 15615 15616 15617 15618 15619 15620 15621 15622 15623 15624 15625 15626 15627 15628 15629 15630 15631 15632 15633 15634 15635 15636 15637 15638 15639 15640 15641 15642 15643 15644 15645 15646 15647 15648 15649 15650 15651 15652 15653 15654 15655 15656 15657 15658 15659 15660 15661 15662 15663 15664 15665 15666 15667 15668 15669 15670 15671 15672 15673 15674 15675 15676 15677 15678 15679 15680 15681 15682 15683 15684 15685 15686 15687 15688 15689 15690 15691 15692 15693 15694 15695 15696 15697 15698 15699 15700 15701 15702 15703 15704 15705 15706 15707 15708 15709 15710 15711 15712 15713 15714 15715 15716 15717 15718 15719 15720 15721 15722 15723 15724 15725 15726 15727 15728 15729 15730 15731 15732 15733 15734 15735 15736 15737 15738 15739 15740 15741 15742 15743 15744 15745 15746 15747 15748 15749 15750 15751 15752 15753 15754 15755 15756 15757 15758 15759 15760 15761 15762 15763 15764 15765 15766 15767 15768 15769 15770 15771 15772 15773 15774 15775 15776 15777 15778 15779 15780 15781 15782 15783 15784 15785 15786 15787 15788 15789 15790 15791 15792 15793 15794 15795 15796 15797 15798 15799 15800 15801 15802 15803 15804 15805 15806 15807 15808 15809 15810 15811 15812 15813 15814 15815 15816 15817 15818 15819 15820 15821 15822 15823 15824 15825 15826 15827 15828 15829 15830 15831 15832 15833 15834 15835 15836 15837 15838 15839 15840 15841 15842 15843 15844 15845 15846 15847 15848 15849 15850 15851 15852 15853 15854 15855 15856 15857 15858 15859 15860 15861 15862 15863 15864 15865 15866 15867 15868 15869 15870 15871 15872 15873 15874 15875 15876 15877 15878 15879 15880 15881 15882 15883 15884 15885 15886 15887 15888 15889 15890 15891 15892 15893 15894 15895 15896 15897 15898 15899 15900 15901 15902 15903 15904 15905 15906 15907 15908 15909 15910 15911 15912 15913 15914 15915 15916 15917 15918 15919 15920 15921 15922 15923 15924 15925 15926 15927 15928 15929 15930 15931 15932 15933 15934 15935 15936 15937 15938 15939 15940 15941 15942 15943 15944 15945 15946 15947 15948 15949 15950 15951 15952 15953 15954 15955 15956 15957 15958 15959 15960 15961 15962 15963 15964 15965 15966 15967 15968 15969 15970 15971 15972 15973 15974 15975 15976 15977 15978 15979 15980 15981 15982 15983 15984 15985 15986 15987 15988 15989 15990 15991 15992 15993 15994 15995 15996 15997 15998 15999 16000 16001 16002 16003 16004 16005 16006 16007 16008 16009 16010 16011 16012 16013 16014 16015 16016 16017 16018 16019 16020 16021 16022 16023 16024 16025 16026 16027 16028 16029 16030 16031 16032 16033 16034 16035 16036 16037 16038 16039 16040 16041 16042 16043 16044 16045 16046 16047 16048 16049 16050 16051 16052 16053 16054 16055 16056 16057 16058 16059 16060 16061 16062 16063 16064 16065 16066 16067 16068 16069 16070 16071 16072 16073 16074 16075 16076 16077 16078 16079 16080 16081 16082 16083 16084 16085 16086 16087 16088 16089 16090 16091 16092 16093 16094 16095 16096 16097 16098 16099 16100 16101 16102 16103 16104 16105 16106 16107 16108 16109 16110 16111 16112 16113 16114 16115 16116 16117 16118 16119 16120 16121 16122 16123 16124 16125 16126 16127 16128 16129 16130 16131 16132 16133 16134 16135 16136 16137 16138 16139 16140 16141 16142 16143 16144 16145 16146 16147 16148 16149 16150 16151 16152 16153 16154 16155 16156 16157 16158 16159 16160 16161 16162 16163 16164 16165 16166 16167 16168 16169 16170 16171 16172 16173 16174 16175 16176 16177 16178 16179 16180 16181 16182 16183 16184 16185 16186 16187 16188 16189 16190 16191 16192 16193 16194 16195 16196 16197 16198 16199 16200 16201 16202 16203 16204 16205 16206 16207 16208 16209 16210 16211 16212 16213 16214 16215 16216 16217 16218 16219 16220 16221 16222 16223 16224 16225 16226 16227 16228 16229 16230 16231 16232 16233 16234 16235 16236 16237 16238 16239 16240 16241 16242 16243 16244 16245 16246 16247 16248 16249 16250 16251 16252 16253 16254 16255 16256 16257 16258 16259 16260 16261 16262 16263 16264 16265 16266 16267 16268 16269 16270 16271 16272 16273 16274 16275 16276 16277 16278 16279 16280 16281 16282 16283 16284 16285 16286 16287 16288 16289 16290 16291 16292 16293 16294 16295 16296 16297 16298 16299 16300 16301 16302 16303 16304 16305 16306 16307 16308 16309 16310 16311 16312 16313 16314 16315 16316 16317 16318 16319 16320 16321 16322 16323 16324 16325 16326 16327 16328 16329 16330 16331 16332 16333 16334 16335 16336 16337 16338 16339 16340 16341 16342 16343 16344 16345 16346 16347 16348 16349 16350 16351 16352 16353 16354 16355 16356 16357 16358 16359 16360 16361 16362 16363 16364 16365 16366 16367 16368 16369 16370 16371 16372 16373 16374 16375 16376 16377 16378 16379 16380 16381 16382 16383 16384 16385 16386 16387 16388 16389 16390 16391 16392 16393 16394 16395 16396 16397 16398 16399 16400 16401 16402 16403 16404 16405 16406 16407 16408 16409 16410 16411 16412 16413 16414 16415 16416 16417 16418 16419 16420 16421 16422 16423 16424 16425 16426 16427 16428 16429 16430 16431 16432 16433 16434 16435 16436 16437 16438 16439 16440 16441 16442 16443 16444 16445 16446 16447 16448 16449 16450 16451 16452 16453 16454 16455 16456 16457 16458 16459 16460 16461 16462 16463 16464 16465 16466 16467 16468 16469 16470 16471 16472 16473 16474 16475 16476 16477 16478 16479 16480 16481 16482 16483 16484 16485 16486 16487 16488 16489 16490 16491 16492 16493 16494 16495 16496 16497 16498 16499 16500 16501 16502 16503 16504 16505 16506 16507 16508 16509 16510 16511 16512 16513 16514 16515 16516 16517 16518 16519 16520 16521 16522 16523 16524 16525 16526 16527 16528 16529 16530 16531 16532 16533 16534 16535 16536 16537 16538 16539 16540 16541 16542 16543 16544 16545 16546 16547 16548 16549 16550 16551 16552 16553 16554 16555 16556 16557 16558 16559 16560 16561 16562 16563 16564 16565 16566 16567 16568 16569 16570 16571 16572 16573 16574 16575 16576 16577 16578 16579 16580 16581 16582 16583 16584 16585 16586 16587 16588 16589 16590 16591 16592 16593 16594 16595 16596 16597 16598 16599 16600 16601 16602 16603 16604 16605 16606 16607 16608 16609 16610 16611 16612 16613 16614 16615 16616 16617 16618 16619 16620 16621 16622 16623 16624 16625 16626 16627 16628 16629 16630 16631 16632 16633 16634 16635 16636 16637 16638 16639 16640 16641 16642 16643 16644 16645 16646 16647 16648 16649 16650 16651 16652 16653 16654 16655 16656 16657 16658 16659 16660 16661 16662 16663 16664 16665 16666 16667 16668 16669 16670 16671 16672 16673 16674 16675 16676 16677 16678 16679 16680 16681 16682 16683 16684 16685 16686 16687 16688 16689 16690 16691 16692 16693 16694 16695 16696 16697 16698 16699 16700 16701 16702 16703 16704 16705 16706 16707 16708 16709 16710 16711 16712 16713 16714 16715 16716 16717 16718 16719 16720 16721 16722 16723 16724 16725 16726 16727 16728 16729 16730 16731 16732 16733 16734 16735 16736 16737 16738 16739 16740 16741 16742 16743 16744 16745 16746 16747 16748 16749 16750 16751 16752 16753 16754 16755 16756 16757 16758 16759 16760 16761 16762 16763 16764 16765 16766 16767 16768 16769 16770 16771 16772 16773 16774 16775 16776 16777 16778 16779 16780 16781 16782 16783 16784 16785 16786 16787 16788 16789 16790 16791 16792 16793 16794 16795 16796 16797 16798 16799 16800 16801 16802 16803 16804 16805 16806 16807 16808 16809 16810 16811 16812 16813 16814 16815 16816 16817 16818 16819 16820 16821 16822 16823 16824 16825 16826 16827 16828 16829 16830 16831 16832 16833 16834 16835 16836 16837 16838 16839 16840 16841 16842 16843 16844 16845 16846 16847 16848 16849 16850 16851 16852 16853 16854 16855 16856 16857 16858 16859 16860 16861 16862 16863 16864 16865 16866 16867 16868 16869 16870 16871 16872 16873 16874 16875 16876 16877 16878 16879 16880 16881 16882 16883 16884 16885 16886 16887 16888 16889 16890 16891 16892 16893 16894 16895 16896 16897 16898 16899 16900 16901 16902 16903 16904 16905 16906 16907 16908 16909 16910 16911 16912 16913 16914 16915 16916 16917 16918 16919 16920 16921 16922 16923 16924 16925 16926 16927 16928 16929 16930 16931 16932 16933 16934 16935 16936 16937 16938 16939 16940 16941 16942 16943 16944 16945 16946 16947 16948 16949 16950 16951 16952 16953 16954 16955 16956 16957 16958 16959 16960 16961 16962 16963 16964 16965 16966 16967 16968 16969 16970 16971 16972 16973 16974 16975 16976 16977 16978 16979 16980 16981 16982 16983 16984 16985 16986 16987 16988 16989 16990 16991 16992 16993 16994 16995 16996 16997 16998 16999 17000 17001 17002 17003 17004 17005 17006 17007 17008 17009 17010 17011 17012 17013 17014 17015 17016 17017 17018 17019 17020 17021 17022 17023 17024 17025 17026 17027 17028 17029 17030 17031 17032 17033 17034 17035 17036 17037 17038 17039 17040 17041 17042 17043 17044 17045 17046 17047 17048 17049 17050 17051 17052 17053 17054 17055 17056 17057 17058 17059 17060 17061 17062 17063 17064 17065 17066 17067 17068 17069 17070 17071 17072 17073 17074 17075 17076 17077 17078 17079 17080 17081 17082 17083 17084 17085 17086 17087 17088 17089 17090 17091 17092 17093 17094 17095 17096 17097 17098 17099 17100 17101 17102 17103 17104 17105 17106 17107 17108 17109 17110 17111 17112 17113 17114 17115 17116 17117 17118 17119 17120 17121 17122 17123 17124 17125 17126 17127 17128 17129 17130 17131 17132 17133 17134 17135 17136 17137 17138 17139 17140 17141 17142 17143 17144 17145 17146 17147 17148 17149 17150 17151 17152 17153 17154 17155 17156 17157 17158 17159 17160 17161 17162 17163 17164 17165 17166 17167 17168 17169 17170 17171 17172 17173 17174 17175 17176 17177 17178 17179 17180 17181 17182 17183 17184 17185 17186 17187 17188 17189 17190 17191 17192 17193 17194 17195 17196 17197 17198 17199 17200 17201 17202 17203 17204 17205 17206 17207 17208 17209 17210 17211 17212 17213 17214 17215 17216 17217 17218 17219 17220 17221 17222 17223 17224 17225 17226 17227 17228 17229 17230 17231 17232 17233 17234 17235 17236 17237 17238 17239 17240 17241 17242 17243 17244 17245 17246 17247 17248 17249 17250 17251 17252 17253 17254 17255 17256 17257 17258 17259 17260 17261 17262 17263 17264 17265 17266 17267 17268 17269 17270 17271 17272 17273 17274 17275 17276 17277 17278 17279 17280 17281 17282 17283 17284 17285 17286 17287 17288 17289 17290 17291 17292 17293 17294 17295 17296 17297 17298 17299 17300 17301 17302 17303 17304 17305 17306 17307 17308 17309 17310 17311 17312 17313 17314 17315 17316 17317 17318 17319 17320 17321 17322 17323 17324 17325 17326 17327 17328 17329 17330 17331 17332 17333 17334 17335 17336 17337 17338 17339 17340 17341 17342 17343 17344 17345 17346 17347 17348 17349 17350 17351 17352 17353 17354 17355 17356 17357 17358 17359 17360 17361 17362 17363 17364 17365 17366 17367 17368 17369 17370 17371 17372 17373 17374 17375 17376 17377 17378 17379 17380 17381 17382 17383 17384 17385 17386 17387 17388 17389 17390 17391 17392 17393 17394 17395 17396 17397 17398 17399 17400 17401 17402 17403 17404 17405 17406 17407 17408 17409 17410 17411 17412 17413 17414 17415 17416 17417 17418 17419 17420 17421 17422 17423 17424 17425 17426 17427 17428 17429 17430 17431 17432 17433 17434 17435 17436 17437 17438 17439 17440 17441 17442 17443 17444 17445 17446 17447 17448 17449 17450 17451 17452 17453 17454 17455 17456 17457 17458 17459 17460 17461 17462 17463 17464 17465 17466 17467 17468 17469 17470 17471 17472 17473 17474 17475 17476 17477 17478 17479 17480 17481 17482 17483 17484 17485 17486 17487 17488 17489 17490 17491 17492 17493 17494 17495 17496 17497 17498 17499 17500 17501 17502 17503 17504 17505 17506 17507 17508 17509 17510 17511 17512 17513 17514 17515 17516 17517 17518 17519 17520 17521 17522 17523 17524 17525 17526 17527 17528 17529 17530 17531 17532 17533 17534 17535 17536 17537 17538 17539 17540 17541 17542 17543 17544 17545 17546 17547 17548 17549 17550 17551 17552 17553 17554 17555 17556 17557 17558 17559 17560 17561 17562 17563 17564 17565 17566 17567 17568 17569 17570 17571 17572 17573 17574 17575 17576 17577 17578 17579 17580 17581 17582 17583 17584 17585 17586 17587 17588 17589 17590 17591 17592 17593 17594 17595 17596 17597 17598 17599 17600 17601 17602 17603 17604 17605 17606 17607 17608 17609 17610 17611 17612 17613 17614 17615 17616 17617 17618 17619 17620 17621 17622 17623 17624 17625 17626 17627 17628 17629 17630 17631 17632 17633 17634 17635 17636 17637 17638 17639 17640 17641 17642 17643 17644 17645 17646 17647 17648 17649 17650 17651 17652 17653 17654 17655 17656 17657 17658 17659 17660 17661 17662 17663 17664 17665 17666 17667 17668 17669 17670 17671 17672 17673 17674 17675 17676 17677 17678 17679 17680 17681 17682 17683 17684 17685 17686 17687 17688 17689 17690 17691 17692 17693 17694 17695 17696 17697 17698 17699 17700 17701 17702 17703 17704 17705 17706 17707 17708 17709 17710 17711 17712 17713 17714 17715 17716 17717 17718 17719 17720 17721 17722 17723 17724 17725 17726 17727 17728 17729 17730 17731 17732 17733 17734 17735 17736 17737 17738 17739 17740 17741 17742 17743 17744 17745 17746 17747 17748 17749 17750 17751 17752 17753 17754 17755 17756 17757 17758 17759 17760 17761 17762 17763 17764 17765 17766 17767 17768 17769 17770 17771 17772 17773 17774 17775 17776 17777 17778 17779 17780 17781 17782 17783 17784 17785 17786 17787 17788 17789 17790 17791 17792 17793 17794 17795 17796 17797 17798 17799 17800 17801 17802 17803 17804 17805 17806 17807 17808 17809 17810 17811 17812 17813 17814 17815 17816 17817 17818 17819 17820 17821 17822 17823 17824 17825 17826 17827 17828 17829 17830 17831 17832 17833 17834 17835 17836 17837 17838 17839 17840 17841 17842 17843 17844 17845 17846 17847 17848 17849 17850 17851 17852 17853 17854 17855 17856 17857 17858 17859 17860 17861 17862 17863 17864 17865 17866 17867 17868 17869 17870 17871 17872 17873 17874 17875 17876 17877 17878 17879 17880 17881 17882 17883 17884 17885 17886 17887 17888 17889 17890 17891 17892 17893 17894 17895 17896 17897 17898 17899 17900 17901 17902 17903 17904 17905 17906 17907 17908 17909 17910 17911 17912 17913 17914 17915 17916 17917 17918 17919 17920 17921 17922 17923 17924 17925 17926 17927 17928 17929 17930 17931 17932 17933 17934 17935 17936 17937 17938 17939 17940 17941 17942 17943 17944 17945 17946 17947 17948 17949 17950 17951 17952 17953 17954 17955 17956 17957 17958 17959 17960 17961 17962 17963 17964 17965 17966 17967 17968 17969 17970 17971 17972 17973 17974 17975 17976 17977 17978 17979 17980 17981 17982 17983 17984 17985 17986 17987 17988 17989 17990 17991 17992 17993 17994 17995 17996 17997 17998 17999 18000 18001 18002 18003 18004 18005 18006 18007 18008 18009 18010 18011 18012 18013 18014 18015 18016 18017 18018 18019 18020 18021 18022 18023 18024 18025 18026 18027 18028 18029 18030 18031 18032 18033 18034 18035 18036 18037 18038 18039 18040 18041 18042 18043 18044 18045 18046 18047 18048 18049 18050 18051 18052 18053 18054 18055 18056 18057 18058 18059 18060 18061 18062 18063 18064 18065 18066 18067 18068 18069 18070 18071 18072 18073 18074 18075 18076 18077 18078 18079 18080 18081 18082 18083 18084 18085 18086 18087 18088 18089 18090 18091 18092 18093 18094 18095 18096 18097 18098 18099 18100 18101 18102 18103 18104 18105 18106 18107 18108 18109 18110 18111 18112 18113 18114 18115 18116 18117 18118 18119 18120 18121 18122 18123 18124 18125 18126 18127 18128 18129 18130 18131 18132 18133 18134 18135 18136 18137 18138 18139 18140 18141 18142 18143 18144 18145 18146 18147 18148 18149 18150 18151 18152 18153 18154 18155 18156 18157 18158 18159 18160 18161 18162 18163 18164 18165 18166 18167 18168 18169 18170 18171 18172 18173 18174 18175 18176 18177 18178 18179 18180 18181 18182 18183 18184 18185 18186 18187 18188 18189 18190 18191 18192 18193 18194 18195 18196 18197 18198 18199 18200 18201 18202 18203 18204 18205 18206 18207 18208 18209 18210 18211 18212 18213 18214 18215 18216 18217 18218 18219 18220 18221 18222 18223 18224 18225 18226 18227 18228 18229 18230 18231 18232 18233 18234 18235 18236 18237 18238 18239 18240 18241 18242 18243 18244 18245 18246 18247 18248 18249 18250 18251 18252 18253 18254 18255 18256 18257 18258 18259 18260 18261 18262 18263 18264 18265 18266 18267 18268 18269 18270 18271 18272 18273 18274 18275 18276 18277 18278 18279 18280 18281 18282 18283 18284 18285 18286 18287 18288 18289 18290 18291 18292 18293 18294 18295 18296 18297 18298 18299 18300 18301 18302 18303 18304 18305 18306 18307 18308 18309 18310 18311 18312 18313 18314 18315 18316 18317 18318 18319 18320 18321 18322 18323 18324 18325 18326 18327 18328 18329 18330 18331 18332 18333 18334 18335 18336 18337 18338 18339 18340 18341 18342 18343 18344 18345 18346 18347 18348 18349 18350 18351 18352 18353 18354 18355 18356 18357 18358 18359 18360 18361 18362 18363 18364 18365 18366 18367 18368 18369 18370 18371 18372 18373 18374 18375 18376 18377 18378 18379 18380 18381 18382 18383 18384 18385 18386 18387 18388 18389 18390 18391 18392 18393 18394 18395 18396 18397 18398 18399 18400 18401 18402 18403 18404 18405 18406 18407 18408 18409 18410 18411 18412 18413 18414 18415 18416 18417 18418 18419 18420 18421 18422 18423 18424 18425 18426 18427 18428 18429 18430 18431 18432 18433 18434 18435 18436 18437 18438 18439 18440 18441 18442 18443 18444 18445 18446 18447 18448 18449 18450 18451 18452 18453 18454 18455 18456 18457 18458 18459 18460 18461 18462 18463 18464 18465 18466 18467 18468 18469 18470 18471 18472 18473 18474 18475 18476 18477 18478 18479 18480 18481 18482 18483 18484 18485 18486 18487 18488 18489 18490 18491 18492 18493 18494 18495 18496 18497 18498 18499 18500 18501 18502 18503 18504 18505 18506 18507 18508 18509 18510 18511 18512 18513 18514 18515 18516 18517 18518 18519 18520 18521 18522 18523 18524 18525 18526 18527 18528 18529 18530 18531 18532 18533 18534 18535 18536 18537 18538 18539 18540 18541 18542 18543 18544 18545 18546 18547 18548 18549 18550 18551 18552 18553 18554 18555 18556 18557 18558 18559 18560 18561 18562 18563 18564 18565 18566 18567 18568 18569 18570 18571 18572 18573 18574 18575 18576 18577 18578 18579 18580 18581 18582 18583 18584 18585 18586 18587 18588 18589 18590 18591 18592 18593 18594 18595 18596 18597 18598 18599 18600 18601 18602 18603 18604 18605 18606 18607 18608 18609 18610 18611 18612 18613 18614 18615 18616 18617 18618 18619 18620 18621 18622 18623 18624 18625 18626 18627 18628 18629 18630 18631 18632 18633 18634 18635 18636 18637 18638 18639 18640 18641 18642 18643 18644 18645 18646 18647 18648 18649 18650 18651 18652 18653 18654 18655 18656 18657 18658 18659 18660 18661 18662 18663 18664 18665 18666 18667 18668 18669 18670 18671 18672 18673 18674 18675 18676 18677 18678 18679 18680 18681 18682 18683 18684 18685 18686 18687 18688 18689 18690 18691 18692 18693 18694 18695 18696 18697 18698 18699 18700 18701 18702 18703 18704 18705 18706 18707 18708 18709 18710 18711 18712 18713 18714 18715 18716 18717 18718 18719 18720 18721 18722 18723 18724 18725 18726 18727 18728 18729 18730 18731 18732 18733 18734 18735 18736 18737 18738 18739 18740 18741 18742 18743 18744 18745 18746 18747 18748 18749 18750 18751 18752 18753 18754 18755 18756 18757 18758 18759 18760 18761 18762 18763 18764 18765 18766 18767 18768 18769 18770 18771 18772 18773 18774 18775 18776 18777 18778 18779 18780 18781 18782 18783 18784 18785 18786 18787 18788 18789 18790 18791 18792 18793 18794 18795 18796 18797 18798 18799 18800 18801 18802 18803 18804 18805 18806 18807 18808 18809 18810 18811 18812 18813 18814 18815 18816 18817 18818 18819 18820 18821 18822 18823 18824 18825 18826 18827 18828 18829 18830 18831 18832 18833 18834 18835 18836 18837 18838 18839 18840 18841 18842 18843 18844 18845 18846 18847 18848 18849 18850 18851 18852 18853 18854 18855 18856 18857 18858 18859 18860 18861 18862 18863 18864 18865 18866 18867 18868 18869 18870 18871 18872 18873 18874 18875 18876 18877 18878 18879 18880 18881 18882 18883 18884 18885 18886 18887 18888 18889 18890 18891 18892 18893 18894 18895 18896 18897 18898 18899 18900 18901 18902 18903 18904 18905 18906 18907 18908 18909 18910 18911 18912 18913 18914 18915 18916 18917 18918 18919 18920 18921 18922 18923 18924 18925 18926 18927 18928 18929 18930 18931 18932 18933 18934 18935 18936 18937 18938 18939 18940 18941 18942 18943 18944 18945 18946 18947 18948 18949 18950 18951 18952 18953 18954 18955 18956 18957 18958 18959 18960 18961 18962 18963 18964 18965 18966 18967 18968 18969 18970 18971 18972 18973 18974 18975 18976 18977 18978 18979 18980 18981 18982 18983 18984 18985 18986 18987 18988 18989 18990 18991 18992 18993 18994 18995 18996 18997 18998 18999 19000 19001 19002 19003 19004 19005 19006 19007 19008 19009 19010 19011 19012 19013 19014 19015 19016 19017 19018 19019 19020 19021 19022 19023 19024 19025 19026 19027 19028 19029 19030 19031 19032 19033 19034 19035 19036 19037 19038 19039 19040 19041 19042 19043 19044 19045 19046 19047 19048 19049 19050 19051 19052 19053 19054 19055 19056 19057 19058 19059 19060 19061 19062 19063 19064 19065 19066 19067 19068 19069 19070 19071 19072 19073 19074 19075 19076 19077 19078 19079 19080 19081 19082 19083 19084 19085 19086 19087 19088 19089 19090 19091 19092 19093 19094 19095 19096 19097 19098 19099 19100 19101 19102 19103 19104 19105 19106 19107 19108 19109 19110 19111 19112 19113 19114 19115 19116 19117 19118 19119 19120 19121 19122 19123 19124 19125 19126 19127 19128 19129 19130 19131 19132 19133 19134 19135 19136 19137 19138 19139 19140 19141 19142 19143 19144 19145 19146 19147 19148 19149 19150 19151 19152 19153 19154 19155 19156 19157 19158 19159 19160 19161 19162 19163 19164 19165 19166 19167 19168 19169 19170 19171 19172 19173 19174 19175 19176 19177 19178 19179 19180 19181 19182 19183 19184 19185 19186 19187 19188 19189 19190 19191 19192 19193 19194 19195 19196 19197 19198 19199 19200 19201 19202 19203 19204 19205 19206 19207 19208 19209 19210 19211 19212 19213 19214 19215 19216 19217 19218 19219 19220 19221 19222 19223 19224 19225 19226 19227 19228 19229 19230 19231 19232 19233 19234 19235 19236 19237 19238 19239 19240 19241 19242 19243 19244 19245 19246 19247 19248 19249 19250 19251 19252 19253 19254 19255 19256 19257 19258 19259 19260 19261 19262 19263 19264 19265 19266 19267 19268 19269 19270 19271 19272 19273 19274 19275 19276 19277 19278 19279 19280 19281 19282 19283 19284 19285 19286 19287 19288 19289 19290 19291 19292 19293 19294 19295 19296 19297 19298 19299 19300 19301 19302 19303 19304 19305 19306 19307 19308 19309 19310 19311 19312 19313 19314 19315 19316 19317 19318 19319 19320 19321 19322 19323 19324 19325 19326 19327 19328 19329 19330 19331 19332 19333 19334 19335 19336 19337 19338 19339 19340 19341 19342 19343 19344 19345 19346 19347 19348 19349 19350 19351 19352 19353 19354 19355 19356 19357 19358 19359 19360 19361 19362 19363 19364 19365 19366 19367 19368 19369 19370 19371 19372 19373 19374 19375 19376 19377 19378 19379 19380 19381 19382 19383 19384 19385 19386 19387 19388 19389 19390 19391 19392 19393 19394 19395 19396 19397 19398 19399 19400 19401 19402 19403 19404 19405 19406 19407 19408 19409 19410 19411 19412 19413 19414 19415 19416 19417 19418 19419 19420 19421 19422 19423 19424 19425 19426 19427 19428 19429 19430 19431 19432 19433 19434 19435 19436 19437 19438 19439 19440 19441 19442 19443 19444 19445 19446 19447 19448 19449 19450 19451 19452 19453 19454 19455 19456 19457 19458 19459 19460 19461 19462 19463 19464 19465 19466 19467 19468 19469 19470 19471 19472 19473 19474 19475 19476 19477 19478 19479 19480 19481 19482 19483 19484 19485 19486 19487 19488 19489 19490 19491 19492 19493 19494 19495 19496 19497 19498 19499 19500 19501 19502 19503 19504 19505 19506 19507 19508 19509 19510 19511 19512 19513 19514 19515 19516 19517 19518 19519 19520 19521 19522 19523 19524 19525 19526 19527 19528 19529 19530 19531 19532 19533 19534 19535 19536 19537 19538 19539 19540 19541 19542 19543 19544 19545 19546 19547 19548 19549 19550 19551 19552 19553 19554 19555 19556 19557 19558 19559 19560 19561 19562 19563 19564 19565 19566 19567 19568 19569 19570 19571 19572 19573 19574 19575 19576 19577 19578 19579 19580 19581 19582 19583 19584 19585 19586 19587 19588 19589 19590 19591 19592 19593 19594 19595 19596 19597 19598 19599 19600 19601 19602 19603 19604 19605 19606 19607 19608 19609 19610 19611 19612 19613 19614 19615 19616 19617 19618 19619 19620 19621 19622 19623 19624 19625 19626 19627 19628 19629 19630 19631 19632 19633 19634 19635 19636 19637 19638 19639 19640 19641 19642 19643 19644 19645 19646 19647 19648 19649 19650 19651 19652 19653 19654 19655 19656 19657 19658 19659 19660 19661 19662 19663 19664 19665 19666 19667 19668 19669 19670 19671 19672 19673 19674 19675 19676 19677 19678 19679 19680 19681 19682 19683 19684 19685 19686 19687 19688 19689 19690 19691 19692 19693 19694 19695 19696 19697 19698 19699 19700 19701 19702 19703 19704 19705 19706 19707 19708 19709 19710 19711 19712 19713 19714 19715 19716 19717 19718 19719 19720 19721 19722 19723 19724 19725 19726 19727 19728 19729 19730 19731 19732 19733 19734 19735 19736 19737 19738 19739 19740 19741 19742 19743 19744 19745 19746 19747 19748 19749 19750 19751 19752 19753 19754 19755 19756 19757 19758 19759 19760 19761 19762 19763 19764 19765 19766 19767 19768 19769 19770 19771 19772 19773 19774 19775 19776 19777 19778 19779 19780 19781 19782 19783 19784 19785 19786 19787 19788 19789 19790 19791 19792 19793 19794 19795 19796 19797 19798 19799 19800 19801 19802 19803 19804 19805 19806 19807 19808 19809 19810 19811 19812 19813 19814 19815 19816 19817 19818 19819 19820 19821 19822 19823 19824 19825 19826 19827 19828 19829 19830 19831 19832 19833 19834 19835 19836 19837 19838 19839 19840 19841 19842 19843 19844 19845 19846 19847 19848 19849 19850 19851 19852 19853 19854 19855 19856 19857 19858 19859 19860 19861 19862 19863 19864 19865 19866 19867 19868 19869 19870 19871 19872 19873 19874 19875 19876 19877 19878 19879 19880 19881 19882 19883 19884 19885 19886 19887 19888 19889 19890 19891 19892 19893 19894 19895 19896 19897 19898 19899 19900 19901 19902 19903 19904 19905 19906 19907 19908 19909 19910 19911 19912 19913 19914 19915 19916 19917 19918 19919 19920 19921 19922 19923 19924 19925 19926 19927 19928 19929 19930 19931 19932 19933 19934 19935 19936 19937 19938 19939 19940 19941 19942 19943 19944 19945 19946 19947 19948 19949 19950 19951 19952 19953 19954 19955 19956 19957 19958 19959 19960 19961 19962 19963 19964 19965 19966 19967 19968 19969 19970 19971 19972 19973 19974 19975 19976 19977 19978 19979 19980 19981 19982 19983 19984 19985 19986 19987 19988 19989 19990 19991 19992 19993 19994 19995 19996 19997 19998 19999 20000 20001 20002 20003 20004 20005 20006 20007 20008 20009 20010 20011 20012 20013 20014 20015 20016 20017 20018 20019 20020 20021 20022 20023 20024 20025 20026 20027 20028 20029 20030 20031 20032 20033 20034 20035 20036 20037 20038 20039 20040 20041 20042 20043 20044 20045 20046 20047 20048 20049 20050 20051 20052 20053 20054 20055 20056 20057 20058 20059 20060 20061 20062 20063 20064 20065 20066 20067 20068 20069 20070 20071 20072 20073 20074 20075 20076 20077 20078 20079 20080 20081 20082 20083 20084 20085 20086 20087 20088 20089 20090 20091 20092 20093 20094 20095 20096 20097 20098 20099 20100 20101 20102 20103 20104 20105 20106 20107 20108 20109 20110 20111 20112 20113 20114 20115 20116 20117 20118 20119 20120 20121 20122 20123 20124 20125 20126 20127 20128 20129 20130 20131 20132 20133 20134 20135 20136 20137 20138 20139 20140 20141 20142 20143 20144 20145 20146 20147 20148 20149 20150 20151 20152 20153 20154 20155 20156 20157 20158 20159 20160 20161 20162 20163 20164 20165 20166 20167 20168 20169 20170 20171 20172 20173 20174 20175 20176 20177 20178 20179 20180 20181 20182 20183 20184 20185 20186 20187 20188 20189 20190 20191 20192 20193 20194 20195 20196 20197 20198 20199 20200 20201 20202 20203 20204 20205 20206 20207 20208 20209 20210 20211 20212 20213 20214 20215 20216 20217 20218 20219 20220 20221 20222 20223 20224 20225 20226 20227 20228 20229 20230 20231 20232 20233 20234 20235 20236 20237 20238 20239 20240 20241 20242 20243 20244 20245 20246 20247 20248 20249 20250 20251 20252 20253 20254 20255 20256 20257 20258 20259 20260 20261 20262 20263 20264 20265 20266 20267 20268 20269 20270 20271 20272 20273 20274 20275 20276 20277 20278 20279 20280 20281 20282 20283 20284 20285 20286 20287 20288 20289 20290 20291 20292 20293 20294 20295 20296 20297 20298 20299 20300 20301 20302 20303 20304 20305 20306 20307 20308 20309 20310 20311 20312 20313 20314 20315 20316 20317 20318 20319 20320 20321 20322 20323 20324 20325 20326 20327 20328 20329 20330 20331 20332 20333 20334 20335 20336 20337 20338 20339 20340 20341 20342 20343 20344 20345 20346 20347 20348 20349 20350 20351 20352 20353 20354 20355 20356 20357 20358 20359 20360 20361 20362 20363 20364 20365 20366 20367 20368 20369 20370 20371 20372 20373 20374 20375 20376 20377 20378 20379 20380 20381 20382 20383 20384 20385 20386 20387 20388 20389 20390 20391 20392 20393 20394 20395 20396 20397 20398 20399 20400 20401 20402 20403 20404 20405 20406 20407 20408 20409 20410 20411 20412 20413 20414 20415 20416 20417 20418 20419 20420 20421 20422 20423 20424 20425 20426 20427 20428 20429 20430 20431 20432 20433 20434 20435 20436 20437 20438 20439 20440 20441 20442 20443 20444 20445 20446 20447 20448 20449 20450 20451 20452 20453 20454 20455 20456 20457 20458 20459 20460 20461 20462 20463 20464 20465 20466 20467 20468 20469 20470 20471 20472 20473 20474 20475 20476 20477 20478 20479 20480 20481 20482 20483 20484 20485 20486 20487 20488 20489 20490 20491 20492 20493 20494 20495 20496 20497 20498 20499 20500 20501 20502 20503 20504 20505 20506 20507 20508 20509 20510 20511 20512 20513 20514 20515 20516 20517 20518 20519 20520 20521 20522 20523 20524 20525 20526 20527 20528 20529 20530 20531 20532 20533 20534 20535 20536 20537 20538 20539 20540 20541 20542 20543 20544 20545 20546 20547 20548 20549 20550 20551 20552 20553 20554 20555 20556 20557 20558 20559 20560 20561 20562 20563 20564 20565 20566 20567 20568 20569 20570 20571 20572 20573 20574 20575 20576 20577 20578 20579 20580 20581 20582 20583 20584 20585 20586 20587 20588 20589 20590 20591 20592 20593 20594 20595 20596 20597 20598 20599 20600 20601 20602 20603 20604 20605 20606 20607 20608 20609 20610 20611 20612 20613 20614 20615 20616 20617 20618 20619 20620 20621 20622 20623 20624 20625 20626 20627 20628 20629 20630 20631 20632 20633 20634 20635 20636 20637 20638 20639 20640 20641 20642 20643 20644 20645 20646 20647 20648 20649 20650 20651 20652 20653 20654 20655 20656 20657 20658 20659 20660 20661 20662 20663 20664 20665 20666 20667 20668 20669 20670 20671 20672 20673 20674 20675 20676 20677 20678 20679 20680 20681 20682 20683 20684 20685 20686 20687 20688 20689 20690 20691 20692 20693 20694 20695 20696 20697 20698 20699 20700 20701 20702 20703 20704 20705 20706 20707 20708 20709 20710 20711 20712 20713 20714 20715 20716 20717 20718 20719 20720 20721 20722 20723 20724 20725 20726 20727 20728 20729 20730 20731 20732 20733 20734 20735 20736 20737 20738 20739 20740 20741 20742 20743 20744 20745 20746 20747 20748 20749 20750 20751 20752 20753 20754 20755 20756 20757 20758 20759 20760 20761 20762 20763 20764 20765 20766 20767 20768 20769 20770 20771 20772 20773 20774 20775 20776 20777 20778 20779 20780 20781 20782 20783 20784 20785 20786 20787 20788 20789 20790 20791 20792 20793 20794 20795 20796 20797 20798 20799 20800 20801 20802 20803 20804 20805 20806 20807 20808 20809 20810 20811 20812 20813 20814 20815 20816 20817 20818 20819 20820 20821 20822 20823 20824 20825 20826 20827 20828 20829 20830 20831 20832 20833 20834 20835 20836 20837 20838 20839 20840 20841 20842 20843 20844 20845 20846 20847 20848 20849 20850 20851 20852 20853 20854 20855 20856 20857 20858 20859 20860 20861 20862 20863 20864 20865 20866 20867 20868 20869 20870 20871 20872 20873 20874 20875 20876 20877 20878 20879 20880 20881 20882 20883 20884 20885 20886 20887 20888 20889 20890 20891 20892 20893 20894 20895 20896 20897 20898 20899 20900 20901 20902 20903 20904 20905 20906 20907 20908 20909 20910 20911 20912 20913 20914 20915 20916 20917 20918 20919 20920 20921 20922 20923 20924 20925 20926 20927 20928 20929 20930 20931 20932 20933 20934 20935 20936 20937 20938 20939 20940 20941 20942 20943 20944 20945 20946 20947 20948 20949 20950 20951 20952 20953 20954 20955 20956 20957 20958 20959 20960 20961 20962 20963 20964 20965 20966 20967 20968 20969 20970 20971 20972 20973 20974 20975 20976 20977 20978 20979 20980 20981 20982 20983 20984 20985 20986 20987 20988 20989 20990 20991 20992 20993 20994 20995 20996 20997 20998 20999 21000 21001 21002 21003 21004 21005 21006 21007 21008 21009 21010 21011 21012 21013 21014 21015 21016 21017 21018 21019 21020 21021 21022 21023 21024 21025 21026 21027 21028 21029 21030 21031 21032 21033 21034 21035 21036 21037 21038 21039 21040 21041 21042 21043 21044 21045 21046 21047 21048 21049 21050 21051 21052 21053 21054 21055 21056 21057 21058 21059 21060 21061 21062 21063 21064 21065 21066 21067 21068 21069 21070 21071 21072 21073 21074 21075 21076 21077 21078 21079 21080 21081 21082 21083 21084 21085 21086 21087 21088 21089 21090 21091 21092 21093 21094 21095 21096 21097 21098 21099 21100 21101 21102 21103 21104 21105 21106 21107 21108 21109 21110 21111 21112 21113 21114 21115 21116 21117 21118 21119 21120 21121 21122 21123 21124 21125 21126 21127 21128 21129 21130 21131 21132 21133 21134 21135 21136 21137 21138 21139 21140 21141 21142 21143 21144 21145 21146 21147 21148 21149 21150 21151 21152 21153 21154 21155 21156 21157 21158 21159 21160 21161 21162 21163 21164 21165 21166 21167 21168 21169 21170 21171 21172 21173 21174 21175 21176 21177 21178 21179 21180 21181 21182 21183 21184 21185 21186 21187 21188 21189 21190 21191 21192 21193 21194 21195 21196 21197 21198 21199 21200 21201 21202 21203 21204 21205 21206 21207 21208 21209 21210 21211 21212 21213 21214 21215 21216 21217 21218 21219 21220 21221 21222 21223 21224 21225 21226 21227 21228 21229 21230 21231 21232 21233 21234 21235 21236 21237 21238 21239 21240 21241 21242 21243 21244 21245 21246 21247 21248 21249 21250 21251 21252 21253 21254 21255 21256 21257 21258 21259 21260 21261 21262 21263 21264 21265 21266 21267 21268 21269 21270 21271 21272 21273 21274 21275 21276 21277 21278 21279 21280 21281 21282 21283 21284 21285 21286 21287 21288 21289 21290 21291 21292 21293 21294 21295 21296 21297 21298 21299 21300 21301 21302 21303 21304 21305 21306 21307 21308 21309 21310 21311 21312 21313 21314 21315 21316 21317 21318 21319 21320 21321 21322 21323 21324 21325 21326 21327 21328 21329 21330 21331 21332 21333 21334 21335 21336 21337 21338 21339 21340 21341 21342 21343 21344 21345 21346 21347 21348 21349 21350 21351 21352 21353 21354 21355 21356 21357 21358 21359 21360 21361 21362 21363 21364 21365 21366 21367 21368 21369 21370 21371 21372 21373 21374 21375 21376 21377 21378 21379 21380 21381 21382 21383 21384 21385 21386 21387 21388 21389 21390 21391 21392 21393 21394 21395 21396 21397 21398 21399 21400 21401 21402 21403 21404 21405 21406 21407 21408 21409 21410 21411 21412 21413 21414 21415 21416 21417 21418 21419 21420 21421 21422 21423 21424 21425 21426 21427 21428 21429 21430 21431 21432 21433 21434 21435 21436 21437 21438 21439 21440 21441 21442 21443 21444 21445 21446 21447 21448 21449 21450 21451 21452 21453 21454 21455 21456 21457 21458 21459 21460 21461 21462 21463 21464 21465 21466 21467 21468 21469 21470 21471 21472 21473 21474 21475 21476 21477 21478 21479 21480 21481 21482 21483 21484 21485 21486 21487 21488 21489 21490 21491 21492 21493 21494 21495 21496 21497 21498 21499 21500 21501 21502 21503 21504 21505 21506 21507 21508 21509 21510 21511 21512 21513 21514 21515 21516 21517 21518 21519 21520 21521 21522 21523 21524 21525 21526 21527 21528 21529 21530 21531 21532 21533 21534 21535 21536 21537 21538 21539 21540 21541 21542 21543 21544 21545 21546 21547 21548 21549 21550 21551 21552 21553 21554 21555 21556 21557 21558 21559 21560 21561 21562 21563 21564 21565 21566 21567 21568 21569 21570 21571 21572 21573 21574 21575 21576 21577 21578 21579 21580 21581 21582 21583 21584 21585 21586 21587 21588 21589 21590 21591 21592 21593 21594 21595 21596 21597 21598 21599 21600 21601 21602 21603 21604 21605 21606 21607 21608 21609 21610 21611 21612 21613 21614 21615 21616 21617 21618 21619 21620 21621 21622 21623 21624 21625 21626 21627 21628 21629 21630 21631 21632 21633 21634 21635 21636 21637 21638 21639 21640 21641 21642 21643 21644 21645 21646 21647 21648 21649 21650 21651 21652 21653 21654 21655 21656 21657 21658 21659 21660 21661 21662 21663 21664 21665 21666 21667 21668 21669 21670 21671 21672 21673 21674 21675 21676 21677 21678 21679 21680 21681 21682 21683 21684 21685 21686 21687 21688 21689 21690 21691 21692 21693 21694 21695 21696 21697 21698 21699 21700 21701 21702 21703 21704 21705 21706 21707 21708 21709 21710 21711 21712 21713 21714 21715 21716 21717 21718 21719 21720 21721 21722 21723 21724 21725 21726 21727 21728 21729 21730 21731 21732 21733 21734 21735 21736 21737 21738 21739 21740 21741 21742 21743 21744 21745 21746 21747 21748 21749 21750 21751 21752 21753 21754 21755 21756 21757 21758 21759 21760 21761 21762 21763 21764 21765 21766 21767 21768 21769 21770 21771 21772 21773 21774 21775 21776 21777 21778 21779 21780 21781 21782 21783 21784 21785 21786 21787 21788 21789 21790 21791 21792 21793 21794 21795 21796 21797 21798 21799 21800 21801 21802 21803 21804 21805 21806 21807 21808 21809 21810 21811 21812 21813 21814 21815 21816 21817 21818 21819 21820 21821 21822 21823 21824 21825 21826 21827 21828 21829 21830 21831 21832 21833 21834 21835 21836 21837 21838 21839 21840 21841 21842 21843 21844 21845 21846 21847 21848 21849 21850 21851 21852 21853 21854 21855 21856 21857 21858 21859 21860 21861 21862 21863 21864 21865 21866 21867 21868 21869 21870 21871 21872 21873 21874 21875 21876 21877 21878 21879 21880 21881 21882 21883 21884 21885 21886 21887 21888 21889 21890 21891 21892 21893 21894 21895 21896 21897 21898 21899 21900 21901 21902 21903 21904 21905 21906 21907 21908 21909 21910 21911 21912 21913 21914 21915 21916 21917 21918 21919 21920 21921 21922 21923 21924 21925 21926 21927 21928 21929 21930 21931 21932 21933 21934 21935 21936 21937 21938 21939 21940 21941 21942 21943 21944 21945 21946 21947 21948 21949 21950 21951 21952 21953 21954 21955 21956 21957 21958 21959 21960 21961 21962 21963 21964 21965 21966 21967 21968 21969 21970 21971 21972 21973 21974 21975 21976 21977 21978 21979 21980 21981 21982 21983 21984 21985 21986 21987 21988 21989 21990 21991 21992 21993 21994 21995 21996 21997 21998 21999 22000 22001 22002 22003 22004 22005 22006 22007 22008 22009 22010 22011 22012 22013 22014 22015 22016 22017 22018 22019 22020 22021 22022 22023 22024 22025 22026 22027 22028 22029 22030 22031 22032 22033 22034 22035 22036 22037 22038 22039 22040 22041 22042 22043 22044 22045 22046 22047 22048 22049 22050 22051 22052 22053 22054 22055 22056 22057 22058 22059 22060 22061 22062 22063 22064 22065 22066 22067 22068 22069 22070 22071 22072 22073 22074 22075 22076 22077 22078 22079 22080 22081 22082 22083 22084 22085 22086 22087 22088 22089 22090 22091 22092 22093 22094 22095 22096 22097 22098 22099 22100 22101 22102 22103 22104 22105 22106 22107 22108 22109 22110 22111 22112 22113 22114 22115 22116 22117 22118 22119 22120 22121 22122 22123 22124 22125 22126 22127 22128 22129 22130 22131 22132 22133 22134 22135 22136 22137 22138 22139 22140 22141 22142 22143 22144 22145 22146 22147 22148 22149 22150 22151 22152 22153 22154 22155 22156 22157 22158 22159 22160 22161 22162 22163 22164 22165 22166 22167 22168 22169 22170 22171 22172 22173 22174 22175 22176 22177 22178 22179 22180 22181 22182 22183 22184 22185 22186 22187 22188 22189 22190 22191 22192 22193 22194 22195 22196 22197 22198 22199 22200 22201 22202 22203 22204 22205 22206 22207 22208 22209 22210 22211 22212 22213 22214 22215 22216 22217 22218 22219 22220 22221 22222 22223 22224 22225 22226 22227 22228 22229 22230 22231 22232 22233 22234 22235 22236 22237 22238 22239 22240 22241 22242 22243 22244 22245 22246 22247 22248 22249 22250 22251 22252 22253 22254 22255 22256 22257 22258 22259 22260 22261 22262 22263 22264 22265 22266 22267 22268 22269 22270 22271 22272 22273 22274 22275 22276 22277 22278 22279 22280 22281 22282 22283 22284 22285 22286 22287 22288 22289 22290 22291 22292 22293 22294 22295 22296 22297 22298 22299 22300 22301 22302 22303 22304 22305 22306 22307 22308 22309 22310 22311 22312 22313 22314 22315 22316 22317 22318 22319 22320 22321 22322 22323 22324 22325 22326 22327 22328 22329 22330 22331 22332 22333 22334 22335 22336 22337 22338 22339 22340 22341 22342 22343 22344 22345 22346 22347 22348 22349 22350 22351 22352 22353 22354 22355 22356 22357 22358 22359 22360 22361 22362 22363 22364 22365 22366 22367 22368 22369 22370 22371 22372 22373 22374 22375 22376 22377 22378 22379 22380 22381 22382 22383 22384 22385 22386 22387 22388 22389 22390 22391 22392 22393 22394 22395 22396 22397 22398 22399 22400 22401 22402 22403 22404 22405 22406 22407 22408 22409 22410 22411 22412 22413 22414 22415 22416 22417 22418 22419 22420 22421 22422 22423 22424 22425 22426 22427 22428 22429 22430 22431 22432 22433 22434 22435 22436 22437 22438 22439 22440 22441 22442 22443 22444 22445 22446 22447 22448 22449 22450 22451 22452 22453 22454 22455 22456 22457 22458 22459 22460 22461 22462 22463 22464 22465 22466 22467 22468 22469 22470 22471 22472 22473 22474 22475 22476 22477 22478 22479 22480 22481 22482 22483 22484 22485 22486 22487 22488 22489 22490 22491 22492 22493 22494 22495 22496 22497 22498 22499 22500 22501 22502 22503 22504 22505 22506 22507 22508 22509 22510 22511 22512 22513 22514 22515 22516 22517 22518 22519 22520 22521 22522 22523 22524 22525 22526 22527 22528 22529 22530 22531 22532 22533 22534 22535 22536 22537 22538 22539 22540 22541 22542 22543 22544 22545 22546 22547 22548 22549 22550 22551 22552 22553 22554 22555 22556 22557 22558 22559 22560 22561 22562 22563 22564 22565 22566 22567 22568 22569 22570 22571 22572 22573 22574 22575 22576 22577 22578 22579 22580 22581 22582 22583 22584 22585 22586 22587 22588 22589 22590 22591 22592 22593 22594 22595 22596 22597 22598 22599 22600 22601 22602 22603 22604 22605 22606 22607 22608 22609 22610 22611 22612 22613 22614 22615 22616 22617 22618 22619 22620 22621 22622 22623 22624 22625 22626 22627 22628 22629 22630 22631 22632 22633 22634 22635 22636 22637 22638 22639 22640 22641 22642 22643 22644 22645 22646 22647 22648 22649 22650 22651 22652 22653 22654 22655 22656 22657 22658 22659 22660 22661 22662 22663 22664 22665 22666 22667 22668 22669 22670 22671 22672 22673 22674 22675 22676 22677 22678 22679 22680 22681 22682 22683 22684 22685 22686 22687 22688 22689 22690 22691 22692 22693 22694 22695 22696 22697 22698 22699 22700 22701 22702 22703 22704 22705 22706 22707 22708 22709 22710 22711 22712 22713 22714 22715 22716 22717 22718 22719 22720 22721 22722 22723 22724 22725 22726 22727 22728 22729 22730 22731 22732 22733 22734 22735 22736 22737 22738 22739 22740 22741 22742 22743 22744 22745 22746 22747 22748 22749 22750 22751 22752 22753 22754 22755 22756 22757 22758 22759 22760 22761 22762 22763 22764 22765 22766 22767 22768 22769 22770 22771 22772 22773 22774 22775 22776 22777 22778 22779 22780 22781 22782 22783 22784 22785 22786 22787 22788 22789 22790 22791 22792 22793 22794 22795 22796 22797 22798 22799 22800 22801 22802 22803 22804 22805 22806 22807 22808 22809 22810 22811 22812 22813 22814 22815 22816 22817 22818 22819 22820 22821 22822 22823 22824 22825 22826 22827 22828 22829 22830 22831 22832 22833 22834 22835 22836 22837 22838 22839 22840 22841 22842 22843 22844 22845 22846 22847 22848 22849 22850 22851 22852 22853 22854 22855 22856 22857 22858 22859 22860 22861 22862 22863 22864 22865 22866 22867 22868 22869 22870 22871 22872 22873 22874 22875 22876 22877 22878 22879 22880 22881 22882 22883 22884 22885 22886 22887 22888 22889 22890 22891 22892 22893 22894 22895 22896 22897 22898 22899 22900 22901 22902 22903 22904 22905 22906 22907 22908 22909 22910 22911 22912 22913 22914 22915 22916 22917 22918 22919 22920 22921 22922 22923 22924 22925 22926 22927 22928 22929 22930 22931 22932 22933 22934 22935 22936 22937 22938 22939 22940 22941 22942 22943 22944 22945 22946 22947 22948 22949 22950 22951 22952 22953 22954 22955 22956 22957 22958 22959 22960 22961 22962 22963 22964 22965 22966 22967 22968 22969 22970 22971 22972 22973 22974 22975 22976 22977 22978 22979 22980 22981 22982 22983 22984 22985 22986 22987 22988 22989 22990 22991 22992 22993 22994 22995 22996 22997 22998 22999 23000 23001 23002 23003 23004 23005 23006 23007 23008 23009 23010 23011 23012 23013 23014 23015 23016 23017 23018 23019 23020 23021 23022 23023 23024 23025 23026 23027 23028 23029 23030 23031 23032 23033 23034 23035 23036 23037 23038 23039 23040 23041 23042 23043 23044 23045 23046 23047 23048 23049 23050 23051 23052 23053 23054 23055 23056 23057 23058 23059 23060 23061 23062 23063 23064 23065 23066 23067 23068 23069 23070 23071 23072 23073 23074 23075 23076 23077 23078 23079 23080 23081 23082 23083 23084 23085 23086 23087 23088 23089 23090 23091 23092 23093 23094 23095 23096 23097 23098 23099 23100 23101 23102 23103 23104 23105 23106 23107 23108 23109 23110 23111 23112 23113 23114 23115 23116 23117 23118 23119 23120 23121 23122 23123 23124 23125 23126 23127 23128 23129 23130 23131 23132 23133 23134 23135 23136 23137 23138 23139 23140 23141 23142 23143 23144 23145 23146 23147 23148 23149 23150 23151 23152 23153 23154 23155 23156 23157 23158 23159 23160 23161 23162 23163 23164 23165 23166 23167 23168 23169 23170 23171 23172 23173 23174 23175 23176 23177 23178 23179 23180 23181 23182 23183 23184 23185 23186 23187 23188 23189 23190 23191 23192 23193 23194 23195 23196 23197 23198 23199 23200 23201 23202 23203 23204 23205 23206 23207 23208 23209 23210 23211 23212 23213 23214 23215 23216 23217 23218 23219 23220 23221 23222 23223 23224 23225 23226 23227 23228 23229 23230 23231 23232 23233 23234 23235 23236 23237 23238 23239 23240 23241 23242 23243 23244 23245 23246 23247 23248 23249 23250 23251 23252 23253 23254 23255 23256 23257 23258 23259 23260 23261 23262 23263 23264 23265 23266 23267 23268 23269 23270 23271 23272 23273 23274 23275 23276 23277 23278 23279 23280 23281 23282 23283 23284 23285 23286 23287 23288 23289 23290 23291 23292 23293 23294 23295 23296 23297 23298 23299 23300 23301 23302 23303 23304 23305 23306 23307 23308 23309 23310 23311 23312 23313 23314 23315 23316 23317 23318 23319 23320 23321 23322 23323 23324 23325 23326 23327 23328 23329 23330 23331 23332 23333 23334 23335 23336 23337 23338 23339 23340 23341 23342 23343 23344 23345 23346 23347 23348 23349 23350 23351 23352 23353 23354 23355 23356 23357 23358 23359 23360 23361 23362 23363 23364 23365 23366 23367 23368 23369 23370 23371 23372 23373 23374 23375 23376 23377 23378 23379 23380 23381 23382 23383 23384 23385 23386 23387 23388 23389 23390 23391 23392 23393 23394 23395 23396 23397 23398 23399 23400 23401 23402 23403 23404 23405 23406 23407 23408 23409 23410 23411 23412 23413 23414 23415 23416 23417 23418 23419 23420 23421 23422 23423 23424 23425 23426 23427 23428 23429 23430 23431 23432 23433 23434 23435 23436 23437 23438 23439 23440 23441 23442 23443 23444 23445 23446 23447 23448 23449 23450 23451 23452 23453 23454 23455 23456 23457 23458 23459 23460 23461 23462 23463 23464 23465 23466 23467 23468 23469 23470 23471 23472 23473 23474 23475 23476 23477 23478 23479 23480 23481 23482 23483 23484 23485 23486 23487 23488 23489 23490 23491 23492 23493 23494 23495 23496 23497 23498 23499 23500 23501 23502 23503 23504 23505 23506 23507 23508 23509 23510 23511 23512 23513 23514 23515 23516 23517 23518 23519 23520 23521 23522 23523 23524 23525 23526 23527 23528 23529 23530 23531 23532 23533 23534 23535 23536 23537 23538 23539 23540 23541 23542 23543 23544 23545 23546 23547 23548 23549 23550 23551 23552 23553 23554 23555 23556 23557 23558 23559 23560 23561 23562 23563 23564 23565 23566 23567 23568 23569 23570 23571 23572 23573 23574 23575 23576 23577 23578 23579 23580 23581 23582 23583 23584 23585 23586 23587 23588 23589 23590 23591 23592 23593 23594 23595 23596 23597 23598 23599 23600 23601 23602 23603 23604 23605 23606 23607 23608 23609 23610 23611 23612 23613 23614 23615 23616 23617 23618 23619 23620 23621 23622 23623 23624 23625 23626 23627 23628 23629 23630 23631 23632 23633 23634 23635 23636 23637 23638 23639 23640 23641 23642 23643 23644 23645 23646 23647 23648 23649 23650 23651 23652 23653 23654 23655 23656 23657 23658 23659 23660 23661 23662 23663 23664 23665 23666 23667 23668 23669 23670 23671 23672 23673 23674 23675 23676 23677 23678 23679 23680 23681 23682 23683 23684 23685 23686 23687 23688 23689 23690 23691 23692 23693 23694 23695 23696 23697 23698 23699 23700 23701 23702 23703 23704 23705 23706 23707 23708 23709 23710 23711 23712 23713 23714 23715 23716 23717 23718 23719 23720 23721 23722 23723 23724 23725 23726 23727 23728 23729 23730 23731 23732 23733 23734 23735 23736 23737 23738 23739 23740 23741 23742 23743 23744 23745 23746 23747 23748 23749 23750 23751 23752 23753 23754 23755 23756 23757 23758 23759 23760 23761 23762 23763 23764 23765 23766 23767 23768 23769 23770 23771 23772 23773 23774 23775 23776 23777 23778 23779 23780 23781 23782 23783 23784 23785 23786 23787 23788 23789 23790 23791 23792 23793 23794 23795 23796 23797 23798 23799 23800 23801 23802 23803 23804 23805 23806 23807 23808 23809 23810 23811 23812 23813 23814 23815 23816 23817 23818 23819 23820 23821 23822 23823 23824 23825 23826 23827 23828 23829 23830 23831 23832 23833 23834 23835 23836 23837 23838 23839 23840 23841 23842 23843 23844 23845 23846 23847 23848 23849 23850 23851 23852 23853 23854 23855 23856 23857 23858 23859 23860 23861 23862 23863 23864 23865 23866 23867 23868 23869 23870 23871 23872 23873 23874 23875 23876 23877 23878 23879 23880 23881 23882 23883 23884 23885 23886 23887 23888 23889 23890 23891 23892 23893 23894 23895 23896 23897 23898 23899 23900 23901 23902 23903 23904 23905 23906 23907 23908 23909 23910 23911 23912 23913 23914 23915 23916 23917 23918 23919 23920 23921 23922 23923 23924 23925 23926 23927 23928 23929 23930 23931 23932 23933 23934 23935 23936 23937 23938 23939 23940 23941 23942 23943 23944 23945 23946 23947 23948 23949 23950 23951 23952 23953 23954 23955 23956 23957 23958 23959 23960 23961 23962 23963 23964 23965 23966 23967 23968 23969 23970 23971 23972 23973 23974 23975 23976 23977 23978 23979 23980 23981 23982 23983 23984 23985 23986 23987 23988 23989 23990 23991 23992 23993 23994 23995 23996 23997 23998 23999 24000 24001 24002 24003 24004 24005 24006 24007 24008 24009 24010 24011 24012 24013 24014 24015 24016 24017 24018 24019 24020 24021 24022 24023 24024 24025 24026 24027 24028 24029 24030 24031 24032 24033 24034 24035 24036 24037 24038 24039 24040 24041 24042 24043 24044 24045 24046 24047 24048 24049 24050 24051 24052 24053 24054 24055 24056 24057 24058 24059 24060 24061 24062 24063 24064 24065 24066 24067 24068 24069 24070 24071 24072 24073 24074 24075 24076 24077 24078 24079 24080 24081 24082 24083 24084 24085 24086 24087 24088 24089 24090 24091 24092 24093 24094 24095 24096 24097 24098 24099 24100 24101 24102 24103 24104 24105 24106 24107 24108 24109 24110 24111 24112 24113 24114 24115 24116 24117 24118 24119 24120 24121 24122 24123 24124 24125 24126 24127 24128 24129 24130 24131 24132 24133 24134 24135 24136 24137 24138 24139 24140 24141 24142 24143 24144 24145 24146 24147 24148 24149 24150 24151 24152 24153 24154 24155 24156 24157 24158 24159 24160 24161 24162 24163 24164 24165 24166 24167 24168 24169 24170 24171 24172 24173 24174 24175 24176 24177 24178 24179 24180 24181 24182 24183 24184 24185 24186 24187 24188 24189 24190 24191 24192 24193 24194 24195 24196 24197 24198 24199 24200 24201 24202 24203 24204 24205 24206 24207 24208 24209 24210 24211 24212 24213 24214 24215 24216 24217 24218 24219 24220 24221 24222 24223 24224 24225 24226 24227 24228 24229 24230 24231 24232 24233 24234 24235 24236 24237 24238 24239 24240 24241 24242 24243 24244 24245 24246 24247 24248 24249 24250 24251 24252 24253 24254 24255 24256 24257 24258 24259 24260 24261 24262 24263 24264 24265 24266 24267 24268 24269 24270 24271 24272 24273 24274 24275 24276 24277 24278 24279 24280 24281 24282 24283 24284 24285 24286 24287 24288 24289 24290 24291 24292 24293 24294 24295 24296 24297 24298 24299 24300 24301 24302 24303 24304 24305 24306 24307 24308 24309 24310 24311 24312 24313 24314 24315 24316 24317 24318 24319 24320 24321 24322 24323 24324 24325 24326 24327 24328 24329 24330 24331 24332 24333 24334 24335 24336 24337 24338 24339 24340 24341 24342 24343 24344 24345 24346 24347 24348 24349 24350 24351 24352 24353 24354 24355 24356 24357 24358 24359 24360 24361 24362 24363 24364 24365 24366 24367 24368 24369 24370 24371 24372 24373 24374 24375 24376 24377 24378 24379 24380 24381 24382 24383 24384 24385 24386 24387 24388 24389 24390 24391 24392 24393 24394 24395 24396 24397 24398 24399 24400 24401 24402 24403 24404 24405 24406 24407 24408 24409 24410 24411 24412 24413 24414 24415 24416 24417 24418 24419 24420 24421 24422 24423 24424 24425 24426 24427 24428 24429 24430 24431 24432 24433 24434 24435 24436 24437 24438 24439 24440 24441 24442 24443 24444 24445 24446 24447 24448 24449 24450 24451 24452 24453 24454 24455 24456 24457 24458 24459 24460 24461 24462 24463 24464 24465 24466 24467 24468 24469 24470 24471 24472 24473 24474 24475 24476 24477 24478 24479 24480 24481 24482 24483 24484 24485 24486 24487 24488 24489 24490 24491 24492 24493 24494 24495 24496 24497 24498 24499 24500 24501 24502 24503 24504 24505 24506 24507 24508 24509 24510 24511 24512 24513 24514 24515 24516 24517 24518 24519 24520 24521 24522 24523 24524 24525 24526 24527 24528 24529 24530 24531 24532 24533 24534 24535 24536 24537 24538 24539 24540 24541 24542 24543 24544 24545 24546 24547 24548 24549 24550 24551 24552 24553 24554 24555 24556 24557 24558 24559 24560 24561 24562 24563 24564 24565 24566 24567 24568 24569 24570 24571 24572 24573 24574 24575 24576 24577 24578 24579 24580 24581 24582 24583 24584 24585 24586 24587 24588 24589 24590 24591 24592 24593 24594 24595 24596 24597 24598 24599 24600 24601 24602 24603 24604 24605 24606 24607 24608 24609 24610 24611 24612 24613 24614 24615 24616 24617 24618 24619 24620 24621 24622 24623 24624 24625 24626 24627 24628 24629 24630 24631 24632 24633 24634 24635 24636 24637 24638 24639 24640 24641 24642 24643 24644 24645 24646 24647 24648 24649 24650 24651 24652 24653 24654 24655 24656 24657 24658 24659 24660 24661 24662 24663 24664 24665 24666 24667 24668 24669 24670 24671 24672 24673 24674 24675 24676 24677 24678 24679 24680 24681 24682 24683 24684 24685 24686 24687 24688 24689 24690 24691 24692 24693 24694 24695 24696 24697 24698 24699 24700 24701 24702 24703 24704 24705 24706 24707 24708 24709 24710 24711 24712 24713 24714 24715 24716 24717 24718 24719 24720 24721 24722 24723 24724 24725 24726 24727 24728 24729 24730 24731 24732 24733 24734 24735 24736 24737 24738 24739 24740 24741 24742 24743 24744 24745 24746 24747 24748 24749 24750 24751 24752 24753 24754 24755 24756 24757 24758 24759 24760 24761 24762 24763 24764 24765 24766 24767 24768 24769 24770 24771 24772 24773 24774 24775 24776 24777 24778 24779 24780 24781 24782 24783 24784 24785 24786 24787 24788 24789 24790 24791 24792 24793 24794 24795 24796 24797 24798 24799 24800 24801 24802 24803 24804 24805 24806 24807 24808 24809 24810 24811 24812 24813 24814 24815 24816 24817 24818 24819 24820 24821 24822 24823 24824 24825 24826 24827 24828 24829 24830 24831 24832 24833 24834 24835 24836 24837 24838 24839 24840 24841 24842 24843 24844 24845 24846 24847 24848 24849 24850 24851 24852 24853 24854 24855 24856 24857 24858 24859 24860 24861 24862 24863 24864 24865 24866 24867 24868 24869 24870 24871 24872 24873 24874 24875 24876 24877 24878 24879 24880 24881 24882 24883 24884 24885 24886 24887 24888 24889 24890 24891 24892 24893 24894 24895 24896 24897 24898 24899 24900 24901 24902 24903 24904 24905 24906 24907 24908 24909 24910 24911 24912 24913 24914 24915 24916 24917 24918 24919 24920 24921 24922 24923 24924 24925 24926 24927 24928 24929 24930 24931 24932 24933 24934 24935 24936 24937 24938 24939 24940 24941 24942 24943 24944 24945 24946 24947 24948 24949 24950 24951 24952 24953 24954 24955 24956 24957 24958 24959 24960 24961 24962 24963 24964 24965 24966 24967 24968 24969 24970 24971 24972 24973 24974 24975 24976 24977 24978 24979 24980 24981 24982 24983 24984 24985 24986 24987 24988 24989 24990 24991 24992 24993 24994 24995 24996 24997 24998 24999 25000 25001 25002 25003 25004 25005 25006 25007 25008 25009 25010 25011 25012 25013 25014 25015 25016 25017 25018 25019 25020 25021 25022 25023 25024 25025 25026 25027 25028 25029 25030 25031 25032 25033 25034 25035 25036 25037 25038 25039 25040 25041 25042 25043 25044 25045 25046 25047 25048 25049 25050 25051 25052 25053 25054 25055 25056 25057 25058 25059 25060 25061 25062 25063 25064 25065 25066 25067 25068 25069 25070 25071 25072 25073 25074 25075 25076 25077 25078 25079 25080 25081 25082 25083 25084 25085 25086 25087 25088 25089 25090 25091 25092 25093 25094 25095 25096 25097 25098 25099 25100 25101 25102 25103 25104 25105 25106 25107 25108 25109 25110 25111 25112 25113 25114 25115 25116 25117 25118 25119 25120 25121 25122 25123 25124 25125 25126 25127 25128 25129 25130 25131 25132 25133 25134 25135 25136 25137 25138 25139 25140 25141 25142 25143 25144 25145 25146 25147 25148 25149 25150 25151 25152 25153 25154 25155 25156 25157 25158 25159 25160 25161 25162 25163 25164 25165 25166 25167 25168 25169 25170 25171 25172 25173 25174 25175 25176 25177 25178 25179 25180 25181 25182 25183 25184 25185 25186 25187 25188 25189 25190 25191 25192 25193 25194 25195 25196 25197 25198 25199 25200 25201 25202 25203 25204 25205 25206 25207 25208 25209 25210 25211 25212 25213 25214 25215 25216 25217 25218 25219 25220 25221 25222 25223 25224 25225 25226 25227 25228 25229 25230 25231 25232 25233 25234 25235 25236 25237 25238 25239 25240 25241 25242 25243 25244 25245 25246 25247 25248 25249 25250 25251 25252 25253 25254 25255 25256 25257 25258 25259 25260 25261 25262 25263 25264 25265 25266 25267 25268 25269 25270 25271 25272 25273 25274 25275 25276 25277 25278 25279 25280 25281 25282 25283 25284 25285 25286 25287 25288 25289 25290 25291 25292 25293 25294 25295 25296 25297 25298 25299 25300 25301 25302 25303 25304 25305 25306 25307 25308 25309 25310 25311 25312 25313 25314 25315 25316 25317 25318 25319 25320 25321 25322 25323 25324 25325 25326 25327 25328 25329 25330 25331 25332 25333 25334 25335 25336 25337 25338 25339 25340 25341 25342 25343 25344 25345 25346 25347 25348 25349 25350 25351 25352 25353 25354 25355 25356 25357 25358 25359 25360 25361 25362 25363 25364 25365 25366 25367 25368 25369 25370 25371 25372 25373 25374 25375 25376 25377 25378 25379 25380 25381 25382 25383 25384 25385 25386 25387 25388 25389 25390 25391 25392 25393 25394 25395 25396 25397 25398 25399 25400 25401 25402 25403 25404 25405 25406 25407 25408 25409 25410 25411 25412 25413 25414 25415 25416 25417 25418 25419 25420 25421 25422 25423 25424 25425 25426 25427 25428 25429 25430 25431 25432 25433 25434 25435 25436 25437 25438 25439 25440 25441 25442 25443 25444 25445 25446 25447 25448 25449 25450 25451 25452 25453 25454 25455 25456 25457 25458 25459 25460 25461 25462 25463 25464 25465 25466 25467 25468 25469 25470 25471 25472 25473 25474 25475 25476 25477 25478 25479 25480 25481 25482 25483 25484 25485 25486 25487 25488 25489 25490 25491 25492 25493 25494 25495 25496 25497 25498 25499 25500 25501 25502 25503 25504 25505 25506 25507 25508 25509 25510 25511 25512 25513 25514 25515 25516 25517 25518 25519 25520 25521 25522 25523 25524 25525 25526 25527 25528 25529 25530 25531 25532 25533 25534 25535 25536 25537 25538 25539 25540 25541 25542 25543 25544 25545 25546 25547 25548 25549 25550 25551 25552 25553 25554 25555 25556 25557 25558 25559 25560 25561 25562 25563 25564 25565 25566 25567 25568 25569 25570 25571 25572 25573 25574 25575 25576 25577 25578 25579 25580 25581 25582 25583 25584 25585 25586 25587 25588 25589 25590 25591 25592 25593 25594 25595 25596 25597 25598 25599 25600 25601 25602 25603 25604 25605 25606 25607 25608 25609 25610 25611 25612 25613 25614 25615 25616 25617 25618 25619 25620 25621 25622 25623 25624 25625 25626 25627 25628 25629 25630 25631 25632 25633 25634 25635 25636 25637 25638 25639 25640 25641 25642 25643 25644 25645 25646 25647 25648 25649 25650 25651 25652 25653 25654 25655 25656 25657 25658 25659 25660 25661 25662 25663 25664 25665 25666 25667 25668 25669 25670 25671 25672 25673 25674 25675 25676 25677 25678 25679 25680 25681 25682 25683 25684 25685 25686 25687 25688 25689 25690 25691 25692 25693 25694 25695 25696 25697 25698 25699 25700 25701 25702 25703 25704 25705 25706 25707 25708 25709 25710 25711 25712 25713 25714 25715 25716 25717 25718 25719 25720 25721 25722 25723 25724 25725 25726 25727 25728 25729 25730 25731 25732 25733 25734 25735 25736 25737 25738 25739 25740 25741 25742 25743 25744 25745 25746 25747 25748 25749 25750 25751 25752 25753 25754 25755 25756 25757 25758 25759 25760 25761 25762 25763 25764 25765 25766 25767 25768 25769 25770 25771 25772 25773 25774 25775 25776 25777 25778 25779 25780 25781 25782 25783 25784 25785 25786 25787 25788 25789 25790 25791 25792 25793 25794 25795 25796 25797 25798 25799 25800 25801 25802 25803 25804 25805 25806 25807 25808 25809 25810 25811 25812 25813 25814 25815 25816 25817 25818 25819 25820 25821 25822 25823 25824 25825 25826 25827 25828 25829 25830 25831 25832 25833 25834 25835 25836 25837 25838 25839 25840 25841 25842 25843 25844 25845 25846 25847 25848 25849 25850 25851 25852 25853 25854 25855 25856 25857 25858 25859 25860 25861 25862 25863 25864 25865 25866 25867 25868 25869 25870 25871 25872 25873 25874 25875 25876 25877 25878 25879 25880 25881 25882 25883 25884 25885 25886 25887 25888 25889 25890 25891 25892 25893 25894 25895 25896 25897 25898 25899 25900 25901 25902 25903 25904 25905 25906 25907 25908 25909 25910 25911 25912 25913 25914 25915 25916 25917 25918 25919 25920 25921 25922 25923 25924 25925 25926 25927 25928 25929 25930 25931 25932 25933 25934 25935 25936 25937 25938 25939 25940 25941 25942 25943 25944 25945 25946 25947 25948 25949 25950 25951 25952 25953 25954 25955 25956 25957 25958 25959 25960 25961 25962 25963 25964 25965 25966 25967 25968 25969 25970 25971 25972 25973 25974 25975 25976 25977 25978 25979 25980 25981 25982 25983 25984 25985 25986 25987 25988 25989 25990 25991 25992 25993 25994 25995 25996 25997 25998 25999 26000 26001 26002 26003 26004 26005 26006 26007 26008 26009 26010 26011 26012 26013 26014 26015 26016 26017 26018 26019 26020 26021 26022 26023 26024 26025 26026 26027 26028 26029 26030 26031 26032 26033 26034 26035 26036 26037 26038 26039 26040 26041 26042 26043 26044 26045 26046 26047 26048 26049 26050 26051 26052 26053 26054 26055 26056 26057 26058 26059 26060 26061 26062 26063 26064 26065 26066 26067 26068 26069 26070 26071 26072 26073 26074 26075 26076 26077 26078 26079 26080 26081 26082 26083 26084 26085 26086 26087 26088 26089 26090 26091 26092 26093 26094 26095 26096 26097 26098 26099 26100 26101 26102 26103 26104 26105 26106 26107 26108 26109 26110 26111 26112 26113 26114 26115 26116 26117 26118 26119 26120 26121 26122 26123 26124 26125 26126 26127 26128 26129 26130 26131 26132 26133 26134 26135 26136 26137 26138 26139 26140 26141 26142 26143 26144 26145 26146 26147 26148 26149 26150 26151 26152 26153 26154 26155 26156 26157 26158 26159 26160 26161 26162 26163 26164 26165 26166 26167 26168 26169 26170 26171 26172 26173 26174 26175 26176 26177 26178 26179 26180 26181 26182 26183 26184 26185 26186 26187 26188 26189 26190 26191 26192 26193 26194 26195 26196 26197 26198 26199 26200 26201 26202 26203 26204 26205 26206 26207 26208 26209 26210 26211 26212 26213 26214 26215 26216 26217 26218 26219 26220 26221 26222 26223 26224 26225 26226 26227 26228 26229 26230 26231 26232 26233 26234 26235 26236 26237 26238 26239 26240 26241 26242 26243 26244 26245 26246 26247 26248 26249 26250 26251 26252 26253 26254 26255 26256 26257 26258 26259 26260 26261 26262 26263 26264 26265 26266 26267 26268 26269 26270 26271 26272 26273 26274 26275 26276 26277 26278 26279 26280 26281 26282 26283 26284 26285 26286 26287 26288 26289 26290 26291 26292 26293 26294 26295 26296 26297 26298 26299 26300 26301 26302 26303 26304 26305 26306 26307 26308 26309 26310 26311 26312 26313 26314 26315 26316 26317 26318 26319 26320 26321 26322 26323 26324 26325 26326 26327 26328 26329 26330 26331 26332 26333 26334 26335 26336 26337 26338 26339 26340 26341 26342 26343 26344 26345 26346 26347 26348 26349 26350 26351 26352 26353 26354 26355 26356 26357 26358 26359 26360 26361 26362 26363 26364 26365 26366 26367 26368 26369 26370 26371 26372 26373 26374 26375 26376 26377 26378 26379 26380 26381 26382 26383 26384 26385 26386 26387 26388 26389 26390 26391 26392 26393 26394 26395 26396 26397 26398 26399 26400 26401 26402 26403 26404 26405 26406 26407 26408 26409 26410 26411 26412 26413 26414 26415 26416 26417 26418 26419 26420 26421 26422 26423 26424 26425 26426 26427 26428 26429 26430 26431 26432 26433 26434 26435 26436 26437 26438 26439 26440 26441 26442 26443 26444 26445 26446 26447 26448 26449 26450 26451 26452 26453 26454 26455 26456 26457 26458 26459 26460 26461 26462 26463 26464 26465 26466 26467 26468 26469 26470 26471 26472 26473 26474 26475 26476 26477 26478 26479 26480 26481 26482 26483 26484 26485 26486 26487 26488 26489 26490 26491 26492 26493 26494 26495 26496 26497 26498 26499 26500 26501 26502 26503 26504 26505 26506 26507 26508 26509 26510 26511 26512 26513 26514 26515 26516 26517 26518 26519 26520 26521 26522 26523 26524 26525 26526 26527 26528 26529 26530 26531 26532 26533 26534 26535 26536 26537 26538 26539 26540 26541 26542 26543 26544 26545 26546 26547 26548 26549 26550 26551 26552 26553 26554 26555 26556 26557 26558 26559 26560 26561 26562 26563 26564 26565 26566 26567 26568 26569 26570 26571 26572 26573 26574 26575 26576 26577 26578 26579 26580 26581 26582 26583 26584 26585 26586 26587 26588 26589 26590 26591 26592 26593 26594 26595 26596 26597 26598 26599 26600 26601 26602 26603 26604 26605 26606 26607 26608 26609 26610 26611 26612 26613 26614 26615 26616 26617 26618 26619 26620 26621 26622 26623 26624 26625 26626 26627 26628 26629 26630 26631 26632 26633 26634 26635 26636 26637 26638 26639 26640 26641 26642 26643 26644 26645 26646 26647 26648 26649 26650 26651 26652 26653 26654 26655 26656 26657 26658 26659 26660 26661 26662 26663 26664 26665 26666 26667 26668 26669 26670 26671 26672 26673 26674 26675 26676 26677 26678 26679 26680 26681 26682 26683 26684 26685 26686 26687 26688 26689 26690 26691 26692 26693 26694 26695 26696 26697 26698 26699 26700 26701 26702 26703 26704 26705 26706 26707 26708 26709 26710 26711 26712 26713 26714 26715 26716 26717 26718 26719 26720 26721 26722 26723 26724 26725 26726 26727 26728 26729 26730 26731 26732 26733 26734 26735 26736 26737 26738 26739 26740 26741 26742 26743 26744 26745 26746 26747 26748 26749 26750 26751 26752 26753 26754 26755 26756 26757 26758 26759 26760 26761 26762 26763 26764 26765 26766 26767 26768 26769 26770 26771 26772 26773 26774 26775 26776 26777 26778 26779 26780 26781 26782 26783 26784 26785 26786 26787 26788 26789 26790 26791 26792 26793 26794 26795 26796 26797 26798 26799 26800 26801 26802 26803 26804 26805 26806 26807 26808 26809 26810 26811 26812 26813 26814 26815 26816 26817 26818 26819 26820 26821 26822 26823 26824 26825 26826 26827 26828 26829 26830 26831 26832 26833 26834 26835 26836 26837 26838 26839 26840 26841 26842 26843 26844 26845 26846 26847 26848 26849 26850 26851 26852 26853 26854 26855 26856 26857 26858 26859 26860 26861 26862 26863 26864 26865 26866 26867 26868 26869 26870 26871 26872 26873 26874 26875 26876 26877 26878 26879 26880 26881 26882 26883 26884 26885 26886 26887 26888 26889 26890 26891 26892 26893 26894 26895 26896 26897 26898 26899 26900 26901 26902 26903 26904 26905 26906 26907 26908 26909 26910 26911 26912 26913 26914 26915 26916 26917 26918 26919 26920 26921 26922 26923 26924 26925 26926 26927 26928 26929 26930 26931 26932 26933 26934 26935 26936 26937 26938 26939 26940 26941 26942 26943 26944 26945 26946 26947 26948 26949 26950 26951 26952 26953 26954 26955 26956 26957 26958 26959 26960 26961 26962 26963 26964 26965 26966 26967 26968 26969 26970 26971 26972 26973 26974 26975 26976 26977 26978 26979 26980 26981 26982 26983 26984 26985 26986 26987 26988 26989 26990 26991 26992 26993 26994 26995 26996 26997 26998 26999 27000 27001 27002 27003 27004 27005 27006 27007 27008 27009 27010 27011 27012 27013 27014 27015 27016 27017 27018 27019 27020 27021 27022 27023 27024 27025 27026 27027 27028 27029 27030 27031 27032 27033 27034 27035 27036 27037 27038 27039 27040 27041 27042 27043 27044 27045 27046 27047 27048 27049 27050 27051 27052 27053 27054 27055 27056 27057 27058 27059 27060 27061 27062 27063 27064 27065 27066 27067 27068 27069 27070 27071 27072 27073 27074 27075 27076 27077 27078 27079 27080 27081 27082 27083 27084 27085 27086 27087 27088 27089 27090 27091 27092 27093 27094 27095 27096 27097 27098 27099 27100 27101 27102 27103 27104 27105 27106 27107 27108 27109 27110 27111 27112 27113 27114 27115 27116 27117 27118 27119 27120 27121 27122 27123 27124 27125 27126 27127 27128 27129 27130 27131 27132 27133 27134 27135 27136 27137 27138 27139 27140 27141 27142 27143 27144 27145 27146 27147 27148 27149 27150 27151 27152 27153 27154 27155 27156 27157 27158 27159 27160 27161 27162 27163 27164 27165 27166 27167 27168 27169 27170 27171 27172 27173 27174 27175 27176 27177 27178 27179 27180 27181 27182 27183 27184 27185 27186 27187 27188 27189 27190 27191 27192 27193 27194 27195 27196 27197 27198 27199 27200 27201 27202 27203 27204 27205 27206 27207 27208 27209 27210 27211 27212 27213 27214 27215 27216 27217 27218 27219 27220 27221 27222 27223 27224 27225 27226 27227 27228 27229 27230 27231 27232 27233 27234 27235 27236 27237 27238 27239 27240 27241 27242 27243 27244 27245 27246 27247 27248 27249 27250 27251 27252 27253 27254 27255 27256 27257 27258 27259 27260 27261 27262 27263 27264 27265 27266 27267 27268 27269 27270 27271 27272 27273 27274 27275 27276 27277 27278 27279 27280 27281 27282 27283 27284 27285 27286 27287 27288 27289 27290 27291 27292 27293 27294 27295 27296 27297 27298 27299 27300 27301 27302 27303 27304 27305 27306 27307 27308 27309 27310 27311 27312 27313 27314 27315 27316 27317 27318 27319 27320 27321 27322 27323 27324 27325 27326 27327 27328 27329 27330 27331 27332 27333 27334 27335 27336 27337 27338 27339 27340 27341 27342 27343 27344 27345 27346 27347 27348 27349 27350 27351 27352 27353 27354 27355 27356 27357 27358 27359 27360 27361 27362 27363 27364 27365 27366 27367 27368 27369 27370 27371 27372 27373 27374 27375 27376 27377 27378 27379 27380 27381 27382 27383 27384 27385 27386 27387 27388 27389 27390 27391 27392 27393 27394 27395 27396 27397 27398 27399 27400 27401 27402 27403 27404 27405 27406 27407 27408 27409 27410 27411 27412 27413 27414 27415 27416 27417 27418 27419 27420 27421 27422 27423 27424 27425 27426 27427 27428 27429 27430 27431 27432 27433 27434 27435 27436 27437 27438 27439 27440 27441 27442 27443 27444 27445 27446 27447 27448 27449 27450 27451 27452 27453 27454 27455 27456 27457 27458 27459 27460 27461 27462 27463 27464 27465 27466 27467 27468 27469 27470 27471 27472 27473 27474 27475 27476 27477 27478 27479 27480 27481 27482 27483 27484 27485 27486 27487 27488 27489 27490 27491 27492 27493 27494 27495 27496 27497 27498 27499 27500 27501 27502 27503 27504 27505 27506 27507 27508 27509 27510 27511 27512 27513 27514 27515 27516 27517 27518 27519 27520 27521 27522 27523 27524 27525 27526 27527 27528 27529 27530 27531 27532 27533 27534 27535 27536 27537 27538 27539 27540 27541 27542 27543 27544 27545 27546 27547 27548 27549 27550 27551 27552 27553 27554 27555 27556 27557 27558 27559 27560 27561 27562 27563 27564 27565 27566 27567 27568 27569 27570 27571 27572 27573 27574 27575 27576 27577 27578 27579 27580 27581 27582 27583 27584 27585 27586 27587 27588 27589 27590 27591 27592 27593 27594 27595 27596 27597 27598 27599 27600 27601 27602 27603 27604 27605 27606 27607 27608 27609 27610 27611 27612 27613 27614 27615 27616 27617 27618 27619 27620 27621 27622 27623 27624 27625 27626 27627 27628 27629 27630 27631 27632 27633 27634 27635 27636 27637 27638 27639 27640 27641 27642 27643 27644 27645 27646 27647 27648 27649 27650 27651 27652 27653 27654 27655 27656 27657 27658 27659 27660 27661 27662 27663 27664 27665 27666 27667 27668 27669 27670 27671 27672 27673 27674 27675 27676 27677 27678 27679 27680 27681 27682 27683 27684 27685 27686 27687 27688 27689 27690 27691 27692 27693 27694 27695 27696 27697 27698 27699 27700 27701 27702 27703 27704 27705 27706 27707 27708 27709 27710 27711 27712 27713 27714 27715 27716 27717 27718 27719 27720 27721 27722 27723 27724 27725 27726 27727 27728 27729 27730 27731 27732 27733 27734 27735 27736 27737 27738 27739 27740 27741 27742 27743 27744 27745 27746 27747 27748 27749 27750 27751 27752 27753 27754 27755 27756 27757 27758 27759 27760 27761 27762 27763 27764 27765 27766 27767 27768 27769 27770 27771 27772 27773 27774 27775 27776 27777 27778 27779 27780 27781 27782 27783 27784 27785 27786 27787 27788 27789 27790 27791 27792 27793 27794 27795 27796 27797 27798 27799 27800 27801 27802 27803 27804 27805 27806 27807 27808 27809 27810 27811 27812 27813 27814 27815 27816 27817 27818 27819 27820 27821 27822 27823 27824 27825 27826 27827 27828 27829 27830 27831 27832 27833 27834 27835 27836 27837 27838 27839 27840 27841 27842 27843 27844 27845 27846 27847 27848 27849 27850 27851 27852 27853 27854 27855 27856 27857 27858 27859 27860 27861 27862 27863 27864 27865 27866 27867 27868 27869 27870 27871 27872 27873 27874 27875 27876 27877 27878 27879 27880 27881 27882 27883 27884 27885 27886 27887 27888 27889 27890 27891 27892 27893 27894 27895 27896 27897 27898 27899 27900 27901 27902 27903 27904 27905 27906 27907 27908 27909 27910 27911 27912 27913 27914 27915 27916 27917 27918 27919 27920 27921 27922 27923 27924 27925 27926 27927 27928 27929 27930 27931 27932 27933 27934 27935 27936 27937 27938 27939 27940 27941 27942 27943 27944 27945 27946 27947 27948 27949 27950 27951 27952 27953 27954 27955 27956 27957 27958 27959 27960 27961 27962 27963 27964 27965 27966 27967 27968 27969 27970 27971 27972 27973 27974 27975 27976 27977 27978 27979 27980 27981 27982 27983 27984 27985 27986 27987 27988 27989 27990 27991 27992 27993 27994 27995 27996 27997 27998 27999 28000 28001 28002 28003 28004 28005 28006 28007 28008 28009 28010 28011 28012 28013 28014 28015 28016 28017 28018 28019 28020 28021 28022 28023 28024 28025 28026 28027 28028 28029 28030 28031 28032 28033 28034 28035 28036 28037 28038 28039 28040 28041 28042 28043 28044 28045 28046 28047 28048 28049 28050 28051 28052 28053 28054 28055 28056 28057 28058 28059 28060 28061 28062 28063 28064 28065 28066 28067 28068 28069 28070 28071 28072 28073 28074 28075 28076 28077 28078 28079 28080 28081 28082 28083 28084 28085 28086 28087 28088 28089 28090 28091 28092 28093 28094 28095 28096 28097 28098 28099 28100 28101 28102 28103 28104 28105 28106 28107 28108 28109 28110 28111 28112 28113 28114 28115 28116 28117 28118 28119 28120 28121 28122 28123 28124 28125 28126 28127 28128 28129 28130 28131 28132 28133 28134 28135 28136 28137 28138 28139 28140 28141 28142 28143 28144 28145 28146 28147 28148 28149 28150 28151 28152 28153 28154 28155 28156 28157 28158 28159 28160 28161 28162 28163 28164 28165 28166 28167 28168 28169 28170 28171 28172 28173 28174 28175 28176 28177 28178 28179 28180 28181 28182 28183 28184 28185 28186 28187 28188 28189 28190 28191 28192 28193 28194 28195 28196 28197 28198 28199 28200 28201 28202 28203 28204 28205 28206 28207 28208 28209 28210 28211 28212 28213 28214 28215 28216 28217 28218 28219 28220 28221 28222 28223 28224 28225 28226 28227 28228 28229 28230 28231 28232 28233 28234 28235 28236 28237 28238 28239 28240 28241 28242 28243 28244 28245 28246 28247 28248 28249 28250 28251 28252 28253 28254 28255 28256 28257 28258 28259 28260 28261 28262 28263 28264 28265 28266 28267 28268 28269 28270 28271 28272 28273 28274 28275 28276 28277 28278 28279 28280 28281 28282 28283 28284 28285 28286 28287 28288 28289 28290 28291 28292 28293 28294 28295 28296 28297 28298 28299 28300 28301 28302 28303 28304 28305 28306 28307 28308 28309 28310 28311 28312 28313 28314 28315 28316 28317 28318 28319 28320 28321 28322 28323 28324 28325 28326 28327 28328 28329 28330 28331 28332 28333 28334 28335 28336 28337 28338 28339 28340 28341 28342 28343 28344 28345 28346 28347 28348 28349 28350 28351 28352 28353 28354 28355 28356 28357 28358 28359 28360 28361 28362 28363 28364 28365 28366 28367 28368 28369 28370 28371 28372 28373 28374 28375 28376 28377 28378 28379 28380 28381 28382 28383 28384 28385 28386 28387 28388 28389 28390 28391 28392 28393 28394 28395 28396 28397 28398 28399 28400 28401 28402 28403 28404 28405 28406 28407 28408 28409 28410 28411 28412 28413 28414 28415 28416 28417 28418 28419 28420 28421 28422 28423 28424 28425 28426 28427 28428 28429 28430 28431 28432 28433 28434 28435 28436 28437 28438 28439 28440 28441 28442 28443 28444 28445 28446 28447 28448 28449 28450 28451 28452 28453 28454 28455 28456 28457 28458 28459 28460 28461 28462 28463 28464 28465 28466 28467 28468 28469 28470 28471 28472 28473 28474 28475 28476 28477 28478 28479 28480 28481 28482 28483 28484 28485 28486 28487 28488 28489 28490 28491 28492 28493 28494 28495 28496 28497 28498 28499 28500 28501 28502 28503 28504 28505 28506 28507 28508 28509 28510 28511 28512 28513 28514 28515 28516 28517 28518 28519 28520 28521 28522 28523 28524 28525 28526 28527 28528 28529 28530 28531 28532 28533 28534 28535 28536 28537 28538 28539 28540 28541 28542 28543 28544 28545 28546 28547 28548 28549 28550 28551 28552 28553 28554 28555 28556 28557 28558 28559 28560 28561 28562 28563 28564 28565 28566 28567 28568 28569 28570 28571 28572 28573 28574 28575 28576 28577 28578 28579 28580 28581 28582 28583 28584 28585 28586 28587 28588 28589 28590 28591 28592 28593 28594 28595 28596 28597 28598 28599 28600 28601 28602 28603 28604 28605 28606 28607 28608 28609 28610 28611 28612 28613 28614 28615 28616 28617 28618 28619 28620 28621 28622 28623 28624 28625 28626 28627 28628 28629 28630 28631 28632 28633 28634 28635 28636 28637 28638 28639 28640 28641 28642 28643 28644 28645 28646 28647 28648 28649 28650 28651 28652 28653 28654 28655 28656 28657 28658 28659 28660 28661 28662 28663 28664 28665 28666 28667 28668 28669 28670 28671 28672 28673 28674 28675 28676 28677 28678 28679 28680 28681 28682 28683 28684 28685 28686 28687 28688 28689 28690 28691 28692 28693 28694 28695 28696 28697 28698 28699 28700 28701 28702 28703 28704 28705 28706 28707 28708 28709 28710 28711 28712 28713 28714 28715 28716 28717 28718 28719 28720 28721 28722 28723 28724 28725 28726 28727 28728 28729 28730 28731 28732 28733 28734 28735 28736 28737 28738 28739 28740 28741 28742 28743 28744 28745 28746 28747 28748 28749 28750 28751 28752 28753 28754 28755 28756 28757 28758 28759 28760 28761 28762 28763 28764 28765 28766 28767 28768 28769 28770 28771 28772 28773 28774 28775 28776 28777 28778 28779 28780 28781 28782 28783 28784 28785 28786 28787 28788 28789 28790 28791 28792 28793 28794 28795 28796 28797 28798 28799 28800 28801 28802 28803 28804 28805 28806 28807 28808 28809 28810 28811 28812 28813 28814 28815 28816 28817 28818 28819 28820 28821 28822 28823 28824 28825 28826 28827 28828 28829 28830 28831 28832 28833 28834 28835 28836 28837 28838 28839 28840 28841 28842 28843 28844 28845 28846 28847 28848 28849 28850 28851 28852 28853 28854 28855 28856 28857 28858 28859 28860 28861 28862 28863 28864 28865 28866 28867 28868 28869 28870 28871 28872 28873 28874 28875 28876 28877 28878 28879 28880 28881 28882 28883 28884 28885 28886 28887 28888 28889 28890 28891 28892 28893 28894 28895 28896 28897 28898 28899 28900 28901 28902 28903 28904 28905 28906 28907 28908 28909 28910 28911 28912 28913 28914 28915 28916 28917 28918 28919 28920 28921 28922 28923 28924 28925 28926 28927 28928 28929 28930 28931 28932 28933 28934 28935 28936 28937 28938 28939 28940 28941 28942 28943 28944 28945 28946 28947 28948 28949 28950 28951 28952 28953 28954 28955 28956 28957 28958 28959 28960 28961 28962 28963 28964 28965 28966 28967 28968 28969 28970 28971 28972 28973 28974 28975 28976 28977 28978 28979 28980 28981 28982 28983 28984 28985 28986 28987 28988 28989 28990 28991 28992 28993 28994 28995 28996 28997 28998 28999 29000 29001 29002 29003 29004 29005 29006 29007 29008 29009 29010 29011 29012 29013 29014 29015 29016 29017 29018 29019 29020 29021 29022 29023 29024 29025 29026 29027 29028 29029 29030 29031 29032 29033 29034 29035 29036 29037 29038 29039 29040 29041 29042 29043 29044 29045 29046 29047 29048 29049 29050 29051 29052 29053 29054 29055 29056 29057 29058 29059 29060 29061 29062 29063 29064 29065 29066 29067 29068 29069 29070 29071 29072 29073 29074 29075 29076 29077 29078 29079 29080 29081 29082 29083 29084 29085 29086 29087 29088 29089 29090 29091 29092 29093 29094 29095 29096 29097 29098 29099 29100 29101 29102 29103 29104 29105 29106 29107 29108 29109 29110 29111 29112 29113 29114 29115 29116 29117 29118 29119 29120 29121 29122 29123 29124 29125 29126 29127 29128 29129 29130 29131 29132 29133 29134 29135 29136 29137 29138 29139 29140 29141 29142 29143 29144 29145 29146 29147 29148 29149 29150 29151 29152 29153 29154 29155 29156 29157 29158 29159 29160 29161 29162 29163 29164 29165 29166 29167 29168 29169 29170 29171 29172 29173 29174 29175 29176 29177 29178 29179 29180 29181 29182 29183 29184 29185 29186 29187 29188 29189 29190 29191 29192 29193 29194 29195 29196 29197 29198 29199 29200 29201 29202 29203 29204 29205 29206 29207 29208 29209 29210 29211 29212 29213 29214 29215 29216 29217 29218 29219 29220 29221 29222 29223 29224 29225 29226 29227 29228 29229 29230 29231 29232 29233 29234 29235 29236 29237 29238 29239 29240 29241 29242 29243 29244 29245 29246 29247 29248 29249 29250 29251 29252 29253 29254 29255 29256 29257 29258 29259 29260 29261 29262 29263 29264 29265 29266 29267 29268 29269 29270 29271 29272 29273 29274 29275 29276 29277 29278 29279 29280 29281 29282 29283 29284 29285 29286 29287 29288 29289 29290 29291 29292 29293 29294 29295 29296 29297 29298 29299 29300 29301 29302 29303 29304 29305 29306 29307 29308 29309 29310 29311 29312 29313 29314 29315 29316 29317 29318 29319 29320 29321 29322 29323 29324 29325 29326 29327 29328 29329 29330 29331 29332 29333 29334 29335 29336 29337 29338 29339 29340 29341 29342 29343 29344 29345 29346 29347 29348 29349 29350 29351 29352 29353 29354 29355 29356 29357 29358 29359 29360 29361 29362 29363 29364 29365 29366 29367 29368 29369 29370 29371 29372 29373 29374 29375 29376 29377 29378 29379 29380 29381 29382 29383 29384 29385 29386 29387 29388 29389 29390 29391 29392 29393 29394 29395 29396 29397 29398 29399 29400 29401 29402 29403 29404 29405 29406 29407 29408 29409 29410 29411 29412 29413 29414 29415 29416 29417 29418 29419 29420 29421 29422 29423 29424 29425 29426 29427 29428 29429 29430 29431 29432 29433 29434 29435 29436 29437 29438 29439 29440 29441 29442 29443 29444 29445 29446 29447 29448 29449 29450 29451 29452 29453 29454 29455 29456 29457 29458 29459 29460 29461 29462 29463 29464 29465 29466 29467 29468 29469 29470 29471 29472 29473 29474 29475 29476 29477 29478 29479 29480 29481 29482 29483 29484 29485 29486 29487 29488 29489 29490 29491 29492 29493 29494 29495 29496 29497 29498 29499 29500 29501 29502 29503 29504 29505 29506 29507 29508 29509 29510 29511 29512 29513 29514 29515 29516 29517 29518 29519 29520 29521 29522 29523 29524 29525 29526 29527 29528 29529 29530 29531 29532 29533 29534 29535 29536 29537 29538 29539 29540 29541 29542 29543 29544 29545 29546 29547 29548 29549 29550 29551 29552 29553 29554 29555 29556 29557 29558 29559 29560 29561 29562 29563 29564 29565 29566 29567 29568 29569 29570 29571 29572 29573 29574 29575 29576 29577 29578 29579 29580 29581 29582 29583 29584 29585 29586 29587 29588 29589 29590 29591 29592 29593 29594 29595 29596 29597 29598 29599 29600 29601 29602 29603 29604 29605 29606 29607 29608 29609 29610 29611 29612 29613 29614 29615 29616 29617 29618 29619 29620 29621 29622 29623 29624 29625 29626 29627 29628 29629 29630 29631 29632 29633 29634 29635 29636 29637 29638 29639 29640 29641 29642 29643 29644 29645 29646 29647 29648 29649 29650 29651 29652 29653 29654 29655 29656 29657 29658 29659 29660 29661 29662 29663 29664 29665 29666 29667 29668 29669 29670 29671 29672 29673 29674 29675 29676 29677 29678 29679 29680 29681 29682 29683 29684 29685 29686 29687 29688 29689 29690 29691 29692 29693 29694 29695 29696 29697 29698 29699 29700 29701 29702 29703 29704 29705 29706 29707 29708 29709 29710 29711 29712 29713 29714 29715 29716 29717 29718 29719 29720 29721 29722 29723 29724 29725 29726 29727 29728 29729 29730 29731 29732 29733 29734 29735 29736 29737 29738 29739 29740 29741 29742 29743 29744 29745 29746 29747 29748 29749 29750 29751 29752 29753 29754 29755 29756 29757 29758 29759 29760 29761 29762 29763 29764 29765 29766 29767 29768 29769 29770 29771 29772 29773 29774 29775 29776 29777 29778 29779 29780 29781 29782 29783 29784 29785 29786 29787 29788 29789 29790 29791 29792 29793 29794 29795 29796 29797 29798 29799 29800 29801 29802 29803 29804 29805 29806 29807 29808 29809 29810 29811 29812 29813 29814 29815 29816 29817 29818 29819 29820 29821 29822 29823 29824 29825 29826 29827 29828 29829 29830 29831 29832 29833 29834 29835 29836 29837 29838 29839 29840 29841 29842 29843 29844 29845 29846 29847 29848 29849 29850 29851 29852 29853 29854 29855 29856 29857 29858 29859 29860 29861 29862 29863 29864 29865 29866 29867 29868 29869 29870 29871 29872 29873 29874 29875 29876 29877 29878 29879 29880 29881 29882 29883 29884 29885 29886 29887 29888 29889 29890 29891 29892 29893 29894 29895 29896 29897 29898 29899 29900 29901 29902 29903 29904 29905 29906 29907 29908 29909 29910 29911 29912 29913 29914 29915 29916 29917 29918 29919 29920 29921 29922 29923 29924 29925 29926 29927 29928 29929 29930 29931 29932 29933 29934 29935 29936 29937 29938 29939 29940 29941 29942 29943 29944 29945 29946 29947 29948 29949 29950 29951 29952 29953 29954 29955 29956 29957 29958 29959 29960 29961 29962 29963 29964 29965 29966 29967 29968 29969 29970 29971 29972 29973 29974 29975 29976 29977 29978 29979 29980 29981 29982 29983 29984 29985 29986 29987 29988 29989 29990 29991 29992 29993 29994 29995 29996 29997 29998 29999 30000 30001 30002 30003 30004 30005 30006 30007 30008 30009 30010 30011 30012 30013 30014 30015 30016 30017 30018 30019 30020 30021 30022 30023 30024 30025 30026 30027 30028 30029 30030 30031 30032 30033 30034 30035 30036 30037 30038 30039 30040 30041 30042 30043 30044 30045 30046 30047 30048 30049 30050 30051 30052 30053 30054 30055 30056 30057 30058 30059 30060 30061 30062 30063 30064 30065 30066 30067 30068 30069 30070 30071 30072 30073 30074 30075 30076 30077 30078 30079 30080 30081 30082 30083 30084 30085 30086 30087 30088 30089 30090 30091 30092 30093 30094 30095 30096 30097 30098 30099 30100 30101 30102 30103 30104 30105 30106 30107 30108 30109 30110 30111 30112 30113 30114 30115 30116 30117 30118 30119 30120 30121 30122 30123 30124 30125 30126 30127 30128 30129 30130 30131 30132 30133 30134 30135 30136 30137 30138 30139 30140 30141 30142 30143 30144 30145 30146 30147 30148 30149 30150 30151 30152 30153 30154 30155 30156 30157 30158 30159 30160 30161 30162 30163 30164 30165 30166 30167 30168 30169 30170 30171 30172 30173 30174 30175 30176 30177 30178 30179 30180 30181 30182 30183 30184 30185 30186 30187 30188 30189 30190 30191 30192 30193 30194 30195 30196 30197 30198 30199 30200 30201 30202 30203 30204 30205 30206 30207 30208 30209 30210 30211 30212 30213 30214 30215 30216 30217 30218 30219 30220 30221 30222 30223 30224 30225 30226 30227 30228 30229 30230 30231 30232 30233 30234 30235 30236 30237 30238 30239 30240 30241 30242 30243 30244 30245 30246 30247 30248 30249 30250 30251 30252 30253 30254 30255 30256 30257 30258 30259 30260 30261 30262 30263 30264 30265 30266 30267 30268 30269 30270 30271 30272 30273 30274 30275 30276 30277 30278 30279 30280 30281 30282 30283 30284 30285 30286 30287 30288 30289 30290 30291 30292 30293 30294 30295 30296 30297 30298 30299 30300 30301 30302 30303 30304 30305 30306 30307 30308 30309 30310 30311 30312 30313 30314 30315 30316 30317 30318 30319 30320 30321 30322 30323 30324 30325 30326 30327 30328 30329 30330 30331 30332 30333 30334 30335 30336 30337 30338 30339 30340 30341 30342 30343 30344 30345 30346 30347 30348 30349 30350 30351 30352 30353 30354 30355 30356 30357 30358 30359 30360 30361 30362 30363 30364 30365 30366 30367 30368 30369 30370 30371 30372 30373 30374 30375 30376 30377 30378 30379 30380 30381 30382 30383 30384 30385 30386 30387 30388 30389 30390 30391 30392 30393 30394 30395 30396 30397 30398 30399 30400 30401 30402 30403 30404 30405 30406 30407 30408 30409 30410 30411 30412 30413 30414 30415 30416 30417 30418 30419 30420 30421 30422 30423 30424 30425 30426 30427 30428 30429 30430 30431 30432 30433 30434 30435 30436 30437 30438 30439 30440 30441 30442 30443 30444 30445 30446 30447 30448 30449 30450 30451 30452 30453 30454 30455 30456 30457 30458 30459 30460 30461 30462 30463 30464 30465 30466 30467 30468 30469 30470 30471 30472 30473 30474 30475 30476 30477 30478 30479 30480 30481 30482 30483 30484 30485 30486 30487 30488 30489 30490 30491 30492 30493 30494 30495 30496 30497 30498 30499 30500 30501 30502 30503 30504 30505 30506 30507 30508 30509 30510 30511 30512 30513 30514 30515 30516 30517 30518 30519 30520 30521 30522 30523 30524 30525 30526 30527 30528 30529 30530 30531 30532 30533 30534 30535 30536 30537 30538 30539 30540 30541 30542 30543 30544 30545 30546 30547 30548 30549 30550 30551 30552 30553 30554 30555 30556 30557 30558 30559 30560 30561 30562 30563 30564 30565 30566 30567 30568 30569 30570 30571 30572 30573 30574 30575 30576 30577 30578 30579 30580 30581 30582 30583 30584 30585 30586 30587 30588 30589 30590 30591 30592 30593 30594 30595 30596 30597 30598 30599 30600 30601 30602 30603 30604 30605 30606 30607 30608 30609 30610 30611 30612 30613 30614 30615 30616 30617 30618 30619 30620 30621 30622 30623 30624 30625 30626 30627 30628 30629 30630 30631 30632 30633 30634 30635 30636 30637 30638 30639 30640 30641 30642 30643 30644 30645 30646 30647 30648 30649 30650 30651 30652 30653 30654 30655 30656 30657 30658 30659 30660 30661 30662 30663 30664 30665 30666 30667 30668 30669 30670 30671 30672 30673 30674 30675 30676 30677 30678 30679 30680 30681 30682 30683 30684 30685 30686 30687 30688 30689 30690 30691 30692 30693 30694 30695 30696 30697 30698 30699 30700 30701 30702 30703 30704 30705 30706 30707 30708 30709 30710 30711 30712 30713 30714 30715 30716 30717 30718 30719 30720 30721 30722 30723 30724 30725 30726 30727 30728 30729 30730 30731 30732 30733 30734 30735 30736 30737 30738 30739 30740 30741 30742 30743 30744 30745 30746 30747 30748 30749 30750 30751 30752 30753 30754 30755 30756 30757 30758 30759 30760 30761 30762 30763 30764 30765 30766 30767 30768 30769 30770 30771 30772 30773 30774 30775 30776 30777 30778 30779 30780 30781 30782 30783 30784 30785 30786 30787 30788 30789 30790 30791 30792 30793 30794 30795 30796 30797 30798 30799 30800 30801 30802 30803 30804 30805 30806 30807 30808 30809 30810 30811 30812 30813 30814 30815 30816 30817 30818 30819 30820 30821 30822 30823 30824 30825 30826 30827 30828 30829 30830 30831 30832 30833 30834 30835 30836 30837 30838 30839 30840 30841 30842 30843 30844 30845 30846 30847 30848 30849 30850 30851 30852 30853 30854 30855 30856 30857 30858 30859 30860 30861 30862 30863 30864 30865 30866 30867 30868 30869 30870 30871 30872 30873 30874 30875 30876 30877 30878 30879 30880 
</DataArray>
<DataArray type="UInt32" Name="offsets" format="ascii">
3 6 8 11 14 17 20 22 25 28 31 34 37 40 43 46 49 52 55 58 60 63 66 69 72 74 77 80 83 86 89 92 95 97 100 103 106 109 112 115 118 121 123 126 129 132 135 138 141 144 147 150 153 156 158 160 163 166 169 172 175 178 181 184 186 189 192 195 198 201 204 207 210 213 216 219 222 225 228 231 234 237 240 243 246 249 252 254 257 260 263 266 269 272 275 278 281 284 287 289 292 295 298 300 303 306 309 312 315 318 321 324 327 330 333 336 339 342 345 348 351 354 357 360 363 366 369 372 375 378 381 384 387 390 393 396 399 402 405 408 411 414 417 420 423 426 429 432 435 437 440 442 445 448 451 454 457 460 463 466 469 472 475 478 481 484 487 490 493 496 499 502 505 508 511 514 517 520 522 525 528 530 533 535 538 541 544 547 550 553 556 559 562 565 568 571 574 577 579 582 584 587 590 593 596 599 602 605 607 610 612 615 618 621 624 627 630 632 635 638 640 643 646 649 652 655 658 660 662 665 668 670 673 675 678 680 682 685 688 691 693 696 699 702 705 708 711 714 717 720 723 726 729 732 734 737 740 743 746 749 752 755 757 760 763 766 769 772 775 778 780 783 786 789 792 794 797 800 803 806 809 812 814 817 820 823 825 828 831 834 837 840 843 846 848 851 854 857 860 863 866 868 871 874 877 880 883 886 888 891 894 897 900 903 906 909 911 914 917 920 923 926 929 932 935 938 941 944 947 950 953 956 959 962 965 968 971 974 976 978 981 984 987 990 993 995 998 1001 1004 1007 1010 1013 1016 1018 1021 1023 1026 1029 1032 1034 1037 1040 1043 1045 1048 1050 1053 1056 1059 1062 1065 1068 1071 1073 1076 1079 1082 1085 1088 1091 1094 1096 1099 1102 1105 1107 1110 1113 1116 1119 1122 1125 1128 1131 1134 1137 1140 1143 1146 1149 1152 1155 1158 1161 1164 1167 1170 1173 1176 1179 1182 1185 1188 1191 1194 1197 1200 1203 1205 1208 1211 1214 1217 1220 1223 1226 1229 1232 1235 1238 1241 1244 1247 1250 1253 1256 1259 1262 1265 1268 1271 1274 1277 1280 1283 1286 1289 1292 1295 1298 1301 1303 1306 1309 1312 1315 1318 1321 1324 1327 1330 1333 1336 1339 1342 1345 1348 1351 1354 1357 1360 1363 1365 1368 1371 1374 1377 1380 1383 1386 1388 1391 1394 1397 1400 1403 1405 1408 1411 1413 1416 1418 1421 1424 1427 1430 1432 1435 1438 1440 1443 1446 1449 1452 1455 1458 1460 1463 1466 1469 1472 1475 1478 1481 1484 1487 1490 1493 1496 1499 1502 1505 1508 1511 1514 1517 1519 1522 1525 1528 1531 1534 1537 1540 1543 1546 1549 1552 1554 1556 1559 1562 1565 1568 1571 1574 1577 1580 1583 1586 1589 1592 1595 1598 1601 1604 1607 1610 1613 1616 1619 1621 1624 1626 1628 1631 1634 1636 1639 1642 1645 1648 1651 1654 1657 1660 1663 1666 1669 1672 1675 1677 1680 1683 1686 1689 1692 1695 1698 1700 1702 1705 1708 1711 1714 1717 1720 1723 1726 1728 1730 1733 1736 1739 1741 1744 1747 1750 1753 1756 1759 1762 1765 1768 1771 1774 1777 1780 1783 1786 1789 1792 1795 1798 1801 1804 1807 1810 1813 1816 1819 1822 1825 1828 1831 1834 1837 1840 1843 1846 1848 1851 1854 1856 1859 1862 1865 1868 1870 1873 1876 1879 1881 1884 1887 1890 1892 1895 1898 1900 1903 1906 1909 1912 1915 1918 1921 1924 1927 1930 1933 1936 1939 1942 1945 1948 1951 1954 1957 1960 1963 1965 1968 1971 1974 1976 1979 1982 1985 1988 1991 1993 1996 1999 2002 2005 2008 2011 2013 2016 2019 2022 2025 2028 2031 2034 2037 2040 2043 2046 2049 2052 2055 2058 2061 2064 2067 2069 2072 2075 2078 2081 2084 2087 2090 2093 2096 2099 2102 2105 2108 2111 2114 2117 2120 2123 2126 2129 2132 2134 2137 2140 2143 2146 2149 2152 2155 2158 2161 2164 2167 2170 2173 2176 2179 2181 2184 2187 2190 2193 2196 2199 2202 2205 2208 2211 2214 2217 2220 2223 2226 2229 2232 2235 2237 2240 2243 2246 2249 2252 2255 2258 2260 2263 2266 2269 2272 2275 2278 2281 2284 2287 2290 2293 2296 2299 2302 2305 2308 2311 2314 2317 2320 2323 2325 2328 2331 2334 2337 2340 2343 2346 2349 2352 2354 2357 2360 2363 2366 2369 2372 2375 2378 2380 2383 2386 2389 2392 2395 2398 2401 2404 2407 2410 2413 2416 2419 2422 2425 2428 2431 2434 2437 2439 2442 2445 2448 2451 2454 2456 2459 2462 2465 2467 2470 2473 2476 2479 2482 2485 2487 2490 2493 2496 2499 2502 2505 2508 2511 2514 2517 2519 2522 2525 2528 2531 2534 2537 2540 2543 2546 2549 2552 2555 2557 2560 2562 2565 2568 2571 2574 2577 2580 2583 2585 2588 2590 2593 2596 2599 2602 2605 2608 2611 2614 2617 2620 2623 2626 2629 2632 2635 2638 2641 2644 2647 2650 2653 2656 2659 2662 2665 2668 2671 2674 2677 2680 2683 2686 2689 2692 2695 2698 2701 2704 2707 2710 2713 2716 2719 2722 2725 2727 2729 2732 2735 2737 2740 2743 2746 2749 2752 2755 2758 2761 2764 2767 2770 2773 2776 2779 2782 2785 2787 2790 2793 2796 2799 2801 2804 2807 2809 2812 2815 2818 2821 2824 2827 2829 2832 2834 2837 2840 2842 2845 2848 2851 2854 2857 2860 2863 2866 2869 2872 2874 2877 2880 2883 2886 2889 2891 2893 2896 2899 2902 2905 2907 2910 2913 2915 2918 2920 2923 2926 2929 2932 2935 2937 2940 2943 2945 2948 2951 2954 2957 2960 2963 2966 2969 2972 2975 2978 2981 2983 2986 2989 2992 2995 2998 3001 3004 3007 3010 3013 3016 3019 3022 3025 3028 3030 3033 3035 3038 3040 3042 3045 3047 3050 3053 3055 3058 3061 3064 3067 3070 3073 3075 3078 3080 3083 3086 3088 3091 3094 3097 3099 3102 3105 3107 3110 3113 3116 3119 3122 3124 3127 3130 3132 3135 3138 3141 3144 3147 3149 3152 3154 3157 3160 3162 3165 3168 3170 3173 3176 3179 3182 3185 3188 3191 3194 3196 3199 3202 3205 3208 3211 3214 3217 3220 3223 3226 3228 3231 3234 3237 3240 3242 3245 3248 3250 3253 3256 3259 3262 3265 3267 3270 3273 3276 3279 3282 3284 3287 3289 3292 3295 3298 3301 3304 3307 3309 3312 3315 3318 3321 3324 3327 3330 3333 3335 3337 3339 3342 3345 3348 3351 3353 3356 3358 3361 3364 3367 3369 3371 3374 3377 3380 3382 3385 3388 3391 3393 3396 3398 3401 3403 3405 3408 3410 3413 3416 3419 3422 3424 3427 3430 3433 3435 3438 3440 3443 3445 3448 3451 3454 3457 3460 3463 3466 3468 3471 3474 3477 3480 3482 3485 3488 3491 3494 3497 3500 3503 3506 3508 3511 3513 3515 3518 3521 3524 3526 3529 3532 3535 3538 3540 3542 3545 3548 3550 3552 3555 3558 3561 3564 3567 3569 3572 3575 3578 3581 3584 3587 3590 3593 3595 3598 3600 3603 3606 3609 3612 3615 3618 3621 3624 3627 3630 3633 3636 3639 3642 3645 3648 3651 3653 3656 3659 3662 3665 3668 3671 3674 3677 3680 3683 3686 3689 3692 3695 3698 3701 3704 3707 3710 3713 3716 3719 3722 3725 3728 3730 3733 3735 3738 3741 3744 3747 3750 3752 3754 3757 3760 3763 3766 3768 3770 3773 3775 3778 3781 3783 3786 3789 3791 3794 3797 3800 3803 3805 3807 3810 3813 3816 3819 3822 3825 3828 3831 3833 3836 3839 3841 3844 3847 3850 3852 3855 3858 3860 3863 3866 3869 3872 3875 3878 3880 3883 3886 3889 3892 3895 3898 3900 3903 3906 3909 3912 3915 3917 3920 3923 3925 3927 3930 3933 3935 3938 3941 3943 3946 3949 3952 3955 3958 3961 3964 3967 3970 3973 3976 3979 3981 3984 3986 3989 3992 3994 3997 4000 4003 4006 4009 4012 4014 4017 4020 4023 4025 4027 4029 4032 4035 4038 4040 4042 4045 4047 4049 4052 4055 4057 4060 4063 4065 4068 4070 4073 4075 4078 4081 4084 4086 4088 4091 4094 4096 4098 4100 4102 4105 4108 4111 4113 4115 4118 4121 4123 4125 4127 4130 4132 4134 4137 4140 4142 4145 4147 4149 4152 4154 4157 4160 4162 4165 4167 4169 4172 4175 4178 4181 4183 4185 4188 4191 4193 4196 4199 4202 4204 4207 4210 4213 4216 4219 4222 4225 4228 4231 4234 4237 4240 4243 4246 4249 4252 4255 4258 4261 4264 4267 4270 4273 4276 4279 4282 4285 4288 4291 4294 4297 4300 4303 4306 4309 4312 4315 4318 4321 4324 4327 4330 4333 4336 4339 4342 4345 4348 4351 4354 4357 4360 4363 4366 4369 4372 4375 4378 4380 4383 4385 4388 4391 4394 4397 4400 4403 4406 4409 4412 4415 4418 4421 4424 4427 4429 4432 4435 4438 4441 4444 4447 4450 4453 4456 4459 4461 4464 4467 4470 4473 4476 4479 4482 4485 4488 4491 4494 4497 4500 4503 4506 4509 4512 4515 4518 4521 4524 4527 4530 4533 4536 4539 4542 4545 4548 4551 4554 4557 4560 4563 4566 4569 4572 4575 4578 4581 4584 4587 4590 4593 4596 4599 4601 4604 4607 4610 4612 4615 4617 4620 4623 4626 4629 4632 4634 4637 4639 4642 4645 4648 4651 4654 4657 4660 4663 4666 4669 4672 4675 4678 4681 4684 4687 4690 4693 4696 4699 4702 4705 4708 4711 4714 4716 4719 4722 4725 4728 4731 4734 4736 4739 4741 4744 4747 4750 4752 4755 4758 4760 4763 4766 4769 4772 4775 4778 4781 4784 4787 4790 4793 4796 4799 4802 4805 4808 4811 4814 4817 4820 4823 4826 4829 4832 4835 4838 4841 4844 4847 4850 4853 4856 4859 4862 4865 4868 4871 4873 4876 4878 4881 4884 4887 4890 4893 4896 4899 4902 4905 4908 4910 4913 4916 4919 4922 4925 4928 4931 4934 4937 4940 4943 4946 4949 4952 4955 4958 4961 4963 4966 4969 4972 4974 4976 4979 4981 4984 4987 4990 4993 4996 4999 5002 5005 5007 5010 5013 5016 5019 5021 5024 5027 5030 5033 5036 5039 5042 5044 5047 5050 5052 5055 5057 5060 5063 5065 5068 5071 5073 5075 5078 5081 5084 5087 5090 5093 5096 5099 5102 5105 5108 5111 5114 5117 5120 5122 5125 5127 5130 5133 5136 5138 5141 5143 5146 5149 5152 5155 5158 5161 5164 5167 5170 5173 5176 5179 5181 5184 5186 5189 5192 5195 5198 5201 5204 5207 5210 5212 5215 5218 5220 5223 5226 5229 5231 5233 5236 5239 5242 5245 5248 5251 5254 5257 5260 5263 5266 5269 5272 5275 5278 5281 5284 5287 5290 5293 5296 5298 5301 5304 5307 5310 5313 5315 5318 5320 5323 5326 5329 5332 5334 5337 5340 5342 5345 5348 5351 5354 5357 5359 5362 5365 5368 5371 5373 5376 5379 5382 5385 5388 5391 5394 5396 5399 5402 5405 5407 5410 5413 5416 5419 5422 5425 5428 5431 5434 5437 5440 5442 5445 5448 5451 5454 5457 5460 5463 5466 5468 5471 5474 5477 5480 5483 5486 5488 5491 5494 5497 5500 5503 5506 5508 5511 5514 5517 5520 5523 5526 5529 5532 5535 5538 5541 5543 5546 5549 5552 5554 5557 5560 5563 5565 5568 5570 5573 5576 5579 5582 5585 5588 5590 5593 5596 5599 5602 5605 5608 5611 5614 5617 5620 5623 5626 5629 5632 5635 5637 5640 5643 5646 5649 5652 5654 5657 5660 5663 5666 5669 5672 5675 5678 5680 5683 5686 5689 5692 5695 5698 5701 5704 5707 5710 5713 5716 5719 5722 5725 5728 5730 5733 5736 5739 5742 5744 5747 5750 5753 5756 5759 5762 5765 5768 5771 5774 5777 5780 5783 5786 5789 5792 5795 5798 5801 5804 5807 5810 5813 5816 5819 5822 5824 5827 5830 5833 5835 5838 5840 5843 5846 5849 5852 5854 5857 5859 5862 5865 5868 5871 5874 5876 5879 5882 5885 5888 5891 5894 5897 5900 5903 5905 5908 5911 5914 5917 5920 5923 5926 5929 5932 5935 5938 5941 5944 5947 5950 5953 5956 5959 5962 5965 5968 5971 5974 5977 5979 5981 5984 5987 5990 5993 5996 5998 6001 6004 6007 6009 6012 6015 6018 6020 6023 6026 6028 6031 6033 6036 6039 6042 6045 6047 6050 6053 6056 6059 6061 6063 6066 6069 6072 6075 6078 6081 6084 6087 6090 6093 6096 6099 6101 6104 6107 6110 6113 6115 6118 6121 6124 6127 6130 6132 6135 6138 6140 6143 6146 6149 6152 6155 6158 6161 6164 6167 6170 6173 6176 6179 6182 6185 6188 6190 6193 6196 6198 6201 6204 6207 6209 6212 6215 6218 6221 6224 6227 6230 6233 6236 6239 6242 6244 6247 6250 6253 6256 6259 6262 6265 6268 6271 6274 6277 6280 6283 6286 6289 6292 6294 6297 6300 6302 6305 6307 6310 6313 6315 6318 6320 6323 6325 6328 6331 6334 6337 6340 6343 6346 6349 6352 6355 6358 6361 6364 6366 6369 6371 6373 6376 6379 6381 6383 6386 6389 6391 6393 6396 6399 6402 6404 6407 6409 6412 6415 6417 6420 6423 6426 6429 6431 6433 6436 6438 6441 6444 6446 6448 6451 6454 6456 6459 6462 6465 6467 6470 6473 6476 6478 6480 6482 6485 6488 6490 6493 6495 6497 6500 6503 6506 6509 6512 6515 6518 6521 6524 6527 6530 6532 6534 6537 6539 6542 6544 6547 6549 6552 6555 6558 6560 6563 6566 6569 6572 6575 6577 6580 6583 6586 6589 6592 6595 6598 6601 6604 6607 6610 6613 6616 6619 6622 6625 6628 6631 6634 6637 6640 6643 6646 6649 6651 6654 6657 6660 6663 6666 6669 6672 6675 6678 6681 6684 6687 6690 6693 6696 6699 6702 6705 6707 6710 6713 6716 6719 6722 6725 6728 6731 6734 6737 6740 6742 6745 6748 6751 6754 6757 6759 6762 6765 6768 6771 6774 6777 6780 6783 6786 6789 6792 6795 6798 6801 6803 6806 6809 6812 6815 6818 6821 6824 6827 6830 6833 6836 6839 6842 6845 6847 6850 6852 6855 6858 6861 6864 6866 6869 6872 6875 6878 6881 6884 6887 6890 6893 6896 6899 6902 6904 6907 6909 6912 6915 6918 6921 6923 6926 6929 6932 6935 6938 6941 6944 6946 6949 6952 6955 6958 6961 6964 6967 6969 6972 6975 6978 6980 6983 6985 6988 6991 6994 6997 7000 7003 7006 7009 7012 7014 7017 7020 7023 7026 7029 7032 7035 7038 7041 7044 7047 7050 7053 7056 7059 7062 7065 7068 7071 7074 7077 7080 7083 7086 7089 7092 7095 7098 7101 7104 7107 7110 7113 7116 7119 7122 7125 7128 7131 7134 7137 7140 7143 7145 7148 7151 7153 7156 7159 7162 7165 7168 7171 7174 7177 7180 7183 7185 7188 7191 7194 7197 7200 7202 7205 7208 7210 7213 7216 7219 7222 7225 7228 7230 7233 7236 7239 7242 7244 7247 7250 7252 7255 7257 7260 7263 7266 7269 7272 7275 7278 7281 7284 7287 7290 7292 7295 7297 7300 7303 7306 7309 7311 7314 7317 7320 7323 7326 7329 7332 7335 7338 7341 7344 7347 7350 7353 7356 7359 7362 7365 7368 7371 7374 7376 7379 7382 7385 7388 7390 7393 7396 7399 7402 7405 7408 7411 7413 7416 7419 7422 7425 7428 7430 7433 7436 7439 7441 7444 7447 7450 7452 7455 7458 7460 7463 7466 7469 7471 7474 7477 7479 7482 7485 7488 7491 7494 7497 7500 7503 7506 7509 7512 7515 7518 7521 7524 7527 7530 7533 7536 7539 7542 7545 7548 7551 7554 7557 7560 7563 7566 7569 7572 7574 7577 7580 7583 7586 7589 7592 7595 7598 7601 7604 7607 7609 7612 7615 7618 7621 7624 7627 7630 7633 7636 7639 7642 7645 7648 7651 7654 7656 7658 7661 7664 7667 7669 7672 7675 7678 7681 7683 7686 7689 7691 7694 7697 7700 7703 7706 7709 7712 7715 7718 7721 7724 7727 7730 7732 7734 7737 7740 7743 7746 7749 7752 7755 7758 7761 7764 7767 7769 7772 7775 7777 7780 7783 7786 7789 7792 7795 7798 7801 7804 7807 7810 7813 7816 7819 7822 7825 7828 7831 7834 7836 7839 7842 7845 7847 7850 7853 7856 7859 7862 7864 7867 7870 7873 7876 7879 7882 7885 7888 7891 7894 7897 7900 7903 7906 7909 7912 7915 7918 7921 7924 7926 7929 7932 7934 7937 7940 7943 7946 7949 7952 7955 7958 7961 7964 7967 7970 7973 7976 7979 7982 7985 7988 7991 7993 7996 7999 8002 8005 8008 8011 8014 8017 8020 8023 8026 8029 8032 8035 8038 8041 8044 8047 8050 8053 8056 8059 8062 8065 8068 8071 8074 8077 8080 8083 8086 8089 8091 8094 8097 8100 8103 8106 8109 8111 8114 8117 8120 8123 8126 8128 8131 8134 8137 8140 8142 8145 8148 8151 8154 8157 8160 8163 8166 8169 8172 8175 8178 8181 8184 8187 8190 8193 8196 8199 8202 8205 8208 8210 8213 8216 8219 8222 8225 8228 8231 8233 8236 8239 8241 8244 8247 8249 8252 8255 8258 8261 8264 8267 8269 8272 8275 8278 8281 8284 8287 8290 8293 8296 8299 8301 8304 8306 8309 8312 8315 8318 8321 8324 8327 8330 8332 8335 8338 8340 8343 8346 8349 8351 8354 8357 8360 8362 8365 8368 8371 8373 8375 8378 8381 8383 8386 8389 8391 8394 8397 8399 8402 8405 8408 8411 8414 8417 8420 8423 8426 8428 8431 8434 8437 8439 8442 8445 8448 8450 8453 8456 8459 8461 8464 8466 8469 8472 8474 8477 8480 8483 8486 8489 8492 8495 8498 8500 8503 8506 8508 8511 8514 8517 8520 8523 8526 8529 8532 8535 8538 8541 8544 8547 8549 8552 8554 8557 8560 8563 8565 8567 8570 8572 8575 8578 8581 8584 8586 8589 8591 8594 8597 8600 8603 8606 8609 8612 8615 8618 8620 8623 8626 8629 8632 8635 8638 8641 8644 8647 8650 8653 8656 8659 8662 8665 8668 8671 8674 8677 8680 8683 8686 8689 8692 8695 8698 8701 8704 8706 8709 8712 8715 8718 8721 8724 8726 8729 8732 8735 8738 8741 8744 8746 8749 8752 8755 8758 8761 8764 8766 8769 8772 8775 8777 8780 8783 8786 8788 8791 8794 8796 8799 8802 8805 8808 8811 8814 8816 8819 8822 8825 8827 8829 8832 8835 8838 8841 8844 8847 8850 8853 8856 8859 8862 8865 8868 8871 8874 8877 8880 8882 8885 8888 8891 8894 8897 8900 8903 8905 8908 8911 8914 8917 8920 8922 8925 8928 8931 8934 8937 8939 8942 8945 8947 8950 8953 8956 8959 8961 8964 8967 8970 8973 8976 8979 8981 8984 8986 8989 8991 8993 8996 8998 9001 9004 9007 9009 9012 9015 9018 9021 9024 9026 9029 9032 9035 9037 9040 9043 9046 9049 9051 9053 9055 9058 9061 9064 9067 9069 9071 9074 9076 9079 9082 9085 9088 9091 9094 9096 9099 9101 9104 9107 9109 9112 9115 9118 9120 9123 9126 9128 9131 9134 9137 9140 9143 9146 9149 9152 9155 9158 9161 9164 9166 9169 9172 9175 9178 9180 9183 9186 9189 9192 9194 9197 9200 9203 9206 9209 9212 9215 9218 9221 9223 9225 9227 9230 9233 9236 9238 9240 9243 9246 9248 9251 9253 9256 9259 9262 9265 9268 9271 9274 9276 9279 9282 9285 9288 9291 9294 9297 9300 9303 9306 9309 9312 9315 9318 9321 9324 9326 9329 9332 9335 9338 9341 9344 9347 9350 9353 9355 9358 9361 9363 9366 9368 9371 9373 9376 9379 9381 9384 9387 9390 9392 9394 9397 9400 9402 9405 9408 9411 9413 9416 9419 9422 9425 9427 9430 9433 9436 9439 9442 9445 9448 9451 9454 9457 9460 9462 9464 9467 9470 9473 9476 9479 9482 9485 9488 9491 9494 9497 9500 9503 9506 9509 9512 9515 9518 9521 9524 9527 9530 9533 9536 9539 9542 9545 9548 9551 9554 9557 9560 9562 9565 9568 9571 9574 9577 9580 9583 9586 9589 9592 9595 9598 9601 9604 9607 9610 9613 9616 9619 9621 9624 9627 9630 9633 9636 9639 9641 9643 9646 9649 9651 9653 9656 9659 9662 9664 9667 9670 9673 9676 9679 9682 9685 9688 9691 9694 9697 9700 9703 9706 9709 9712 9715 9718 9721 9724 9727 9730 9733 9735 9738 9740 9743 9745 9748 9751 9754 9757 9760 9763 9765 9768 9770 9772 9775 9778 9780 9783 9786 9789 9792 9795 9798 9800 9802 9805 9808 9810 9812 9815 9818 9820 9822 9825 9828 9831 9834 9837 9840 9843 9846 9848 9851 9854 9857 9860 9863 9865 9868 9871 9873 9876 9879 9882 9884 9887 9890 9893 9896 9899 9902 9905 9908 9911 9914 9917 9920 9923 9926 9929 9932 9935 9938 9941 9944 9947 9950 9953 9956 9959 9962 9965 9968 9971 9974 9977 9980 9983 9986 9988 9991 9994 9996 9999 10001 10003 10006 10009 10012 10015 10018 10021 10024 10027 10030 10032 10035 10038 10041 10044 10047 10049 10052 10055 10058 10061 10064 10067 10070 10072 10075 10078 10081 10084 10087 10090 10093 10096 10098 10101 10104 10107 10110 10113 10115 10118 10121 10124 10127 10130 10133 10136 10139 10142 10145 10148 10151 10154 10157 10160 10163 10166 10169 10172 10175 10178 10181 10184 10187 10190 10193 10196 10199 10202 10205 10207 10209 10212 10215 10218 10221 10224 10227 10230 10232 10235 10238 10241 10243 10246 10248 10251 10254 10257 10260 10263 10266 10269 10272 10275 10278 10281 10284 10287 10290 10293 10296 10299 10302 10305 10308 10311 10313 10316 10319 10322 10325 10328 10331 10333 10336 10339 10342 10345 10348 10351 10354 10356 10359 10362 10364 10367 10370 10373 10376 10379 10382 10384 10387 10390 10393 10395 10398 10401 10403 10405 10408 10411 10414 10417 10420 10423 10426 10429 10432 10435 10438 10441 10444 10447 10450 10453 10456 10459 10462 10465 10468 10471 10474 10477 10480 10483 10486 10489 10491 10494 10497 10500 10503 10506 10509 10512 10515 10518 10521 10524 10527 10530 10533 10536 10539 10542 10545 10548 10550 10553 10556 10559 10561 10563 10566 10569 10572 10575 10578 10580 10583 10586 10589 10591 10594 10597 10600 10603 10606 10608 10611 10614 10617 10620 10623 10626 10629 10632 10635 10638 10641 10644 10647 10650 10653 10656 10659 10662 10665 10668 10671 10673 10676 10679 10682 10685 10688 10691 10693 10696 10699 10702 10705 10708 10711 10714 10717 10720 10723 10726 10729 10731 10734 10737 10740 10743 10745 10748 10750 10753 10756 10759 10762 10765 10768 10771 10774 10777 10780 10783 10786 10789 10791 10794 10797 10800 10803 10806 10808 10811 10814 10817 10820 10823 10826 10828 10831 10834 10837 10840 10843 10846 10849 10852 10855 10858 10861 10864 10866 10869 10872 10874 10877 10880 10882 10885 10888 10890 10893 10896 10899 10902 10905 10908 10911 10914 10917 10920 10922 10925 10928 10931 10934 10937 10940 10943 10946 10948 10951 10954 10957 10959 10962 10965 10968 10970 10973 10976 10978 10981 10984 10987 10989 10992 10995 10998 11001 11004 11006 11009 11011 11014 11017 11020 11023 11025 11027 11030 11033 11036 11038 11041 11044 11047 11050 11052 11055 11058 11061 11064 11067 11070 11073 11076 11079 11082 11085 11088 11091 11094 11097 11099 11102 11105 11107 11109 11112 11115 11118 11121 11123 11126 11129 11132 11135 11138 11141 11143 11146 11149 11152 11155 11158 11161 11163 11166 11169 11172 11175 11178 11181 11184 11187 11189 11192 11195 11198 11201 11204 11207 11210 11213 11216 11219 11221 11224 11227 11229 11232 11235 11237 11240 11243 11246 11249 11252 11254 11256 11259 11262 11264 11266 11269 11271 11274 11276 11279 11281 11283 11286 11289 11291 11294 11296 11299 11301 11304 11306 11309 11311 11314 11317 11319 11322 11324 11327 11329 11332 11335 11338 11341 11344 11347 11349 11352 11355 11358 11360 11363 11366 11369 11372 11375 11378 11381 11384 11387 11389 11392 11395 11397 11400 11402 11405 11407 11410 11413 11416 11418 11420 11423 11426 11429 11432 11435 11438 11441 11444 11447 11450 11453 11455 11458 11461 11464 11467 11470 11472 11475 11478 11481 11484 11487 11490 11493 11496 11499 11502 11505 11508 11511 11514 11517 11520 11523 11525 11528 11531 11534 11537 11540 11543 11545 11548 11551 11554 11556 11559 11562 11564 11567 11570 11573 11575 11578 11580 11582 11585 11588 11591 11594 11597 11600 11603 11606 11609 11611 11614 11617 11620 11623 11626 11629 11632 11634 11637 11639 11642 11644 11647 11650 11653 11656 11659 11662 11665 11668 11671 11674 11677 11680 11683 11686 11689 11692 11695 11698 11701 11704 11707 11710 11713 11716 11719 11722 11725 11728 11731 11734 11737 11740 11743 11746 11749 11752 11755 11757 11760 11763 11765 11767 11770 11773 11776 11779 11781 11784 11787 11790 11793 11796 11798 11801 11804 11806 11808 11811 11814 11817 11820 11823 11826 11828 11831 11833 11836 11839 11841 11843 11846 11848 11851 11854 11857 11859 11862 11865 11868 11871 11873 11876 11879 11882 11884 11887 11890 11892 11894 11897 11900 11903 11905 11908 11911 11914 11917 11919 11922 11925 11927 11930 11933 11936 11938 11941 11944 11946 11949 11952 11955 11957 11960 11962 11965 11968 11970 11973 11976 11978 11980 11983 11986 11988 11991 11993 11995 11998 12001 12004 12007 12009 12012 12015 12018 12021 12023 12026 12029 12032 12035 12038 12041 12044 12047 12050 12053 12056 12059 12061 12064 12067 12070 12073 12075 12078 12080 12083 12086 12089 12092 12095 12097 12099 12101 12104 12107 12110 12113 12116 12119 12122 12125 12127 12130 12133 12136 12139 12142 12145 12147 12150 12153 12156 12159 12161 12164 12167 12170 12173 12176 12179 12182 12185 12188 12191 12194 12197 12200 12203 12206 12209 12212 12215 12217 12220 12222 12225 12228 12230 12232 12235 12237 12240 12243 12245 12248 12250 12253 12255 12258 12260 12263 12266 12269 12272 12274 12277 12280 12283 12285 12288 12291 12294 12297 12300 12303 12306 12309 12312 12315 12318 12321 12324 12327 12330 12333 12336 12339 12342 12345 12348 12351 12354 12357 12360 12362 12365 12368 12371 12374 12377 12379 12382 12385 12388 12391 12394 12397 12400 12403 12406 12409 12412 12414 12417 12420 12423 12426 12429 12431 12434 12437 12439 12441 12444 12447 12450 12452 12455 12458 12460 12462 12465 12467 12470 12473 12476 12479 12482 12485 12488 12491 12494 12497 12500 12503 12506 12509 12512 12515 12517 12520 12523 12526 12529 12531 12534 12537 12540 12543 12546 12549 12552 12555 12557 12559 12562 12565 12567 12570 12573 12576 12579 12582 12585 12588 12591 12594 12596 12598 12601 12604 12606 12609 12612 12615 12617 12620 12623 12626 12629 12632 12635 12638 12641 12644 12647 12650 12653 12656 12659 12662 12665 12668 12671 12674 12677 12680 12683 12686 12689 12692 12695 12697 12700 12703 12706 12709 12712 12715 12718 12721 12724 12727 12730 12733 12736 12739 12742 12745 12748 12751 12754 12757 12759 12762 12765 12768 12770 12772 12775 12778 12781 12783 12786 12789 12791 12794 12797 12800 12803 12806 12808 12811 12813 12816 12819 12822 12825 12828 12831 12834 12837 12839 12842 12845 12848 12850 12853 12856 12858 12861 12863 12866 12869 12872 12874 12877 12880 12883 12885 12888 12891 12894 12897 12900 12903 12906 12909 12912 12915 12918 12921 12924 12927 12930 12933 12936 12938 12941 12944 12947 12950 12953 12956 12959 12962 12965 12967 12970 12973 12976 12979 12982 12985 12988 12991 12993 12996 12999 13002 13005 13008 13011 13014 13017 13020 13023 13026 13029 13032 13034 13037 13040 13043 13045 13048 13051 13054 13057 13060 13063 13066 13069 13072 13075 13078 13081 13084 13087 13090 13093 13096 13099 13102 13104 13107 13110 13113 13115 13118 13120 13123 13126 13129 13131 13134 13137 13140 13142 13144 13147 13150 13153 13156 13159 13162 13165 13168 13171 13174 13177 13180 13183 13186 13189 13192 13195 13198 13201 13204 13207 13210 13212 13215 13218 13221 13224 13226 13229 13232 13235 13238 13240 13243 13246 13249 13252 13255 13258 13261 13263 13266 13269 13272 13275 13277 13280 13283 13286 13289 13292 13295 13297 13300 13303 13306 13309 13312 13315 13317 13320 13323 13326 13328 13331 13334 13337 13340 13343 13346 13349 13352 13355 13357 13360 13363 13366 13369 13372 13375 13377 13380 13383 13386 13389 13392 13395 13398 13401 13404 13407 13410 13412 13415 13418 13420 13423 13426 13429 13432 13435 13437 13440 13443 13445 13448 13451 13454 13457 13460 13463 13466 13468 13470 13473 13476 13479 13482 13484 13487 13490 13493 13496 13499 13502 13504 13507 13510 13513 13516 13519 13522 13525 13528 13531 13534 13536 13539 13542 13545 13548 13551 13554 13557 13560 13563 13566 13569 13572 13574 13577 13579 13582 13585 13588 13590 13593 13596 13598 13601 13604 13607 13610 13612 13615 13618 13621 13624 13627 13629 13632 13635 13638 13641 13644 13647 13650 13653 13655 13658 13661 13664 13667 13669 13672 13675 13678 13681 13684 13687 13690 13692 13695 13698 13701 13704 13707 13710 13713 13716 13719 13722 13724 13727 13730 13733 13735 13738 13740 13743 13746 13749 13752 13755 13758 13760 13763 13765 13768 13770 13773 13776 13779 13782 13784 13787 13790 13793 13796 13799 13802 13805 13808 13811 13814 13817 13820 13823 13826 13828 13831 13833 13836 13839 13842 13845 13848 13851 13854 13856 13859 13862 13865 13868 13871 13874 13877 13880 13883 13886 13889 13892 13895 13897 13900 13903 13906 13909 13911 13914 13917 13920 13923 13926 13929 13932 13935 13938 13941 13944 13947 13950 13953 13956 13959 13962 13965 13968 13971 13974 13977 13980 13983 13985 13988 13991 13994 13997 13999 14002 14005 14008 14010 14013 14016 14018 14021 14024 14026 14029 14032 14035 14038 14041 14044 14047 14050 14053 14056 14059 14062 14065 14068 14071 14073 14076 14079 14081 14084 14087 14090 14093 14096 14099 14102 14104 14107 14110 14113 14116 14119 14121 14124 14127 14130 14132 14135 14138 14141 14143 14146 14149 14152 14155 14158 14161 14164 14166 14169 14172 14175 14177 14180 14182 14184 14187 14190 14193 14196 14199 14201 14204 14207 14210 14213 14216 14219 14222 14225 14228 14231 14233 14236 14239 14242 14245 14248 14251 14254 14257 14260 14263 14266 14269 14272 14275 14278 14281 14284 14287 14290 14293 14296 14299 14302 14305 14308 14311 14314 14317 14320 14323 14326 14329 14332 14335 14338 14341 14344 14346 14349 14352 14355 14358 14361 14364 14367 14370 14373 14376 14379 14382 14385 14388 14391 14394 14396 14399 14402 14405 14408 14411 14414 14417 14420 14423 14425 14428 14431 14434 14437 14440 14443 14446 14448 14451 14454 14457 14460 14463 14466 14469 14472 14475 14478 14481 14484 14487 14490 14493 14496 14499 14502 14505 14508 14511 14513 14516 14519 14522 14525 14528 14531 14534 14537 14540 14543 14546 14549 14552 14555 14558 14561 14564 14566 14569 14572 14575 14578 14581 14584 14587 14590 14593 14596 14599 14602 14605 14608 14611 14614 14617 14620 14623 14626 14629 14632 14635 14638 14641 14644 14647 14650 14653 14656 14659 14662 14665 14668 14671 14674 14677 14680 14683 14686 14689 14692 14695 14698 14701 14704 14706 14709 14712 14715 14718 14721 14724 14727 14730 14733 14736 14739 14742 14745 14747 14750 14752 14755 14758 14761 14764 14767 14769 14772 14775 14778 14781 14784 14786 14788 14791 14794 14797 14800 14803 14806 14809 14812 14815 14818 14821 14824 14827 14830 14833 14836 14839 14841 14843 14846 14849 14852 14855 14858 14861 14863 14866 14868 14871 14874 14877 14880 14883 14886 14889 14892 14895 14897 14900 14903 14906 14909 14912 14915 14918 14921 14924 14927 14930 14933 14936 14939 14942 14945 14948 14951 14954 14956 14959 14962 14965 14968 14971 14973 14976 14978 14981 14984 14987 14990 14993 14996 14999 15001 15004 15007 15010 15012 15015 15018 15021 15023 15026 15029 15031 15034 15037 15040 15042 15045 15048 15050 15053 15055 15058 15060 15063 15066 15068 15071 15074 15077 15080 15083 15086 15089 15092 15095 15098 15101 15104 15107 15110 15113 15116 15119 15122 15125 15128 15131 15133 15136 15138 15141 15144 15147 15150 15153 15156 15159 15161 15164 15167 15170 15173 15176 15179 15182 15185 15188 15191 15194 15197 15200 15203 15206 15209 15212 15215 15218 15220 15223 15226 15229 15231 15234 15237 15240 15243 15246 15249 15252 15255 15258 15261 15263 15266 15269 15272 15275 15277 15280 15283 15285 15288 15291 15294 15297 15300 15302 15305 15308 15311 15314 15316 15319 15321 15324 15327 15329 15332 15335 15338 15341 15344 15347 15350 15352 15355 15358 15360 15363 15365 15368 15371 15374 15377 15380 15383 15386 15389 15392 15395 15398 15401 15404 15407 15410 15413 15416 15419 15421 15424 15427 15430 15433 15436 15439 15442 15444 15447 15450 15453 15456 15458 15461 15464 15467 15470 15473 15476 15479 15482 15485 15487 15490 15493 15496 15499 15501 15504 15507 15510 15513 15516 15519 15522 15525 15528 15531 15534 15537 15539 15542 15545 15548 15551 15554 15557 15560 15563 15566 15568 15571 15574 15577 15580 15583 15586 15589 15592 15595 15598 15601 15604 15606 15609 15612 15614 15617 15620 15623 15626 15629 15632 15635 15638 15641 15643 15645 15647 15650 15653 15656 15658 15661 15664 15667 15670 15673 15676 15678 15681 15684 15687 15689 15691 15694 15697 15700 15703 15706 15709 15712 15715 15718 15721 15724 15727 15729 15732 15735 15738 15740 15742 15745 15748 15751 15754 15757 15759 15762 15765 15768 15771 15773 15776 15779 15782 15785 15787 15790 15793 15796 15799 15802 15804 15806 15808 15811 15814 15817 15819 15821 15824 15827 15830 15833 15836 15839 15842 15845 15848 15850 15852 15855 15858 15861 15863 15865 15868 15871 15874 15877 15880 15883 15886 15889 15892 15895 15898 15901 15904 15907 15910 15913 15916 15918 15921 15923 15926 15929 15932 15935 15937 15940 15943 15946 15949 15952 15955 15958 15960 15963 15966 15969 15972 15975 15978 15981 15983 15986 15989 15991 15994 15996 15998 16001 16004 16007 16009 16011 16014 16017 16020 16022 16024 16027 16030 16033 16036 16039 16042 16045 16048 16051 16054 16056 16059 16062 16065 16068 16071 16074 16077 16079 16082 16085 16088 16091 16093 16096 16099 16102 16105 16108 16111 16113 16116 16119 16122 16125 16127 16130 16132 16135 16138 16141 16144 16147 16150 16153 16156 16159 16162 16165 16168 16171 16174 16176 16179 16182 16185 16188 16191 16194 16197 16199 16202 16205 16208 16211 16213 16216 16219 16222 16224 16227 16230 16233 16236 16239 16242 16245 16248 16251 16254 16257 16260 16263 16266 16269 16272 16275 16278 16281 16284 16287 16290 16292 16295 16297 16300 16303 16305 16308 16311 16314 16316 16319 16322 16324 16327 16330 16333 16336 16339 16342 16345 16348 16351 16354 16357 16360 16363 16366 16369 16372 16375 16378 16381 16384 16386 16388 16390 16393 16396 16399 16402 16405 16408 16411 16414 16417 16420 16423 16426 16429 16431 16434 16437 16440 16442 16445 16448 16450 16453 16456 16459 16462 16464 16467 16470 16472 16474 16477 16480 16483 16486 16488 16491 16494 16496 16499 16501 16504 16507 16510 16513 16516 16519 16522 16525 16528 16531 16534 16537 16539 16542 16545 16548 16551 16554 16557 16560 16562 16565 16567 16570 16573 16576 16579 16581 16584 16587 16590 16593 16596 16599 16602 16605 16608 16611 16614 16617 16620 16623 16626 16629 16632 16635 16638 16641 16644 16647 16650 16652 16655 16658 16661 16663 16666 16668 16671 16674 16677 16679 16682 16685 16688 16691 16694 16696 16699 16702 16704 16707 16710 16713 16716 16719 16722 16725 16728 16730 16733 16736 16739 16742 16745 16747 16750 16753 16756 16759 16762 16765 16768 16771 16774 16777 16780 16783 16786 16789 16791 16794 16797 16800 16803 16805 16808 16811 16814 16817 16820 16823 16826 16829 16832 16835 16838 16841 16843 16846 16849 16852 16855 16857 16860 16863 16866 16869 16872 16875 16878 16881 16884 16887 16890 16893 16896 16898 16901 16904 16906 16909 16912 16915 16917 16920 16923 16926 16929 16932 16935 16938 16941 16944 16947 16950 16953 16956 16958 16960 16963 16965 16967 16970 16973 16976 16978 16980 16983 16985 16988 16990 16993 16995 16998 17001 17004 17006 17009 17011 17014 17017 17020 17023 17025 17028 17031 17034 17037 17040 17043 17045 17048 17051 17054 17057 17060 17062 17065 17068 17070 17073 17076 17078 17081 17084 17086 17089 17092 17095 17098 17101 17103 17106 17108 17111 17114 17117 17120 17123 17126 17129 17132 17135 17138 17141 17144 17147 17149 17152 17155 17157 17160 17163 17166 17169 17172 17175 17178 17181 17184 17186 17189 17192 17195 17198 17201 17204 17207 17210 17213 17215 17218 17221 17223 17226 17228 17231 17234 17237 17240 17243 17246 17249 17251 17254 17257 17260 17263 17266 17269 17272 17274 17277 17279 17282 17285 17287 17290 17293 17296 17298 17301 17304 17307 17310 17312 17315 17318 17321 17324 17327 17329 17332 17335 17338 17341 17344 17347 17350 17353 17356 17359 17362 17365 17368 17371 17374 17377 17380 17383 17386 17389 17392 17394 17397 17400 17402 17405 17408 17411 17413 17416 17419 17422 17425 17427 17430 17433 17436 17439 17442 17445 17448 17451 17454 17457 17460 17463 17466 17469 17472 17475 17478 17481 17484 17487 17490 17493 17496 17498 17501 17504 17507 17510 17513 17516 17518 17521 17524 17527 17530 17533 17536 17539 17542 17545 17548 17551 17554 17557 17559 17562 17564 17567 17570 17572 17575 17578 17581 17584 17586 17588 17591 17593 17596 17598 17601 17604 17607 17610 17613 17615 17618 17621 17623 17625 17628 17631 17634 17637 17640 17642 17645 17648 17650 17653 17656 17659 17662 17665 17668 17671 17674 17676 17678 17681 17684 17687 17689 17692 17694 17697 17700 17703 17706 17709 17711 17714 17716 17719 17722 17725 17728 17731 17733 17735 17738 17741 17744 17747 17749 17752 17755 17758 17761 17763 17766 17769 17772 17775 17778 17781 17784 17787 17790 17793 17796 17799 17802 17805 17808 17811 17814 17816 17819 17822 17824 17827 17830 17833 17835 17838 17841 17844 17847 17850 17853 17856 17859 17862 17865 17868 17871 17874 17877 17880 17883 17886 17889 17892 17894 17897 17900 17903 17906 17909 17912 17915 17918 17921 17924 17927 17930 17933 17936 17938 17940 17943 17946 17949 17951 17954 17957 17960 17963 17966 17968 17971 17974 17977 17980 17983 17986 17989 17992 17995 17998 18001 18003 18006 18009 18011 18014 18017 18020 18023 18026 18029 18032 18035 18038 18041 18043 18046 18049 18052 18054 18057 18059 18062 18064 18067 18070 18073 18075 18077 18080 18082 18085 18088 18090 18093 18096 18098 18100 18103 18106 18109 18111 18114 18117 18119 18122 18124 18127 18130 18133 18135 18138 18141 18143 18145 18148 18150 18153 18156 18158 18161 18163 18166 18169 18172 18175 18178 18181 18184 18187 18190 18192 18195 18198 18201 18204 18207 18209 18212 18215 18218 18221 18224 18227 18230 18233 18236 18239 18241 18244 18247 18250 18253 18255 18257 18260 18263 18265 18268 18270 18273 18276 18279 18282 18285 18287 18290 18293 18295 18298 18300 18303 18306 18309 18312 18315 18318 18321 18323 18326 18329 18332 18335 18338 18341 18344 18347 18350 18352 18355 18357 18360 18362 18365 18367 18370 18373 18376 18379 18381 18384 18387 18390 18393 18396 18398 18400 18403 18406 18409 18412 18415 18418 18420 18423 18426 18429 18432 18435 18437 18440 18443 18446 18449 18451 18454 18457 18459 18462 18464 18467 18470 18473 18475 18478 18480 18483 18486 18488 18490 18492 18495 18498 18501 18504 18507 18510 18512 18514 18516 18519 18522 18525 18528 18530 18533 18535 18538 18540 18543 18546 18549 18552 18555 18558 18560 18563 18566 18569 18572 18575 18578 18581 18584 18587 18590 18593 18596 18599 18602 18605 18608 18611 18614 18617 18620 18623 18626 18629 18632 18635 18638 18641 18644 18647 18650 18653 18656 18659 18662 18665 18668 18671 18674 18677 18680 18683 18686 18689 18692 18695 18698 18701 18704 18707 18709 18712 18715 18718 18720 18722 18725 18728 18731 18734 18737 18740 18743 18746 18749 18752 18755 18758 18761 18764 18767 18770 18773 18776 18779 18781 18784 18787 18790 18793 18796 18799 18802 18804 18807 18810 18812 18815 18818 18820 18823 18826 18828 18831 18833 18836 18839 18841 18844 18847 18850 18852 18855 18857 18860 18862 18864 18867 18870 18873 18875 18877 18880 18883 18885 18888 18891 18893 18896 18899 18902 18905 18908 18911 18914 18917 18920 18923 18926 18929 18931 18934 18937 18940 18943 18945 18948 18951 18954 18957 18959 18962 18965 18968 18971 18974 18977 18980 18983 18986 18988 18991 18993 18996 18999 19002 19005 19007 19010 19013 19016 19018 19021 19024 19027 19030 19033 19036 19038 19041 19044 19046 19049 19052 19055 19057 19060 19063 19066 19069 19072 19075 19078 19080 19083 19086 19089 19092 19095 19097 19100 19103 19106 19109 19112 19115 19118 19121 19124 19127 19130 19133 19136 19139 19142 19144 19147 19150 19153 19156 19159 19161 19164 19167 19169 19172 19174 19177 19180 19183 19186 19188 19190 19193 19196 19198 19201 19204 19207 19210 19213 19216 19219 19222 19225 19228 19231 19233 19236 19238 19241 19244 19247 19250 19253 19255 19258 19261 19264 19266 19269 19272 19275 19277 19280 19283 19286 19289 19292 19295 19298 19301 19304 19307 19310 19313 19316 19318 19321 19324 19327 19330 19333 19336 19339 19341 19344 19346 19349 19352 19355 19358 19361 19364 19367 19369 19371 19374 19377 19380 19383 19386 19389 19392 19395 19398 19400 19403 19406 19409 19412 19415 19418 19420 19422 19424 19427 19429 19432 19435 19438 19441 19444 19447 19449 19452 19454 19457 19459 19462 19464 19467 19470 19473 19476 19479 19482 19484 19487 19490 19492 19495 19498 19501 19504 19506 19509 19512 19515 19518 19521 19524 19527 19530 19533 19536 19539 19542 19545 19548 19551 19554 19557 19560 19563 19566 19569 19571 19574 19576 19579 19582 19585 19588 19591 19594 19597 19600 19603 19606 19609 19612 19615 19618 19621 19624 19627 19630 19633 19636 19639 19642 19645 19648 19651 19654 19657 19660 19663 19666 19669 19672 19675 19678 19681 19684 19687 19690 19693 19696 19699 19702 19705 19708 19711 19714 19717 19720 19723 19726 19729 19732 19735 19738 19741 19744 19747 19750 19752 19755 19758 19761 19764 19767 19770 19773 19776 19779 19782 19785 19788 19791 19794 19797 19800 19803 19806 19809 19812 19815 19818 19821 19823 19826 19829 19832 19834 19837 19839 19842 19845 19848 19851 19854 19857 19860 19863 19866 19869 19872 19875 19878 19881 19884 19887 19890 19893 19896 19899 19902 19905 19908 19911 19914 19917 19920 19923 19926 19929 19932 19935 19938 19941 19944 19947 19950 19953 19956 19958 19961 19963 19966 19969 19972 19975 19978 19981 19984 19987 19990 19993 19996 19999 20002 20005 20008 20011 20014 20017 20020 20023 20026 20029 20032 20035 20038 20040 20043 20046 20049 20052 20055 20058 20061 20064 20067 20070 20073 20076 20079 20082 20085 20088 20091 20094 20097 20100 20103 20106 20109 20112 20115 20118 20121 20124 20127 20130 20133 20136 20139 20142 20145 20148 20151 20154 20157 20160 20163 20166 20169 20172 20175 20178 20181 20184 20187 20190 20193 20196 20199 20202 20205 20208 20211 20214 20217 20220 20223 20226 20229 20232 20235 20238 20241 20244 20247 20249 20252 20255 20258 20261 20264 20267 20270 20272 20275 20278 20280 20283 20286 20289 20292 20295 20298 20301 20304 20307 20310 20313 20316 20319 20322 20325 20328 20331 20334 20337 20340 20342 20345 20348 20351 20354 20357 20360 20363 20366 20369 20372 20375 20378 20381 20384 20387 20390 20393 20396 20399 20402 20405 20408 20411 20414 20417 20420 20423 20426 20429 20432 20435 20438 20440 20443 20446 20449 20452 20454 20457 20459 20462 20465 20468 20471 20474 20477 20479 20482 20485 20487 20490 20493 20495 20497 20500 20502 20505 20508 20511 20513 20516 20519 20522 20525 20528 20531 20534 20537 20540 20543 20546 20549 20552 20555 20558 20560 20563 20566 20569 20572 20575 20578 20581 20584 20586 20589 20592 20595 20598 20601 20604 20607 20610 20613 20616 20619 20622 20625 20628 20631 20634 20637 20640 20643 20646 20649 20652 20655 20658 20661 20664 20667 20670 20673 20676 20679 20682 20685 20688 20691 20694 20696 20699 20702 20705 20708 20711 20714 20717 20719 20722 20725 20727 20730 20732 20735 20738 20741 20744 20747 20750 20753 20756 20759 20762 20765 20767 20769 20772 20775 20777 20780 20783 20785 20787 20790 20793 20796 20799 20801 20804 20806 20809 20812 20814 20817 20819 20821 20824 20826 20829 20831 20834 20837 20840 20843 20846 20849 20852 20854 20857 20859 20862 20865 20868 20871 20874 20876 20879 20882 20885 20887 20890 20893 20895 20898 20900 20903 20905 20907 20910 20913 20915 20918 20921 20924 20927 20930 20933 20935 20938 20941 20944 20947 20950 20953 20956 20959 20961 20963 20966 20969 20972 20974 20977 20980 20983 20986 20988 20990 20993 20995 20998 21001 21004 21006 21009 21012 21015 21018 21021 21024 21027 21030 21033 21036 21039 21042 21045 21048 21051 21054 21056 21059 21062 21065 21068 21071 21074 21076 21079 21081 21084 21087 21090 21092 21094 21097 21100 21102 21105 21107 21110 21113 21116 21119 21122 21125 21128 21131 21134 21137 21140 21143 21145 21147 21150 21153 21156 21159 21162 21164 21167 21170 21173 21176 21179 21182 21185 21187 21190 21193 21196 21198 21201 21203 21206 21209 21211 21214 21217 21220 21223 21226 21229 21232 21235 21238 21240 21243 21246 21248 21251 21254 21257 21260 21263 21266 21269 21272 21275 21278 21281 21283 21286 21289 21292 21295 21298 21301 21304 21307 21310 21313 21316 21319 21322 21325 21328 21331 21334 21337 21340 21343 21346 21349 21351 21354 21357 21360 21363 21366 21369 21372 21375 21378 21381 21384 21386 21389 21392 21395 21398 21400 21403 21406 21409 21412 21415 21418 21421 21424 21427 21430 21433 21435 21438 21441 21444 21447 21450 21452 21455 21457 21460 21463 21466 21469 21472 21475 21478 21481 21484 21486 21489 21492 21494 21497 21500 21502 21505 21508 21511 21514 21516 21519 21522 21525 21528 21531 21534 21537 21540 21543 21546 21549 21552 21555 21558 21561 21564 21567 21570 21573 21576 21579 21581 21584 21587 21589 21592 21594 21597 21600 21603 21606 21609 21612 21615 21618 21621 21623 21626 21629 21631 21633 21635 21638 21641 21644 21646 21649 21652 21655 21658 21661 21664 21666 21668 21671 21673 21676 21679 21681 21684 21687 21689 21692 21695 21698 21701 21703 21706 21709 21712 21715 21717 21720 21723 21726 21729 21732 21735 21738 21741 21744 21747 21750 21752 21755 21758 21760 21763 21765 21767 21770 21773 21775 21777 21779 21782 21785 21788 21791 21794 21797 21800 21803 21806 21809 21811 21814 21817 21820 21823 21826 21829 21832 21835 21838 21840 21843 21846 21849 21852 21855 21857 21860 21863 21866 21869 21872 21875 21878 21881 21884 21887 21889 21892 21895 21898 21901 21904 21907 21910 21913 21916 21919 21922 21925 21928 21931 21934 21937 21940 21943 21946 21949 21952 21955 21958 21961 21963 21965 21968 21971 21974 21977 21980 21983 21986 21989 21991 21994 21997 22000 22003 22006 22009 22012 22015 22018 22021 22024 22027 22030 22033 22036 22039 22041 22044 22047 22050 22053 22055 22058 22061 22064 22066 22068 22071 22074 22077 22080 22083 22086 22088 22091 22093 22096 22099 22102 22104 22107 22110 22113 22116 22119 22122 22125 22128 22130 22133 22135 22137 22140 22143 22146 22149 22152 22155 22158 22161 22164 22167 22170 22173 22175 22178 22181 22183 22186 22188 22191 22194 22197 22200 22203 22206 22209 22212 22215 22218 22221 22224 22227 22230 22233 22236 22239 22242 22245 22248 22251 22254 22257 22259 22262 22265 22268 22271 22274 22276 22279 22282 22285 22288 22291 22294 22297 22300 22303 22306 22308 22311 22314 22317 22319 22322 22325 22328 22331 22334 22337 22340 22343 22346 22349 22352 22354 22356 22359 22362 22365 22368 22371 22373 22376 22379 22382 22384 22387 22390 22393 22396 22399 22402 22405 22408 22411 22414 22416 22419 22422 22425 22428 22431 22434 22437 22439 22441 22444 22446 22449 22452 22455 22458 22460 22463 22466 22469 22472 22475 22477 22480 22483 22486 22489 22492 22495 22498 22501 22504 22507 22509 22512 22515 22518 22521 22524 22527 22530 22533 22536 22539 22541 22544 22547 22550 22553 22556 22559 22562 22564 22567 22570 22573 22576 22579 22582 22585 22588 22591 22594 22597 22600 22603 22606 22609 22612 22615 22618 22621 22624 22626 22629 22632 22635 22637 22640 22643 22646 22649 22652 22655 22658 22661 22664 22667 22670 22673 22676 22678 22681 22683 22685 22688 22690 22692 22695 22698 22701 22704 22707 22709 22712 22715 22718 22721 22724 22727 22730 22732 22735 22738 22740 22743 22746 22748 22751 22754 22756 22759 22762 22764 22766 22768 22770 22773 22776 22778 22780 22783 22786 22788 22791 22794 22796 22799 22802 22805 22808 22810 22812 22814 22816 22819 22822 22825 22827 22830 22832 22835 22837 22840 22842 22844 22847 22850 22853 22856 22859 22862 22865 22867 22870 22873 22875 22878 22880 22883 22886 22888 22890 22893 22896 22899 22902 22905 22908 22911 22914 22917 22920 22923 22926 22929 22932 22935 22938 22941 22943 22946 22949 22952 22955 22958 22961 22964 22967 22970 22973 22976 22979 22982 22985 22988 22991 22994 22996 22999 23002 23005 23008 23011 23014 23017 23020 23023 23026 23029 23032 23035 23038 23040 23042 23045 23048 23051 23054 23056 23059 23061 23064 23067 23070 23072 23074 23077 23079 23082 23085 23088 23091 23094 23097 23100 23103 23106 23109 23112 23115 23118 23121 23124 23127 23130 23133 23136 23138 23141 23143 23146 23149 23152 23155 23157 23160 23163 23166 23169 23172 23175 23178 23181 23184 23187 23190 23193 23196 23199 23202 23205 23208 23211 23214 23217 23219 23222 23225 23228 23231 23234 23237 23240 23243 23246 23249 23252 23255 23258 23261 23263 23266 23269 23272 23275 23278 23281 23284 23287 23290 23293 23296 23299 23302 23305 23308 23311 23314 23317 23320 23323 23326 23329 23332 23335 23338 23341 23344 23347 23350 23353 23356 23359 23362 23365 23368 23371 23374 23377 23380 23383 23386 23389 23392 23395 23398 23401 23404 23407 23410 23413 23416 23419 23422 23425 23428 23431 23434 23437 23440 23443 23446 23449 23451 23454 23457 23460 23462 23465 23468 23470 23473 23476 23479 23482 23485 23488 23491 23494 23497 23500 23503 23505 23508 23511 23514 23517 23519 23522 23525 23528 23531 23534 23537 23540 23543 23546 23549 23552 23555 23558 23561 23564 23567 23570 23573 23576 23579 23582 23585 23588 23591 23594 23597 23600 23603 23606 23608 23611 23614 23617 23620 23622 23625 23628 23631 23634 23637 23640 23643 23646 23649 23652 23654 23657 23660 23662 23665 23668 23671 23674 23677 23680 23683 23686 23689 23692 23695 23698 23700 23703 23706 23709 23712 23715 23718 23721 23724 23726 23729 23732 23735 23738 23741 23744 23747 23750 23753 23756 23758 23761 23763 23766 23769 23772 23774 23777 23780 23783 23785 23788 23790 23793 23795 23797 23800 23803 23806 23809 23812 23814 23817 23820 23823 23826 23829 23832 23835 23838 23841 23844 23847 23850 23853 23856 23859 23862 23865 23868 23871 23874 23877 23880 23883 23885 23888 23891 23893 23896 23899 23902 23904 23907 23909 23912 23915 23918 23921 23924 23927 23930 23933 23936 23939 23942 23945 23947 23950 23953 23956 23959 23962 23965 23968 23971 23974 23977 23980 23983 23986 23989 23992 23995 23998 24001 24004 24006 24009 24012 24015 24018 24021 24024 24027 24030 24033 24036 24039 24042 24045 24048 24051 24054 24057 24060 24063 24066 24069 24072 24075 24078 24081 24084 24087 24089 24092 24095 24098 24101 24104 24107 24110 24113 24116 24119 24122 24125 24128 24131 24134 24137 24140 24143 24145 24148 24151 24154 24156 24159 24162 24165 24167 24169 24172 24175 24178 24181 24184 24186 24189 24192 24195 24198 24201 24204 24207 24209 24211 24214 24217 24220 24222 24225 24227 24230 24233 24236 24239 24242 24245 24247 24249 24252 24255 24257 24259 24262 24265 24268 24271 24274 24277 24280 24283 24286 24289 24291 24294 24297 24300 24303 24306 24309 24311 24314 24317 24320 24323 24326 24329 24332 24335 24338 24341 24344 24347 24350 24353 24356 24359 24362 24364 24367 24370 24373 24376 24378 24381 24384 24386 24389 24392 24395 24398 24401 24404 24407 24410 24413 24416 24419 24421 24424 24426 24429 24431 24434 24437 24440 24443 24446 24449 24452 24455 24458 24461 24464 24467 24470 24473 24476 24479 24482 24485 24488 24490 24493 24496 24498 24501 24504 24507 24509 24512 24515 24517 24520 24523 24526 24529 24531 24534 24537 24540 24543 24546 24549 24552 24554 24557 24560 24563 24566 24569 24572 24575 24578 24581 24584 24587 24590 24593 24596 24599 24602 24605 24608 24611 24614 24617 24620 24623 24626 24629 24632 24635 24638 24641 24643 24646 24649 24652 24655 24658 24661 24664 24667 24670 24673 24676 24679 24682 24685 24688 24691 24694 24697 24700 24703 24706 24709 24712 24715 24718 24721 24724 24727 24730 24733 24736 24739 24742 24745 24748 24751 24754 24756 24758 24760 24763 24766 24768 24771 24774 24777 24779 24782 24784 24787 24790 24793 24796 24799 24801 24804 24807 24810 24813 24816 24819 24822 24824 24827 24830 24833 24836 24839 24842 24845 24848 24851 24854 24857 24860 24863 24866 24868 24871 24874 24877 24879 24882 24884 24887 24890 24893 24896 24899 24902 24905 24908 24910 24913 24916 24919 24922 24925 24928 24931 24933 24936 24938 24941 24943 24946 24949 24952 24955 24958 24961 24964 24967 24969 24972 24975 24977 24979 24981 24984 24986 24989 24991 24994 24997 25000 25003 25006 25009 25012 25015 25018 25021 25024 25027 25030 25033 25036 25039 25042 25045 25048 25051 25054 25056 25059 25062 25064 25066 25069 25072 25075 25077 25080 25083 25086 25089 25092 25095 25098 25100 25103 25105 25108 25111 25114 25117 25119 25122 25125 25127 25130 25133 25136 25139 25142 25145 25148 25150 25153 25156 25158 25161 25164 25167 25169 25172 25175 25178 25181 25184 25187 25190 25193 25196 25198 25201 25204 25207 25210 25213 25216 25218 25221 25224 25226 25229 25232 25235 25238 25240 25243 25246 25249 25252 25255 25258 25260 25262 25264 25267 25270 25273 25275 25278 25280 25283 25285 25288 25291 25294 25297 25300 25303 25305 25308 25311 25314 25316 25319 25322 25325 25327 25330 25333 25336 25339 25342 25345 25348 25351 25354 25357 25360 25363 25365 25368 25371 25374 25376 25379 25382 25385 25388 25391 25393 25395 25398 25401 25403 25406 25408 25410 25412 25415 25418 25421 25423 25426 25429 25432 25435 25438 25440 25443 25446 25449 25452 25455 25458 25461 25464 25467 25470 25473 25476 25478 25481 25484 25487 25490 25493 25496 25498 25501 25504 25506 25509 25512 25514 25517 25520 25523 25526 25529 25531 25534 25537 25539 25542 25544 25547 25549 25552 25555 25558 25561 25564 25567 25569 25572 25575 25578 25581 25583 25586 25589 25592 25595 25598 25601 25604 25607 25610 25613 25615 25618 25621 25624 25627 25630 25632 25635 25638 25641 25644 25647 25650 25653 25656 25659 25662 25665 25668 25671 25674 25677 25679 25682 25685 25688 25691 25694 25696 25699 25701 25704 25707 25710 25713 25716 25718 25721 25724 25727 25730 25733 25735 25738 25741 25744 25747 25750 25752 25755 25758 25761 25764 25767 25770 25773 25776 25779 25782 25784 25787 25789 25792 25794 25797 25800 25802 25805 25808 25811 25814 25817 25820 25823 25826 25828 25831 25833 25836 25839 25842 25845 25848 25851 25854 25857 25860 25863 25865 25868 25871 25874 25877 25880 25883 25886 25889 25892 25895 25897 25900 25903 25906 25908 25911 25913 25915 25918 25921 25924 25926 25929 25932 25935 25937 25939 25942 25945 25948 25951 25954 25957 25960 25963 25966 25969 25971 25973 25976 25979 25982 25985 25988 25990 25993 25996 25999 26002 26005 26008 26011 26014 26017 26020 26022 26025 26027 26029 26031 26034 26037 26040 26043 26046 26049 26052 26055 26057 26060 26063 26066 26069 26072 26075 26078 26081 26084 26087 26090 26093 26096 26099 26102 26105 26108 26111 26114 26117 26120 26123 26126 26129 26132 26135 26138 26141 26144 26146 26149 26152 26155 26158 26160 26163 26166 26169 26172 26175 26178 26181 26184 26186 26189 26192 26195 26198 26201 26204 26207 26210 26212 26215 26218 26221 26224 26227 26230 26233 26236 26239 26242 26245 26248 26251 26254 26257 26260 26263 26266 26269 26272 26275 26278 26281 26284 26287 26290 26292 26295 26298 26301 26304 26307 26310 26312 26315 26317 26320 26323 26325 26328 26331 26334 26336 26339 26341 26344 26347 26350 26352 26355 26358 26361 26363 26366 26369 26372 26375 26378 26381 26383 26386 26389 26392 26395 26398 26401 26404 26407 26410 26413 26416 26419 26422 26425 26428 26431 26434 26437 26440 26443 26446 26449 26452 26455 26458 26461 26464 26466 26469 26471 26474 26477 26480 26483 26485 26488 26491 26494 26497 26500 26503 26506 26509 26512 26515 26518 26521 26524 26526 26529 26532 26534 26537 26540 26542 26545 26548 26551 26554 26557 26559 26562 26565 26568 26571 26574 26577 26580 26583 26585 26588 26590 26593 26596 26599 26602 26605 26607 26609 26612 26615 26617 26620 26623 26626 26628 26631 26634 26637 26640 26643 26646 26649 26651 26654 26657 26660 26663 26666 26669 26672 26675 26678 26681 26684 26687 26690 26693 26696 26699 26701 26704 26707 26710 26713 26716 26718 26721 26723 26726 26729 26732 26735 26738 26741 26744 26747 26750 26753 26756 26759 26761 26764 26766 26769 26772 26775 26778 26781 26784 26786 26788 26791 26794 26797 26800 26803 26806 26809 26812 26815 26818 26821 26824 26827 26830 26833 26836 26839 26842 26845 26848 26851 26853 26856 26859 26861 26864 26867 26870 26873 26876 26878 26881 26884 26887 26890 26893 26896 26898 26901 26904 26907 26910 26913 26916 26919 26922 26925 26928 26931 26934 26937 26940 26943 26946 26948 26951 26954 26956 26959 26962 26965 26968 26970 26973 26976 26979 26982 26985 26988 26991 26994 26997 27000 27003 27005 27008 27011 27014 27017 27020 27023 27026 27029 27032 27035 27038 27041 27044 27047 27050 27053 27056 27059 27062 27064 27067 27070 27073 27076 27079 27082 27085 27088 27091 27094 27097 27100 27102 27105 27108 27111 27114 27117 27120 27123 27126 27129 27132 27135 27138 27141 27143 27145 27148 27151 27154 27157 27160 27163 27165 27168 27171 27174 27177 27180 27183 27186 27189 27192 27195 27198 27201 27204 27207 27210 27213 27216 27219 27222 27225 27228 27231 27234 27237 27240 27243 27246 27249 27252 27255 27258 27261 27264 27267 27270 27272 27275 27278 27281 27284 27287 27290 27293 27296 27298 27301 27304 27307 27310 27313 27316 27319 27322 27325 27328 27331 27334 27336 27339 27342 27345 27348 27350 27353 27355 27358 27361 27364 27367 27370 27373 27376 27379 27381 27384 27387 27390 27393 27396 27399 27402 27405 27408 27411 27413 27416 27419 27422 27424 27427 27430 27432 27435 27438 27441 27444 27446 27449 27452 27454 27457 27460 27463 27466 27469 27472 27475 27478 27480 27483 27486 27489 27491 27494 27497 27500 27503 27506 27509 27512 27514 27517 27519 27522 27524 27527 27529 27531 27534 27537 27540 27542 27544 27546 27549 27552 27554 27557 27560 27563 27565 27568 27571 27574 27577 27579 27582 27585 27588 27591 27594 27597 27600 27603 27606 27609 27612 27615 27618 27621 27624 27627 27630 27633 27636 27639 27642 27645 27648 27651 27654 27657 27660 27663 27666 27669 27672 27675 27678 27681 27684 27687 27690 27693 27695 27698 27701 27704 27707 27710 27713 27716 27719 27721 27724 27727 27730 27733 27735 27738 27741 27743 27746 27749 27751 27754 27757 27760 27763 27765 27768 27771 27774 27777 27780 27782 27785 27788 27791 27794 27797 27800 27803 27806 27809 27812 27815 27818 27821 27823 27825 27828 27831 27834 27836 27839 27842 27845 27848 27851 27854 27857 27860 27863 27866 27869 27872 27875 27878 27880 27883 27886 27889 27892 27895 27898 27900 27903 27906 27908 27911 27914 27917 27920 27923 27926 27929 27932 27935 27938 27940 27943 27946 27949 27952 27955 27957 27960 27963 27966 27969 27972 27975 27978 27981 27984 27987 27989 27992 27995 27998 28001 28004 28007 28010 28013 28016 28019 28022 28025 28028 28031 28034 28036 28039 28042 28045 28048 28051 28054 28057 28060 28063 28066 28069 28072 28075 28078 28081 28084 28087 28090 28093 28096 28099 28102 28105 28107 28110 28112 28115 28118 28121 28123 28126 28129 28132 28135 28138 28141 28144 28147 28150 28152 28155 28158 28161 28163 28166 28169 28172 28175 28178 28181 28184 28187 28190 28193 28196 28199 28202 28205 28208 28211 28213 28216 28219 28222 28225 28228 28230 28233 28236 28239 28241 28244 28246 28249 28252 28255 28258 28261 28264 28266 28269 28272 28275 28278 28281 28284 28287 28290 28293 28296 28299 28302 28305 28308 28311 28314 28317 28320 28323 28326 28329 28332 28335 28338 28341 28344 28347 28349 28352 28355 28357 28360 28363 28366 28369 28372 28375 28378 28380 28383 28386 28389 28392 28394 28397 28400 28402 28405 28408 28411 28414 28417 28420 28422 28425 28428 28431 28433 28436 28439 28442 28444 28447 28450 28453 28456 28459 28461 28464 28467 28470 28473 28476 28478 28481 28484 28487 28490 28493 28496 28499 28502 28504 28507 28510 28512 28515 28518 28521 28524 28526 28529 28532 28535 28538 28540 28543 28546 28549 28552 28554 28557 28560 28563 28565 28568 28570 28573 28576 28579 28582 28585 28588 28591 28594 28597 28600 28602 28605 28608 28611 28614 28617 28620 28623 28625 28627 28630 28633 28636 28639 28642 28644 28647 28650 28653 28656 28659 28661 28664 28667 28670 28672 28675 28678 28680 28683 28686 28688 28691 28694 28697 28699 28702 28705 28708 28711 28714 28717 28719 28722 28725 28728 28731 28734 28736 28739 28742 28745 28748 28751 28753 28756 28759 28762 28765 28768 28771 28773 28776 28779 28782 28785 28787 28790 28793 28796 28799 28802 28804 28807 28810 28813 28816 28819 28822 28825 28828 28831 28834 28836 28839 28842 28845 28848 28851 28854 28857 28859 28862 28865 28868 28871 28873 28875 28878 28881 28883 28886 28889 28892 28895 28898 28901 28904 28906 28909 28912 28915 28918 28921 28924 28927 28929 28932 28934 28937 28940 28942 28945 28948 28951 28954 28956 28959 28961 28964 28967 28970 28973 28976 28979 28982 28985 28988 28991 28993 28996 28999 29002 29005 29008 29010 29013 29016 29019 29021 29024 29027 29030 29033 29035 29038 29041 29043 29046 29049 29052 29055 29058 29060 29063 29065 29068 29070 29072 29075 29078 29081 29084 29086 29088 29091 29094 29097 29100 29103 29106 29109 29112 29115 29118 29121 29124 29127 29129 29132 29135 29138 29141 29144 29147 29149 29151 29154 29157 29160 29163 29166 29169 29172 29175 29178 29181 29184 29187 29190 29192 29195 29198 29201 29204 29207 29210 29213 29216 29219 29222 29225 29228 29231 29234 29237 29240 29243 29246 29249 29252 29255 29258 29261 29264 29267 29270 29273 29276 29279 29282 29285 29288 29291 29293 29296 29299 29301 29304 29307 29310 29313 29316 29319 29322 29324 29327 29330 29333 29335 29338 29341 29343 29346 29349 29352 29354 29356 29359 29362 29365 29368 29370 29372 29375 29378 29381 29384 29387 29390 29393 29396 29399 29402 29405 29408 29411 29414 29416 29419 29422 29424 29427 29430 29433 29435 29438 29441 29444 29447 29449 29452 29455 29457 29460 29463 29466 29469 29472 29475 29478 29481 29484 29487 29490 29492 29495 29498 29501 29504 29507 29510 29513 29515 29518 29521 29524 29527 29530 29533 29536 29539 29542 29545 29548 29551 29554 29557 29560 29563 29566 29569 29571 29574 29577 29580 29583 29586 29589 29591 29594 29596 29599 29602 29605 29608 29611 29613 29616 29619 29621 29624 29627 29630 29632 29635 29638 29641 29643 29646 29649 29652 29655 29658 29661 29664 29667 29670 29673 29676 29679 29682 29685 29687 29690 29693 29696 29699 29701 29703 29706 29709 29712 29715 29718 29721 29724 29727 29730 29733 29736 29739 29742 29745 29748 29751 29754 29757 29760 29762 29765 29768 29771 29774 29777 29780 29783 29786 29788 29791 29793 29796 29799 29802 29805 29808 29811 29814 29816 29819 29821 29824 29827 29830 29833 29836 29838 29841 29844 29847 29850 29853 29856 29858 29861 29864 29867 29870 29873 29875 29877 29880 29883 29886 29888 29890 29892 29895 29898 29901 29904 29907 29909 29912 29915 29918 29921 29924 29926 29929 29932 29935 29938 29940 29943 29945 29947 29950 29952 29954 29957 29960 29963 29965 29968 29971 29974 29976 29979 29982 29985 29987 29990 29993 29996 29998 30001 30004 30007 30010 30013 30016 30019 30022 30024 30027 30030 30033 30035 30038 30041 30044 30047 30050 30053 30055 30058 30061 30064 30067 30070 30073 30075 30078 30081 30084 30087 30090 30093 30096 30099 30102 30105 30108 30111 30114 30117 30119 30122 30124 30127 30130 30133 30135 30138 30141 30143 30146 30148 30151 30153 30156 30159 30161 30164 30167 30170 30173 30176 30179 30181 30184 30187 30190 30193 30195 30198 30201 30204 30207 30210 30213 30215 30218 30221 30224 30227 30230 30233 30236 30239 30242 30245 30247 30250 30253 30256 30259 30262 30265 30268 30271 30274 30277 30280 30283 30286 30289 30292 30295 30298 30301 30304 30306 30308 30311 30314 30317 30319 30322 30325 30327 30330 30333 30335 30338 30341 30343 30346 30349 30351 30353 30356 30359 30362 30365 30367 30370 30373 30376 30379 30382 30385 30388 30391 30394 30397 30400 30402 30404 30407 30410 30413 30415 30418 30420 30423 30425 30428 30431 30434 30437 30440 30442 30445 30448 30450 30453 30455 30458 30461 30463 30465 30467 30470 30473 30476 30479 30481 30484 30487 30489 30492 30494 30497 30500 30502 30505 30508 30511 30514 30517 30520 30523 30526 30528 30531 30533 30535 30538 30541 30544 30547 30550 30552 30554 30557 30560 30563 30565 30567 30570 30573 30576 30579 30582 30585 30588 30591 30593 30596 30598 30601 30604 30607 30610 30613 30616 30619 30622 30625 30628 30631 30634 30637 30640 30643 30646 30649 30652 30655 30658 30661 30664 30667 30670 30673 30676 30679 30682 30685 30687 30690 30693 30696 30699 30702 30705 30708 30711 30714 30717 30720 30723 30726 30729 30732 30734 30737 30740 30742 30745 30748 30751 30754 30757 30759 30762 30765 30768 30771 30774 30777 30780 30783 30786 30789 30792 30795 30798 30800 30803 30806 30809 30812 30815 30818 30821 30824 30827 30829 30832 30835 30837 30840 30843 30846 30849 30851 30853 30855 30858 30861 30864 30867 30870 30872 30875 30878 30881 
</DataArray>
<DataArray type="UInt32" Name="types" format="ascii">
5 5 3 5 5 5 5 3 5 5 5 5 5 5 5 5 5 5 5 5 3 5 5 5 5 3 5 5 5 5 5 5 5 3 5 5 5 5 5 5 5 5 3 5 5 5 5 5 5 5 5 5 5 5 3 3 5 5 5 5 5 5 5 5 3 5 5 5 5 5 5 5 5 5 5 5 5 5 5 5 5 5 5 5 5 5 5 3 5 5 5 5 5 5 5 5 5 5 5 3 5 5 5 3 5 5 5 5 5 5 5 5 5 5 5 5 5 5 5 5 5 5 5 5 5 5 5 5 5 5 5 5 5 5 5 5 5 5 5 5 5 5 5 5 5 5 5 5 5 3 5 3 5 5 5 5 5 5 5 5 5 5 5 5 5 5 5 5 5 5 5 5 5 5 5 5 5 5 3 5 5 3 5 3 5 5 5 5 5 5 5 5 5 5 5 5 5 5 3 5 3 5 5 5 5 5 5 5 3 5 3 5 5 5 5 5 5 3 5 5 3 5 5 5 5 5 5 3 3 5 5 3 5 3 5 3 3 5 5 5 3 5 5 5 5 5 5 5 5 5 5 5 5 5 3 5 5 5 5 5 5 5 3 5 5 5 5 5 5 5 3 5 5 5 5 3 5 5 5 5 5 5 3 5 5 5 3 5 5 5 5 5 5 5 3 5 5 5 5 5 5 3 5 5 5 5 5 5 3 5 5 5 5 5 5 5 3 5 5 5 5 5 5 5 5 5 5 5 5 5 5 5 5 5 5 5 5 5 3 3 5 5 5 5 5 3 5 5 5 5 5 5 5 3 5 3 5 5 5 3 5 5 5 3 5 3 5 5 5 5 5 5 5 3 5 5 5 5 5 5 5 3 5 5 5 3 5 5 5 5 5 5 5 5 5 5 5 5 5 5 5 5 5 5 5 5 5 5 5 5 5 5 5 5 5 5 5 5 3 5 5 5 5 5 5 5 5 5 5 5 5 5 5 5 5 5 5 5 5 5 5 5 5 5 5 5 5 5 5 5 5 3 5 5 5 5 5 5 5 5 5 5 5 5 5 5 5 5 5 5 5 5 3 5 5 5 5 5 5 5 3 5 5 5 5 5 3 5 5 3 5 3 5 5 5 5 3 5 5 3 5 5 5 5 5 5 3 5 5 5 5 5 5 5 5 5 5 5 5 5 5 5 5 5 5 5 3 5 5 5 5 5 5 5 5 5 5 5 3 3 5 5 5 5 5 5 5 5 5 5 5 5 5 5 5 5 5 5 5 5 5 3 5 3 3 5 5 3 5 5 5 5 5 5 5 5 5 5 5 5 5 3 5 5 5 5 5 5 5 3 3 5 5 5 5 5 5 5 5 3 3 5 5 5 3 5 5 5 5 5 5 5 5 5 5 5 5 5 5 5 5 5 5 5 5 5 5 5 5 5 5 5 5 5 5 5 5 5 5 5 3 5 5 3 5 5 5 5 3 5 5 5 3 5 5 5 3 5 5 3 5 5 5 5 5 5 5 5 5 5 5 5 5 5 5 5 5 5 5 5 5 3 5 5 5 3 5 5 5 5 5 3 5 5 5 5 5 5 3 5 5 5 5 5 5 5 5 5 5 5 5 5 5 5 5 5 5 3 5 5 5 5 5 5 5 5 5 5 5 5 5 5 5 5 5 5 5 5 5 3 5 5 5 5 5 5 5 5 5 5 5 5 5 5 5 3 5 5 5 5 5 5 5 5 5 5 5 5 5 5 5 5 5 5 3 5 5 5 5 5 5 5 3 5 5 5 5 5 5 5 5 5 5 5 5 5 5 5 5 5 5 5 5 5 3 5 5 5 5 5 5 5 5 5 3 5 5 5 5 5 5 5 5 3 5 5 5 5 5 5 5 5 5 5 5 5 5 5 5 5 5 5 5 3 5 5 5 5 5 3 5 5 5 3 5 5 5 5 5 5 3 5 5 5 5 5 5 5 5 5 5 3 5 5 5 5 5 5 5 5 5 5 5 5 3 5 3 5 5 5 5 5 5 5 3 5 3 5 5 5 5 5 5 5 5 5 5 5 5 5 5 5 5 5 5 5 5 5 5 5 5 5 5 5 5 5 5 5 5 5 5 5 5 5 5 5 5 5 5 5 5 5 3 3 5 5 3 5 5 5 5 5 5 5 5 5 5 5 5 5 5 5 5 3 5 5 5 5 3 5 5 3 5 5 5 5 5 5 3 5 3 5 5 3 5 5 5 5 5 5 5 5 5 5 3 5 5 5 5 5 3 3 5 5 5 5 3 5 5 3 5 3 5 5 5 5 5 3 5 5 3 5 5 5 5 5 5 5 5 5 5 5 5 3 5 5 5 5 5 5 5 5 5 5 5 5 5 5 5 3 5 3 5 3 3 5 3 5 5 3 5 5 5 5 5 5 3 5 3 5 5 3 5 5 5 3 5 5 3 5 5 5 5 5 3 5 5 3 5 5 5 5 5 3 5 3 5 5 3 5 5 3 5 5 5 5 5 5 5 5 3 5 5 5 5 5 5 5 5 5 5 3 5 5 5 5 3 5 5 3 5 5 5 5 5 3 5 5 5 5 5 3 5 3 5 5 5 5 5 5 3 5 5 5 5 5 5 5 5 3 3 3 5 5 5 5 3 5 3 5 5 5 3 3 5 5 5 3 5 5 5 3 5 3 5 3 3 5 3 5 5 5 5 3 5 5 5 3 5 3 5 3 5 5 5 5 5 5 5 3 5 5 5 5 3 5 5 5 5 5 5 5 5 3 5 3 3 5 5 5 3 5 5 5 5 3 3 5 5 3 3 5 5 5 5 5 3 5 5 5 5 5 5 5 5 3 5 3 5 5 5 5 5 5 5 5 5 5 5 5 5 5 5 5 5 3 5 5 5 5 5 5 5 5 5 5 5 5 5 5 5 5 5 5 5 5 5 5 5 5 5 3 5 3 5 5 5 5 5 3 3 5 5 5 5 3 3 5 3 5 5 3 5 5 3 5 5 5 5 3 3 5 5 5 5 5 5 5 5 3 5 5 3 5 5 5 3 5 5 3 5 5 5 5 5 5 3 5 5 5 5 5 5 3 5 5 5 5 5 3 5 5 3 3 5 5 3 5 5 3 5 5 5 5 5 5 5 5 5 5 5 5 3 5 3 5 5 3 5 5 5 5 5 5 3 5 5 5 3 3 3 5 5 5 3 3 5 3 3 5 5 3 5 5 3 5 3 5 3 5 5 5 3 3 5 5 3 3 3 3 5 5 5 3 3 5 5 3 3 3 5 3 3 5 5 3 5 3 3 5 3 5 5 3 5 3 3 5 5 5 5 3 3 5 5 3 5 5 5 3 5 5 5 5 5 5 5 5 5 5 5 5 5 5 5 5 5 5 5 5 5 5 5 5 5 5 5 5 5 5 5 5 5 5 5 5 5 5 5 5 5 5 5 5 5 5 5 5 5 5 5 5 5 5 5 5 5 5 3 5 3 5 5 5 5 5 5 5 5 5 5 5 5 5 5 3 5 5 5 5 5 5 5 5 5 5 3 5 5 5 5 5 5 5 5 5 5 5 5 5 5 5 5 5 5 5 5 5 5 5 5 5 5 5 5 5 5 5 5 5 5 5 5 5 5 5 5 5 5 5 5 5 5 3 5 5 5 3 5 3 5 5 5 5 5 3 5 3 5 5 5 5 5 5 5 5 5 5 5 5 5 5 5 5 5 5 5 5 5 5 5 5 5 3 5 5 5 5 5 5 3 5 3 5 5 5 3 5 5 3 5 5 5 5 5 5 5 5 5 5 5 5 5 5 5 5 5 5 5 5 5 5 5 5 5 5 5 5 5 5 5 5 5 5 5 5 5 3 5 3 5 5 5 5 5 5 5 5 5 5 3 5 5 5 5 5 5 5 5 5 5 5 5 5 5 5 5 5 3 5 5 5 3 3 5 3 5 5 5 5 5 5 5 5 3 5 5 5 5 3 5 5 5 5 5 5 5 3 5 5 3 5 3 5 5 3 5 5 3 3 5 5 5 5 5 5 5 5 5 5 5 5 5 5 5 3 5 3 5 5 5 3 5 3 5 5 5 5 5 5 5 5 5 5 5 5 3 5 3 5 5 5 5 5 5 5 5 3 5 5 3 5 5 5 3 3 5 5 5 5 5 5 5 5 5 5 5 5 5 5 5 5 5 5 5 5 5 3 5 5 5 5 5 3 5 3 5 5 5 5 3 5 5 3 5 5 5 5 5 3 5 5 5 5 3 5 5 5 5 5 5 5 3 5 5 5 3 5 5 5 5 5 5 5 5 5 5 5 3 5 5 5 5 5 5 5 5 3 5 5 5 5 5 5 3 5 5 5 5 5 5 3 5 5 5 5 5 5 5 5 5 5 5 3 5 5 5 3 5 5 5 3 5 3 5 5 5 5 5 5 3 5 5 5 5 5 5 5 5 5 5 5 5 5 5 5 3 5 5 5 5 5 3 5 5 5 5 5 5 5 5 3 5 5 5 5 5 5 5 5 5 5 5 5 5 5 5 5 3 5 5 5 5 3 5 5 5 5 5 5 5 5 5 5 5 5 5 5 5 5 5 5 5 5 5 5 5 5 5 5 3 5 5 5 3 5 3 5 5 5 5 3 5 3 5 5 5 5 5 3 5 5 5 5 5 5 5 5 5 3 5 5 5 5 5 5 5 5 5 5 5 5 5 5 5 5 5 5 5 5 5 5 5 5 3 3 5 5 5 5 5 3 5 5 5 3 5 5 5 3 5 5 3 5 3 5 5 5 5 3 5 5 5 5 3 3 5 5 5 5 5 5 5 5 5 5 5 5 3 5 5 5 5 3 5 5 5 5 5 3 5 5 3 5 5 5 5 5 5 5 5 5 5 5 5 5 5 5 5 3 5 5 3 5 5 5 3 5 5 5 5 5 5 5 5 5 5 5 3 5 5 5 5 5 5 5 5 5 5 5 5 5 5 5 5 3 5 5 3 5 3 5 5 3 5 3 5 3 5 5 5 5 5 5 5 5 5 5 5 5 5 3 5 3 3 5 5 3 3 5 5 3 3 5 5 5 3 5 3 5 5 3 5 5 5 5 3 3 5 3 5 5 3 3 5 5 3 5 5 5 3 5 5 5 3 3 3 5 5 3 5 3 3 5 5 5 5 5 5 5 5 5 5 5 3 3 5 3 5 3 5 3 5 5 5 3 5 5 5 5 5 3 5 5 5 5 5 5 5 5 5 5 5 5 5 5 5 5 5 5 5 5 5 5 5 5 3 5 5 5 5 5 5 5 5 5 5 5 5 5 5 5 5 5 5 3 5 5 5 5 5 5 5 5 5 5 5 3 5 5 5 5 5 3 5 5 5 5 5 5 5 5 5 5 5 5 5 5 3 5 5 5 5 5 5 5 5 5 5 5 5 5 5 3 5 3 5 5 5 5 3 5 5 5 5 5 5 5 5 5 5 5 5 3 5 3 5 5 5 5 3 5 5 5 5 5 5 5 3 5 5 5 5 5 5 5 3 5 5 5 3 5 3 5 5 5 5 5 5 5 5 5 3 5 5 5 5 5 5 5 5 5 5 5 5 5 5 5 5 5 5 5 5 5 5 5 5 5 5 5 5 5 5 5 5 5 5 5 5 5 5 5 5 5 5 5 3 5 5 3 5 5 5 5 5 5 5 5 5 5 3 5 5 5 5 5 3 5 5 3 5 5 5 5 5 5 3 5 5 5 5 3 5 5 3 5 3 5 5 5 5 5 5 5 5 5 5 5 3 5 3 5 5 5 5 3 5 5 5 5 5 5 5 5 5 5 5 5 5 5 5 5 5 5 5 5 5 3 5 5 5 5 3 5 5 5 5 5 5 5 3 5 5 5 5 5 3 5 5 5 3 5 5 5 3 5 5 3 5 5 5 3 5 5 3 5 5 5 5 5 5 5 5 5 5 5 5 5 5 5 5 5 5 5 5 5 5 5 5 5 5 5 5 5 5 5 3 5 5 5 5 5 5 5 5 5 5 5 3 5 5 5 5 5 5 5 5 5 5 5 5 5 5 5 3 3 5 5 5 3 5 5 5 5 3 5 5 3 5 5 5 5 5 5 5 5 5 5 5 5 5 3 3 5 5 5 5 5 5 5 5 5 5 5 3 5 5 3 5 5 5 5 5 5 5 5 5 5 5 5 5 5 5 5 5 5 5 3 5 5 5 3 5 5 5 5 5 3 5 5 5 5 5 5 5 5 5 5 5 5 5 5 5 5 5 5 5 5 3 5 5 3 5 5 5 5 5 5 5 5 5 5 5 5 5 5 5 5 5 5 5 3 5 5 5 5 5 5 5 5 5 5 5 5 5 5 5 5 5 5 5 5 5 5 5 5 5 5 5 5 5 5 5 5 3 5 5 5 5 5 5 3 5 5 5 5 5 3 5 5 5 5 3 5 5 5 5 5 5 5 5 5 5 5 5 5 5 5 5 5 5 5 5 5 5 3 5 5 5 5 5 5 5 3 5 5 3 5 5 3 5 5 5 5 5 5 3 5 5 5 5 5 5 5 5 5 5 3 5 3 5 5 5 5 5 5 5 5 3 5 5 3 5 5 5 3 5 5 5 3 5 5 5 3 3 5 5 3 5 5 3 5 5 3 5 5 5 5 5 5 5 5 5 3 5 5 5 3 5 5 5 3 5 5 5 3 5 3 5 5 3 5 5 5 5 5 5 5 5 3 5 5 3 5 5 5 5 5 5 5 5 5 5 5 5 5 3 5 3 5 5 5 3 3 5 3 5 5 5 5 3 5 3 5 5 5 5 5 5 5 5 5 3 5 5 5 5 5 5 5 5 5 5 5 5 5 5 5 5 5 5 5 5 5 5 5 5 5 5 5 5 3 5 5 5 5 5 5 3 5 5 5 5 5 5 3 5 5 5 5 5 5 3 5 5 5 3 5 5 5 3 5 5 3 5 5 5 5 5 5 3 5 5 5 3 3 5 5 5 5 5 5 5 5 5 5 5 5 5 5 5 5 5 3 5 5 5 5 5 5 5 3 5 5 5 5 5 3 5 5 5 5 5 3 5 5 3 5 5 5 5 3 5 5 5 5 5 5 3 5 3 5 3 3 5 3 5 5 5 3 5 5 5 5 5 3 5 5 5 3 5 5 5 5 3 3 3 5 5 5 5 3 3 5 3 5 5 5 5 5 5 3 5 3 5 5 3 5 5 5 3 5 5 3 5 5 5 5 5 5 5 5 5 5 5 5 3 5 5 5 5 3 5 5 5 5 3 5 5 5 5 5 5 5 5 5 3 3 3 5 5 5 3 3 5 5 3 5 3 5 5 5 5 5 5 5 3 5 5 5 5 5 5 5 5 5 5 5 5 5 5 5 5 3 5 5 5 5 5 5 5 5 5 3 5 5 3 5 3 5 3 5 5 3 5 5 5 3 3 5 5 3 5 5 5 3 5 5 5 5 3 5 5 5 5 5 5 5 5 5 5 5 3 3 5 5 5 5 5 5 5 5 5 5 5 5 5 5 5 5 5 5 5 5 5 5 5 5 5 5 5 5 5 5 5 5 3 5 5 5 5 5 5 5 5 5 5 5 5 5 5 5 5 5 5 5 3 5 5 5 5 5 5 3 3 5 5 3 3 5 5 5 3 5 5 5 5 5 5 5 5 5 5 5 5 5 5 5 5 5 5 5 5 5 5 5 3 5 3 5 3 5 5 5 5 5 5 3 5 3 3 5 5 3 5 5 5 5 5 5 3 3 5 5 3 3 5 5 3 3 5 5 5 5 5 5 5 5 3 5 5 5 5 5 3 5 5 3 5 5 5 3 5 5 5 5 5 5 5 5 5 5 5 5 5 5 5 5 5 5 5 5 5 5 5 5 5 5 5 5 5 5 5 5 5 5 3 5 5 3 5 3 3 5 5 5 5 5 5 5 5 5 3 5 5 5 5 5 3 5 5 5 5 5 5 5 3 5 5 5 5 5 5 5 5 3 5 5 5 5 5 3 5 5 5 5 5 5 5 5 5 5 5 5 5 5 5 5 5 5 5 5 5 5 5 5 5 5 5 5 5 5 3 3 5 5 5 5 5 5 5 3 5 5 5 3 5 3 5 5 5 5 5 5 5 5 5 5 5 5 5 5 5 5 5 5 5 5 5 3 5 5 5 5 5 5 3 5 5 5 5 5 5 5 3 5 5 3 5 5 5 5 5 5 3 5 5 5 3 5 5 3 3 5 5 5 5 5 5 5 5 5 5 5 5 5 5 5 5 5 5 5 5 5 5 5 5 5 5 5 5 3 5 5 5 5 5 5 5 5 5 5 5 5 5 5 5 5 5 5 5 3 5 5 5 3 3 5 5 5 5 5 3 5 5 5 3 5 5 5 5 5 3 5 5 5 5 5 5 5 5 5 5 5 5 5 5 5 5 5 5 5 5 5 3 5 5 5 5 5 5 3 5 5 5 5 5 5 5 5 5 5 5 5 3 5 5 5 5 3 5 3 5 5 5 5 5 5 5 5 5 5 5 5 5 3 5 5 5 5 5 3 5 5 5 5 5 5 3 5 5 5 5 5 5 5 5 5 5 5 5 3 5 5 3 5 5 3 5 5 3 5 5 5 5 5 5 5 5 5 5 3 5 5 5 5 5 5 5 5 3 5 5 5 3 5 5 5 3 5 5 3 5 5 5 3 5 5 5 5 5 3 5 3 5 5 5 5 3 3 5 5 5 3 5 5 5 5 3 5 5 5 5 5 5 5 5 5 5 5 5 5 5 5 3 5 5 3 3 5 5 5 5 3 5 5 5 5 5 5 3 5 5 5 5 5 5 3 5 5 5 5 5 5 5 5 3 5 5 5 5 5 5 5 5 5 5 3 5 5 3 5 5 3 5 5 5 5 5 3 3 5 5 3 3 5 3 5 3 5 3 3 5 5 3 5 3 5 3 5 3 5 3 5 5 3 5 3 5 3 5 5 5 5 5 5 3 5 5 5 3 5 5 5 5 5 5 5 5 5 3 5 5 3 5 3 5 3 5 5 5 3 3 5 5 5 5 5 5 5 5 5 5 5 3 5 5 5 5 5 3 5 5 5 5 5 5 5 5 5 5 5 5 5 5 5 5 5 3 5 5 5 5 5 5 3 5 5 5 3 5 5 3 5 5 5 3 5 3 3 5 5 5 5 5 5 5 5 5 3 5 5 5 5 5 5 5 3 5 3 5 3 5 5 5 5 5 5 5 5 5 5 5 5 5 5 5 5 5 5 5 5 5 5 5 5 5 5 5 5 5 5 5 5 5 5 5 5 5 3 5 5 3 3 5 5 5 5 3 5 5 5 5 5 3 5 5 3 3 5 5 5 5 5 5 3 5 3 5 5 3 3 5 3 5 5 5 3 5 5 5 5 3 5 5 5 3 5 5 3 3 5 5 5 3 5 5 5 5 3 5 5 3 5 5 5 3 5 5 3 5 5 5 3 5 3 5 5 3 5 5 3 3 5 5 3 5 3 3 5 5 5 5 3 5 5 5 5 3 5 5 5 5 5 5 5 5 5 5 5 5 3 5 5 5 5 3 5 3 5 5 5 5 5 3 3 3 5 5 5 5 5 5 5 5 3 5 5 5 5 5 5 3 5 5 5 5 3 5 5 5 5 5 5 5 5 5 5 5 5 5 5 5 5 5 5 3 5 3 5 5 3 3 5 3 5 5 3 5 3 5 3 5 3 5 5 5 5 3 5 5 5 3 5 5 5 5 5 5 5 5 5 5 5 5 5 5 5 5 5 5 5 5 5 5 5 5 5 3 5 5 5 5 5 3 5 5 5 5 5 5 5 5 5 5 5 3 5 5 5 5 5 3 5 5 3 3 5 5 5 3 5 5 3 3 5 3 5 5 5 5 5 5 5 5 5 5 5 5 5 5 5 5 3 5 5 5 5 3 5 5 5 5 5 5 5 5 3 3 5 5 3 5 5 5 5 5 5 5 5 5 3 3 5 5 3 5 5 5 3 5 5 5 5 5 5 5 5 5 5 5 5 5 5 5 5 5 5 5 5 5 5 5 5 5 5 3 5 5 5 5 5 5 5 5 5 5 5 5 5 5 5 5 5 5 5 5 3 5 5 5 3 3 5 5 5 3 5 5 3 5 5 5 5 5 3 5 3 5 5 5 5 5 5 5 5 3 5 5 5 3 5 5 3 5 3 5 5 5 3 5 5 5 3 5 5 5 5 5 5 5 5 5 5 5 5 5 5 5 5 5 3 5 5 5 5 5 5 5 5 5 3 5 5 5 5 5 5 5 5 3 5 5 5 5 5 5 5 5 5 5 5 5 5 3 5 5 5 3 5 5 5 5 5 5 5 5 5 5 5 5 5 5 5 5 5 5 5 3 5 5 5 3 5 3 5 5 5 3 5 5 5 3 3 5 5 5 5 5 5 5 5 5 5 5 5 5 5 5 5 5 5 5 5 5 5 3 5 5 5 5 3 5 5 5 5 3 5 5 5 5 5 5 5 3 5 5 5 5 3 5 5 5 5 5 5 3 5 5 5 5 5 5 3 5 5 5 3 5 5 5 5 5 5 5 5 5 3 5 5 5 5 5 5 3 5 5 5 5 5 5 5 5 5 5 5 3 5 5 3 5 5 5 5 5 3 5 5 3 5 5 5 5 5 5 5 3 3 5 5 5 5 3 5 5 5 5 5 5 3 5 5 5 5 5 5 5 5 5 5 3 5 5 5 5 5 5 5 5 5 5 5 5 3 5 3 5 5 5 3 5 5 3 5 5 5 5 3 5 5 5 5 5 3 5 5 5 5 5 5 5 5 3 5 5 5 5 3 5 5 5 5 5 5 5 3 5 5 5 5 5 5 5 5 5 5 3 5 5 5 3 5 3 5 5 5 5 5 5 3 5 3 5 3 5 5 5 5 3 5 5 5 5 5 5 5 5 5 5 5 5 5 5 3 5 3 5 5 5 5 5 5 5 3 5 5 5 5 5 5 5 5 5 5 5 5 5 3 5 5 5 5 3 5 5 5 5 5 5 5 5 5 5 5 5 5 5 5 5 5 5 5 5 5 5 5 5 3 5 5 5 5 3 5 5 5 3 5 5 3 5 5 3 5 5 5 5 5 5 5 5 5 5 5 5 5 5 5 3 5 5 3 5 5 5 5 5 5 5 3 5 5 5 5 5 3 5 5 5 3 5 5 5 3 5 5 5 5 5 5 5 3 5 5 5 3 5 3 3 5 5 5 5 5 3 5 5 5 5 5 5 5 5 5 5 3 5 5 5 5 5 5 5 5 5 5 5 5 5 5 5 5 5 5 5 5 5 5 5 5 5 5 5 5 5 5 5 5 5 5 5 5 5 3 5 5 5 5 5 5 5 5 5 5 5 5 5 5 5 5 3 5 5 5 5 5 5 5 5 5 3 5 5 5 5 5 5 5 3 5 5 5 5 5 5 5 5 5 5 5 5 5 5 5 5 5 5 5 5 5 3 5 5 5 5 5 5 5 5 5 5 5 5 5 5 5 5 5 3 5 5 5 5 5 5 5 5 5 5 5 5 5 5 5 5 5 5 5 5 5 5 5 5 5 5 5 5 5 5 5 5 5 5 5 5 5 5 5 5 5 5 5 5 5 5 3 5 5 5 5 5 5 5 5 5 5 5 5 5 3 5 3 5 5 5 5 5 3 5 5 5 5 5 3 3 5 5 5 5 5 5 5 5 5 5 5 5 5 5 5 5 5 3 3 5 5 5 5 5 5 3 5 3 5 5 5 5 5 5 5 5 5 3 5 5 5 5 5 5 5 5 5 5 5 5 5 5 5 5 5 5 5 3 5 5 5 5 5 3 5 3 5 5 5 5 5 5 5 3 5 5 5 3 5 5 5 3 5 5 3 5 5 5 3 5 5 3 5 3 5 3 5 5 3 5 5 5 5 5 5 5 5 5 5 5 5 5 5 5 5 5 5 5 5 5 3 5 3 5 5 5 5 5 5 5 3 5 5 5 5 5 5 5 5 5 5 5 5 5 5 5 5 5 5 5 3 5 5 5 3 5 5 5 5 5 5 5 5 5 5 3 5 5 5 5 3 5 5 3 5 5 5 5 5 3 5 5 5 5 3 5 3 5 5 3 5 5 5 5 5 5 5 3 5 5 3 5 3 5 5 5 5 5 5 5 5 5 5 5 5 5 5 5 5 5 5 3 5 5 5 5 5 5 5 3 5 5 5 5 3 5 5 5 5 5 5 5 5 5 3 5 5 5 5 3 5 5 5 5 5 5 5 5 5 5 5 5 3 5 5 5 5 5 5 5 5 5 3 5 5 5 5 5 5 5 5 5 5 5 5 3 5 5 3 5 5 5 5 5 5 5 5 5 3 3 3 5 5 5 3 5 5 5 5 5 5 3 5 5 5 3 3 5 5 5 5 5 5 5 5 5 5 5 5 3 5 5 5 3 3 5 5 5 5 5 3 5 5 5 5 3 5 5 5 5 3 5 5 5 5 5 3 3 3 5 5 5 3 3 5 5 5 5 5 5 5 5 5 3 3 5 5 5 3 3 5 5 5 5 5 5 5 5 5 5 5 5 5 5 5 5 5 3 5 3 5 5 5 5 3 5 5 5 5 5 5 5 3 5 5 5 5 5 5 5 3 5 5 3 5 3 3 5 5 5 3 3 5 5 5 3 3 5 5 5 5 5 5 5 5 5 5 3 5 5 5 5 5 5 5 3 5 5 5 5 3 5 5 5 5 5 5 3 5 5 5 5 3 5 3 5 5 5 5 5 5 5 5 5 5 5 5 5 5 3 5 5 5 5 5 5 5 3 5 5 5 5 3 5 5 5 3 5 5 5 5 5 5 5 5 5 5 5 5 5 5 5 5 5 5 5 5 5 5 3 5 3 5 5 3 5 5 5 3 5 5 3 5 5 5 5 5 5 5 5 5 5 5 5 5 5 5 5 5 5 5 5 3 3 3 5 5 5 5 5 5 5 5 5 5 5 5 5 3 5 5 5 3 5 5 3 5 5 5 5 3 5 5 3 3 5 5 5 5 3 5 5 3 5 3 5 5 5 5 5 5 5 5 5 5 5 5 3 5 5 5 5 5 5 5 3 5 3 5 5 5 5 3 5 5 5 5 5 5 5 5 5 5 5 5 5 5 5 5 5 5 5 5 5 5 5 3 5 5 5 3 5 3 5 5 5 3 5 5 5 5 5 3 5 5 3 5 5 5 5 5 5 5 5 3 5 5 5 5 5 3 5 5 5 5 5 5 5 5 5 5 5 5 5 5 3 5 5 5 5 3 5 5 5 5 5 5 5 5 5 5 5 5 3 5 5 5 5 3 5 5 5 5 5 5 5 5 5 5 5 5 5 3 5 5 3 5 5 5 3 5 5 5 5 5 5 5 5 5 5 5 5 5 3 3 5 3 3 5 5 5 3 3 5 3 5 3 5 3 5 5 5 3 5 3 5 5 5 5 3 5 5 5 5 5 5 3 5 5 5 5 5 3 5 5 3 5 5 3 5 5 3 5 5 5 5 5 3 5 3 5 5 5 5 5 5 5 5 5 5 5 5 5 3 5 5 3 5 5 5 5 5 5 5 5 5 3 5 5 5 5 5 5 5 5 5 3 5 5 3 5 3 5 5 5 5 5 5 5 3 5 5 5 5 5 5 5 3 5 3 5 5 3 5 5 5 3 5 5 5 5 3 5 5 5 5 5 3 5 5 5 5 5 5 5 5 5 5 5 5 5 5 5 5 5 5 5 5 5 3 5 5 3 5 5 5 3 5 5 5 5 3 5 5 5 5 5 5 5 5 5 5 5 5 5 5 5 5 5 5 5 5 5 5 5 3 5 5 5 5 5 5 3 5 5 5 5 5 5 5 5 5 5 5 5 5 3 5 3 5 5 3 5 5 5 5 3 3 5 3 5 3 5 5 5 5 5 3 5 5 3 3 5 5 5 5 5 3 5 5 3 5 5 5 5 5 5 5 5 3 3 5 5 5 3 5 3 5 5 5 5 5 3 5 3 5 5 5 5 5 3 3 5 5 5 5 3 5 5 5 5 3 5 5 5 5 5 5 5 5 5 5 5 5 5 5 5 5 5 3 5 5 3 5 5 5 3 5 5 5 5 5 5 5 5 5 5 5 5 5 5 5 5 5 5 5 3 5 5 5 5 5 5 5 5 5 5 5 5 5 5 3 3 5 5 5 3 5 5 5 5 5 3 5 5 5 5 5 5 5 5 5 5 5 3 5 5 3 5 5 5 5 5 5 5 5 5 5 3 5 5 5 3 5 3 5 3 5 5 5 3 3 5 3 5 5 3 5 5 3 3 5 5 5 3 5 5 3 5 3 5 5 5 3 5 5 3 3 5 3 5 5 3 5 3 5 5 5 5 5 5 5 5 5 3 5 5 5 5 5 3 5 5 5 5 5 5 5 5 5 5 3 5 5 5 5 3 3 5 5 3 5 3 5 5 5 5 5 3 5 5 3 5 3 5 5 5 5 5 5 5 3 5 5 5 5 5 5 5 5 5 3 5 3 5 3 5 3 5 5 5 5 3 5 5 5 5 5 3 3 5 5 5 5 5 5 3 5 5 5 5 5 3 5 5 5 5 3 5 5 3 5 3 5 5 5 3 5 3 5 5 3 3 3 5 5 5 5 5 5 3 3 3 5 5 5 5 3 5 3 5 3 5 5 5 5 5 5 3 5 5 5 5 5 5 5 5 5 5 5 5 5 5 5 5 5 5 5 5 5 5 5 5 5 5 5 5 5 5 5 5 5 5 5 5 5 5 5 5 5 5 5 5 5 5 5 5 5 3 5 5 5 3 3 5 5 5 5 5 5 5 5 5 5 5 5 5 5 5 5 5 5 5 3 5 5 5 5 5 5 5 3 5 5 3 5 5 3 5 5 3 5 3 5 5 3 5 5 5 3 5 3 5 3 3 5 5 5 3 3 5 5 3 5 5 3 5 5 5 5 5 5 5 5 5 5 5 5 3 5 5 5 5 3 5 5 5 5 3 5 5 5 5 5 5 5 5 5 3 5 3 5 5 5 5 3 5 5 5 3 5 5 5 5 5 5 3 5 5 3 5 5 5 3 5 5 5 5 5 5 5 3 5 5 5 5 5 3 5 5 5 5 5 5 5 5 5 5 5 5 5 5 5 3 5 5 5 5 5 3 5 5 3 5 3 5 5 5 5 3 3 5 5 3 5 5 5 5 5 5 5 5 5 5 5 3 5 3 5 5 5 5 5 3 5 5 5 3 5 5 5 3 5 5 5 5 5 5 5 5 5 5 5 5 5 3 5 5 5 5 5 5 5 3 5 3 5 5 5 5 5 5 5 3 3 5 5 5 5 5 5 5 5 5 3 5 5 5 5 5 5 3 3 3 5 3 5 5 5 5 5 5 3 5 3 5 3 5 3 5 5 5 5 5 5 3 5 5 3 5 5 5 5 3 5 5 5 5 5 5 5 5 5 5 5 5 5 5 5 5 5 5 5 5 5 3 5 3 5 5 5 5 5 5 5 5 5 5 5 5 5 5 5 5 5 5 5 5 5 5 5 5 5 5 5 5 5 5 5 5 5 5 5 5 5 5 5 5 5 5 5 5 5 5 5 5 5 5 5 5 5 5 5 5 5 5 3 5 5 5 5 5 5 5 5 5 5 5 5 5 5 5 5 5 5 5 5 5 5 5 3 5 5 5 3 5 3 5 5 5 5 5 5 5 5 5 5 5 5 5 5 5 5 5 5 5 5 5 5 5 5 5 5 5 5 5 5 5 5 5 5 5 5 5 5 5 3 5 3 5 5 5 5 5 5 5 5 5 5 5 5 5 5 5 5 5 5 5 5 5 5 5 5 5 3 5 5 5 5 5 5 5 5 5 5 5 5 5 5 5 5 5 5 5 5 5 5 5 5 5 5 5 5 5 5 5 5 5 5 5 5 5 5 5 5 5 5 5 5 5 5 5 5 5 5 5 5 5 5 5 5 5 5 5 5 5 5 5 5 5 5 5 5 5 3 5 5 5 5 5 5 5 3 5 5 3 5 5 5 5 5 5 5 5 5 5 5 5 5 5 5 5 5 5 5 5 3 5 5 5 5 5 5 5 5 5 5 5 5 5 5 5 5 5 5 5 5 5 5 5 5 5 5 5 5 5 5 5 5 3 5 5 5 5 3 5 3 5 5 5 5 5 5 3 5 5 3 5 5 3 3 5 3 5 5 5 3 5 5 5 5 5 5 5 5 5 5 5 5 5 5 5 3 5 5 5 5 5 5 5 5 3 5 5 5 5 5 5 5 5 5 5 5 5 5 5 5 5 5 5 5 5 5 5 5 5 5 5 5 5 5 5 5 5 5 5 5 5 3 5 5 5 5 5 5 5 3 5 5 3 5 3 5 5 5 5 5 5 5 5 5 5 5 3 3 5 5 3 5 5 3 3 5 5 5 5 3 5 3 5 5 3 5 3 3 5 3 5 3 5 5 5 5 5 5 5 3 5 3 5 5 5 5 5 3 5 5 5 3 5 5 3 5 3 5 3 3 5 5 3 5 5 5 5 5 5 3 5 5 5 5 5 5 5 5 3 3 5 5 5 3 5 5 5 5 3 3 5 3 5 5 5 3 5 5 5 5 5 5 5 5 5 5 5 5 5 5 5 5 3 5 5 5 5 5 5 3 5 3 5 5 5 3 3 5 5 3 5 3 5 5 5 5 5 5 5 5 5 5 5 5 3 3 5 5 5 5 5 3 5 5 5 5 5 5 5 3 5 5 5 3 5 3 5 5 3 5 5 5 5 5 5 5 5 5 3 5 5 3 5 5 5 5 5 5 5 5 5 5 5 3 5 5 5 5 5 5 5 5 5 5 5 5 5 5 5 5 5 5 5 5 5 5 3 5 5 5 5 5 5 5 5 5 5 5 3 5 5 5 5 3 5 5 5 5 5 5 5 5 5 5 5 3 5 5 5 5 5 3 5 3 5 5 5 5 5 5 5 5 5 3 5 5 3 5 5 3 5 5 5 5 3 5 5 5 5 5 5 5 5 5 5 5 5 5 5 5 5 5 5 5 5 5 3 5 5 3 5 3 5 5 5 5 5 5 5 5 5 3 5 5 3 3 3 5 5 5 3 5 5 5 5 5 5 3 3 5 3 5 5 3 5 5 3 5 5 5 5 3 5 5 5 5 3 5 5 5 5 5 5 5 5 5 5 5 3 5 5 3 5 3 3 5 5 3 3 3 5 5 5 5 5 5 5 5 5 5 3 5 5 5 5 5 5 5 5 5 3 5 5 5 5 5 3 5 5 5 5 5 5 5 5 5 5 3 5 5 5 5 5 5 5 5 5 5 5 5 5 5 5 5 5 5 5 5 5 5 5 5 3 3 5 5 5 5 5 5 5 5 3 5 5 5 5 5 5 5 5 5 5 5 5 5 5 5 5 3 5 5 5 5 3 5 5 5 3 3 5 5 5 5 5 5 3 5 3 5 5 5 3 5 5 5 5 5 5 5 5 3 5 3 3 5 5 5 5 5 5 5 5 5 5 5 5 3 5 5 3 5 3 5 5 5 5 5 5 5 5 5 5 5 5 5 5 5 5 5 5 5 5 5 5 5 3 5 5 5 5 5 3 5 5 5 5 5 5 5 5 5 5 3 5 5 5 3 5 5 5 5 5 5 5 5 5 5 5 3 3 5 5 5 5 5 3 5 5 5 3 5 5 5 5 5 5 5 5 5 5 3 5 5 5 5 5 5 5 3 3 5 3 5 5 5 5 3 5 5 5 5 5 3 5 5 5 5 5 5 5 5 5 5 3 5 5 5 5 5 5 5 5 5 5 3 5 5 5 5 5 5 5 3 5 5 5 5 5 5 5 5 5 5 5 5 5 5 5 5 5 5 5 5 3 5 5 5 3 5 5 5 5 5 5 5 5 5 5 5 5 5 3 5 3 3 5 3 3 5 5 5 5 5 3 5 5 5 5 5 5 5 3 5 5 3 5 5 3 5 5 3 5 5 3 3 3 3 5 5 3 3 5 5 3 5 5 3 5 5 5 5 3 3 3 3 5 5 5 3 5 3 5 3 5 3 3 5 5 5 5 5 5 5 3 5 5 3 5 3 5 5 3 3 5 5 5 5 5 5 5 5 5 5 5 5 5 5 5 5 5 3 5 5 5 5 5 5 5 5 5 5 5 5 5 5 5 5 5 3 5 5 5 5 5 5 5 5 5 5 5 5 5 5 3 3 5 5 5 5 3 5 3 5 5 5 3 3 5 3 5 5 5 5 5 5 5 5 5 5 5 5 5 5 5 5 5 5 5 3 5 3 5 5 5 5 3 5 5 5 5 5 5 5 5 5 5 5 5 5 5 5 5 5 5 5 5 3 5 5 5 5 5 5 5 5 5 5 5 5 5 5 3 5 5 5 5 5 5 5 5 5 5 5 5 5 5 5 5 5 5 5 5 5 5 5 5 5 5 5 5 5 5 5 5 5 5 5 5 5 5 5 5 5 5 5 5 5 5 5 5 5 5 5 5 5 5 5 5 5 5 5 5 5 5 3 5 5 5 3 5 5 3 5 5 5 5 5 5 5 5 5 5 5 3 5 5 5 5 3 5 5 5 5 5 5 5 5 5 5 5 5 5 5 5 5 5 5 5 5 5 5 5 5 5 5 5 5 5 3 5 5 5 5 3 5 5 5 5 5 5 5 5 5 5 3 5 5 3 5 5 5 5 5 5 5 5 5 5 5 5 3 5 5 5 5 5 5 5 5 3 5 5 5 5 5 5 5 5 5 5 3 5 3 5 5 5 3 5 5 5 3 5 3 5 3 3 5 5 5 5 5 3 5 5 5 5 5 5 5 5 5 5 5 5 5 5 5 5 5 5 5 5 5 5 5 3 5 5 3 5 5 5 3 5 3 5 5 5 5 5 5 5 5 5 5 5 5 3 5 5 5 5 5 5 5 5 5 5 5 5 5 5 5 5 5 5 5 3 5 5 5 5 5 5 5 5 5 5 5 5 5 5 5 5 5 5 5 5 5 5 5 5 5 5 5 3 5 5 5 5 5 5 5 5 5 5 5 5 5 5 5 5 5 5 3 5 5 5 3 5 5 5 3 3 5 5 5 5 5 3 5 5 5 5 5 5 5 3 3 5 5 5 3 5 3 5 5 5 5 5 5 3 3 5 5 3 3 5 5 5 5 5 5 5 5 5 5 3 5 5 5 5 5 5 3 5 5 5 5 5 5 5 5 5 5 5 5 5 5 5 5 5 3 5 5 5 5 3 5 5 3 5 5 5 5 5 5 5 5 5 5 5 3 5 3 5 3 5 5 5 5 5 5 5 5 5 5 5 5 5 5 5 5 5 5 5 3 5 5 3 5 5 5 3 5 5 3 5 5 5 5 3 5 5 5 5 5 5 5 3 5 5 5 5 5 5 5 5 5 5 5 5 5 5 5 5 5 5 5 5 5 5 5 5 5 5 5 5 5 3 5 5 5 5 5 5 5 5 5 5 5 5 5 5 5 5 5 5 5 5 5 5 5 5 5 5 5 5 5 5 5 5 5 5 5 5 5 3 3 3 5 5 3 5 5 5 3 5 3 5 5 5 5 5 3 5 5 5 5 5 5 5 3 5 5 5 5 5 5 5 5 5 5 5 5 5 5 3 5 5 5 3 5 3 5 5 5 5 5 5 5 5 3 5 5 5 5 5 5 5 3 5 3 5 3 5 5 5 5 5 5 5 5 3 5 5 3 3 3 5 3 5 3 5 5 5 5 5 5 5 5 5 5 5 5 5 5 5 5 5 5 5 5 5 3 5 5 3 3 5 5 5 3 5 5 5 5 5 5 5 3 5 3 5 5 5 5 3 5 5 3 5 5 5 5 5 5 5 3 5 5 3 5 5 5 3 5 5 5 5 5 5 5 5 5 3 5 5 5 5 5 5 3 5 5 3 5 5 5 5 3 5 5 5 5 5 5 3 3 3 5 5 5 3 5 3 5 3 5 5 5 5 5 5 3 5 5 5 3 5 5 5 3 5 5 5 5 5 5 5 5 5 5 5 5 3 5 5 5 3 5 5 5 5 5 3 3 5 5 3 5 3 3 3 5 5 5 3 5 5 5 5 5 3 5 5 5 5 5 5 5 5 5 5 5 5 3 5 5 5 5 5 5 3 5 5 3 5 5 3 5 5 5 5 5 3 5 5 3 5 3 5 3 5 5 5 5 5 5 3 5 5 5 5 3 5 5 5 5 5 5 5 5 5 5 3 5 5 5 5 5 3 5 5 5 5 5 5 5 5 5 5 5 5 5 5 5 3 5 5 5 5 5 3 5 3 5 5 5 5 5 3 5 5 5 5 5 3 5 5 5 5 5 3 5 5 5 5 5 5 5 5 5 5 3 5 3 5 3 5 5 3 5 5 5 5 5 5 5 5 3 5 3 5 5 5 5 5 5 5 5 5 5 3 5 5 5 5 5 5 5 5 5 5 3 5 5 5 3 5 3 3 5 5 5 3 5 5 5 3 3 5 5 5 5 5 5 5 5 5 5 3 3 5 5 5 5 5 3 5 5 5 5 5 5 5 5 5 5 3 5 3 3 3 5 5 5 5 5 5 5 5 3 5 5 5 5 5 5 5 5 5 5 5 5 5 5 5 5 5 5 5 5 5 5 5 5 5 5 5 5 5 3 5 5 5 5 3 5 5 5 5 5 5 5 5 3 5 5 5 5 5 5 5 5 3 5 5 5 5 5 5 5 5 5 5 5 5 5 5 5 5 5 5 5 5 5 5 5 5 5 5 3 5 5 5 5 5 5 3 5 3 5 5 3 5 5 5 3 5 3 5 5 5 3 5 5 5 3 5 5 5 5 5 5 3 5 5 5 5 5 5 5 5 5 5 5 5 5 5 5 5 5 5 5 5 5 5 5 5 5 5 5 3 5 3 5 5 5 5 3 5 5 5 5 5 5 5 5 5 5 5 5 5 3 5 5 3 5 5 3 5 5 5 5 5 3 5 5 5 5 5 5 5 5 3 5 3 5 5 5 5 5 3 3 5 5 3 5 5 5 3 5 5 5 5 5 5 5 3 5 5 5 5 5 5 5 5 5 5 5 5 5 5 5 5 3 5 5 5 5 5 3 5 3 5 5 5 5 5 5 5 5 5 5 5 5 3 5 3 5 5 5 5 5 5 3 3 5 5 5 5 5 5 5 5 5 5 5 5 5 5 5 5 5 5 5 5 5 3 5 5 3 5 5 5 5 5 3 5 5 5 5 5 5 3 5 5 5 5 5 5 5 5 5 5 5 5 5 5 5 5 3 5 5 3 5 5 5 5 3 5 5 5 5 5 5 5 5 5 5 5 3 5 5 5 5 5 5 5 5 5 5 5 5 5 5 5 5 5 5 5 3 5 5 5 5 5 5 5 5 5 5 5 5 3 5 5 5 5 5 5 5 5 5 5 5 5 5 3 3 5 5 5 5 5 5 3 5 5 5 5 5 5 5 5 5 5 5 5 5 5 5 5 5 5 5 5 5 5 5 5 5 5 5 5 5 5 5 5 5 5 5 3 5 5 5 5 5 5 5 5 3 5 5 5 5 5 5 5 5 5 5 5 5 3 5 5 5 5 3 5 3 5 5 5 5 5 5 5 5 3 5 5 5 5 5 5 5 5 5 5 3 5 5 5 3 5 5 3 5 5 5 5 3 5 5 3 5 5 5 5 5 5 5 5 3 5 5 5 3 5 5 5 5 5 5 5 3 5 3 5 3 5 3 3 5 5 5 3 3 3 5 5 3 5 5 5 3 5 5 5 5 3 5 5 5 5 5 5 5 5 5 5 5 5 5 5 5 5 5 5 5 5 5 5 5 5 5 5 5 5 5 5 5 5 5 5 5 5 5 5 3 5 5 5 5 5 5 5 5 3 5 5 5 5 3 5 5 3 5 5 3 5 5 5 5 3 5 5 5 5 5 3 5 5 5 5 5 5 5 5 5 5 5 5 5 3 3 5 5 5 3 5 5 5 5 5 5 5 5 5 5 5 5 5 5 3 5 5 5 5 5 5 3 5 5 3 5 5 5 5 5 5 5 5 5 5 3 5 5 5 5 5 3 5 5 5 5 5 5 5 5 5 5 3 5 5 5 5 5 5 5 5 5 5 5 5 5 5 5 3 5 5 5 5 5 5 5 5 5 5 5 5 5 5 5 5 5 5 5 5 5 5 5 3 5 3 5 5 5 3 5 5 5 5 5 5 5 5 5 3 5 5 5 3 5 5 5 5 5 5 5 5 5 5 5 5 5 5 5 5 3 5 5 5 5 5 3 5 5 5 3 5 3 5 5 5 5 5 5 3 5 5 5 5 5 5 5 5 5 5 5 5 5 5 5 5 5 5 5 5 5 5 5 5 5 5 5 3 5 5 3 5 5 5 5 5 5 5 3 5 5 5 5 3 5 5 3 5 5 5 5 5 5 3 5 5 5 3 5 5 5 3 5 5 5 5 5 3 5 5 5 5 5 3 5 5 5 5 5 5 5 5 3 5 5 3 5 5 5 5 3 5 5 5 5 3 5 5 5 5 3 5 5 5 3 5 3 5 5 5 5 5 5 5 5 5 5 3 5 5 5 5 5 5 5 3 3 5 5 5 5 5 3 5 5 5 5 5 3 5 5 5 3 5 5 3 5 5 3 5 5 5 3 5 5 5 5 5 5 3 5 5 5 5 5 3 5 5 5 5 5 3 5 5 5 5 5 5 3 5 5 5 5 3 5 5 5 5 5 3 5 5 5 5 5 5 5 5 5 5 3 5 5 5 5 5 5 5 3 5 5 5 5 3 3 5 5 3 5 5 5 5 5 5 5 3 5 5 5 5 5 5 5 3 5 3 5 5 3 5 5 5 5 3 5 3 5 5 5 5 5 5 5 5 5 5 3 5 5 5 5 5 3 5 5 5 3 5 5 5 5 3 5 5 3 5 5 5 5 5 3 5 3 5 3 3 5 5 5 5 3 3 5 5 5 5 5 5 5 5 5 5 5 5 5 3 5 5 5 5 5 5 3 3 5 5 5 5 5 5 5 5 5 5 5 5 5 3 5 5 5 5 5 5 5 5 5 5 5 5 5 5 5 5 5 5 5 5 5 5 5 5 5 5 5 5 5 5 5 5 5 3 5 5 3 5 5 5 5 5 5 5 3 5 5 5 3 5 5 3 5 5 5 3 3 5 5 5 5 3 3 5 5 5 5 5 5 5 5 5 5 5 5 5 5 3 5 5 3 5 5 5 3 5 5 5 5 3 5 5 3 5 5 5 5 5 5 5 5 5 5 5 3 5 5 5 5 5 5 5 3 5 5 5 5 5 5 5 5 5 5 5 5 5 5 5 5 5 5 3 5 5 5 5 5 5 3 5 3 5 5 5 5 5 3 5 5 3 5 5 5 3 5 5 5 3 5 5 5 5 5 5 5 5 5 5 5 5 5 5 3 5 5 5 5 3 3 5 5 5 5 5 5 5 5 5 5 5 5 5 5 5 5 5 5 5 3 5 5 5 5 5 5 5 5 3 5 3 5 5 5 5 5 5 5 3 5 3 5 5 5 5 5 3 5 5 5 5 5 5 3 5 5 5 5 5 3 3 5 5 5 3 3 3 5 5 5 5 5 3 5 5 5 5 5 3 5 5 5 5 3 5 3 3 5 3 3 5 5 5 3 5 5 5 3 5 5 5 3 5 5 5 3 5 5 5 5 5 5 5 5 3 5 5 5 3 5 5 5 5 5 5 3 5 5 5 5 5 5 3 5 5 5 5 5 5 5 5 5 5 5 5 5 5 3 5 3 5 5 5 3 5 5 3 5 3 5 3 5 5 3 5 5 5 5 5 5 3 5 5 5 5 3 5 5 5 5 5 5 3 5 5 5 5 5 5 5 5 5 5 3 5 5 5 5 5 5 5 5 5 5 5 5 5 5 5 5 5 5 5 3 3 5 5 5 3 5 5 3 5 5 3 5 5 3 5 5 3 3 5 5 5 5 3 5 5 5 5 5 5 5 5 5 5 5 3 3 5 5 5 3 5 3 5 3 5 5 5 5 5 3 5 5 3 5 3 5 5 3 3 3 5 5 5 5 3 5 5 3 5 3 5 5 3 5 5 5 5 5 5 5 5 3 5 3 3 5 5 5 5 5 3 3 5 5 5 3 3 5 5 5 5 5 5 5 5 3 5 3 5 5 5 5 5 5 5 5 5 5 5 5 5 5 5 5 5 5 5 5 5 5 5 5 5 5 5 5 5 3 5 5 5 5 5 5 5 5 5 5 5 5 5 5 5 3 5 5 3 5 5 5 5 5 3 5 5 5 5 5 5 5 5 5 5 5 5 5 3 5 5 5 5 5 5 5 5 5 3 5 5 3 5 5 5 5 3 3 3 5 5 5 5 5 3 5 5 5 
</DataArray>
</Cells>
<PointData Scalars="" Vectors="displacement," Tensors="">
<DataArray type="Float64" Name="displacement" NumberOfComponents="3" format="ascii">
-0.082759755906493482 -0.084998591292687511 0 -0.084995526221671017 -0.084999659321431553 0 -0.085671287153149339 -0.082193462246963306 0 -0.084995526221671017 -0.084999659321431553 0 -0.085671287153149339 -0.082193462246963306 0 -0.085001274590314771 -0.078641648409586373 0 -0.082755582041968229 -0.084994151044105917 0 -0.083828552299822376 -0.081757997555986686 0 -0.082745258827101903 -0.084996394921475843 0 -0.081019329622226147 -0.082266547013651589 0 -0.081437402113612029 -0.081143687385631491 0 -0.082745258827101903 -0.084996394921475843 0 -0.081019329622226147 -0.082266547013651589 0 -0.079219981323221736 -0.084997103719606781 0 -0.081019329622226147 -0.082266547013651589 0 -0.082019560099734296 -0.079600597052620306 0 -0.080723599025818021 -0.079518691281766973 0 -0.081019329622226147 -0.082266547013651589 0 -0.081437402113612029 -0.081143687385631491 0 -0.082019560099734296 -0.079600597052620306 0 -0.083828552299822376 -0.081757997555986686 0 -0.084996247912013184 -0.078645201327012526 0 -0.081437402113612029 -0.081143687385631491 0 -0.084988432603243888 -0.078637477305779607 0 -0.082019560099734296 -0.079600597052620306 0 -0.084988432603243888 -0.078637477305779607 0 -0.082019560099734296 -0.079600597052620306 0 -0.082901138497245938 -0.077531396132647812 0 -0.082019560099734296 -0.079600597052620306 0 -0.082901138497245938 -0.077531396132647812 0 -0.080723599025818021 -0.079518691281766973 0 -0.081508617157289048 -0.077415689946209149 0 -0.082901138497245938 -0.077531396132647812 0 -0.080723599025818021 -0.079518691281766973 0 -0.081508617157289048 -0.077415689946209149 0 -0.082901138497245938 -0.077531396132647812 0 -0.082964366931972122 -0.075394593241245464 0 -0.082901138497245938 -0.077531396132647812 0 -0.084998363936808943 -0.073572281835017198 0 -0.082964366931972122 -0.075394593241245464 0 -0.084988432603243888 -0.078637477305779607 0 -0.082901138497245938 -0.077531396132647812 0 -0.084998363936808943 -0.073572281835017198 0 -0.080018092792225423 -0.078285435000821538 0 -0.077102565385138239 -0.079495792250909719 0 -0.078804174574267985 -0.077810716899453292 0 -0.081508617157289048 -0.077415689946209149 0 -0.080018092792225423 -0.078285435000821538 0 -0.080723599025818021 -0.079518691281766973 0 -0.081508617157289048 -0.077415689946209149 0 -0.080018092792225423 -0.078285435000821538 0 -0.080544404051091187 -0.076536385199833759 0 -0.080018092792225423 -0.078285435000821538 0 -0.080723599025818021 -0.079518691281766973 0 -0.08025143336718675 -0.080364971940741076 0 -0.080018092792225423 -0.078285435000821538 0 -0.08025143336718675 -0.080364971940741076 0 -0.077102565385138239 -0.079495792250909719 0 -0.076334018270505788 -0.08291511477323367 0 -0.076537803011424696 -0.082166010669452186 0 -0.080723599025818021 -0.079518691281766973 0 -0.08025143336718675 -0.080364971940741076 0 -0.079305271842357777 -0.082741525490300727 0 -0.081019329622226147 -0.082266547013651589 0 -0.080723599025818021 -0.079518691281766973 0 -0.079305271842357777 -0.082741525490300727 0 -0.081019329622226147 -0.082266547013651589 0 -0.079305271842357777 -0.082741525490300727 0 -0.079219981323221736 -0.084997103719606781 0 -0.079305271842357777 -0.082741525490300727 0 -0.079219981323221736 -0.084997103719606781 0 -0.07569727856322099 -0.084997185786092277 0 -0.076334018270505788 -0.08291511477323367 0 -0.075687476739011453 -0.084996764935434205 0 -0.073321448218804139 -0.085452704840217039 0 -0.075681374733287232 -0.084999423652399264 0 -0.073100102087877053 -0.085588492979494307 0 -0.08025143336718675 -0.080364971940741076 0 -0.079305271842357777 -0.082741525490300727 0 -0.07569727856322099 -0.084997185786092277 0 -0.075681374733287232 -0.084999423652399264 0 -0.073100102087877053 -0.085588492979494307 0 -0.070709712099331606 -0.084998328992303696 0 -0.073100102087877053 -0.085588492979494307 0 -0.070709712099331606 -0.084998328992303696 0 -0.072768555680079366 -0.08558928764237235 0 -0.070709712099331606 -0.084998328992303696 0 -0.072768555680079366 -0.08558928764237235 0 -0.069611200616593108 -0.085581450755190316 0 -0.073321448218804139 -0.085452704840217039 0 -0.073100102087877053 -0.085588492979494307 0 -0.072768555680079366 -0.08558928764237235 0 -0.065729381320188865 -0.084998708178212423 0 -0.068893821665126614 -0.086603302813220456 0 -0.063880910674280242 -0.085699177411914892 0 -0.06871013458146033 -0.085109209855920923 0 -0.067305298850386802 -0.084672855483950052 0 -0.065729381320188865 -0.084998708178212423 0 -0.069611200616593108 -0.085581450755190316 0 -0.068893821665126614 -0.086603302813220456 0 -0.070709712099331606 -0.084998328992303696 0 -0.065729381320188865 -0.084998708178212423 0 -0.069611200616593108 -0.085581450755190316 0 -0.072768555680079366 -0.08558928764237235 0 -0.069611200616593108 -0.085581450755190316 0 -0.068893821665126614 -0.086603302813220456 0 -0.072768555680079366 -0.08558928764237235 0 -0.068893821665126614 -0.086603302813220456 0 -0.073896274622259034 -0.084643991424769888 0 -0.067091996771823023 -0.088535592122188811 0 -0.064349722551155633 -0.087734892520909283 0 -0.065498637935180043 -0.089296583021313852 0 -0.067091996771823023 -0.088535592122188811 0 -0.063880910674280242 -0.085699177411914892 0 -0.064349722551155633 -0.087734892520909283 0 -0.067122625903008423 -0.090299391285797601 0 -0.065498637935180043 -0.089296583021313852 0 -0.066020731385776091 -0.090278018318289105 0 -0.067091996771823023 -0.088535592122188811 0 -0.067122625903008423 -0.090299391285797601 0 -0.065498637935180043 -0.089296583021313852 0 -0.06871013458146033 -0.085109209855920923 0 -0.07112921280048301 -0.084856827184576489 0 -0.067091996771823023 -0.088535592122188811 0 -0.067122625903008423 -0.090299391285797601 0 -0.067751380737808745 -0.090279281060259814 0 -0.067576007328660495 -0.090535734548003913 0 -0.067214167860358845 -0.090666418327346315 0 -0.067529806028784931 -0.090132851133372383 0 -0.067122625903008423 -0.090299391285797601 0 -0.067576007328660495 -0.090535734548003913 0 -0.067922849033185503 -0.090487213841880909 0 -0.067122625903008423 -0.090299391285797601 0 -0.067576007328660495 -0.090535734548003913 0 -0.067751380737808745 -0.090279281060259814 0 -0.067122625903008423 -0.090299391285797601 0 -0.068014548477939654 -0.090724068091670038 0 -0.067922849033185503 -0.090487213841880909 0 -0.067122625903008423 -0.090299391285797601 0 -0.068014548477939654 -0.090724068091670038 0 -0.066020731385776091 -0.090278018318289105 0 -0.073321448218804139 -0.085452704840217039 0 -0.075278600199233062 -0.083161369415319417 0 -0.077102565385138239 -0.079495792250909719 0 -0.073321448218804139 -0.085452704840217039 0 -0.072768555680079366 -0.08558928764237235 0 -0.075278600199233062 -0.083161369415319417 0 -0.075278600199233062 -0.083161369415319417 0 -0.073896274622259034 -0.084643991424769888 0 -0.075952985932342482 -0.082150952412719982 0 -0.072768555680079366 -0.08558928764237235 0 -0.075278600199233062 -0.083161369415319417 0 -0.073896274622259034 -0.084643991424769888 0 -0.067576007328660495 -0.090535734548003913 0 -0.067751380737808745 -0.090279281060259814 0 -0.067214167860358845 -0.090666418327346315 0 -0.07112921280048301 -0.084856827184576489 0 -0.072731758012167871 -0.084425480991661028 0 -0.072731758012167871 -0.084425480991661028 0 -0.072757332150789264 -0.083936445709635765 0 -0.075278600199233062 -0.083161369415319417 0 -0.077263215850919359 -0.079507899867328938 0 -0.077102565385138239 -0.079495792250909719 0 -0.075278600199233062 -0.083161369415319417 0 -0.075952985932342482 -0.082150952412719982 0 -0.077263215850919359 -0.079507899867328938 0 -0.077263215850919359 -0.079507899867328938 0 -0.077102565385138239 -0.079495792250909719 0 -0.077553911268060036 -0.078296449188540562 0 -0.077553911268060036 -0.078296449188540562 0 -0.077566167422951901 -0.077935072850659384 0 -0.077961366867792203 -0.077149232691604536 0 -0.077263215850919359 -0.079507899867328938 0 -0.077553911268060036 -0.078296449188540562 0 -0.077566167422951901 -0.077935072850659384 0 -0.067214167860358845 -0.090666418327346315 0 -0.06611920435045586 -0.089055246149960327 0 -0.067529806028784931 -0.090132851133372383 0 -0.078302983551256963 -0.080430038452454874 0 -0.077263215850919359 -0.079507899867328938 0 -0.077566167422951901 -0.077935072850659384 0 -0.078302983551256963 -0.080430038452454874 0 -0.077566167422951901 -0.077935072850659384 0 -0.078070700938329352 -0.076982525156536016 0 -0.072731758012167871 -0.084425480991661028 0 -0.072147185186614421 -0.082808865758533676 0 -0.077566167422951901 -0.077935072850659384 0 -0.078070700938329352 -0.076982525156536016 0 -0.077524378829774102 -0.076968358008124016 0 -0.078070700938329352 -0.076982525156536016 0 -0.077524378829774102 -0.076968358008124016 0 -0.077077405128616244 -0.076328827097326482 0 -0.077524378829774102 -0.076968358008124016 0 -0.077077405128616244 -0.076328827097326482 0 -0.077961366867792203 -0.077149232691604536 0 -0.077566167422951901 -0.077935072850659384 0 -0.077524378829774102 -0.076968358008124016 0 -0.077961366867792203 -0.077149232691604536 0 -0.068014548477939654 -0.090724068091670038 0 -0.068652252912530548 -0.090049061835921373 0 -0.069912181539710141 -0.089823728235422659 0 -0.068014548477939654 -0.090724068091670038 0 -0.068652252912530548 -0.090049061835921373 0 -0.067922849033185503 -0.090487213841880909 0 -0.068652252912530548 -0.090049061835921373 0 -0.067922849033185503 -0.090487213841880909 0 -0.067529806028784931 -0.090132851133372383 0 -0.067576007328660495 -0.090535734548003913 0 -0.067922849033185503 -0.090487213841880909 0 -0.067529806028784931 -0.090132851133372383 0 -0.06611920435045586 -0.089055246149960327 0 -0.069150642178784083 -0.088100071955415721 0 -0.068921338884805117 -0.084620681772785838 0 -0.068652252912530548 -0.090049061835921373 0 -0.067529806028784931 -0.090132851133372383 0 -0.069150642178784083 -0.088100071955415721 0 -0.06611920435045586 -0.089055246149960327 0 -0.067529806028784931 -0.090132851133372383 0 -0.069150642178784083 -0.088100071955415721 0 -0.068652252912530548 -0.090049061835921373 0 -0.069150642178784083 -0.088100071955415721 0 -0.069912181539710141 -0.089823728235422659 0 -0.069150642178784083 -0.088100071955415721 0 -0.069912181539710141 -0.089823728235422659 0 -0.071330825807743151 -0.087560169338449081 0 -0.071580955320373466 -0.084764425633102491 0 -0.071330825807743151 -0.087560169338449081 0 -0.073830055358800079 -0.085662576607547267 0 -0.069150642178784083 -0.088100071955415721 0 -0.071580955320373466 -0.084764425633102491 0 -0.071330825807743151 -0.087560169338449081 0 -0.069150642178784083 -0.088100071955415721 0 -0.071580955320373466 -0.084764425633102491 0 -0.068921338884805117 -0.084620681772785838 0 -0.068921338884805117 -0.084620681772785838 0 -0.066429969249961626 -0.082520569407550037 0 -0.070144582355066945 -0.079296024458687997 0 -0.068921338884805117 -0.084620681772785838 0 -0.072822044461544402 -0.079307846009165822 0 -0.070144582355066945 -0.079296024458687997 0 -0.071580955320373466 -0.084764425633102491 0 -0.068921338884805117 -0.084620681772785838 0 -0.072822044461544402 -0.079307846009165822 0 -0.071580955320373466 -0.084764425633102491 0 -0.072822044461544402 -0.079307846009165822 0 -0.07468131781416297 -0.082273558581149445 0 -0.078070700938329352 -0.076982525156536016 0 -0.077077405128616244 -0.076328827097326482 0 -0.075972112209029108 -0.075935070624838605 0 -0.06611920435045586 -0.089055246149960327 0 -0.068921338884805117 -0.084620681772785838 0 -0.066429969249961626 -0.082520569407550037 0 -0.072147185186614421 -0.082808865758533676 0 -0.071733113380059207 -0.080679674282831321 0 -0.075972112209029108 -0.075935070624838605 0 -0.076183893651859735 -0.076234063986109088 0 -0.0742175390124169 -0.076344768688587639 0 -0.076183893651859735 -0.076234063986109088 0 -0.077621885196555551 -0.076538352503126433 0 -0.075995465457169412 -0.076660654447288326 0 -0.077077405128616244 -0.076328827097326482 0 -0.076183893651859735 -0.076234063986109088 0 -0.077621885196555551 -0.076538352503126433 0 -0.077077405128616244 -0.076328827097326482 0 -0.075972112209029108 -0.075935070624838605 0 -0.076183893651859735 -0.076234063986109088 0 -0.077621885196555551 -0.076538352503126433 0 -0.078639589792406525 -0.076323376059501957 0 -0.079644569765881384 -0.076561998231209696 0 -0.077077405128616244 -0.076328827097326482 0 -0.077621885196555551 -0.076538352503126433 0 -0.078639589792406525 -0.076323376059501957 0 -0.078639589792406525 -0.076323376059501957 0 -0.079644569765881384 -0.076561998231209696 0 -0.080720535376531927 -0.07572338602810566 0 -0.077621885196555551 -0.076538352503126433 0 -0.079644569765881384 -0.076561998231209696 0 -0.079094245550697634 -0.077376977554622972 0 -0.079644569765881384 -0.076561998231209696 0 -0.081122326976063933 -0.077297901372247901 0 -0.079094245550697634 -0.077376977554622972 0 -0.081122326976063933 -0.077297901372247901 0 -0.083340659361820307 -0.076540152452876847 0 -0.081331866950775489 -0.076230398044207157 0 -0.079644569765881384 -0.076561998231209696 0 -0.081122326976063933 -0.077297901372247901 0 -0.081331866950775489 -0.076230398044207157 0 -0.08422903841715719 -0.069197097130255555 0 -0.083781499717352922 -0.065018479117366898 0 -0.086302484657651876 -0.066536569994754435 0 -0.084997372256471304 -0.068500903759810799 0 -0.085001528679636618 -0.06342139935726436 0 -0.086302484657651876 -0.066536569994754435 0 -0.085956361958524588 -0.063000519745007033 0 -0.085001528679636618 -0.06342139935726436 0 -0.081122326976063933 -0.077297901372247901 0 -0.083340659361820307 -0.076540152452876847 0 -0.082834422636448551 -0.078230870985549067 0 -0.08422903841715719 -0.069197097130255555 0 -0.084343573938786484 -0.07002352520145276 0 -0.083340659361820307 -0.076540152452876847 0 -0.081331866950775489 -0.076230398044207157 0 -0.082261381500515762 -0.074881240241329902 0 -0.086302484657651876 -0.066536569994754435 0 -0.084997372256471304 -0.068500903759810799 0 -0.084792242371775198 -0.072033717734395639 0 -0.083340659361820307 -0.076540152452876847 0 -0.082261381500515762 -0.074881240241329902 0 -0.084792242371775198 -0.072033717734395639 0 -0.079644569765881384 -0.076561998231209696 0 -0.081331866950775489 -0.076230398044207157 0 -0.080720535376531927 -0.07572338602810566 0 -0.081331866950775489 -0.076230398044207157 0 -0.082261381500515762 -0.074881240241329902 0 -0.080720535376531927 -0.07572338602810566 0 -0.080720535376531927 -0.07572338602810566 0 -0.081935246305141804 -0.074658533867586724 0 -0.08004852286240402 -0.075904071798242656 0 -0.082261381500515762 -0.074881240241329902 0 -0.081935246305141804 -0.074658533867586724 0 -0.084792242371775198 -0.072033717734395639 0 -0.082261381500515762 -0.074881240241329902 0 -0.080720535376531927 -0.07572338602810566 0 -0.081935246305141804 -0.074658533867586724 0 -0.081935246305141804 -0.074658533867586724 0 -0.084792242371775198 -0.072033717734395639 0 -0.08381724588707147 -0.073853029571579881 0 -0.084997372256471304 -0.068500903759810799 0 -0.084792242371775198 -0.072033717734395639 0 -0.084998363936808943 -0.073572281835017198 0 -0.084792242371775198 -0.072033717734395639 0 -0.08381724588707147 -0.073853029571579881 0 -0.084998363936808943 -0.073572281835017198 0 -0.08381724588707147 -0.073853029571579881 0 -0.084998363936808943 -0.073572281835017198 0 -0.082964366931972122 -0.075394593241245464 0 -0.081508617157289048 -0.077415689946209149 0 -0.082964366931972122 -0.075394593241245464 0 -0.080544404051091187 -0.076536385199833759 0 -0.081935246305141804 -0.074658533867586724 0 -0.082964366931972122 -0.075394593241245464 0 -0.080544404051091187 -0.076536385199833759 0 -0.081935246305141804 -0.074658533867586724 0 -0.08381724588707147 -0.073853029571579881 0 -0.082964366931972122 -0.075394593241245464 0 -0.080018092792225423 -0.078285435000821538 0 -0.080544404051091187 -0.076536385199833759 0 -0.078804174574267985 -0.077810716899453292 0 -0.080544404051091187 -0.076536385199833759 0 -0.079081387542967799 -0.076710565245561538 0 -0.08004852286240402 -0.075904071798242656 0 -0.080544404051091187 -0.076536385199833759 0 -0.078804174574267985 -0.077810716899453292 0 -0.079081387542967799 -0.076710565245561538 0 -0.077102565385138239 -0.079495792250909719 0 -0.077553911268060036 -0.078296449188540562 0 -0.078804174574267985 -0.077810716899453292 0 -0.077553911268060036 -0.078296449188540562 0 -0.078804174574267985 -0.077810716899453292 0 -0.077961366867792203 -0.077149232691604536 0 -0.078804174574267985 -0.077810716899453292 0 -0.079081387542967799 -0.076710565245561538 0 -0.077961366867792203 -0.077149232691604536 0 -0.077077405128616244 -0.076328827097326482 0 -0.078639589792406525 -0.076323376059501957 0 -0.077961366867792203 -0.077149232691604536 0 -0.078639589792406525 -0.076323376059501957 0 -0.079081387542967799 -0.076710565245561538 0 -0.077961366867792203 -0.077149232691604536 0 -0.078639589792406525 -0.076323376059501957 0 -0.079081387542967799 -0.076710565245561538 0 -0.08004852286240402 -0.075904071798242656 0 -0.078639589792406525 -0.076323376059501957 0 -0.080720535376531927 -0.07572338602810566 0 -0.08004852286240402 -0.075904071798242656 0 -0.081935246305141804 -0.074658533867586724 0 -0.080544404051091187 -0.076536385199833759 0 -0.08004852286240402 -0.075904071798242656 0 -0.043373611794725236 -0.093690444537932752 0 -0.044290510699754343 -0.097437495295033025 0 -0.041598964245134637 -0.096314864691378385 0 -0.043373611794725236 -0.093690444537932752 0 -0.046689146931074094 -0.095986555867081214 0 -0.044290510699754343 -0.097437495295033025 0 -0.043373611794725236 -0.093690444537932752 0 -0.041598964245134637 -0.096314864691378385 0 -0.041549901370927692 -0.093506988637328384 0 -0.043373611794725236 -0.093690444537932752 0 -0.046689146931074094 -0.095986555867081214 0 -0.046187439868935053 -0.091443772899843886 0 -0.046689146931074094 -0.095986555867081214 0 -0.046187439868935053 -0.091443772899843886 0 -0.050143936845728154 -0.094067137578327881 0 -0.046187439868935053 -0.091443772899843886 0 -0.043177155400143774 -0.088059782634474448 0 -0.041782798339571853 -0.091364958928482495 0 -0.043373611794725236 -0.093690444537932752 0 -0.046187439868935053 -0.091443772899843886 0 -0.041782798339571853 -0.091364958928482495 0 -0.043373611794725236 -0.093690444537932752 0 -0.041782798339571853 -0.091364958928482495 0 -0.041549901370927692 -0.093506988637328384 0 -0.043177155400143774 -0.088059782634474448 0 -0.045806546969943754 -0.085000021526157557 0 -0.040824459449760001 -0.084998935584411878 0 -0.043177155400143774 -0.088059782634474448 0 -0.045806546969943754 -0.085000021526157557 0 -0.047795747196745834 -0.08780129672599675 0 -0.046187439868935053 -0.091443772899843886 0 -0.043177155400143774 -0.088059782634474448 0 -0.047795747196745834 -0.08780129672599675 0 -0.046187439868935053 -0.091443772899843886 0 -0.047795747196745834 -0.08780129672599675 0 -0.051083883854789 -0.089925371714219826 0 -0.047795747196745834 -0.08780129672599675 0 -0.050786600294315289 -0.084999524276411276 0 -0.051083883854789 -0.089925371714219826 0 -0.045806546969943754 -0.085000021526157557 0 -0.047795747196745834 -0.08780129672599675 0 -0.050786600294315289 -0.084999524276411276 0 -0.050786600294315289 -0.084999524276411276 0 -0.051083883854789 -0.089925371714219826 0 -0.055693511346142706 -0.088393464534751401 0 -0.051083883854789 -0.089925371714219826 0 -0.050143936845728154 -0.094067137578327881 0 -0.056045884506265679 -0.093425194993433283 0 -0.046187439868935053 -0.091443772899843886 0 -0.051083883854789 -0.089925371714219826 0 -0.050143936845728154 -0.094067137578327881 0 -0.046689146931074094 -0.095986555867081214 0 -0.050143936845728154 -0.094067137578327881 0 -0.049646148097892764 -0.096988302859124395 0 -0.050143936845728154 -0.094067137578327881 0 -0.056045884506265679 -0.093425194993433283 0 -0.052540835444358815 -0.097200330821721054 0 -0.052124265744119699 -0.092033604087507354 0 -0.051394091671197954 -0.091234275609181681 0 -0.056045884506265679 -0.093425194993433283 0 -0.061088276718567362 -0.090386357603316966 0 -0.059863660365580343 -0.096763903753403324 0 -0.06542454678820997 -0.091270102702112749 0 -0.066628275351551816 -0.091571339823304773 0 -0.056045884506265679 -0.093425194993433283 0 -0.061088276718567362 -0.090386357603316966 0 -0.055693511346142706 -0.088393464534751401 0 -0.051083883854789 -0.089925371714219826 0 -0.056045884506265679 -0.093425194993433283 0 -0.055693511346142706 -0.088393464534751401 0 -0.050786600294315289 -0.084999524276411276 0 -0.055693511346142706 -0.088393464534751401 0 -0.055768054046082878 -0.084999289441305581 0 -0.055693511346142706 -0.088393464534751401 0 -0.055768054046082878 -0.084999289441305581 0 -0.05951452930029049 -0.086949400879711009 0 -0.055768054046082878 -0.084999289441305581 0 -0.060748306004719137 -0.084999772377591765 0 -0.05951452930029049 -0.086949400879711009 0 -0.061088276718567362 -0.090386357603316966 0 -0.055693511346142706 -0.088393464534751401 0 -0.05951452930029049 -0.086949400879711009 0 -0.061088276718567362 -0.090386357603316966 0 -0.062747753179316051 -0.088291285679708509 0 -0.05951452930029049 -0.086949400879711009 0 -0.062747753179316051 -0.088291285679708509 0 -0.05951452930029049 -0.086949400879711009 0 -0.062301402795457116 -0.086718303756333923 0 -0.060748306004719137 -0.084999772377591765 0 -0.05951452930029049 -0.086949400879711009 0 -0.062301402795457116 -0.086718303756333923 0 -0.060748306004719137 -0.084999772377591765 0 -0.063880910674280242 -0.085699177411914892 0 -0.062301402795457116 -0.086718303756333923 0 -0.065729381320188865 -0.084998708178212423 0 -0.060748306004719137 -0.084999772377591765 0 -0.063880910674280242 -0.085699177411914892 0 -0.063880910674280242 -0.085699177411914892 0 -0.062301402795457116 -0.086718303756333923 0 -0.064349722551155633 -0.087734892520909283 0 -0.062747753179316051 -0.088291285679708509 0 -0.064349722551155633 -0.087734892520909283 0 -0.065498637935180043 -0.089296583021313852 0 -0.062747753179316051 -0.088291285679708509 0 -0.062301402795457116 -0.086718303756333923 0 -0.064349722551155633 -0.087734892520909283 0 -0.065498637935180043 -0.089296583021313852 0 -0.064047432570025042 -0.089930545254199135 0 -0.066020731385776091 -0.090278018318289105 0 -0.062747753179316051 -0.088291285679708509 0 -0.065498637935180043 -0.089296583021313852 0 -0.064047432570025042 -0.089930545254199135 0 -0.061088276718567362 -0.090386357603316966 0 -0.062747753179316051 -0.088291285679708509 0 -0.064047432570025042 -0.089930545254199135 0 -0.061088276718567362 -0.090386357603316966 0 -0.064047432570025042 -0.089930545254199135 0 -0.065550378199935172 -0.090614692897675722 0 -0.061088276718567362 -0.090386357603316966 0 -0.065550378199935172 -0.090614692897675722 0 -0.064238656694817653 -0.090846039513259286 0 -0.068014548477939654 -0.090724068091670038 0 -0.065550378199935172 -0.090614692897675722 0 -0.066020731385776091 -0.090278018318289105 0 -0.064047432570025042 -0.089930545254199135 0 -0.065550378199935172 -0.090614692897675722 0 -0.066020731385776091 -0.090278018318289105 0 -0.068014548477939654 -0.090724068091670038 0 -0.069912181539710141 -0.089823728235422659 0 -0.068980640839028287 -0.091082432259453824 0 -0.068014548477939654 -0.090724068091670038 0 -0.065550378199935172 -0.090614692897675722 0 -0.068980640839028287 -0.091082432259453824 0 -0.065550378199935172 -0.090614692897675722 0 -0.068980640839028287 -0.091082432259453824 0 -0.065865660775511786 -0.091913893885157319 0 -0.065550378199935172 -0.090614692897675722 0 -0.065865660775511786 -0.091913893885157319 0 -0.064238656694817653 -0.090846039513259286 0 -0.068980640839028287 -0.091082432259453824 0 -0.065865660775511786 -0.091913893885157319 0 -0.067580304836835067 -0.094130193661929498 0 -0.073676487794875206 -0.08422189524847451 0 -0.071749651181861301 -0.083310613353081542 0 -0.065865660775511786 -0.091913893885157319 0 -0.067580304836835067 -0.094130193661929498 0 -0.064049582901984731 -0.093448421798802889 0 -0.068980640839028287 -0.091082432259453824 0 -0.07325407641064749 -0.08879888839348693 0 -0.072875794378146133 -0.088655996419444619 0 -0.073676487794875206 -0.08422189524847451 0 -0.073698693774482849 -0.084331094351674421 0 -0.069912181539710141 -0.089823728235422659 0 -0.068980640839028287 -0.091082432259453824 0 -0.072875794378146133 -0.088655996419444619 0 -0.072827218460707846 -0.08619289080316174 0 -0.073676487794875206 -0.08422189524847451 0 -0.069912181539710141 -0.089823728235422659 0 -0.071330825807743151 -0.087560169338449081 0 -0.072875794378146133 -0.088655996419444619 0 -0.071330825807743151 -0.087560169338449081 0 -0.072875794378146133 -0.088655996419444619 0 -0.073830055358800079 -0.085662576607547267 0 -0.077033492695726208 -0.089130444024980521 0 -0.075194270502276006 -0.086744352155455423 0 -0.077326877925141355 -0.083920870748493206 0 -0.072875794378146133 -0.088655996419444619 0 -0.075194270502276006 -0.086744352155455423 0 -0.073830055358800079 -0.085662576607547267 0 -0.077033492695726208 -0.089130444024980521 0 -0.072875794378146133 -0.088655996419444619 0 -0.075194270502276006 -0.086744352155455423 0 -0.077326877925141355 -0.083920870748493206 0 -0.073830055358800079 -0.085662576607547267 0 -0.07468131781416297 -0.082273558581149445 0 -0.075194270502276006 -0.086744352155455423 0 -0.077326877925141355 -0.083920870748493206 0 -0.073830055358800079 -0.085662576607547267 0 -0.071580955320373466 -0.084764425633102491 0 -0.073830055358800079 -0.085662576607547267 0 -0.07468131781416297 -0.082273558581149445 0 -0.077326877925141355 -0.083920870748493206 0 -0.07468131781416297 -0.082273558581149445 0 -0.077022002290879854 -0.07909744387769678 0 -0.072822044461544402 -0.079307846009165822 0 -0.07468131781416297 -0.082273558581149445 0 -0.077022002290879854 -0.07909744387769678 0 -0.077326877925141355 -0.083920870748493206 0 -0.077022002290879854 -0.07909744387769678 0 -0.082749775426211356 -0.080503192517327696 0 -0.077033492695726208 -0.089130444024980521 0 -0.077326877925141355 -0.083920870748493206 0 -0.082749775426211356 -0.080503192517327696 0 -0.081809514146553047 -0.077738809360215266 0 -0.0838550433545487 -0.071905517428925841 0 -0.085055944191648247 -0.075197823484859386 0 -0.081809514146553047 -0.077738809360215266 0 -0.085055944191648247 -0.075197823484859386 0 -0.08694009023041159 -0.07815596413885427 0 -0.073676487794875206 -0.08422189524847451 0 -0.080458715421473023 -0.075430585613805556 0 -0.085055944191648247 -0.075197823484859386 0 -0.087610044408219387 -0.073006702881789537 0 -0.08694009023041159 -0.07815596413885427 0 -0.0800210217190859 -0.070941313626123562 0 -0.071749651181861301 -0.083310613353081542 0 -0.0838550433545487 -0.071905517428925841 0 -0.085055944191648247 -0.075197823484859386 0 -0.087610044408219387 -0.073006702881789537 0 -0.0838550433545487 -0.071905517428925841 0 -0.087610044408219387 -0.073006702881789537 0 -0.086404973498938512 -0.069795386565521922 0 -0.086962496873013898 -0.064380172126162247 0 -0.087649005459306525 -0.063855078359193476 0 -0.087843841410544687 -0.064783053928217982 0 -0.087649005459306525 -0.063855078359193476 0 -0.087843841410544687 -0.064783053928217982 0 -0.08831334239698542 -0.063875994797129548 0 -0.086962496873013898 -0.064380172126162247 0 -0.087843841410544687 -0.064783053928217982 0 -0.086755736163476857 -0.065678758567363785 0 -0.087843841410544687 -0.064783053928217982 0 -0.086755736163476857 -0.065678758567363785 0 -0.087999070021348991 -0.065743464039047558 0 -0.059027511999970542 -0.10227130682521376 0 -0.056382424047664866 -0.098762768783993898 0 -0.054070243792098474 -0.10180444163062505 0 -0.071749651181861301 -0.083310613353081542 0 -0.067914642485155927 -0.082386998208293455 0 -0.065865660775511786 -0.091913893885157319 0 -0.064049582901984731 -0.093448421798802889 0 -0.064238656694817653 -0.090846039513259286 0 -0.071749651181861301 -0.083310613353081542 0 -0.066628275351551816 -0.091571339823304773 0 -0.059027511999970542 -0.10227130682521376 0 -0.059863660365580343 -0.096763903753403324 0 -0.056382424047664866 -0.098762768783993898 0 -0.056382424047664866 -0.098762768783993898 0 -0.052681742825279369 -0.09747824743898649 0 -0.054070243792098474 -0.10180444163062505 0 -0.056045884506265679 -0.093425194993433283 0 -0.059863660365580343 -0.096763903753403324 0 -0.056382424047664866 -0.098762768783993898 0 -0.056045884506265679 -0.093425194993433283 0 -0.056382424047664866 -0.098762768783993898 0 -0.052681742825279369 -0.09747824743898649 0 -0.050143936845728154 -0.094067137578327881 0 -0.052540835444358815 -0.097200330821721054 0 -0.049646148097892764 -0.096988302859124395 0 -0.052540835444358815 -0.097200330821721054 0 -0.049646148097892764 -0.096988302859124395 0 -0.049251014121138185 -0.10066512224916661 0 -0.051394091671197954 -0.091234275609181681 0 -0.056114523393347437 -0.080268051782977926 0 -0.046689146931074094 -0.095986555867081214 0 -0.049646148097892764 -0.096988302859124395 0 -0.049251014121138185 -0.10066512224916661 0 -0.052681742825279369 -0.09747824743898649 0 -0.049214635017129665 -0.10132502039591959 0 -0.054070243792098474 -0.10180444163062505 0 -0.056114523393347437 -0.080268051782977926 0 -0.067914642485155927 -0.082386998208293455 0 -0.089168154461596399 -0.065822445096764548 0 -0.087999070021348991 -0.065743464039047558 0 -0.088896157500175779 -0.064736609952040516 0 -0.087843841410544687 -0.064783053928217982 0 -0.087999070021348991 -0.065743464039047558 0 -0.088896157500175779 -0.064736609952040516 0 -0.087843841410544687 -0.064783053928217982 0 -0.08831334239698542 -0.063875994797129548 0 -0.088896157500175779 -0.064736609952040516 0 -0.088896157500175779 -0.064736609952040516 0 -0.090081102622743311 -0.064765229619829973 0 -0.089567836354381897 -0.063552553712960716 0 -0.08831334239698542 -0.063875994797129548 0 -0.088896157500175779 -0.064736609952040516 0 -0.089567836354381897 -0.063552553712960716 0 -0.089168154461596399 -0.065822445096764548 0 -0.088896157500175779 -0.064736609952040516 0 -0.090081102622743311 -0.064765229619829973 0 -0.056114523393347437 -0.080268051782977926 0 -0.042104757527831584 -0.07022271642269122 0 -0.042104757527831584 -0.07022271642269122 0 -0.046777465183509039 -0.063785858549628802 0 -0.015281604582939867 -0.06822906256851273 0 -0.020460320897466047 -0.062440143220855573 0 -0.01132478051101906 -0.060768347809633839 0 -0.017110191694972174 -0.066727320822210057 0 -0.020460320897466047 -0.062440143220855573 0 -0.021867760794468897 -0.068239911977937232 0 -0.042104757527831584 -0.07022271642269122 0 -0.035025274275057826 -0.071959248450789895 0 -0.017110191694972174 -0.066727320822210057 0 -0.021867760794468897 -0.068239911977937232 0 -0.020748991337673769 -0.073803270691931128 0 -0.042104757527831584 -0.07022271642269122 0 -0.040146450840211324 -0.078574260990724121 0 -0.021867760794468897 -0.068239911977937232 0 -0.020748991337673769 -0.073803270691931128 0 -0.025233225900138094 -0.074233116921845962 0 -0.040146450840211324 -0.078574260990724121 0 -0.037108376285605829 -0.078161828456601828 0 -0.056114523393347437 -0.080268051782977926 0 -0.040146450840211324 -0.078574260990724121 0 -0.049251014121138185 -0.10066512224916661 0 -0.043636846272937839 -0.1001551331076886 0 -0.044290510699754343 -0.097437495295033025 0 -0.046448761461700412 -0.078612686381126798 0 -0.044933019932544754 -0.080254540426360418 0 -0.043949005101123928 -0.078407513344489102 0 -0.046689146931074094 -0.095986555867081214 0 -0.049251014121138185 -0.10066512224916661 0 -0.044290510699754343 -0.097437495295033025 0 -0.040146450840211324 -0.078574260990724121 0 -0.038015500880710609 -0.083857215554355075 0 -0.043636846272937839 -0.1001551331076886 0 -0.044290510699754343 -0.097437495295033025 0 -0.041598964245134637 -0.096314864691378385 0 -0.022534106260798704 -0.074014497509675869 0 -0.026002277023022029 -0.078936923391848157 0 -0.025233225900138094 -0.074233116921845962 0 -0.018331616667315198 -0.044471459401052453 0 -0.01970085995682485 -0.04988889605234411 0 -0.022364167031784246 -0.045291249536457467 0 -0.018331616667315198 -0.044471459401052453 0 -0.013836019966369077 -0.042406553085323637 0 -0.017687766017600012 -0.039978772218166696 0 -0.018331616667315198 -0.044471459401052453 0 -0.013836019966369077 -0.042406553085323637 0 -0.014266379681797541 -0.048568133858920261 0 -0.013836019966369077 -0.042406553085323637 0 -0.014266379681797541 -0.048568133858920261 0 -0.0096343995488661141 -0.045143623648787608 0 -0.014266379681797541 -0.048568133858920261 0 -0.01970085995682485 -0.04988889605234411 0 -0.016554570586811118 -0.055293324610068341 0 -0.018331616667315198 -0.044471459401052453 0 -0.014266379681797541 -0.048568133858920261 0 -0.01970085995682485 -0.04988889605234411 0 -0.01970085995682485 -0.04988889605234411 0 -0.016554570586811118 -0.055293324610068341 0 -0.022443524663109487 -0.055530927779120866 0 -0.020460320897466047 -0.062440143220855573 0 -0.016554570586811118 -0.055293324610068341 0 -0.022443524663109487 -0.055530927779120866 0 -0.020460320897466047 -0.062440143220855573 0 -0.016554570586811118 -0.055293324610068341 0 -0.01132478051101906 -0.060768347809633839 0 -0.016554570586811118 -0.055293324610068341 0 -0.0076766402353136507 -0.053440875353747856 0 -0.01132478051101906 -0.060768347809633839 0 -0.014266379681797541 -0.048568133858920261 0 -0.016554570586811118 -0.055293324610068341 0 -0.0076766402353136507 -0.053440875353747856 0 -0.049060107008437874 -0.057641386261385229 0 -0.046777465183509039 -0.063785858549628802 0 -0.08831334239698542 -0.063875994797129548 0 -0.089567836354381897 -0.063552553712960716 0 -0.088657580343703191 -0.06310226351343827 0 -0.089103888123456779 -0.062305741764554598 0 -0.089567836354381897 -0.063552553712960716 0 -0.088657580343703191 -0.06310226351343827 0 -0.08831334239698542 -0.063875994797129548 0 -0.088657580343703191 -0.06310226351343827 0 -0.08797546438169955 -0.063249783397754736 0 -0.088657580343703191 -0.06310226351343827 0 -0.088152850291699156 -0.062523759900797241 0 -0.08797546438169955 -0.063249783397754736 0 -0.089103888123456779 -0.062305741764554598 0 -0.088294201607437173 -0.06178122456507832 0 -0.088152850291699156 -0.062523759900797241 0 -0.089103888123456779 -0.062305741764554598 0 -0.088657580343703191 -0.06310226351343827 0 -0.088152850291699156 -0.062523759900797241 0 -0.089103888123456779 -0.062305741764554598 0 -0.088770911067799121 -0.0610585806955906 0 -0.088294201607437173 -0.06178122456507832 0 -0.049060107008437874 -0.057641386261385229 0 -0.051766955149835217 -0.051494793587852403 0 -0.088770911067799121 -0.0610585806955906 0 -0.088221379699098199 -0.061237010707424391 0 -0.088294201607437173 -0.06178122456507832 0 -0.014266379681797541 -0.048568133858920261 0 -0.0076766402353136507 -0.053440875353747856 0 -0.0096343995488661141 -0.045143623648787608 0 -0.0076766402353136507 -0.053440875353747856 0 -0.0096343995488661141 -0.045143623648787608 0 -0.0043482786364521294 -0.046258600690753764 0 -0.0096343995488661141 -0.045143623648787608 0 -0.0062745361342775958 -0.042149817092287323 0 -0.0096324744356110319 -0.039851359883251912 0 -0.013836019966369077 -0.042406553085323637 0 -0.0096343995488661141 -0.045143623648787608 0 -0.0096324744356110319 -0.039851359883251912 0 -0.0043482786364521294 -0.046258600690753764 0 -0.0012507569336292182 -0.039387401866682499 0 -0.0062745361342775958 -0.042149817092287323 0 -0.0096343995488661141 -0.045143623648787608 0 -0.0043482786364521294 -0.046258600690753764 0 -0.0062745361342775958 -0.042149817092287323 0 -0.051766955149835217 -0.051494793587852403 0 -0.057948430735180849 -0.045241409026197985 0 -0.088206472641606734 -0.060405333546537418 0 -0.087860111151304002 -0.061973444304368873 0 -0.08867061996599794 -0.063674358034276526 0 -0.088770911067799121 -0.0610585806955906 0 -0.088206472641606734 -0.060405333546537418 0 -0.088597053550148616 -0.059529046179216373 0 -0.088206472641606734 -0.060405333546537418 0 -0.087574646859096023 -0.061743032129832946 0 -0.088221379699098199 -0.061237010707424391 0 -0.088770911067799121 -0.0610585806955906 0 -0.088206472641606734 -0.060405333546537418 0 -0.088221379699098199 -0.061237010707424391 0 -0.086337160718880437 -0.062239293673864028 0 -0.085775826170643818 -0.06338577890823173 0 -0.088206472641606734 -0.060405333546537418 0 -0.087012274939841039 -0.06038608732359034 0 -0.087860111151304002 -0.061973444304368873 0 -0.087860111151304002 -0.061973444304368873 0 -0.084671235362259636 -0.062220660232606854 0 -0.085681176545449142 -0.060777388614434741 0 -0.087012274939841039 -0.06038608732359034 0 -0.087860111151304002 -0.061973444304368873 0 -0.085681176545449142 -0.060777388614434741 0 -0.087012274939841039 -0.06038608732359034 0 -0.085681176545449142 -0.060777388614434741 0 -0.085784858271412953 -0.059897282291160148 0 -0.087860111151304002 -0.061973444304368873 0 -0.08867061996599794 -0.063674358034276526 0 -0.086002486311489296 -0.066372375479014187 0 -0.087860111151304002 -0.061973444304368873 0 -0.087537257258219509 -0.069623393307636061 0 -0.085617665880586336 -0.064581837198698505 0 -0.085838175055483537 -0.065676208639714614 0 -0.084376102165606801 -0.068850255148652742 0 -0.087860111151304002 -0.061973444304368873 0 -0.085617665880586336 -0.064581837198698505 0 -0.084671235362259636 -0.062220660232606854 0 -0.087574646859096023 -0.061743032129832946 0 -0.088221379699098199 -0.061237010707424391 0 -0.088294201607437173 -0.06178122456507832 0 -0.087574646859096023 -0.061743032129832946 0 -0.088294201607437173 -0.06178122456507832 0 -0.088152850291699156 -0.062523759900797241 0 -0.085775826170643818 -0.06338577890823173 0 -0.083936461431919795 -0.066095443473962609 0 -0.087574646859096023 -0.061743032129832946 0 -0.088152850291699156 -0.062523759900797241 0 -0.087221641133609779 -0.063067501376533955 0 -0.086962496873013898 -0.064380172126162247 0 -0.087649005459306525 -0.063855078359193476 0 -0.087221641133609779 -0.063067501376533955 0 -0.088152850291699156 -0.062523759900797241 0 -0.08797546438169955 -0.063249783397754736 0 -0.087221641133609779 -0.063067501376533955 0 -0.087649005459306525 -0.063855078359193476 0 -0.08797546438169955 -0.063249783397754736 0 -0.087221641133609779 -0.063067501376533955 0 -0.087649005459306525 -0.063855078359193476 0 -0.08831334239698542 -0.063875994797129548 0 -0.08797546438169955 -0.063249783397754736 0 -0.087610044408219387 -0.073006702881789537 0 -0.086404973498938512 -0.069795386565521922 0 -0.088196380254406306 -0.068001064177561563 0 -0.086404973498938512 -0.069795386565521922 0 -0.088196380254406306 -0.068001064177561563 0 -0.086002486311489296 -0.066372375479014187 0 -0.0800210217190859 -0.070941313626123562 0 -0.083936461431919795 -0.066095443473962609 0 -0.0838550433545487 -0.071905517428925841 0 -0.086404973498938512 -0.069795386565521922 0 -0.086002486311489296 -0.066372375479014187 0 -0.08867061996599794 -0.063674358034276526 0 -0.088196380254406306 -0.068001064177561563 0 -0.086002486311489296 -0.066372375479014187 0 -0.087537257258219509 -0.069623393307636061 0 -0.080809227313566906 -0.074040431137261192 0 -0.08218600903828642 -0.06515722728162332 0 -0.087537257258219509 -0.069623393307636061 0 -0.08218600903828642 -0.06515722728162332 0 -0.085617665880586336 -0.064581837198698505 0 -0.077022002290879854 -0.07909744387769678 0 -0.082749775426211356 -0.080503192517327696 0 -0.080809227313566906 -0.074040431137261192 0 -0.082749775426211356 -0.080503192517327696 0 -0.087537257258219509 -0.069623393307636061 0 -0.080809227313566906 -0.074040431137261192 0 -0.080458715421473023 -0.075430585613805556 0 -0.084376102165606801 -0.068850255148652742 0 -0.072822044461544402 -0.079307846009165822 0 -0.077022002290879854 -0.07909744387769678 0 -0.075206536210820463 -0.074498163141941381 0 -0.077022002290879854 -0.07909744387769678 0 -0.080809227313566906 -0.074040431137261192 0 -0.075206536210820463 -0.074498163141941381 0 -0.080809227313566906 -0.074040431137261192 0 -0.075206536210820463 -0.074498163141941381 0 -0.08218600903828642 -0.06515722728162332 0 -0.075206536210820463 -0.074498163141941381 0 -0.08218600903828642 -0.06515722728162332 0 -0.072836523056477503 -0.07079211986519901 0 -0.08218600903828642 -0.06515722728162332 0 -0.084671235362259636 -0.062220660232606854 0 -0.083670906055488964 -0.060835278094092331 0 -0.08218600903828642 -0.06515722728162332 0 -0.083670906055488964 -0.060835278094092331 0 -0.084819354071521094 -0.059176524293970689 0 -0.083514370576406108 -0.064571656660821403 0 -0.082718524728342124 -0.064431592063854265 0 -0.08218600903828642 -0.06515722728162332 0 -0.085617665880586336 -0.064581837198698505 0 -0.084671235362259636 -0.062220660232606854 0 -0.084671235362259636 -0.062220660232606854 0 -0.084488090047411493 -0.060743710416186245 0 -0.083670906055488964 -0.060835278094092331 0 -0.084671235362259636 -0.062220660232606854 0 -0.085681176545449142 -0.060777388614434741 0 -0.084488090047411493 -0.060743710416186245 0 -0.085681176545449142 -0.060777388614434741 0 -0.084488090047411493 -0.060743710416186245 0 -0.084954568910040204 -0.059971903133057052 0 -0.084488090047411493 -0.060743710416186245 0 -0.083670906055488964 -0.060835278094092331 0 -0.084232524951923488 -0.059876754772526804 0 -0.083670906055488964 -0.060835278094092331 0 -0.083698743158433592 -0.058955606831521221 0 -0.084232524951923488 -0.059876754772526804 0 -0.083670906055488964 -0.060835278094092331 0 -0.084186267060030337 -0.062049546883828771 0 -0.084816987457911025 -0.061162691213908098 0 -0.085665324274251775 -0.059730897689240905 0 -0.08657754369338741 -0.05796261901607138 0 -0.083698743158433592 -0.058955606831521221 0 -0.084310917738866703 -0.05910303383807447 0 -0.084232524951923488 -0.059876754772526804 0 -0.084186267060030337 -0.062049546883828771 0 -0.084793065084059302 -0.062160534376224909 0 -0.084816987457911025 -0.061162691213908098 0 -0.084488090047411493 -0.060743710416186245 0 -0.084232524951923488 -0.059876754772526804 0 -0.084954568910040204 -0.059971903133057052 0 -0.084232524951923488 -0.059876754772526804 0 -0.084954568910040204 -0.059971903133057052 0 -0.084723147185627387 -0.059389222560200808 0 -0.085681176545449142 -0.060777388614434741 0 -0.084954568910040204 -0.059971903133057052 0 -0.085784858271412953 -0.059897282291160148 0 -0.084954568910040204 -0.059971903133057052 0 -0.085784858271412953 -0.059897282291160148 0 -0.0855231622316215 -0.059154757223435876 0 -0.085784858271412953 -0.059897282291160148 0 -0.0855231622316215 -0.059154757223435876 0 -0.086431102887966738 -0.059450689568693045 0 -0.084954568910040204 -0.059971903133057052 0 -0.0855231622316215 -0.059154757223435876 0 -0.084723147185627387 -0.059389222560200808 0 -0.084310917738866703 -0.05910303383807447 0 -0.084232524951923488 -0.059876754772526804 0 -0.084723147185627387 -0.059389222560200808 0 -0.0855231622316215 -0.059154757223435876 0 -0.084723147185627387 -0.059389222560200808 0 -0.084972738576110943 -0.058828628938818635 0 -0.084310917738866703 -0.05910303383807447 0 -0.084723147185627387 -0.059389222560200808 0 -0.084972738576110943 -0.058828628938818635 0 -0.084310917738866703 -0.05910303383807447 0 -0.084972738576110943 -0.058828628938818635 0 -0.084637144210797224 -0.05812994029157164 0 -0.084637144210797224 -0.05812994029157164 0 -0.085259611369360888 -0.057313398988839928 0 -0.084223524912023298 -0.056092296636910774 0 -0.084972738576110943 -0.058828628938818635 0 -0.084637144210797224 -0.05812994029157164 0 -0.085380500846287705 -0.058342672593256838 0 -0.085380500846287705 -0.058342672593256838 0 -0.086078212754034586 -0.057646775374107541 0 -0.086333320824152057 -0.058684661635222145 0 -0.0855231622316215 -0.059154757223435876 0 -0.084972738576110943 -0.058828628938818635 0 -0.085380500846287705 -0.058342672593256838 0 -0.0855231622316215 -0.059154757223435876 0 -0.085380500846287705 -0.058342672593256838 0 -0.086333320824152057 -0.058684661635222145 0 -0.085380500846287705 -0.058342672593256838 0 -0.085259611369360888 -0.057313398988839928 0 -0.086078212754034586 -0.057646775374107541 0 -0.085259611369360888 -0.057313398988839928 0 -0.08575897231264025 -0.056642944982917096 0 -0.086078212754034586 -0.057646775374107541 0 -0.084637144210797224 -0.05812994029157164 0 -0.085380500846287705 -0.058342672593256838 0 -0.085259611369360888 -0.057313398988839928 0 -0.084211113131564472 -0.062354254069454641 0 -0.08384148747769013 -0.063473071048966601 0 -0.085127173550043692 -0.062829740166386469 0 -0.08657754369338741 -0.05796261901607138 0 -0.09090395688747531 -0.04685199473802476 0 -0.090038054118451574 -0.052991506669748237 0 -0.090754999083955026 -0.05158376644659933 0 -0.084211113131564472 -0.062354254069454641 0 -0.084793065084059302 -0.062160534376224909 0 -0.085590492979324001 -0.063626634731066195 0 -0.083698743158433592 -0.058955606831521221 0 -0.084637144210797224 -0.05812994029157164 0 -0.084223524912023298 -0.056092296636910774 0 -0.084186267060030337 -0.062049546883828771 0 -0.084211113131564472 -0.062354254069454641 0 -0.08384148747769013 -0.063473071048966601 0 -0.083698743158433592 -0.058955606831521221 0 -0.084310917738866703 -0.05910303383807447 0 -0.084637144210797224 -0.05812994029157164 0 -0.084186267060030337 -0.062049546883828771 0 -0.084211113131564472 -0.062354254069454641 0 -0.084793065084059302 -0.062160534376224909 0 -0.09090395688747531 -0.04685199473802476 0 -0.090754999083955026 -0.05158376644659933 0 -0.098982344148025384 -0.040008103187109574 0 -0.097121848983106579 -0.040910138799064487 0 -0.097327891326053226 -0.039075635128852114 0 -0.098982344148025384 -0.040008103187109574 0 -0.09849102247680197 -0.038797189538983423 0 -0.097327891326053226 -0.039075635128852114 0 -0.098982344148025384 -0.040008103187109574 0 -0.09849102247680197 -0.038797189538983423 0 -0.099492301638049466 -0.038055118960215198 0 -0.09849102247680197 -0.038797189538983423 0 -0.098185185390799609 -0.038034728311861284 0 -0.099492301638049466 -0.038055118960215198 0 -0.09849102247680197 -0.038797189538983423 0 -0.097327891326053226 -0.039075635128852114 0 -0.098185185390799609 -0.038034728311861284 0 -0.098735333067465347 -0.032354409400537576 0 -0.099123114220139766 -0.031918705974611029 0 -0.098906314902512268 -0.031824950056750741 0 -0.098735333067465347 -0.032354409400537576 0 -0.099202308681983251 -0.032086439918654557 0 -0.099123114220139766 -0.031918705974611029 0 -0.09090395688747531 -0.04685199473802476 0 -0.095874097687303997 -0.037086219356543132 0 -0.084223524912023298 -0.056092296636910774 0 -0.08575897231264025 -0.056642944982917096 0 -0.086468696412906082 -0.054946320611229005 0 -0.09090395688747531 -0.04685199473802476 0 -0.088987956408370358 -0.040948680311059124 0 -0.085259611369360888 -0.057313398988839928 0 -0.084223524912023298 -0.056092296636910774 0 -0.08575897231264025 -0.056642944982917096 0 -0.08575897231264025 -0.056642944982917096 0 -0.086575211942747782 -0.056830722003009301 0 -0.086078212754034586 -0.057646775374107541 0 -0.08575897231264025 -0.056642944982917096 0 -0.086575211942747782 -0.056830722003009301 0 -0.086468696412906082 -0.054946320611229005 0 -0.074328053766460594 -0.042114368897284205 0 -0.088987956408370358 -0.040948680311059124 0 -0.095705358245469149 -0.037501200460081326 0 -0.094078120175130564 -0.034325346639548039 0 -0.096036543351147863 -0.035298349303744703 0 -0.086575211942747782 -0.056830722003009301 0 -0.087549517709481633 -0.05707011465839712 0 -0.086468696412906082 -0.054946320611229005 0 -0.094078120175130564 -0.034325346639548039 0 -0.096701374514088639 -0.034225597703008849 0 -0.096036543351147863 -0.035298349303744703 0 -0.088987956408370358 -0.040948680311059124 0 -0.095461159599870352 -0.036521344911374237 0 -0.099150966854560291 -0.031952101410419709 0 -0.099197343570343294 -0.031843482662781038 0 -0.099265012278054676 -0.031792689127578294 0 -0.088987956408370358 -0.040948680311059124 0 -0.089122479977176719 -0.040556256462362716 0 -0.099197343570343294 -0.031843482662781038 0 -0.099123114220139766 -0.031918705974611029 0 -0.099176289345065352 -0.031788348245982839 0 -0.099150966854560291 -0.031952101410419709 0 -0.099197343570343294 -0.031843482662781038 0 -0.099123114220139766 -0.031918705974611029 0 -0.0968280830569999 -0.033053235905361009 0 -0.097915233995861869 -0.034155113116555079 0 -0.099157296860285682 -0.032041371228429552 0 -0.094078120175130564 -0.034325346639548039 0 -0.0968280830569999 -0.033053235905361009 0 -0.096701374514088639 -0.034225597703008849 0 -0.096701374514088639 -0.034225597703008849 0 -0.097915233995861869 -0.034155113116555079 0 -0.096036543351147863 -0.035298349303744703 0 -0.0968280830569999 -0.033053235905361009 0 -0.096701374514088639 -0.034225597703008849 0 -0.097915233995861869 -0.034155113116555079 0 0.001930452278074445 -0.032802496914176173 0 -0.0021698753937238143 -0.026836187279315846 0 -0.0016798820548356577 -0.030912332667037884 0 -0.074328053766460594 -0.042114368897284205 0 -0.060889304731145615 -0.035879122316325451 0 -0.0021698753937238143 -0.026836187279315846 0 -0.0016798820548356577 -0.030912332667037884 0 -0.0035431639604911786 -0.029003123961942615 0 -0.095705358245469149 -0.037501200460081326 0 -0.097915233995861869 -0.034155113116555079 0 -0.096036543351147863 -0.035298349303744703 0 0.001930452278074445 -0.032802496914176173 0 -0.0016798820548356577 -0.030912332667037884 0 -0.00064936290769364378 -0.032903136871569698 0 -0.0016798820548356577 -0.030912332667037884 0 -0.0027084765569228824 -0.033265776744366551 0 -0.00064936290769364378 -0.032903136871569698 0 -0.0027084765569228824 -0.033265776744366551 0 -0.0013505588414908136 -0.034955245002594906 0 -0.0036975518086451663 -0.036430954070097346 0 0.001930452278074445 -0.032802496914176173 0 -0.0013505588414908136 -0.034955245002594906 0 -0.0012507569336292182 -0.039387401866682499 0 -0.087526796359314721 -0.057088834923614287 0 -0.087370623450286747 -0.058546704678210194 0 -0.088597053550148616 -0.059529046179216373 0 -0.074328053766460594 -0.042114368897284205 0 -0.057948430735180849 -0.045241409026197985 0 -0.0027084765569228824 -0.033265776744366551 0 -0.00064936290769364378 -0.032903136871569698 0 -0.0013505588414908136 -0.034955245002594906 0 -0.0013505588414908136 -0.034955245002594906 0 -0.0012507569336292182 -0.039387401866682499 0 -0.0036975518086451663 -0.036430954070097346 0 0.001930452278074445 -0.032802496914176173 0 -0.00064936290769364378 -0.032903136871569698 0 -0.0013505588414908136 -0.034955245002594906 0 -0.074328053766460594 -0.042114368897284205 0 -0.074446834601716652 -0.042918872921765418 0 -0.086575211942747782 -0.056830722003009301 0 -0.087549517709481633 -0.05707011465839712 0 -0.08701985176901951 -0.057836244109879531 0 -0.087526796359314721 -0.057088834923614287 0 -0.08701985176901951 -0.057836244109879531 0 -0.087370623450286747 -0.058546704678210194 0 -0.086575211942747782 -0.056830722003009301 0 -0.08701985176901951 -0.057836244109879531 0 -0.086078212754034586 -0.057646775374107541 0 -0.08701985176901951 -0.057836244109879531 0 -0.086078212754034586 -0.057646775374107541 0 -0.086333320824152057 -0.058684661635222145 0 -0.08701985176901951 -0.057836244109879531 0 -0.086333320824152057 -0.058684661635222145 0 -0.087370623450286747 -0.058546704678210194 0 -0.086333320824152057 -0.058684661635222145 0 -0.087370623450286747 -0.058546704678210194 0 -0.087325120441436893 -0.059529806531510431 0 -0.0855231622316215 -0.059154757223435876 0 -0.086333320824152057 -0.058684661635222145 0 -0.086431102887966738 -0.059450689568693045 0 -0.086333320824152057 -0.058684661635222145 0 -0.087325120441436893 -0.059529806531510431 0 -0.086431102887966738 -0.059450689568693045 0 -0.087012274939841039 -0.06038608732359034 0 -0.085784858271412953 -0.059897282291160148 0 -0.086431102887966738 -0.059450689568693045 0 -0.088206472641606734 -0.060405333546537418 0 -0.087012274939841039 -0.06038608732359034 0 -0.087325120441436893 -0.059529806531510431 0 -0.087012274939841039 -0.06038608732359034 0 -0.087325120441436893 -0.059529806531510431 0 -0.086431102887966738 -0.059450689568693045 0 -0.088206472641606734 -0.060405333546537418 0 -0.087325120441436893 -0.059529806531510431 0 -0.088597053550148616 -0.059529046179216373 0 -0.087370623450286747 -0.058546704678210194 0 -0.087325120441436893 -0.059529806531510431 0 -0.088597053550148616 -0.059529046179216373 0 -0.0012507569336292182 -0.039387401866682499 0 -0.0058258407090202927 -0.038632585297837731 0 -0.0062745361342775958 -0.042149817092287323 0 -0.0012507569336292182 -0.039387401866682499 0 -0.0058258407090202927 -0.038632585297837731 0 -0.0036975518086451663 -0.036430954070097346 0 -0.0058258407090202927 -0.038632585297837731 0 -0.0096324744356110319 -0.039851359883251912 0 -0.0077259642207192693 -0.035077684968504844 0 -0.0058258407090202927 -0.038632585297837731 0 -0.0062745361342775958 -0.042149817092287323 0 -0.0096324744356110319 -0.039851359883251912 0 -0.0077259642207192693 -0.035077684968504844 0 -0.011247913037612573 -0.032609124940696253 0 -0.013526558405500475 -0.036629673760011278 0 -0.0096324744356110319 -0.039851359883251912 0 -0.0077259642207192693 -0.035077684968504844 0 -0.013526558405500475 -0.036629673760011278 0 -0.0077259642207192693 -0.035077684968504844 0 -0.005197139005135889 -0.03337036317402324 0 -0.0078131357341251328 -0.030678601543403797 0 -0.0077259642207192693 -0.035077684968504844 0 -0.005197139005135889 -0.03337036317402324 0 -0.0036975518086451663 -0.036430954070097346 0 -0.0058258407090202927 -0.038632585297837731 0 -0.0077259642207192693 -0.035077684968504844 0 -0.0036975518086451663 -0.036430954070097346 0 -0.0027084765569228824 -0.033265776744366551 0 -0.005197139005135889 -0.03337036317402324 0 -0.0036975518086451663 -0.036430954070097346 0 -0.0016798820548356577 -0.030912332667037884 0 -0.0027084765569228824 -0.033265776744366551 0 -0.0039962226095228079 -0.031125351593366973 0 -0.0027084765569228824 -0.033265776744366551 0 -0.005197139005135889 -0.03337036317402324 0 -0.0039962226095228079 -0.031125351593366973 0 -0.005197139005135889 -0.03337036317402324 0 -0.0039962226095228079 -0.031125351593366973 0 -0.0078131357341251328 -0.030678601543403797 0 -0.0054015692829187511 -0.029031724292013207 0 -0.0071850829750071321 -0.027410662382697747 0 -0.0078131357341251328 -0.030678601543403797 0 -0.0039962226095228079 -0.031125351593366973 0 -0.0054015692829187511 -0.029031724292013207 0 -0.0078131357341251328 -0.030678601543403797 0 -0.0016798820548356577 -0.030912332667037884 0 -0.0039962226095228079 -0.031125351593366973 0 -0.0035431639604911786 -0.029003123961942615 0 -0.0039962226095228079 -0.031125351593366973 0 -0.0054015692829187511 -0.029031724292013207 0 -0.0035431639604911786 -0.029003123961942615 0 -0.0054015692829187511 -0.029031724292013207 0 -0.0035431639604911786 -0.029003123961942615 0 -0.0048989436595530548 -0.02749993813895027 0 -0.0021698753937238143 -0.026836187279315846 0 -0.0061766115076141324 -0.025223120463393173 0 -0.0063707336722347071 -0.021023825011275907 0 -0.060889304731145615 -0.035879122316325451 0 -0.055553625858733344 -0.029000819313898866 0 -0.0021698753937238143 -0.026836187279315846 0 -0.0048989436595530548 -0.02749993813895027 0 -0.0061766115076141324 -0.025223120463393173 0 -0.0021698753937238143 -0.026836187279315846 0 -0.0035431639604911786 -0.029003123961942615 0 -0.0048989436595530548 -0.02749993813895027 0 -0.0048989436595530548 -0.02749993813895027 0 -0.0071850829750071321 -0.027410662382697747 0 -0.0061766115076141324 -0.025223120463393173 0 -0.0071850829750071321 -0.027410662382697747 0 -0.0061766115076141324 -0.025223120463393173 0 -0.008786093920376558 -0.025739583018356084 0 -0.0054015692829187511 -0.029031724292013207 0 -0.0048989436595530548 -0.02749993813895027 0 -0.0071850829750071321 -0.027410662382697747 0 -0.011473161271906158 -0.025536891666732672 0 -0.008786093920376558 -0.025739583018356084 0 -0.0094014644868095874 -0.023081171482754903 0 -0.0061766115076141324 -0.025223120463393173 0 -0.008786093920376558 -0.025739583018356084 0 -0.0094014644868095874 -0.023081171482754903 0 -0.0071850829750071321 -0.027410662382697747 0 -0.008786093920376558 -0.025739583018356084 0 -0.0096441498079196247 -0.027664847757190948 0 -0.011473161271906158 -0.025536891666732672 0 -0.0096441498079196247 -0.027664847757190948 0 -0.012091990043453554 -0.029208575729017649 0 -0.011473161271906158 -0.025536891666732672 0 -0.008786093920376558 -0.025739583018356084 0 -0.0096441498079196247 -0.027664847757190948 0 -0.0096441498079196247 -0.027664847757190948 0 -0.0078131357341251328 -0.030678601543403797 0 -0.012091990043453554 -0.029208575729017649 0 -0.0071850829750071321 -0.027410662382697747 0 -0.0096441498079196247 -0.027664847757190948 0 -0.0078131357341251328 -0.030678601543403797 0 -0.0077259642207192693 -0.035077684968504844 0 -0.0078131357341251328 -0.030678601543403797 0 -0.011247913037612573 -0.032609124940696253 0 -0.0078131357341251328 -0.030678601543403797 0 -0.011247913037612573 -0.032609124940696253 0 -0.012091990043453554 -0.029208575729017649 0 -0.015691400375227513 -0.031533582119623225 0 -0.012091990043453554 -0.029208575729017649 0 -0.014897782824075195 -0.026467894656297453 0 -0.011247913037612573 -0.032609124940696253 0 -0.015691400375227513 -0.031533582119623225 0 -0.012091990043453554 -0.029208575729017649 0 -0.011473161271906158 -0.025536891666732672 0 -0.012091990043453554 -0.029208575729017649 0 -0.014897782824075195 -0.026467894656297453 0 -0.011473161271906158 -0.025536891666732672 0 -0.014897782824075195 -0.026467894656297453 0 -0.013716532397552553 -0.022308040927986512 0 -0.018988173407069039 -0.027524915390995039 0 -0.019915093232948548 -0.022501604721139934 0 -0.023362425172097637 -0.026206062255146882 0 -0.014897782824075195 -0.026467894656297453 0 -0.018988173407069039 -0.027524915390995039 0 -0.019915093232948548 -0.022501604721139934 0 -0.015691400375227513 -0.031533582119623225 0 -0.018988173407069039 -0.027524915390995039 0 -0.020930047971290652 -0.03098709748378168 0 -0.015691400375227513 -0.031533582119623225 0 -0.014897782824075195 -0.026467894656297453 0 -0.018988173407069039 -0.027524915390995039 0 -0.015691400375227513 -0.031533582119623225 0 -0.01869850923211968 -0.035433590452823203 0 -0.020930047971290652 -0.03098709748378168 0 -0.011247913037612573 -0.032609124940696253 0 -0.015691400375227513 -0.031533582119623225 0 -0.013526558405500475 -0.036629673760011278 0 -0.015691400375227513 -0.031533582119623225 0 -0.01869850923211968 -0.035433590452823203 0 -0.013526558405500475 -0.036629673760011278 0 -0.013836019966369077 -0.042406553085323637 0 -0.013526558405500475 -0.036629673760011278 0 -0.017687766017600012 -0.039978772218166696 0 -0.013836019966369077 -0.042406553085323637 0 -0.0096324744356110319 -0.039851359883251912 0 -0.013526558405500475 -0.036629673760011278 0 -0.01869850923211968 -0.035433590452823203 0 -0.013526558405500475 -0.036629673760011278 0 -0.017687766017600012 -0.039978772218166696 0 -0.01869850923211968 -0.035433590452823203 0 -0.017687766017600012 -0.039978772218166696 0 -0.021839895901447384 -0.040527202229414631 0 -0.018331616667315198 -0.044471459401052453 0 -0.017687766017600012 -0.039978772218166696 0 -0.021839895901447384 -0.040527202229414631 0 -0.090110660774163229 -0.057526594654278 0 -0.090672249384113557 -0.056594777660903255 0 -0.089832889987358555 -0.055923433424624976 0 -0.090110660774163229 -0.057526594654278 0 -0.089832889987358555 -0.055923433424624976 0 -0.088323555740287843 -0.056480695923854449 0 -0.088374842810259049 -0.059768831773563694 0 -0.085957291412262216 -0.062082771294699954 0 -0.090110660774163229 -0.057526594654278 0 -0.091302920706933424 -0.056755152010432949 0 -0.090672249384113557 -0.056594777660903255 0 -0.090110660774163229 -0.057526594654278 0 -0.091302920706933424 -0.056755152010432949 0 -0.091838446394354817 -0.0568462686330675 0 -0.091302920706933424 -0.056755152010432949 0 -0.090672249384113557 -0.056594777660903255 0 -0.091065274528985274 -0.056112064241407002 0 -0.091302920706933424 -0.056755152010432949 0 -0.091065274528985274 -0.056112064241407002 0 -0.09172406742032306 -0.056655988312780764 0 -0.091065274528985274 -0.056112064241407002 0 -0.091485892292537618 -0.055642740909677399 0 -0.09172406742032306 -0.056655988312780764 0 -0.091065274528985274 -0.056112064241407002 0 -0.091485892292537618 -0.055642740909677399 0 -0.090553614510737443 -0.054554030613912854 0 -0.089832889987358555 -0.055923433424624976 0 -0.089086305088465823 -0.054215773755778823 0 -0.090553614510737443 -0.054554030613912854 0 -0.089832889987358555 -0.055923433424624976 0 -0.089086305088465823 -0.054215773755778823 0 -0.088032148051301162 -0.055149024967360287 0 -0.091065274528985274 -0.056112064241407002 0 -0.089832889987358555 -0.055923433424624976 0 -0.090553614510737443 -0.054554030613912854 0 -0.090672249384113557 -0.056594777660903255 0 -0.091065274528985274 -0.056112064241407002 0 -0.089832889987358555 -0.055923433424624976 0 -0.089086305088465823 -0.054215773755778823 0 -0.088032148051301162 -0.055149024967360287 0 -0.087281473795196157 -0.052413056528557961 0 -0.088032148051301162 -0.055149024967360287 0 -0.086611069352823547 -0.055028798821226257 0 -0.087281473795196157 -0.052413056528557961 0 -0.089832889987358555 -0.055923433424624976 0 -0.088032148051301162 -0.055149024967360287 0 -0.088323555740287843 -0.056480695923854449 0 -0.088032148051301162 -0.055149024967360287 0 -0.086611069352823547 -0.055028798821226257 0 -0.087038540685642485 -0.056265887479417138 0 -0.084999718671515623 -0.054410797243445864 0 -0.086611069352823547 -0.055028798821226257 0 -0.087281473795196157 -0.052413056528557961 0 -0.084999718671515623 -0.054410797243445864 0 -0.086611069352823547 -0.055028798821226257 0 -0.085619055722932449 -0.057007610137150236 0 -0.084999718671515623 -0.054410797243445864 0 -0.085619055722932449 -0.057007610137150236 0 -0.084999970637956626 -0.058917131135825078 0 -0.085619055722932449 -0.057007610137150236 0 -0.086348959911439496 -0.057674786995003204 0 -0.08587163213829084 -0.058648095753112146 0 -0.086611069352823547 -0.055028798821226257 0 -0.085619055722932449 -0.057007610137150236 0 -0.087038540685642485 -0.056265887479417138 0 -0.085619055722932449 -0.057007610137150236 0 -0.087038540685642485 -0.056265887479417138 0 -0.086348959911439496 -0.057674786995003204 0 -0.088374842810259049 -0.059768831773563694 0 -0.087547762793855746 -0.059163756677901157 0 -0.090110660774163229 -0.057526594654278 0 -0.086348959911439496 -0.057674786995003204 0 -0.088323555740287843 -0.056480695923854449 0 -0.087038540685642485 -0.056265887479417138 0 -0.086348959911439496 -0.057674786995003204 0 -0.088323555740287843 -0.056480695923854449 0 -0.088032148051301162 -0.055149024967360287 0 -0.087038540685642485 -0.056265887479417138 0 -0.088323555740287843 -0.056480695923854449 0 -0.086348959911439496 -0.057674786995003204 0 -0.087655331952497806 -0.058390680330039489 0 -0.086800212929508971 -0.058621406484079791 0 -0.088455525872159227 -0.057873696701905022 0 -0.086348959911439496 -0.057674786995003204 0 -0.087655331952497806 -0.058390680330039489 0 -0.086800212929508971 -0.058621406484079791 0 -0.086552325302372946 -0.059106824785934216 0 -0.087558316491029312 -0.059193576408813155 0 -0.087655331952497806 -0.058390680330039489 0 -0.086800212929508971 -0.058621406484079791 0 -0.087558316491029312 -0.059193576408813155 0 -0.084336336540684453 -0.060040477426189932 0 -0.084216786354611897 -0.061353736352015353 0 -0.085619055722932449 -0.057007610137150236 0 -0.084999970637956626 -0.058917131135825078 0 -0.085822624747201343 -0.060026223425449866 0 -0.084999970637956626 -0.058917131135825078 0 -0.085822624747201343 -0.060026223425449866 0 -0.085000015030740533 -0.063424367213951269 0 -0.086348959911439496 -0.057674786995003204 0 -0.086800212929508971 -0.058621406484079791 0 -0.08587163213829084 -0.058648095753112146 0 -0.086800212929508971 -0.058621406484079791 0 -0.08587163213829084 -0.058648095753112146 0 -0.086552325302372946 -0.059106824785934216 0 -0.08587163213829084 -0.058648095753112146 0 -0.086552325302372946 -0.059106824785934216 0 -0.085961700661524365 -0.059950446222805022 0 -0.084216786354611897 -0.061353736352015353 0 -0.083781499717352922 -0.065018479117366898 0 -0.086552325302372946 -0.059106824785934216 0 -0.085961700661524365 -0.059950446222805022 0 -0.087558316491029312 -0.059193576408813155 0 -0.085822624747201343 -0.060026223425449866 0 -0.085973771305455846 -0.062996294394462748 0 -0.085000015030740533 -0.063424367213951269 0 -0.083781499717352922 -0.065018479117366898 0 -0.084996899349578978 -0.063433903539775294 0 -0.081122326976063933 -0.077297901372247901 0 -0.082834422636448551 -0.078230870985549067 0 -0.080492489434055403 -0.078667731494191762 0 -0.083781499717352922 -0.065018479117366898 0 -0.083439319300658524 -0.066019036121121935 0 -0.081122326976063933 -0.077297901372247901 0 -0.080492489434055403 -0.078667731494191762 0 -0.079094245550697634 -0.077376977554622972 0 -0.079094245550697634 -0.077376977554622972 0 -0.078797924426483659 -0.078065645681169596 0 -0.077473499743781163 -0.077531800825685601 0 -0.080492489434055403 -0.078667731494191762 0 -0.079094245550697634 -0.077376977554622972 0 -0.078797924426483659 -0.078065645681169596 0 -0.080492489434055403 -0.078667731494191762 0 -0.078797924426483659 -0.078065645681169596 0 -0.078090548866491388 -0.078790925265771361 0 -0.083439319300658524 -0.066019036121121935 0 -0.083621063842770738 -0.065302955024523282 0 -0.087655331952497806 -0.058390680330039489 0 -0.087558316491029312 -0.059193576408813155 0 -0.088994224346995693 -0.058501245114092895 0 -0.088455525872159227 -0.057873696701905022 0 -0.087655331952497806 -0.058390680330039489 0 -0.088994224346995693 -0.058501245114092895 0 -0.083621063842770738 -0.065302955024523282 0 -0.085957291412262216 -0.062082771294699954 0 -0.078090548866491388 -0.078790925265771361 0 -0.077473499743781163 -0.077531800825685601 0 -0.075229104015069145 -0.078802227002215647 0 -0.088455525872159227 -0.057873696701905022 0 -0.088994224346995693 -0.058501245114092895 0 -0.090319399570160039 -0.057925579826092546 0 -0.077621885196555551 -0.076538352503126433 0 -0.077473499743781163 -0.077531800825685601 0 -0.075995465457169412 -0.076660654447288326 0 -0.077621885196555551 -0.076538352503126433 0 -0.079094245550697634 -0.077376977554622972 0 -0.077473499743781163 -0.077531800825685601 0 -0.078797924426483659 -0.078065645681169596 0 -0.078090548866491388 -0.078790925265771361 0 -0.077473499743781163 -0.077531800825685601 0 -0.076183893651859735 -0.076234063986109088 0 -0.075995465457169412 -0.076660654447288326 0 -0.0742175390124169 -0.076344768688587639 0 -0.071733113380059207 -0.080679674282831321 0 -0.071621711529525525 -0.079501516719098553 0 -0.075972112209029108 -0.075935070624838605 0 -0.0742175390124169 -0.076344768688587639 0 -0.071318474004910204 -0.076131179162853752 0 -0.073126079028264471 -0.077141123419231211 0 -0.071452647044000075 -0.076521616759671243 0 -0.075229104015069145 -0.078802227002215647 0 -0.0742175390124169 -0.076344768688587639 0 -0.071318474004910204 -0.076131179162853752 0 -0.073126079028264471 -0.077141123419231211 0 -0.071318474004910204 -0.076131179162853752 0 -0.073126079028264471 -0.077141123419231211 0 -0.071452647044000075 -0.076521616759671243 0 -0.077473499743781163 -0.077531800825685601 0 -0.075995465457169412 -0.076660654447288326 0 -0.075229104015069145 -0.078802227002215647 0 -0.075995465457169412 -0.076660654447288326 0 -0.0742175390124169 -0.076344768688587639 0 -0.075229104015069145 -0.078802227002215647 0 -0.0742175390124169 -0.076344768688587639 0 -0.073126079028264471 -0.077141123419231211 0 -0.075229104015069145 -0.078802227002215647 0 -0.072822044461544402 -0.079307846009165822 0 -0.070144582355066945 -0.079296024458687997 0 -0.071789671343329531 -0.075523493297337971 0 -0.072822044461544402 -0.079307846009165822 0 -0.075206536210820463 -0.074498163141941381 0 -0.071789671343329531 -0.075523493297337971 0 -0.066429969249961626 -0.082520569407550037 0 -0.071318474004910204 -0.076131179162853752 0 -0.070144582355066945 -0.079296024458687997 0 -0.071318474004910204 -0.076131179162853752 0 -0.070144582355066945 -0.079296024458687997 0 -0.071789671343329531 -0.075523493297337971 0 -0.071318474004910204 -0.076131179162853752 0 -0.071536352699912889 -0.074903334965299953 0 -0.071789671343329531 -0.075523493297337971 0 -0.071536352699912889 -0.074903334965299953 0 -0.072836523056477503 -0.07079211986519901 0 -0.071452647044000075 -0.076521616759671243 0 -0.071318474004910204 -0.076131179162853752 0 -0.071536352699912889 -0.074903334965299953 0 -0.071452647044000075 -0.076521616759671243 0 -0.075206536210820463 -0.074498163141941381 0 -0.071789671343329531 -0.075523493297337971 0 -0.072836523056477503 -0.07079211986519901 0 -0.071536352699912889 -0.074903334965299953 0 -0.071789671343329531 -0.075523493297337971 0 -0.072836523056477503 -0.07079211986519901 0 -0.083670906055488964 -0.060835278094092331 0 -0.084819354071521094 -0.059176524293970689 0 -0.085556215647248912 -0.059858153394958112 0 -0.084819354071521094 -0.059176524293970689 0 -0.08718348819460818 -0.058565241937044814 0 -0.085556215647248912 -0.059858153394958112 0 -0.084819354071521094 -0.059176524293970689 0 -0.08718348819460818 -0.058565241937044814 0 -0.089303300455412113 -0.056349204534946115 0 -0.082718524728342124 -0.064431592063854265 0 -0.083061177975274986 -0.063878273773764316 0 -0.08718348819460818 -0.058565241937044814 0 -0.088743941529336859 -0.058337502165274925 0 -0.089941191602157286 -0.057315107499308723 0 -0.08718348819460818 -0.058565241937044814 0 -0.089303300455412113 -0.056349204534946115 0 -0.089941191602157286 -0.057315107499308723 0 -0.088743941529336859 -0.058337502165274925 0 -0.087282465941225545 -0.059557893974245088 0 -0.089529926713075123 -0.058480335304551941 0 -0.087282465941225545 -0.059557893974245088 0 -0.089529926713075123 -0.058480335304551941 0 -0.088993764539160358 -0.059622576870583657 0 -0.08718348819460818 -0.058565241937044814 0 -0.088743941529336859 -0.058337502165274925 0 -0.087282465941225545 -0.059557893974245088 0 -0.08718348819460818 -0.058565241937044814 0 -0.087282465941225545 -0.059557893974245088 0 -0.085556215647248912 -0.059858153394958112 0 -0.087282465941225545 -0.059557893974245088 0 -0.085556215647248912 -0.059858153394958112 0 -0.084816987457911025 -0.061162691213908098 0 -0.083670906055488964 -0.060835278094092331 0 -0.085556215647248912 -0.059858153394958112 0 -0.084816987457911025 -0.061162691213908098 0 -0.091838446394354817 -0.0568462686330675 0 -0.091766734844860115 -0.057175567343886437 0 -0.09172406742032306 -0.056655988312780764 0 -0.091302920706933424 -0.056755152010432949 0 -0.091838446394354817 -0.0568462686330675 0 -0.09172406742032306 -0.056655988312780764 0 -0.091838446394354817 -0.0568462686330675 0 -0.090807579455262688 -0.057524579250212808 0 -0.091766734844860115 -0.057175567343886437 0 -0.085957291412262216 -0.062082771294699954 0 -0.088724575524251989 -0.0603449816560261 0 -0.083061177975274986 -0.063878273773764316 0 -0.085957291412262216 -0.062082771294699954 0 -0.091838446394354817 -0.0568462686330675 0 -0.089941191602157286 -0.057315107499308723 0 -0.090807579455262688 -0.057524579250212808 0 -0.089303300455412113 -0.056349204534946115 0 -0.092178633913407013 -0.056348362861034042 0 -0.089941191602157286 -0.057315107499308723 0 -0.088743941529336859 -0.058337502165274925 0 -0.089941191602157286 -0.057315107499308723 0 -0.090807579455262688 -0.057524579250212808 0 -0.090807579455262688 -0.057524579250212808 0 -0.09112134318110772 -0.057925294591541381 0 -0.091766734844860115 -0.057175567343886437 0 -0.088743941529336859 -0.058337502165274925 0 -0.090807579455262688 -0.057524579250212808 0 -0.089529926713075123 -0.058480335304551941 0 -0.090807579455262688 -0.057524579250212808 0 -0.089529926713075123 -0.058480335304551941 0 -0.09112134318110772 -0.057925294591541381 0 -0.089529926713075123 -0.058480335304551941 0 -0.09112134318110772 -0.057925294591541381 0 -0.088993764539160358 -0.059622576870583657 0 -0.09112134318110772 -0.057925294591541381 0 -0.091766734844860115 -0.057175567343886437 0 -0.092336814174398651 -0.057288036538662719 0 -0.091766734844860115 -0.057175567343886437 0 -0.092229133719693199 -0.056294212722720637 0 -0.092336814174398651 -0.057288036538662719 0 -0.091766734844860115 -0.057175567343886437 0 -0.09172406742032306 -0.056655988312780764 0 -0.092229133719693199 -0.056294212722720637 0 -0.091485892292537618 -0.055642740909677399 0 -0.09172406742032306 -0.056655988312780764 0 -0.092229133719693199 -0.056294212722720637 0 -0.092229133719693199 -0.056294212722720637 0 -0.092589283026912411 -0.054235496076332594 0 -0.091539206180413973 -0.054227439541332183 0 -0.092229133719693199 -0.056294212722720637 0 -0.092589283026912411 -0.054235496076332594 0 -0.093364850641024386 -0.056649263168130015 0 -0.092589283026912411 -0.054235496076332594 0 -0.093364850641024386 -0.056649263168130015 0 -0.094488737225958602 -0.052355316875521397 0 -0.092229133719693199 -0.056294212722720637 0 -0.093364850641024386 -0.056649263168130015 0 -0.092336814174398651 -0.057288036538662719 0 -0.09112134318110772 -0.057925294591541381 0 -0.092336814174398651 -0.057288036538662719 0 -0.091603745694474978 -0.058512699441232392 0 -0.093364850641024386 -0.056649263168130015 0 -0.092336814174398651 -0.057288036538662719 0 -0.091603745694474978 -0.058512699441232392 0 -0.09112134318110772 -0.057925294591541381 0 -0.091603745694474978 -0.058512699441232392 0 -0.088993764539160358 -0.059622576870583657 0 -0.091603745694474978 -0.058512699441232392 0 -0.088993764539160358 -0.059622576870583657 0 -0.089475862710442333 -0.060761889864537469 0 -0.091603745694474978 -0.058512699441232392 0 -0.09155760755674984 -0.061049602861352865 0 -0.089475862710442333 -0.060761889864537469 0 -0.093364850641024386 -0.056649263168130015 0 -0.096837753718105865 -0.05499281286940072 0 -0.094488737225958602 -0.052355316875521397 0 -0.090921627737345911 -0.053172460927073791 0 -0.090848092408554584 -0.053035854695275469 0 -0.093364850641024386 -0.056649263168130015 0 -0.091603745694474978 -0.058512699441232392 0 -0.091729116102204675 -0.058922374133392234 0 -0.090855025301602971 -0.053434415380772669 0 -0.090848092408554584 -0.053035854695275469 0 -0.090848092408554584 -0.053035854695275469 0 -0.090107577547705528 -0.05310271030876447 0 -0.091693938280846474 -0.050637213279301631 0 -0.091698015510622538 -0.050505836136575964 0 -0.091812242203853825 -0.050572547495523937 0 -0.096837753718105865 -0.05499281286940072 0 -0.097119723703950306 -0.050299750264344086 0 -0.094488737225958602 -0.052355316875521397 0 -0.090848092408554584 -0.053035854695275469 0 -0.09182018270632597 -0.049862588424705173 0 -0.097119723703950306 -0.050299750264344086 0 -0.094488737225958602 -0.052355316875521397 0 -0.094400783097683003 -0.048656687778098839 0 -0.094488737225958602 -0.052355316875521397 0 -0.094400783097683003 -0.048656687778098839 0 -0.091913213330406571 -0.05093907699899157 0 -0.092589283026912411 -0.054235496076332594 0 -0.094488737225958602 -0.052355316875521397 0 -0.091913213330406571 -0.05093907699899157 0 -0.087282465941225545 -0.059557893974245088 0 -0.084816987457911025 -0.061162691213908098 0 -0.08668904083886908 -0.061076547103133483 0 -0.084793065084059302 -0.062160534376224909 0 -0.085489075166471348 -0.062062394257456133 0 -0.084816987457911025 -0.061162691213908098 0 -0.085489075166471348 -0.062062394257456133 0 -0.08668904083886908 -0.061076547103133483 0 -0.086467188106708878 -0.062391411584614823 0 -0.085489075166471348 -0.062062394257456133 0 -0.084816987457911025 -0.061162691213908098 0 -0.08668904083886908 -0.061076547103133483 0 -0.087925268931181175 -0.061305740093542629 0 -0.08668904083886908 -0.061076547103133483 0 -0.088993764539160358 -0.059622576870583657 0 -0.087925268931181175 -0.061305740093542629 0 -0.08668904083886908 -0.061076547103133483 0 -0.086467188106708878 -0.062391411584614823 0 -0.087282465941225545 -0.059557893974245088 0 -0.08668904083886908 -0.061076547103133483 0 -0.088993764539160358 -0.059622576870583657 0 -0.087925268931181175 -0.061305740093542629 0 -0.089475862710442333 -0.060761889864537469 0 -0.087867430866458845 -0.062940669027199483 0 -0.087925268931181175 -0.061305740093542629 0 -0.088993764539160358 -0.059622576870583657 0 -0.089475862710442333 -0.060761889864537469 0 -0.09155760755674984 -0.061049602861352865 0 -0.089475862710442333 -0.060761889864537469 0 -0.087867430866458845 -0.062940669027199483 0 -0.090107577547705528 -0.05310271030876447 0 -0.090754999083955026 -0.05158376644659933 0 -0.091812242203853825 -0.050572547495523937 0 -0.091926851636729839 -0.050512404558352104 0 -0.091815992572852931 -0.050445819145471249 0 -0.091698015510622538 -0.050505836136575964 0 -0.091812242203853825 -0.050572547495523937 0 -0.091815992572852931 -0.050445819145471249 0 -0.087925268931181175 -0.061305740093542629 0 -0.087867430866458845 -0.062940669027199483 0 -0.086467188106708878 -0.062391411584614823 0 -0.087867430866458845 -0.062940669027199483 0 -0.086467188106708878 -0.062391411584614823 0 -0.085590492979324001 -0.063626634731066195 0 -0.085489075166471348 -0.062062394257456133 0 -0.086467188106708878 -0.062391411584614823 0 -0.085590492979324001 -0.063626634731066195 0 -0.084793065084059302 -0.062160534376224909 0 -0.085489075166471348 -0.062062394257456133 0 -0.085590492979324001 -0.063626634731066195 0 -0.097121848983106579 -0.040910138799064487 0 -0.095912279957820298 -0.040201386473576683 0 -0.097327891326053226 -0.039075635128852114 0 -0.090754999083955026 -0.05158376644659933 0 -0.091846708393402116 -0.048502507831383074 0 -0.091846708393402116 -0.048502507831383074 0 -0.092231667368488451 -0.046125794833176477 0 -0.095912279957820298 -0.040201386473576683 0 -0.095719207174112544 -0.039105213165719986 0 -0.094752156771092694 -0.039512069397382152 0 -0.095719207174112544 -0.039105213165719986 0 -0.097327891326053226 -0.039075635128852114 0 -0.096109167309636881 -0.038159273861160345 0 -0.095912279957820298 -0.040201386473576683 0 -0.095719207174112544 -0.039105213165719986 0 -0.097327891326053226 -0.039075635128852114 0 -0.095719207174112544 -0.039105213165719986 0 -0.094844020226745596 -0.038038692125731598 0 -0.096109167309636881 -0.038159273861160345 0 -0.094400783097683003 -0.048656687778098839 0 -0.09330800916054835 -0.044185701197910834 0 -0.092564092394958455 -0.047518750531388328 0 -0.094400783097683003 -0.048656687778098839 0 -0.092564092394958455 -0.047518750531388328 0 -0.091913213330406571 -0.05093907699899157 0 -0.097119723703950306 -0.050299750264344086 0 -0.094400783097683003 -0.048656687778098839 0 -0.097233756332894231 -0.046947658559559638 0 -0.091698015510622538 -0.050505836136575964 0 -0.091815992572852931 -0.050445819145471249 0 -0.091701683268990142 -0.050374085071623734 0 -0.09182018270632597 -0.049862588424705173 0 -0.092231667368488451 -0.046125794833176477 0 -0.092231667368488451 -0.046125794833176477 0 -0.093110122827002373 -0.041306917459938336 0 -0.094951287521273992 -0.042447407729215722 0 -0.0920414507667566 -0.040852815615783133 0 -0.095007980687896607 -0.040059403726081529 0 -0.095719207174112544 -0.039105213165719986 0 -0.094752156771092694 -0.039512069397382152 0 -0.094844020226745596 -0.038038692125731598 0 -0.094400783097683003 -0.048656687778098839 0 -0.097233756332894231 -0.046947658559559638 0 -0.09330800916054835 -0.044185701197910834 0 -0.092231667368488451 -0.046125794833176477 0 -0.091567995390266346 -0.043922058673946975 0 -0.09330800916054835 -0.044185701197910834 0 -0.089404995445945004 -0.044583626637041109 0 -0.090607474496877186 -0.047462558699331733 0 -0.09330800916054835 -0.044185701197910834 0 -0.090607474496877186 -0.047462558699331733 0 -0.092564092394958455 -0.047518750531388328 0 -0.09330800916054835 -0.044185701197910834 0 -0.089404995445945004 -0.044583626637041109 0 -0.089594359918345717 -0.040567648146592514 0 -0.090607474496877186 -0.047462558699331733 0 -0.089829678734052079 -0.050270069075847988 0 -0.088579751288232519 -0.047664921383667173 0 -0.089404995445945004 -0.044583626637041109 0 -0.090607474496877186 -0.047462558699331733 0 -0.088579751288232519 -0.047664921383667173 0 -0.090607474496877186 -0.047462558699331733 0 -0.092564092394958455 -0.047518750531388328 0 -0.091913213330406571 -0.05093907699899157 0 -0.091913213330406571 -0.05093907699899157 0 -0.090560630439387849 -0.052455455210630518 0 -0.089829678734052079 -0.050270069075847988 0 -0.091913213330406571 -0.05093907699899157 0 -0.090560630439387849 -0.052455455210630518 0 -0.091539206180413973 -0.054227439541332183 0 -0.090607474496877186 -0.047462558699331733 0 -0.091913213330406571 -0.05093907699899157 0 -0.089829678734052079 -0.050270069075847988 0 -0.092589283026912411 -0.054235496076332594 0 -0.091913213330406571 -0.05093907699899157 0 -0.091539206180413973 -0.054227439541332183 0 -0.089829678734052079 -0.050270069075847988 0 -0.088284000083333966 -0.050158773361341086 0 -0.088579751288232519 -0.047664921383667173 0 -0.089829678734052079 -0.050270069075847988 0 -0.089303939197194426 -0.0524080265284542 0 -0.088284000083333966 -0.050158773361341086 0 -0.090560630439387849 -0.052455455210630518 0 -0.089829678734052079 -0.050270069075847988 0 -0.089303939197194426 -0.0524080265284542 0 -0.090560630439387849 -0.052455455210630518 0 -0.089303939197194426 -0.0524080265284542 0 -0.090553614510737443 -0.054554030613912854 0 -0.089086305088465823 -0.054215773755778823 0 -0.089303939197194426 -0.0524080265284542 0 -0.090553614510737443 -0.054554030613912854 0 -0.091485892292537618 -0.055642740909677399 0 -0.090553614510737443 -0.054554030613912854 0 -0.091539206180413973 -0.054227439541332183 0 -0.091485892292537618 -0.055642740909677399 0 -0.092229133719693199 -0.056294212722720637 0 -0.091539206180413973 -0.054227439541332183 0 -0.090560630439387849 -0.052455455210630518 0 -0.090553614510737443 -0.054554030613912854 0 -0.091539206180413973 -0.054227439541332183 0 -0.084999718671515623 -0.054410797243445864 0 -0.087281473795196157 -0.052413056528557961 0 -0.084999286118360051 -0.049904667742058172 0 -0.089303939197194426 -0.0524080265284542 0 -0.087281473795196157 -0.052413056528557961 0 -0.088284000083333966 -0.050158773361341086 0 -0.089086305088465823 -0.054215773755778823 0 -0.089303939197194426 -0.0524080265284542 0 -0.087281473795196157 -0.052413056528557961 0 -0.087281473795196157 -0.052413056528557961 0 -0.088284000083333966 -0.050158773361341086 0 -0.086495262214453569 -0.047903496054318276 0 -0.087281473795196157 -0.052413056528557961 0 -0.084999286118360051 -0.049904667742058172 0 -0.086495262214453569 -0.047903496054318276 0 -0.084999242667786162 -0.045397646408611554 0 -0.086495262214453569 -0.047903496054318276 0 -0.087105917280101489 -0.045221272968586496 0 -0.084999286118360051 -0.049904667742058172 0 -0.084999242667786162 -0.045397646408611554 0 -0.086495262214453569 -0.047903496054318276 0 -0.086495262214453569 -0.047903496054318276 0 -0.088579751288232519 -0.047664921383667173 0 -0.087105917280101489 -0.045221272968586496 0 -0.088284000083333966 -0.050158773361341086 0 -0.086495262214453569 -0.047903496054318276 0 -0.088579751288232519 -0.047664921383667173 0 -0.089404995445945004 -0.044583626637041109 0 -0.088579751288232519 -0.047664921383667173 0 -0.087105917280101489 -0.045221272968586496 0 -0.089404995445945004 -0.044583626637041109 0 -0.087105917280101489 -0.045221272968586496 0 -0.087661728461184141 -0.042318327585324153 0 -0.084999242667786162 -0.045397646408611554 0 -0.087105917280101489 -0.045221272968586496 0 -0.084999227432089847 -0.040890068010558792 0 -0.087105917280101489 -0.045221272968586496 0 -0.084999227432089847 -0.040890068010558792 0 -0.087661728461184141 -0.042318327585324153 0 -0.084999227432089847 -0.040890068010558792 0 -0.087661728461184141 -0.042318327585324153 0 -0.087817474572951082 -0.038099164747201882 0 -0.087661728461184141 -0.042318327585324153 0 -0.087817474572951082 -0.038099164747201882 0 -0.090973878880735118 -0.038170051884324825 0 -0.084999227432089847 -0.040890068010558792 0 -0.087817474572951082 -0.038099164747201882 0 -0.084999626664544775 -0.036384225579202303 0 -0.0920414507667566 -0.040852815615783133 0 -0.091347189497808276 -0.039210293457029179 0 -0.089594359918345717 -0.040567648146592514 0 -0.091567995390266346 -0.043922058673946975 0 -0.090259167667800386 -0.042662664538355641 0 -0.089404995445945004 -0.044583626637041109 0 -0.087661728461184141 -0.042318327585324153 0 -0.089594359918345717 -0.040567648146592514 0 -0.087661728461184141 -0.042318327585324153 0 -0.089594359918345717 -0.040567648146592514 0 -0.089650524740049239 -0.037952814247921733 0 -0.088865149950316913 -0.039723658824398149 0 -0.090294744578548539 -0.037801230837306299 0 -0.087817474572951082 -0.038099164747201882 0 -0.090973878880735118 -0.038170051884324825 0 -0.090376341805269433 -0.035836775298872782 0 -0.091347189497808276 -0.039210293457029179 0 -0.089594359918345717 -0.040567648146592514 0 -0.089650524740049239 -0.037952814247921733 0 -0.091347189497808276 -0.039210293457029179 0 -0.089650524740049239 -0.037952814247921733 0 -0.092310156016119818 -0.037462564577034903 0 -0.090973878880735118 -0.038170051884324825 0 -0.090376341805269433 -0.035836775298872782 0 -0.093115946856188139 -0.034423231986603152 0 -0.090294744578548539 -0.037801230837306299 0 -0.092356858952758622 -0.03494195282053833 0 -0.090376341805269433 -0.035836775298872782 0 -0.09151381267864532 -0.03394132850078619 0 -0.093115946856188139 -0.034423231986603152 0 -0.089650524740049239 -0.037952814247921733 0 -0.091865306911037323 -0.034315493984554628 0 -0.092310156016119818 -0.037462564577034903 0 -0.090376341805269433 -0.035836775298872782 0 -0.09151381267864532 -0.03394132850078619 0 -0.088244896458196637 -0.035315252502148904 0 -0.090991400209400608 -0.033879432927989513 0 -0.088166155530626331 -0.035058023460353478 0 -0.089650153779185046 -0.032541981858564051 0 -0.091414819082187057 -0.033064990927963861 0 -0.088599916510700566 -0.034571697194824509 0 -0.089650153779185046 -0.032541981858564051 0 -0.091414819082187057 -0.033064990927963861 0 -0.09093220709187079 -0.031679388084835267 0 -0.09151381267864532 -0.03394132850078619 0 -0.093115946856188139 -0.034423231986603152 0 -0.093697279411984344 -0.032480793133500357 0 -0.090991400209400608 -0.033879432927989513 0 -0.092365787913010672 -0.033316026843389523 0 -0.091414819082187057 -0.033064990927963861 0 -0.092113194409733395 -0.032042198474571557 0 -0.093697279411984344 -0.032480793133500357 0 -0.091414819082187057 -0.033064990927963861 0 -0.09093220709187079 -0.031679388084835267 0 -0.092113194409733395 -0.032042198474571557 0 -0.085002979372416354 -0.036381787565441713 0 -0.088166155530626331 -0.035058023460353478 0 -0.084999947517148317 -0.036382435652358984 0 -0.088599916510700566 -0.034571697194824509 0 -0.08761727063923698 -0.032512173111416624 0 -0.087817474572951082 -0.038099164747201882 0 -0.084999626664544775 -0.036384225579202303 0 -0.088244896458196637 -0.035315252502148904 0 -0.087817474572951082 -0.038099164747201882 0 -0.090376341805269433 -0.035836775298872782 0 -0.088244896458196637 -0.035315252502148904 0 -0.089650153779185046 -0.032541981858564051 0 -0.088599916510700566 -0.034571697194824509 0 -0.08761727063923698 -0.032512173111416624 0 -0.089650153779185046 -0.032541981858564051 0 -0.08761727063923698 -0.032512173111416624 0 -0.089390337560210337 -0.030912596615774564 0 -0.084999947517148317 -0.036382435652358984 0 -0.08761727063923698 -0.032512173111416624 0 -0.084999772855659836 -0.031313412913971994 0 -0.08761727063923698 -0.032512173111416624 0 -0.084999772855659836 -0.031313412913971994 0 -0.087437816671491003 -0.029647910981599947 0 -0.084999772855659836 -0.031313412913971994 0 -0.087437816671491003 -0.029647910981599947 0 -0.084999925223328623 -0.026244702940525912 0 -0.088384977233385176 -0.027488335120841929 0 -0.087437816671491003 -0.029647910981599947 0 -0.084999925223328623 -0.026244702940525912 0 -0.088384977233385176 -0.027488335120841929 0 -0.087437816671491003 -0.029647910981599947 0 -0.089491385571173893 -0.029335797350592475 0 -0.087437816671491003 -0.029647910981599947 0 -0.089390337560210337 -0.030912596615774564 0 -0.089491385571173893 -0.029335797350592475 0 -0.08761727063923698 -0.032512173111416624 0 -0.087437816671491003 -0.029647910981599947 0 -0.089390337560210337 -0.030912596615774564 0 -0.089650153779185046 -0.032541981858564051 0 -0.089390337560210337 -0.030912596615774564 0 -0.09093220709187079 -0.031679388084835267 0 -0.089390337560210337 -0.030912596615774564 0 -0.09093220709187079 -0.031679388084835267 0 -0.090818282043056295 -0.030103762323183913 0 -0.089390337560210337 -0.030912596615774564 0 -0.090818282043056295 -0.030103762323183913 0 -0.089491385571173893 -0.029335797350592475 0 -0.092113194409733395 -0.032042198474571557 0 -0.09198676749412818 -0.031029102186092266 0 -0.092798465306437455 -0.031581669044427989 0 -0.09093220709187079 -0.031679388084835267 0 -0.092113194409733395 -0.032042198474571557 0 -0.09198676749412818 -0.031029102186092266 0 -0.090818282043056295 -0.030103762323183913 0 -0.09198676749412818 -0.031029102186092266 0 -0.092166242990592229 -0.030003056283628506 0 -0.09093220709187079 -0.031679388084835267 0 -0.090818282043056295 -0.030103762323183913 0 -0.09198676749412818 -0.031029102186092266 0 -0.09198676749412818 -0.031029102186092266 0 -0.092166242990592229 -0.030003056283628506 0 -0.093419011447191405 -0.030791800605026287 0 -0.092408117912404303 -0.028018856976720102 0 -0.093134168073131907 -0.027541937195056109 0 -0.093757616155927273 -0.028757602306539169 0 -0.091147148280445497 -0.027967474643939283 0 -0.093160610966211532 -0.028548408882100161 0 -0.092166242990592229 -0.030003056283628506 0 -0.091130871180325354 -0.028627635934636641 0 -0.093290989591572268 -0.029438922309721074 0 -0.090818282043056295 -0.030103762323183913 0 -0.092166242990592229 -0.030003056283628506 0 -0.091130871180325354 -0.028627635934636641 0 -0.088384977233385176 -0.027488335120841929 0 -0.089491385571173893 -0.029335797350592475 0 -0.091130871180325354 -0.028627635934636641 0 -0.088305016420913693 -0.027169388996441359 0 -0.091147148280445497 -0.027967474643939283 0 -0.090818282043056295 -0.030103762323183913 0 -0.089491385571173893 -0.029335797350592475 0 -0.091130871180325354 -0.028627635934636641 0 -0.088988932040673596 -0.027349480399800671 0 -0.092408117912404303 -0.028018856976720102 0 -0.091731273580770628 -0.026340070387993238 0 -0.092408117912404303 -0.028018856976720102 0 -0.091731273580770628 -0.026340070387993238 0 -0.093134168073131907 -0.027541937195056109 0 -0.091731273580770628 -0.026340070387993238 0 -0.093134168073131907 -0.027541937195056109 0 -0.093385111944313814 -0.027002229159321194 0 -0.095807115207938484 -0.022981292440070543 0 -0.091793973307565585 -0.022786430763555361 0 -0.093589111532897645 -0.020022299678969076 0 -0.092146751613492242 -0.024360369555503469 0 -0.093124523943191484 -0.023073451475428389 0 -0.091731273580770628 -0.026340070387993238 0 -0.091793973307565585 -0.022786430763555361 0 -0.088352320261585987 -0.023796929551008993 0 -0.091731273580770628 -0.026340070387993238 0 -0.095807115207938484 -0.022981292440070543 0 -0.091793973307565585 -0.022786430763555361 0 -0.088352320261585987 -0.023796929551008993 0 -0.089763185341187435 -0.020850784385879565 0 -0.087278281772057223 -0.020647523826886539 0 -0.091793973307565585 -0.022786430763555361 0 -0.088352320261585987 -0.023796929551008993 0 -0.089763185341187435 -0.020850784385879565 0 -0.088352320261585987 -0.023796929551008993 0 -0.084999907574015696 -0.022290419106810608 0 -0.087278281772057223 -0.020647523826886539 0 -0.088988932040673596 -0.027349480399800671 0 -0.088352320261585987 -0.023796929551008993 0 -0.084999920573725143 -0.026244139995738963 0 -0.088305016420913693 -0.027169388996441359 0 -0.085003600227987697 -0.026244934495308236 0 -0.088352320261585987 -0.023796929551008993 0 -0.084999907574015696 -0.022290419106810608 0 -0.084999920573725143 -0.026244139995738963 0 -0.088988932040673596 -0.027349480399800671 0 -0.091731273580770628 -0.026340070387993238 0 -0.088352320261585987 -0.023796929551008993 0 -0.095825012604473417 -0.027920563150762374 0 -0.094990130523844349 -0.0285286033603619 0 -0.096563414786778004 -0.029399298748496519 0 -0.096847581712321426 -0.02815433112582106 0 -0.095825012604473417 -0.027920563150762374 0 -0.096563414786778004 -0.029399298748496519 0 -0.096847581712321426 -0.02815433112582106 0 -0.096563414786778004 -0.029399298748496519 0 -0.097747554227046091 -0.028897927293475473 0 -0.096847581712321426 -0.02815433112582106 0 -0.096167173735300163 -0.027296216179955535 0 -0.095825012604473417 -0.027920563150762374 0 -0.096847581712321426 -0.02815433112582106 0 -0.097744839892636146 -0.028080881753198408 0 -0.096909125598522661 -0.027243530835184146 0 -0.096847581712321426 -0.02815433112582106 0 -0.096167173735300163 -0.027296216179955535 0 -0.096909125598522661 -0.027243530835184146 0 -0.096167173735300163 -0.027296216179955535 0 -0.095825012604473417 -0.027920563150762374 0 -0.0953616243160718 -0.027191820260000877 0 -0.095825012604473417 -0.027920563150762374 0 -0.0953616243160718 -0.027191820260000877 0 -0.094688409383625785 -0.027514711739413032 0 -0.095825012604473417 -0.027920563150762374 0 -0.094688409383625785 -0.027514711739413032 0 -0.094990130523844349 -0.0285286033603619 0 -0.0953616243160718 -0.027191820260000877 0 -0.094688409383625785 -0.027514711739413032 0 -0.094543734286462955 -0.02660729048919162 0 -0.093385111944313814 -0.027002229159321194 0 -0.094688409383625785 -0.027514711739413032 0 -0.093927666191201256 -0.027794624875019786 0 -0.093385111944313814 -0.027002229159321194 0 -0.094688409383625785 -0.027514711739413032 0 -0.094543734286462955 -0.02660729048919162 0 -0.093134168073131907 -0.027541937195056109 0 -0.093927666191201256 -0.027794624875019786 0 -0.093757616155927273 -0.028757602306539169 0 -0.093134168073131907 -0.027541937195056109 0 -0.093385111944313814 -0.027002229159321194 0 -0.093927666191201256 -0.027794624875019786 0 -0.093927666191201256 -0.027794624875019786 0 -0.094990130523844349 -0.0285286033603619 0 -0.093757616155927273 -0.028757602306539169 0 -0.094688409383625785 -0.027514711739413032 0 -0.093927666191201256 -0.027794624875019786 0 -0.094990130523844349 -0.0285286033603619 0 -0.094061908086171944 -0.028793173700258551 0 -0.093160610966211532 -0.028548408882100161 0 -0.094990130523844349 -0.0285286033603619 0 -0.095107628499885952 -0.029733968995580159 0 -0.093757616155927273 -0.028757602306539169 0 -0.095107628499885952 -0.029733968995580159 0 -0.093290989591572268 -0.029438922309721074 0 -0.093419011447191405 -0.030791800605026287 0 -0.092166242990592229 -0.030003056283628506 0 -0.093290989591572268 -0.029438922309721074 0 -0.093419011447191405 -0.030791800605026287 0 -0.092113194409733395 -0.032042198474571557 0 -0.092798465306437455 -0.031581669044427989 0 -0.093697279411984344 -0.032480793133500357 0 -0.09198676749412818 -0.031029102186092266 0 -0.093419011447191405 -0.030791800605026287 0 -0.092798465306437455 -0.031581669044427989 0 -0.093419011447191405 -0.030791800605026287 0 -0.094416042825758578 -0.031402816336759995 0 -0.093697279411984344 -0.032480793133500357 0 -0.093419011447191405 -0.030791800605026287 0 -0.092798465306437455 -0.031581669044427989 0 -0.093697279411984344 -0.032480793133500357 0 -0.094416042825758578 -0.031402816336759995 0 -0.096085525233839147 -0.031686153980871476 0 -0.095115191867242793 -0.032781065338413483 0 -0.095107628499885952 -0.029733968995580159 0 -0.093419011447191405 -0.030791800605026287 0 -0.094416042825758578 -0.031402816336759995 0 -0.095107628499885952 -0.029733968995580159 0 -0.094416042825758578 -0.031402816336759995 0 -0.096085525233839147 -0.031686153980871476 0 -0.095107628499885952 -0.029733968995580159 0 -0.096085525233839147 -0.031686153980871476 0 -0.096563414786778004 -0.029399298748496519 0 -0.094990130523844349 -0.0285286033603619 0 -0.095107628499885952 -0.029733968995580159 0 -0.096563414786778004 -0.029399298748496519 0 -0.096563414786778004 -0.029399298748496519 0 -0.097514667429428589 -0.031824632465145365 0 -0.097945357483799511 -0.030112989348702539 0 -0.096085525233839147 -0.031686153980871476 0 -0.096563414786778004 -0.029399298748496519 0 -0.097514667429428589 -0.031824632465145365 0 -0.096085525233839147 -0.031686153980871476 0 -0.097514667429428589 -0.031824632465145365 0 -0.097119742315082358 -0.033758103685366567 0 -0.096085525233839147 -0.031686153980871476 0 -0.095846934650385074 -0.034030295250514833 0 -0.095115191867242793 -0.032781065338413483 0 -0.096085525233839147 -0.031686153980871476 0 -0.097119742315082358 -0.033758103685366567 0 -0.095846934650385074 -0.034030295250514833 0 -0.095846934650385074 -0.034030295250514833 0 -0.09510579667870904 -0.035297799516546838 0 -0.096303301927750815 -0.035765982470115809 0 -0.097119742315082358 -0.033758103685366567 0 -0.095846934650385074 -0.034030295250514833 0 -0.096303301927750815 -0.035765982470115809 0 -0.097119742315082358 -0.033758103685366567 0 -0.096303301927750815 -0.035765982470115809 0 -0.098066680142675097 -0.035382657544027016 0 -0.094416042825758578 -0.031402816336759995 0 -0.093115946856188139 -0.034423231986603152 0 -0.093697279411984344 -0.032480793133500357 0 -0.093515071662021373 -0.033372709885401045 0 -0.092356858952758622 -0.03494195282053833 0 -0.091865306911037323 -0.034315493984554628 0 -0.094099207955080852 -0.033029313026741121 0 -0.093559858916997196 -0.034242650909680074 0 -0.094416042825758578 -0.031402816336759995 0 -0.091865306911037323 -0.034315493984554628 0 -0.094099207955080852 -0.033029313026741121 0 -0.094099207955080852 -0.033029313026741121 0 -0.094595691236167567 -0.034116243387761008 0 -0.093559858916997196 -0.034242650909680074 0 -0.094416042825758578 -0.031402816336759995 0 -0.094099207955080852 -0.033029313026741121 0 -0.095115191867242793 -0.032781065338413483 0 -0.094099207955080852 -0.033029313026741121 0 -0.095115191867242793 -0.032781065338413483 0 -0.094595691236167567 -0.034116243387761008 0 -0.095846934650385074 -0.034030295250514833 0 -0.095115191867242793 -0.032781065338413483 0 -0.094595691236167567 -0.034116243387761008 0 -0.095846934650385074 -0.034030295250514833 0 -0.094595691236167567 -0.034116243387761008 0 -0.09510579667870904 -0.035297799516546838 0 -0.09510579667870904 -0.035297799516546838 0 -0.093568914556100682 -0.035499799444815711 0 -0.094895823277295593 -0.037010270111530019 0 -0.094595691236167567 -0.034116243387761008 0 -0.093559858916997196 -0.034242650909680074 0 -0.093568914556100682 -0.035499799444815711 0 -0.094595691236167567 -0.034116243387761008 0 -0.09510579667870904 -0.035297799516546838 0 -0.093568914556100682 -0.035499799444815711 0 -0.091865306911037323 -0.034315493984554628 0 -0.093568914556100682 -0.035499799444815711 0 -0.092310156016119818 -0.037462564577034903 0 -0.091865306911037323 -0.034315493984554628 0 -0.093559858916997196 -0.034242650909680074 0 -0.093568914556100682 -0.035499799444815711 0 -0.091347189497808276 -0.039210293457029179 0 -0.092310156016119818 -0.037462564577034903 0 -0.093296070080087112 -0.038823771808556083 0 -0.092310156016119818 -0.037462564577034903 0 -0.094895823277295593 -0.037010270111530019 0 -0.093296070080087112 -0.038823771808556083 0 -0.093568914556100682 -0.035499799444815711 0 -0.092310156016119818 -0.037462564577034903 0 -0.094895823277295593 -0.037010270111530019 0 -0.093373714265766419 -0.039797240560622178 0 -0.093110122827002373 -0.041306917459938336 0 -0.094895823277295593 -0.037010270111530019 0 -0.095007980687896607 -0.040059403726081529 0 -0.093296070080087112 -0.038823771808556083 0 -0.094895823277295593 -0.037010270111530019 0 -0.094844020226745596 -0.038038692125731598 0 -0.095814398320923602 -0.037249649261006566 0 -0.0920414507667566 -0.040852815615783133 0 -0.095007980687896607 -0.040059403726081529 0 -0.093296070080087112 -0.038823771808556083 0 -0.0920414507667566 -0.040852815615783133 0 -0.091347189497808276 -0.039210293457029179 0 -0.093296070080087112 -0.038823771808556083 0 -0.096303301927750815 -0.035765982470115809 0 -0.097054279407859781 -0.037235787962433917 0 -0.098066680142675097 -0.035382657544027016 0 -0.096303301927750815 -0.035765982470115809 0 -0.095814398320923602 -0.037249649261006566 0 -0.097054279407859781 -0.037235787962433917 0 -0.09510579667870904 -0.035297799516546838 0 -0.094895823277295593 -0.037010270111530019 0 -0.096303301927750815 -0.035765982470115809 0 -0.094895823277295593 -0.037010270111530019 0 -0.096303301927750815 -0.035765982470115809 0 -0.095814398320923602 -0.037249649261006566 0 -0.095814398320923602 -0.037249649261006566 0 -0.096109167309636881 -0.038159273861160345 0 -0.097054279407859781 -0.037235787962433917 0 -0.094844020226745596 -0.038038692125731598 0 -0.095814398320923602 -0.037249649261006566 0 -0.096109167309636881 -0.038159273861160345 0 -0.097327891326053226 -0.039075635128852114 0 -0.096109167309636881 -0.038159273861160345 0 -0.097054279407859781 -0.037235787962433917 0 -0.097327891326053226 -0.039075635128852114 0 -0.097054279407859781 -0.037235787962433917 0 -0.098185185390799609 -0.038034728311861284 0 -0.097054279407859781 -0.037235787962433917 0 -0.098185185390799609 -0.038034728311861284 0 -0.098539769152316145 -0.03692300484064643 0 -0.098185185390799609 -0.038034728311861284 0 -0.098539769152316145 -0.03692300484064643 0 -0.099492301638049466 -0.038055118960215198 0 -0.098539769152316145 -0.03692300484064643 0 -0.098066680142675097 -0.035382657544027016 0 -0.099958788154507205 -0.0358785107646548 0 -0.097054279407859781 -0.037235787962433917 0 -0.098539769152316145 -0.03692300484064643 0 -0.098066680142675097 -0.035382657544027016 0 -0.099106983752996383 -0.031523454851801309 0 -0.098906314902512268 -0.031824950056750741 0 -0.099097967343237142 -0.031736572717032771 0 -0.098539769152316145 -0.03692300484064643 0 -0.099958788154507205 -0.0358785107646548 0 -0.099492301638049466 -0.038055118960215198 0 -0.09788780396542679 -0.03414184293222175 0 -0.095874097687303997 -0.037086219356543132 0 -0.099123114220139766 -0.031918705974611029 0 -0.098906314902512268 -0.031824950056750741 0 -0.099097967343237142 -0.031736572717032771 0 -0.099123114220139766 -0.031918705974611029 0 -0.099097967343237142 -0.031736572717032771 0 -0.099176289345065352 -0.031788348245982839 0 -0.099197343570343294 -0.031843482662781038 0 -0.099176289345065352 -0.031788348245982839 0 -0.099243802951401172 -0.031758495178490463 0 -0.09920215485175865 -0.031648357922285611 0 -0.099243802951401172 -0.031758495178490463 0 -0.099278267234972184 -0.031610127901643394 0 -0.099176289345065352 -0.031788348245982839 0 -0.09920215485175865 -0.031648357922285611 0 -0.099243802951401172 -0.031758495178490463 0 -0.099097967343237142 -0.031736572717032771 0 -0.099176289345065352 -0.031788348245982839 0 -0.09920215485175865 -0.031648357922285611 0 -0.099265012278054676 -0.031792689127578294 0 -0.099220899930997919 -0.031854398322873081 0 -0.099157296860285682 -0.032041371228429552 0 -0.095461159599870352 -0.036521344911374237 0 -0.09714818415767458 -0.035325308476464048 0 -0.099265012278054676 -0.031792689127578294 0 -0.099220899930997919 -0.031854398322873081 0 -0.099250474875606592 -0.031793958061586296 0 -0.099265012278054676 -0.031792689127578294 0 -0.099243802951401172 -0.031758495178490463 0 -0.099250474875606592 -0.031793958061586296 0 -0.099197343570343294 -0.031843482662781038 0 -0.099265012278054676 -0.031792689127578294 0 -0.099243802951401172 -0.031758495178490463 0 -0.099243802951401172 -0.031758495178490463 0 -0.099250474875606592 -0.031793958061586296 0 -0.099269011327737883 -0.031690942471641621 0 -0.099243802951401172 -0.031758495178490463 0 -0.099269011327737883 -0.031690942471641621 0 -0.099278267234972184 -0.031610127901643394 0 -0.099220899930997919 -0.031854398322873081 0 -0.099269011327737883 -0.031690942471641621 0 -0.099287749271949388 -0.031691044869729325 0 -0.099220899930997919 -0.031854398322873081 0 -0.099250474875606592 -0.031793958061586296 0 -0.099269011327737883 -0.031690942471641621 0 -0.099366843353031448 -0.031467132720819177 0 -0.09941320254842495 -0.031481853882099918 0 -0.099460407540145859 -0.031352143743118462 0 -0.099269011327737883 -0.031690942471641621 0 -0.099366843353031448 -0.031467132720819177 0 -0.09941320254842495 -0.031481853882099918 0 -0.099269011327737883 -0.031690942471641621 0 -0.099278267234972184 -0.031610127901643394 0 -0.099366843353031448 -0.031467132720819177 0 -0.099278267234972184 -0.031610127901643394 0 -0.099366843353031448 -0.031467132720819177 0 -0.099302671011606822 -0.031469807083079906 0 -0.099106983752996383 -0.031523454851801309 0 -0.09920215485175865 -0.031648357922285611 0 -0.099302671011606822 -0.031469807083079906 0 -0.099106983752996383 -0.031523454851801309 0 -0.099097967343237142 -0.031736572717032771 0 -0.09920215485175865 -0.031648357922285611 0 -0.09920215485175865 -0.031648357922285611 0 -0.099278267234972184 -0.031610127901643394 0 -0.099302671011606822 -0.031469807083079906 0 -0.099302671011606822 -0.031469807083079906 0 -0.099441355788804739 -0.031352004365867193 0 -0.099389399670928372 -0.031302525622569237 0 -0.099106983752996383 -0.031523454851801309 0 -0.099302671011606822 -0.031469807083079906 0 -0.099389399670928372 -0.031302525622569237 0 -0.099366843353031448 -0.031467132720819177 0 -0.099441355788804739 -0.031352004365867193 0 -0.099460407540145859 -0.031352143743118462 0 -0.099366843353031448 -0.031467132720819177 0 -0.099302671011606822 -0.031469807083079906 0 -0.099441355788804739 -0.031352004365867193 0 -0.099441355788804739 -0.031352004365867193 0 -0.099513005785433525 -0.031288804573413417 0 -0.099460407540145859 -0.031352143743118462 0 -0.099441355788804739 -0.031352004365867193 0 -0.099513005785433525 -0.031288804573413417 0 -0.099525029054549768 -0.031282922833647191 0 -0.099513005785433525 -0.031288804573413417 0 -0.099525029054549768 -0.031282922833647191 0 -0.099605260746986224 -0.031280683503712589 0 -0.098777127156468095 -0.03283152418021304 0 -0.099049937524192069 -0.032316652811917791 0 -0.099525029054549768 -0.031282922833647191 0 -0.099389399670928372 -0.031302525622569237 0 -0.099839095882520892 -0.031357377613270149 0 -0.099441355788804739 -0.031352004365867193 0 -0.099525029054549768 -0.031282922833647191 0 -0.099389399670928372 -0.031302525622569237 0 -0.10017327735904222 -0.033520218405772191 0 -0.098728314006864132 -0.033789872926119839 0 -0.098819616142819422 -0.032098676074553682 0 -0.10017327735904222 -0.033520218405772191 0 -0.098819616142819422 -0.032098676074553682 0 -0.099839095882520892 -0.031357377613270149 0 -0.097514667429428589 -0.031824632465145365 0 -0.097119742315082358 -0.033758103685366567 0 -0.098728314006864132 -0.033789872926119839 0 -0.097514667429428589 -0.031824632465145365 0 -0.098728314006864132 -0.033789872926119839 0 -0.098819616142819422 -0.032098676074553682 0 -0.098066680142675097 -0.035382657544027016 0 -0.099958788154507205 -0.0358785107646548 0 -0.098728314006864132 -0.033789872926119839 0 -0.097119742315082358 -0.033758103685366567 0 -0.098066680142675097 -0.035382657544027016 0 -0.098728314006864132 -0.033789872926119839 0 -0.099958788154507205 -0.0358785107646548 0 -0.10017327735904222 -0.033520218405772191 0 -0.098728314006864132 -0.033789872926119839 0 -0.09788780396542679 -0.03414184293222175 0 -0.098777127156468095 -0.03283152418021304 0 -0.019915093232948548 -0.022501604721139934 0 -0.016163785309284764 -0.018845470113285814 0 -0.020337730636666489 -0.015100910231249596 0 -0.016163785309284764 -0.018845470113285814 0 -0.014890578213581133 -0.015076236633971713 0 -0.020337730636666489 -0.015100910231249596 0 -0.019915093232948548 -0.022501604721139934 0 -0.013716532397552553 -0.022308040927986512 0 -0.016163785309284764 -0.018845470113285814 0 -0.014897782824075195 -0.026467894656297453 0 -0.019915093232948548 -0.022501604721139934 0 -0.013716532397552553 -0.022308040927986512 0 -0.013716532397552553 -0.022308040927986512 0 -0.016163785309284764 -0.018845470113285814 0 -0.011982763609083263 -0.019266280601360781 0 -0.010434101353949767 -0.015352372472731855 0 -0.011982763609083263 -0.019266280601360781 0 -0.014890578213581133 -0.015076236633971713 0 -0.016163785309284764 -0.018845470113285814 0 -0.011982763609083263 -0.019266280601360781 0 -0.014890578213581133 -0.015076236633971713 0 -0.010434101353949767 -0.015352372472731855 0 -0.011982763609083263 -0.019266280601360781 0 -0.0063707336722347071 -0.021023825011275907 0 -0.05108006478063018 -0.024296544204263533 0 -0.055553625858733344 -0.029000819313898866 0 -0.099442837449593105 -0.031365201857286668 0 -0.099641135538480197 -0.031535572501974321 0 -0.099475090801763616 -0.031393416516401755 0 -0.013716532397552553 -0.022308040927986512 0 -0.011982763609083263 -0.019266280601360781 0 -0.0094014644868095874 -0.023081171482754903 0 -0.011982763609083263 -0.019266280601360781 0 -0.0094014644868095874 -0.023081171482754903 0 -0.0063707336722347071 -0.021023825011275907 0 -0.011473161271906158 -0.025536891666732672 0 -0.013716532397552553 -0.022308040927986512 0 -0.0094014644868095874 -0.023081171482754903 0 -0.097915233995861869 -0.034155113116555079 0 -0.099641135538480197 -0.031535572501974321 0 -0.099157296860285682 -0.032041371228429552 0 -0.0061766115076141324 -0.025223120463393173 0 -0.0094014644868095874 -0.023081171482754903 0 -0.0063707336722347071 -0.021023825011275907 0 -0.099641135538480197 -0.031535572501974321 0 -0.099287749271949388 -0.031691044869729325 0 -0.09941320254842495 -0.031481853882099918 0 -0.099220899930997919 -0.031854398322873081 0 -0.099157296860285682 -0.032041371228429552 0 -0.099287749271949388 -0.031691044869729325 0 -0.099641135538480197 -0.031535572501974321 0 -0.099157296860285682 -0.032041371228429552 0 -0.099287749271949388 -0.031691044869729325 0 -0.099269011327737883 -0.031690942471641621 0 -0.099287749271949388 -0.031691044869729325 0 -0.09941320254842495 -0.031481853882099918 0 -0.09941320254842495 -0.031481853882099918 0 -0.099475090801763616 -0.031393416516401755 0 -0.099460407540145859 -0.031352143743118462 0 -0.099641135538480197 -0.031535572501974321 0 -0.09941320254842495 -0.031481853882099918 0 -0.099475090801763616 -0.031393416516401755 0 -0.099475090801763616 -0.031393416516401755 0 -0.099460407540145859 -0.031352143743118462 0 -0.099452774918536699 -0.03131032789125679 0 -0.099460407540145859 -0.031352143743118462 0 -0.099479262892556847 -0.031308754335177012 0 -0.099452774918536699 -0.03131032789125679 0 -0.099513005785433525 -0.031288804573413417 0 -0.099460407540145859 -0.031352143743118462 0 -0.099479262892556847 -0.031308754335177012 0 -0.09949312576616165 -0.031285721464751892 0 -0.099452774918536699 -0.03131032789125679 0 -0.099437907853621568 -0.03129443808033875 0 -0.099513005785433525 -0.031288804573413417 0 -0.099479262892556847 -0.031308754335177012 0 -0.09949312576616165 -0.031285721464751892 0 -0.099513005785433525 -0.031288804573413417 0 -0.09949312576616165 -0.031285721464751892 0 -0.099574648710598901 -0.031270473469095658 0 -0.099479262892556847 -0.031308754335177012 0 -0.09949312576616165 -0.031285721464751892 0 -0.099452774918536699 -0.03131032789125679 0 -0.040804547011223255 -0.025617412107506621 0 -0.063990409580556309 -0.029350423298454734 0 -0.099452774918536699 -0.03131032789125679 0 -0.099345421669641651 -0.031304852156179279 0 -0.099437907853621568 -0.03129443808033875 0 -0.099442837449593105 -0.031365201857286668 0 -0.099452774918536699 -0.03131032789125679 0 -0.099345421669641651 -0.031304852156179279 0 -0.099442837449593105 -0.031365201857286668 0 -0.099475090801763616 -0.031393416516401755 0 -0.099452774918536699 -0.03131032789125679 0 -0.014890578213581133 -0.015076236633971713 0 -0.014408785615828233 -0.0096164430606861494 0 -0.020337730636666489 -0.015100910231249596 0 -0.010434101353949767 -0.015352372472731855 0 -0.014890578213581133 -0.015076236633971713 0 -0.014408785615828233 -0.0096164430606861494 0 -0.05108006478063018 -0.024296544204263533 0 -0.040804547011223255 -0.025617412107506621 0 -0.027784358846650838 -0.018515917577301071 0 -0.025998834818668718 -0.018542164930250286 0 -0.0318553649519909 -0.024861136770156462 0 -0.027784358846650838 -0.018515917577301071 0 -0.028361040088421607 -0.017589101589334005 0 -0.0318553649519909 -0.024861136770156462 0 -0.027784358846650838 -0.018515917577301071 0 -0.027608927224227191 -0.018065040101873396 0 -0.025998834818668718 -0.018542164930250286 0 -0.040738542843099627 -0.025609283609015002 0 -0.040804547011223255 -0.025617412107506621 0 -0.027608927224227191 -0.018065040101873396 0 -0.025998834818668718 -0.018542164930250286 0 -0.026064656345424066 -0.018593387993366489 0 -0.025998834818668718 -0.018542164930250286 0 -0.026295749123181257 -0.01805448149725955 0 -0.026095646383495714 -0.017425680743267818 0 -0.025998834818668718 -0.018542164930250286 0 -0.026295749123181257 -0.01805448149725955 0 -0.026064656345424066 -0.018593387993366489 0 -0.026295749123181257 -0.01805448149725955 0 -0.026064656345424066 -0.018593387993366489 0 -0.026645512168814597 -0.018395681241360949 0 -0.027608927224227191 -0.018065040101873396 0 -0.026064656345424066 -0.018593387993366489 0 -0.025733748063918666 -0.019140244300123094 0 -0.026064656345424066 -0.018593387993366489 0 -0.025733748063918666 -0.019140244300123094 0 -0.026645512168814597 -0.018395681241360949 0 -0.040804547011223255 -0.025617412107506621 0 -0.027757011893518244 -0.017610540595230893 0 -0.025552504844911075 -0.01600342244312104 0 -0.026177297233495631 -0.016444579144816986 0 -0.026980105406978528 -0.014984648568518206 0 -0.025552504844911075 -0.01600342244312104 0 -0.024959810093760026 -0.015597897939579393 0 -0.026980105406978528 -0.014984648568518206 0 -0.025552504844911075 -0.01600342244312104 0 -0.026177297233495631 -0.016444579144816986 0 -0.025577409533179277 -0.01675178327421244 0 -0.026177297233495631 -0.016444579144816986 0 -0.026095646383495714 -0.017425680743267818 0 -0.026793962453009971 -0.016886293534663942 0 -0.026295749123181257 -0.01805448149725955 0 -0.026095646383495714 -0.017425680743267818 0 -0.026793962453009971 -0.016886293534663942 0 -0.025998834818668718 -0.018542164930250286 0 -0.026095646383495714 -0.017425680743267818 0 -0.025438060736627112 -0.01748860611687687 0 -0.026177297233495631 -0.016444579144816986 0 -0.026095646383495714 -0.017425680743267818 0 -0.025577409533179277 -0.01675178327421244 0 -0.026095646383495714 -0.017425680743267818 0 -0.025577409533179277 -0.01675178327421244 0 -0.025438060736627112 -0.01748860611687687 0 -0.025998834818668718 -0.018542164930250286 0 -0.025438060736627112 -0.01748860611687687 0 -0.024313179047870427 -0.017030292108320574 0 -0.025577409533179277 -0.01675178327421244 0 -0.025051054394908224 -0.016909328095839699 0 -0.024846324686868114 -0.016400152804170374 0 -0.032522534052117073 -0.016021568200181299 0 -0.036736094514890842 -0.017000069482822698 0 -0.025577409533179277 -0.01675178327421244 0 -0.025051054394908224 -0.016909328095839699 0 -0.025438060736627112 -0.01748860611687687 0 -0.025051054394908224 -0.016909328095839699 0 -0.025438060736627112 -0.01748860611687687 0 -0.024313179047870427 -0.017030292108320574 0 -0.025051054394908224 -0.016909328095839699 0 -0.024846324686868114 -0.016400152804170374 0 -0.024313179047870427 -0.017030292108320574 0 -0.024846324686868114 -0.016400152804170374 0 -0.02438677139018312 -0.016420529048373697 0 -0.024313179047870427 -0.017030292108320574 0 -0.024846324686868114 -0.016400152804170374 0 -0.024392299077768562 -0.016024692267020812 0 -0.02438677139018312 -0.016420529048373697 0 -0.025552504844911075 -0.01600342244312104 0 -0.025577409533179277 -0.01675178327421244 0 -0.024846324686868114 -0.016400152804170374 0 -0.025552504844911075 -0.01600342244312104 0 -0.024846324686868114 -0.016400152804170374 0 -0.024870460228851012 -0.01598151241914008 0 -0.025552504844911075 -0.01600342244312104 0 -0.024870460228851012 -0.01598151241914008 0 -0.024959810093760026 -0.015597897939579393 0 -0.024870460228851012 -0.01598151241914008 0 -0.024392299077768562 -0.016024692267020812 0 -0.024959810093760026 -0.015597897939579393 0 -0.024846324686868114 -0.016400152804170374 0 -0.024870460228851012 -0.01598151241914008 0 -0.024392299077768562 -0.016024692267020812 0 -0.024392299077768562 -0.016024692267020812 0 -0.024008561545187226 -0.016228982146858809 0 -0.023186611507775207 -0.015856587108493372 0 -0.024392299077768562 -0.016024692267020812 0 -0.023186611507775207 -0.015856587108493372 0 -0.024959810093760026 -0.015597897939579393 0 -0.054494855919204603 -0.022540506520751336 0 -0.034038766123213375 -0.018038445738002833 0 -0.024008561545187226 -0.016228982146858809 0 -0.024313179047870427 -0.017030292108320574 0 -0.023186611507775207 -0.015856587108493372 0 -0.036736094514890842 -0.017000069482822698 0 -0.054494855919204603 -0.022540506520751336 0 -0.024008561545187226 -0.016228982146858809 0 -0.02438677139018312 -0.016420529048373697 0 -0.024313179047870427 -0.017030292108320574 0 -0.024392299077768562 -0.016024692267020812 0 -0.024008561545187226 -0.016228982146858809 0 -0.02438677139018312 -0.016420529048373697 0 -0.0318553649519909 -0.024861136770156462 0 -0.036650260718254661 -0.02380301413653067 0 -0.04088099091395072 -0.03292697581717912 0 -0.028361040088421607 -0.017589101589334005 0 -0.0318553649519909 -0.024861136770156462 0 -0.036650260718254661 -0.02380301413653067 0 -0.099437907853621568 -0.03129443808033875 0 -0.099534509896491444 -0.03128140964756617 0 -0.099634951399104818 -0.031285628544114874 0 -0.09949312576616165 -0.031285721464751892 0 -0.099437907853621568 -0.03129443808033875 0 -0.099534509896491444 -0.03128140964756617 0 -0.09949312576616165 -0.031285721464751892 0 -0.099534509896491444 -0.03128140964756617 0 -0.099574648710598901 -0.031270473469095658 0 -0.063990409580556309 -0.029350423298454734 0 -0.0774714662520707 -0.02829648747459006 0 -0.036650260718254661 -0.02380301413653067 0 -0.04088099091395072 -0.03292697581717912 0 -0.046839382753377269 -0.03222972369675231 0 -0.054494855919204603 -0.022540506520751336 0 -0.0774714662520707 -0.02829648747459006 0 -0.04604058025734168 -0.013742812573739218 0 -0.046814482400705182 -0.016086961955943009 0 -0.052176228283139045 -0.01573451481461606 0 -0.045312515466423821 -0.0095811605964319941 0 -0.04604058025734168 -0.013742812573739218 0 -0.052176228283139045 -0.01573451481461606 0 -0.045312515466423821 -0.0095811605964319941 0 -0.04604058025734168 -0.013742812573739218 0 -0.042624440156760542 -0.0124395041585751 0 -0.043269036955428969 -0.014879819372406929 0 -0.04604058025734168 -0.013742812573739218 0 -0.042624440156760542 -0.0124395041585751 0 -0.043269036955428969 -0.014879819372406929 0 -0.04604058025734168 -0.013742812573739218 0 -0.046814482400705182 -0.016086961955943009 0 -0.046814482400705182 -0.016086961955943009 0 -0.04417100838274373 -0.018117653036103933 0 -0.048680626061217445 -0.019513287026604646 0 -0.04417100838274373 -0.018117653036103933 0 -0.048680626061217445 -0.019513287026604646 0 -0.043989747734830054 -0.021986393036819266 0 -0.043269036955428969 -0.014879819372406929 0 -0.046814482400705182 -0.016086961955943009 0 -0.04417100838274373 -0.018117653036103933 0 -0.043269036955428969 -0.014879819372406929 0 -0.04417100838274373 -0.018117653036103933 0 -0.040529461842318884 -0.016176741457893724 0 -0.04417100838274373 -0.018117653036103933 0 -0.040529461842318884 -0.016176741457893724 0 -0.040742288449365262 -0.019610187443196082 0 -0.04417100838274373 -0.018117653036103933 0 -0.040742288449365262 -0.019610187443196082 0 -0.043989747734830054 -0.021986393036819266 0 -0.040742288449365262 -0.019610187443196082 0 -0.037300628000266421 -0.017240154844045296 0 -0.03751469441253405 -0.020980022354952409 0 -0.040742288449365262 -0.019610187443196082 0 -0.03751469441253405 -0.020980022354952409 0 -0.039922448333629693 -0.023162818707246808 0 -0.040529461842318884 -0.016176741457893724 0 -0.040742288449365262 -0.019610187443196082 0 -0.037300628000266421 -0.017240154844045296 0 -0.045312515466423821 -0.0095811605964319941 0 -0.039489684788522383 -0.012338590292817014 0 -0.034757711761756543 -0.011140210611526827 0 -0.040529461842318884 -0.016176741457893724 0 -0.038011383386053893 -0.014242881915781526 0 -0.037300628000266421 -0.017240154844045296 0 -0.045312515466423821 -0.0095811605964319941 0 -0.042624440156760542 -0.0124395041585751 0 -0.039489684788522383 -0.012338590292817014 0 -0.038011383386053893 -0.014242881915781526 0 -0.040366975821426405 -0.013902820347719991 0 -0.039489684788522383 -0.012338590292817014 0 -0.040529461842318884 -0.016176741457893724 0 -0.038011383386053893 -0.014242881915781526 0 -0.040366975821426405 -0.013902820347719991 0 -0.043269036955428969 -0.014879819372406929 0 -0.040366975821426405 -0.013902820347719991 0 -0.042624440156760542 -0.0124395041585751 0 -0.043269036955428969 -0.014879819372406929 0 -0.040529461842318884 -0.016176741457893724 0 -0.040366975821426405 -0.013902820347719991 0 -0.040366975821426405 -0.013902820347719991 0 -0.042624440156760542 -0.0124395041585751 0 -0.039489684788522383 -0.012338590292817014 0 -0.038011383386053893 -0.014242881915781526 0 -0.039489684788522383 -0.012338590292817014 0 -0.036018755610291581 -0.012562677548411732 0 -0.039489684788522383 -0.012338590292817014 0 -0.036018755610291581 -0.012562677548411732 0 -0.034757711761756543 -0.011140210611526827 0 -0.036018755610291581 -0.012562677548411732 0 -0.035052671163035301 -0.012105141527698003 0 -0.035061136184497813 -0.013146473867087977 0 -0.036018755610291581 -0.012562677548411732 0 -0.035052671163035301 -0.012105141527698003 0 -0.034757711761756543 -0.011140210611526827 0 -0.035061136184497813 -0.013146473867087977 0 -0.034366827963464623 -0.011709448260804447 0 -0.033832559276587522 -0.014879968154640025 0 -0.035052671163035301 -0.012105141527698003 0 -0.034757711761756543 -0.011140210611526827 0 -0.034366827963464623 -0.011709448260804447 0 -0.035052671163035301 -0.012105141527698003 0 -0.035061136184497813 -0.013146473867087977 0 -0.034366827963464623 -0.011709448260804447 0 -0.035061136184497813 -0.013146473867087977 0 -0.033832559276587522 -0.014879968154640025 0 -0.035809618144008119 -0.01474824202230862 0 -0.033832559276587522 -0.014879968154640025 0 -0.035809618144008119 -0.01474824202230862 0 -0.034791224476719909 -0.016725550319774123 0 -0.038011383386053893 -0.014242881915781526 0 -0.035809618144008119 -0.01474824202230862 0 -0.037300628000266421 -0.017240154844045296 0 -0.036018755610291581 -0.012562677548411732 0 -0.035061136184497813 -0.013146473867087977 0 -0.035809618144008119 -0.01474824202230862 0 -0.038011383386053893 -0.014242881915781526 0 -0.036018755610291581 -0.012562677548411732 0 -0.035809618144008119 -0.01474824202230862 0 -0.037300628000266421 -0.017240154844045296 0 -0.034597566100635989 -0.019615935597976808 0 -0.034791224476719909 -0.016725550319774123 0 -0.035809618144008119 -0.01474824202230862 0 -0.037300628000266421 -0.017240154844045296 0 -0.034791224476719909 -0.016725550319774123 0 -0.037300628000266421 -0.017240154844045296 0 -0.03751469441253405 -0.020980022354952409 0 -0.034597566100635989 -0.019615935597976808 0 -0.034597566100635989 -0.019615935597976808 0 -0.03243899528722527 -0.017610226735544705 0 -0.031081307154855662 -0.019925084282112877 0 -0.033832559276587522 -0.014879968154640025 0 -0.034791224476719909 -0.016725550319774123 0 -0.03243899528722527 -0.017610226735544705 0 -0.034597566100635989 -0.019615935597976808 0 -0.034791224476719909 -0.016725550319774123 0 -0.03243899528722527 -0.017610226735544705 0 -0.03243899528722527 -0.017610226735544705 0 -0.031081307154855662 -0.019925084282112877 0 -0.029371379792047528 -0.016986668165770848 0 -0.033832559276587522 -0.014879968154640025 0 -0.03243899528722527 -0.017610226735544705 0 -0.029371379792047528 -0.016986668165770848 0 -0.031081307154855662 -0.019925084282112877 0 -0.029371379792047528 -0.016986668165770848 0 -0.024677559227113545 -0.021799942707365672 0 -0.034366827963464623 -0.011709448260804447 0 -0.031756633447700369 -0.013618289787100207 0 -0.030365319895072969 -0.012339275699771153 0 -0.034757711761756543 -0.011140210611526827 0 -0.034366827963464623 -0.011709448260804447 0 -0.030365319895072969 -0.012339275699771153 0 -0.034038766123213375 -0.018038445738002833 0 -0.030273821574139596 -0.015922164492487012 0 -0.034986015089481758 -0.014279541420306732 0 -0.035431927509099181 -0.014491466298334386 0 -0.034366827963464623 -0.011709448260804447 0 -0.033832559276587522 -0.014879968154640025 0 -0.029371379792047528 -0.016986668165770848 0 -0.097945357483799511 -0.030112989348702539 0 -0.097966203297396526 -0.028820676959997335 0 -0.098024973590015413 -0.029076366289392138 0 -0.096379115444176947 -0.028587406372446802 0 -0.094177543333552952 -0.028310612350903468 0 -0.097945357483799511 -0.030112989348702539 0 -0.099186490417413356 -0.031137149741711018 0 -0.099719522426797602 -0.030872759034553315 0 -0.097945357483799511 -0.030112989348702539 0 -0.098024973590015413 -0.029076366289392138 0 -0.097747554227046091 -0.028897927293475473 0 -0.096563414786778004 -0.029399298748496519 0 -0.097945357483799511 -0.030112989348702539 0 -0.097747554227046091 -0.028897927293475473 0 -0.097514667429428589 -0.031824632465145365 0 -0.097945357483799511 -0.030112989348702539 0 -0.098819616142819422 -0.032098676074553682 0 -0.097945357483799511 -0.030112989348702539 0 -0.098819616142819422 -0.032098676074553682 0 -0.099186490417413356 -0.031137149741711018 0 -0.098819616142819422 -0.032098676074553682 0 -0.099186490417413356 -0.031137149741711018 0 -0.099839095882520892 -0.031357377613270149 0 -0.099186490417413356 -0.031137149741711018 0 -0.099839095882520892 -0.031357377613270149 0 -0.099719522426797602 -0.030872759034553315 0 -0.099525029054549768 -0.031282922833647191 0 -0.099839095882520892 -0.031357377613270149 0 -0.099605260746986224 -0.031280683503712589 0 -0.099839095882520892 -0.031357377613270149 0 -0.099605260746986224 -0.031280683503712589 0 -0.099716974097195932 -0.031251158835374861 0 -0.099839095882520892 -0.031357377613270149 0 -0.099716974097195932 -0.031251158835374861 0 -0.099719522426797602 -0.030872759034553315 0 -0.099534509896491444 -0.03128140964756617 0 -0.099574648710598901 -0.031270473469095658 0 -0.099634951399104818 -0.031285628544114874 0 -0.099513005785433525 -0.031288804573413417 0 -0.099574648710598901 -0.031270473469095658 0 -0.099605260746986224 -0.031280683503712589 0 -0.099574648710598901 -0.031270473469095658 0 -0.099605260746986224 -0.031280683503712589 0 -0.099716974097195932 -0.031251158835374861 0 -0.099574648710598901 -0.031270473469095658 0 -0.099716974097195932 -0.031251158835374861 0 -0.099634951399104818 -0.031285628544114874 0 -0.099716974097195932 -0.031251158835374861 0 -0.099634951399104818 -0.031285628544114874 0 -0.099719522426797602 -0.030872759034553315 0 -0.097619076323281512 -0.028571369061392574 0 -0.097966203297396526 -0.028820676959997335 0 -0.097659408146179974 -0.02856097073036001 0 -0.0774714662520707 -0.02829648747459006 0 -0.094177543333552952 -0.028310612350903468 0 -0.097966203297396526 -0.028820676959997335 0 -0.09795602780511653 -0.028808940586576036 0 -0.097659408146179974 -0.02856097073036001 0 -0.097659408146179974 -0.02856097073036001 0 -0.096661371217298397 -0.029386298657013133 0 -0.097589622113230981 -0.028998099757680591 0 -0.097659408146179974 -0.02856097073036001 0 -0.097901105180933035 -0.02886377729065874 0 -0.097589622113230981 -0.028998099757680591 0 -0.09795602780511653 -0.028808940586576036 0 -0.097659408146179974 -0.02856097073036001 0 -0.097901105180933035 -0.02886377729065874 0 -0.054494855919204603 -0.022540506520751336 0 -0.070532049135883124 -0.023432636803565172 0 -0.094831023479290885 -0.02595384662415675 0 -0.097659408146179974 -0.02856097073036001 0 -0.096661371217298397 -0.029386298657013133 0 -0.092076327669139188 -0.02629441970189024 0 -0.094831023479290885 -0.02595384662415675 0 -0.096661371217298397 -0.029386298657013133 0 -0.0774714662520707 -0.02829648747459006 0 -0.083071286900643332 -0.031036320763522616 0 -0.052176228283139045 -0.01573451481461606 0 -0.052864798195937764 -0.020437566560318327 0 -0.048680626061217445 -0.019513287026604646 0 -0.046814482400705182 -0.016086961955943009 0 -0.052176228283139045 -0.01573451481461606 0 -0.048680626061217445 -0.019513287026604646 0 -0.052176228283139045 -0.01573451481461606 0 -0.052864798195937764 -0.020437566560318327 0 -0.056950392796879933 -0.019965273817069185 0 -0.052864798195937764 -0.020437566560318327 0 -0.056950392796879933 -0.019965273817069185 0 -0.059284357997424049 -0.022064496692388035 0 -0.097901105180933035 -0.02886377729065874 0 -0.097931428371311427 -0.029002595625160776 0 -0.097983437101760246 -0.028732073277802 0 -0.097901105180933035 -0.02886377729065874 0 -0.097589622113230981 -0.028998099757680591 0 -0.097931428371311427 -0.029002595625160776 0 -0.070532049135883124 -0.023432636803565172 0 -0.077812789082509867 -0.022607359802972012 0 -0.096661371217298397 -0.029386298657013133 0 -0.097589622113230981 -0.028998099757680591 0 -0.097931428371311427 -0.029002595625160776 0 -0.077812789082509867 -0.022607359802972012 0 -0.081151623183221361 -0.021898232340677885 0 -0.097931428371311427 -0.029002595625160776 0 -0.097983437101760246 -0.028732073277802 0 -0.097983682380722442 -0.028806492836436055 0 -0.097983437101760246 -0.028732073277802 0 -0.097744839892636146 -0.028080881753198408 0 -0.097983682380722442 -0.028806492836436055 0 -0.089749491706072798 -0.021611061697054838 0 -0.081151623183221361 -0.021898232340677885 0 -0.097983437101760246 -0.028732073277802 0 -0.09802080447718993 -0.028803402267114711 0 -0.097744839892636146 -0.028080881753198408 0 -0.097901105180933035 -0.02886377729065874 0 -0.097983437101760246 -0.028732073277802 0 -0.09802080447718993 -0.028803402267114711 0 -0.09795602780511653 -0.028808940586576036 0 -0.097901105180933035 -0.02886377729065874 0 -0.09802080447718993 -0.028803402267114711 0 -0.09802080447718993 -0.028803402267114711 0 -0.098024973590015413 -0.029076366289392138 0 -0.097747554227046091 -0.028897927293475473 0 -0.097966203297396526 -0.028820676959997335 0 -0.09795602780511653 -0.028808940586576036 0 -0.098024973590015413 -0.029076366289392138 0 -0.09795602780511653 -0.028808940586576036 0 -0.09802080447718993 -0.028803402267114711 0 -0.098024973590015413 -0.029076366289392138 0 -0.09802080447718993 -0.028803402267114711 0 -0.097747554227046091 -0.028897927293475473 0 -0.097744839892636146 -0.028080881753198408 0 -0.096847581712321426 -0.02815433112582106 0 -0.097747554227046091 -0.028897927293475473 0 -0.097744839892636146 -0.028080881753198408 0 -0.097744839892636146 -0.028080881753198408 0 -0.097750455033036282 -0.026872606374915176 0 -0.09925924700027991 -0.027110648778373152 0 -0.097744839892636146 -0.028080881753198408 0 -0.097750455033036282 -0.026872606374915176 0 -0.096909125598522661 -0.027243530835184146 0 -0.087093548533764359 -0.017682622385670217 0 -0.089554513480979064 -0.016326929393336295 0 -0.097750455033036282 -0.026872606374915176 0 -0.098091797155170454 -0.025862475396744789 0 -0.096907604780768417 -0.026359225125512583 0 -0.087251396552969124 -0.016484682008281262 0 -0.088390569419833004 -0.016516997720743023 0 -0.088032801349731474 -0.016825268593824407 0 -0.087251396552969124 -0.016484682008281262 0 -0.087810878947796989 -0.017086177608264381 0 -0.088032801349731474 -0.016825268593824407 0 -0.084070737101188384 -0.015574683175782453 0 -0.084585046536112041 -0.01769388270773644 0 -0.086903594460786868 -0.018640698295259515 0 -0.084070737101188384 -0.015574683175782453 0 -0.084585046536112041 -0.01769388270773644 0 -0.082574125432491444 -0.017282199691220284 0 -0.087093548533764359 -0.017682622385670217 0 -0.087117542130883047 -0.014287778764024173 0 -0.087093548533764359 -0.017682622385670217 0 -0.082558690116134079 -0.017045883039121509 0 -0.084232646635155617 -0.0156278948710355 0 -0.079960358711923252 -0.015483432685732575 0 -0.080278608530320192 -0.01134604508757229 0 -0.084070737101188384 -0.015574683175782453 0 -0.082574125432491444 -0.017282199691220284 0 -0.079918569299616646 -0.015443172350296677 0 -0.082574125432491444 -0.017282199691220284 0 -0.079918569299616646 -0.015443172350296677 0 -0.078829194085264356 -0.017919714274876798 0 -0.097750455033036282 -0.026872606374915176 0 -0.098091797155170454 -0.025862475396744789 0 -0.09925924700027991 -0.027110648778373152 0 -0.087093548533764359 -0.017682622385670217 0 -0.082992205663801985 -0.021414209589764348 0 -0.097744839892636146 -0.028080881753198408 0 -0.09925924700027991 -0.027110648778373152 0 -0.099544339095834392 -0.027426105960884205 0 -0.079960358711923252 -0.015483432685732575 0 -0.080278608530320192 -0.01134604508757229 0 -0.079304887664616797 -0.010291560318735574 0 -0.082992205663801985 -0.021414209589764348 0 -0.081151623183221361 -0.021898232340677885 0 -0.079960358711923252 -0.015483432685732575 0 -0.077260955008034288 -0.01267051980933883 0 -0.079304887664616797 -0.010291560318735574 0 -0.081151623183221361 -0.021898232340677885 0 -0.064074120684488672 -0.018374619981637724 0 -0.077260955008034288 -0.01267051980933883 0 -0.079304887664616797 -0.010291560318735574 0 -0.072193943627376966 -0.012092944314988394 0 -0.052864798195937764 -0.020437566560318327 0 -0.059284357997424049 -0.022064496692388035 0 -0.049667126754120446 -0.024468897163585343 0 -0.077260955008034288 -0.01267051980933883 0 -0.072193943627376966 -0.012092944314988394 0 -0.075686376774289021 -0.015321827044367867 0 -0.052864798195937764 -0.020437566560318327 0 -0.048680626061217445 -0.019513287026604646 0 -0.049667126754120446 -0.024468897163585343 0 -0.072193943627376966 -0.012092944314988394 0 -0.072037459961747194 -0.016028163386954661 0 -0.075686376774289021 -0.015321827044367867 0 -0.0709684928867262 -0.011695733902806399 0 -0.077751879888001446 -0.011762511380838827 0 -0.073495367785288132 -0.0025972329857901566 0 -0.077179743997230543 -0.0036861283313169794 0 -0.075485620920235724 -0.0044805945006999928 0 -0.072037459961747194 -0.016028163386954661 0 -0.075686376774289021 -0.015321827044367867 0 -0.078829194085264356 -0.017919714274876798 0 -0.082558690116134079 -0.017045883039121509 0 -0.08071671394574377 -0.016834112251118621 0 -0.079918569299616646 -0.015443172350296677 0 -0.075686376774289021 -0.015321827044367867 0 -0.078829194085264356 -0.017919714274876798 0 -0.079960358711923252 -0.015483432685732575 0 -0.077260955008034288 -0.01267051980933883 0 -0.075686376774289021 -0.015321827044367867 0 -0.077179743997230543 -0.0036861283313169794 0 -0.075485620920235724 -0.0044805945006999928 0 -0.076856735032332674 -0.0053676661693661419 0 -0.075485620920235724 -0.0044805945006999928 0 -0.076856735032332674 -0.0053676661693661419 0 -0.075613218658481418 -0.0058277406998426999 0 -0.077179743997230543 -0.0036861283313169794 0 -0.076856735032332674 -0.0053676661693661419 0 -0.078362446715351128 -0.0054519899439624516 0 -0.073495367785288132 -0.0025972329857901566 0 -0.074153726319709998 -0.0047652795488765621 0 -0.07295876223640152 -0.0038521832290228262 0 -0.073495367785288132 -0.0025972329857901566 0 -0.075485620920235724 -0.0044805945006999928 0 -0.074153726319709998 -0.0047652795488765621 0 -0.074153726319709998 -0.0047652795488765621 0 -0.07435116590046284 -0.0059229810880103411 0 -0.075613218658481418 -0.0058277406998426999 0 -0.075485620920235724 -0.0044805945006999928 0 -0.074153726319709998 -0.0047652795488765621 0 -0.075613218658481418 -0.0058277406998426999 0 -0.074153726319709998 -0.0047652795488765621 0 -0.07435116590046284 -0.0059229810880103411 0 -0.072858049392753768 -0.0057063776708668893 0 -0.074153726319709998 -0.0047652795488765621 0 -0.07295876223640152 -0.0038521832290228262 0 -0.072858049392753768 -0.0057063776708668893 0 -0.074943353514755659 -0.0072463571608105256 0 -0.072858049392753768 -0.0057063776708668893 0 -0.074287053461634472 -0.0089194163082735641 0 -0.072042973891690676 -0.0048112533906015022 0 -0.070988859389462006 -0.0028092504153493809 0 -0.07435116590046284 -0.0059229810880103411 0 -0.074943353514755659 -0.0072463571608105256 0 -0.072858049392753768 -0.0057063776708668893 0 -0.07435116590046284 -0.0059229810880103411 0 -0.074943353514755659 -0.0072463571608105256 0 -0.075613218658481418 -0.0058277406998426999 0 -0.074943353514755659 -0.0072463571608105256 0 -0.077134501243277601 -0.0068070347205928883 0 -0.077071557021438655 -0.0088677395151648963 0 -0.074943353514755659 -0.0072463571608105256 0 -0.075613218658481418 -0.0058277406998426999 0 -0.077134501243277601 -0.0068070347205928883 0 -0.076856735032332674 -0.0053676661693661419 0 -0.075613218658481418 -0.0058277406998426999 0 -0.077134501243277601 -0.0068070347205928883 0 -0.076856735032332674 -0.0053676661693661419 0 -0.077134501243277601 -0.0068070347205928883 0 -0.078362446715351128 -0.0054519899439624516 0 -0.077134501243277601 -0.0068070347205928883 0 -0.079257632871875455 -0.0072881672331818088 0 -0.077071557021438655 -0.0088677395151648963 0 -0.077134501243277601 -0.0068070347205928883 0 -0.079257632871875455 -0.0072881672331818088 0 -0.078362446715351128 -0.0054519899439624516 0 -0.079257632871875455 -0.0072881672331818088 0 -0.079735127899799724 -0.0059639519973769184 0 -0.078362446715351128 -0.0054519899439624516 0 -0.079257632871875455 -0.0072881672331818088 0 -0.080635453449569017 -0.0063347406939592669 0 -0.080961969685829499 -0.0083586088379539944 0 -0.080635453449569017 -0.0063347406939592669 0 -0.080961969685829499 -0.0083586088379539944 0 -0.082464716043668576 -0.0053058680807910657 0 -0.079257632871875455 -0.0072881672331818088 0 -0.080635453449569017 -0.0063347406939592669 0 -0.079735127899799724 -0.0059639519973769184 0 -0.080635453449569017 -0.0063347406939592669 0 -0.079735127899799724 -0.0059639519973769184 0 -0.080682485752955946 -0.0047844273134783214 0 -0.08687229949088629 -0.012115458720728649 0 -0.086970706753672578 -0.012085550931394188 0 -0.087043498245312892 -0.01216041291209519 0 -0.080635453449569017 -0.0063347406939592669 0 -0.080682485752955946 -0.0047844273134783214 0 -0.082464716043668576 -0.0053058680807910657 0 -0.08460936947211789 -0.01253446130021733 0 -0.087135375402328755 -0.012501682184583987 0 -0.084585046536112041 -0.01769388270773644 0 -0.085456440914537107 -0.019770277545814827 0 -0.086900750707645469 -0.01863715266641295 0 -0.08702889165419464 -0.014424003070011607 0 -0.087117542130883047 -0.014287778764024173 0 -0.085456440914537107 -0.019770277545814827 0 -0.086900750707645469 -0.01863715266641295 0 -0.087402452319553084 -0.019180491161119334 0 -0.08460936947211789 -0.01253446130021733 0 -0.086904481458013674 -0.013749746547967276 0 -0.087117542130883047 -0.014287778764024173 0 -0.086904481458013674 -0.013749746547967276 0 -0.084585046536112041 -0.01769388270773644 0 -0.082574125432491444 -0.017282199691220284 0 -0.085456440914537107 -0.019770277545814827 0 -0.077751879888001446 -0.011762511380838827 0 -0.08460936947211789 -0.01253446130021733 0 -0.079735127899799724 -0.0059639519973769184 0 -0.080682485752955946 -0.0047844273134783214 0 -0.078362446715351128 -0.0054519899439624516 0 -0.077179743997230543 -0.0036861283313169794 0 -0.080771731371424835 -0.0047602595295112649 0 -0.078362446715351128 -0.0054519899439624516 0 -0.08460936947211789 -0.01253446130021733 0 -0.083120567588737829 -0.011879027985343751 0 -0.082574125432491444 -0.017282199691220284 0 -0.078829194085264356 -0.017919714274876798 0 -0.085456440914537107 -0.019770277545814827 0 -0.056114119133105593 0.0016975423937808378 0 -0.05644799509446316 0.00059297831468754347 0 -0.05473564220418152 0.0013753005948488519 0 -0.056114119133105593 0.0016975423937808378 0 -0.055801508423442128 0.0026734445447711848 0 -0.05473564220418152 0.0013753005948488519 0 -0.031081307154855662 -0.019925084282112877 0 -0.02982051774451926 -0.023294630787393578 0 -0.034985527158173393 -0.024742293152605906 0 -0.031081307154855662 -0.019925084282112877 0 -0.02982051774451926 -0.023294630787393578 0 -0.024677559227113545 -0.021799942707365672 0 -0.056114119133105593 0.0016975423937808378 0 -0.055801508423442128 0.0026734445447711848 0 -0.057092804212344007 0.0023067761310330732 0 -0.045495036148129123 -0.0098759055433349473 0 -0.051962259112192065 -0.0097872530519693864 0 -0.03751469441253405 -0.020980022354952409 0 -0.034597566100635989 -0.019615935597976808 0 -0.035214043564506442 -0.025371435250859473 0 -0.048607004245359485 -0.01086367708550778 0 -0.051962259112192065 -0.0097872530519693864 0 -0.034597566100635989 -0.019615935597976808 0 -0.031081307154855662 -0.019925084282112877 0 -0.035214043564506442 -0.025371435250859473 0 -0.03751469441253405 -0.020980022354952409 0 -0.035214043564506442 -0.025371435250859473 0 -0.039922448333629693 -0.023162818707246808 0 -0.051962259112192065 -0.0097872530519693864 0 -0.059721821951969657 -0.01226327072373907 0 -0.057092804212344007 0.0023067761310330732 0 -0.058301855336645385 0.00083063912267948212 0 -0.05644799509446316 0.00059297831468754347 0 -0.056114119133105593 0.0016975423937808378 0 -0.057092804212344007 0.0023067761310330732 0 -0.05644799509446316 0.00059297831468754347 0 -0.06738857901135524 -0.00093023733532445569 0 -0.068754055341745515 -0.001774492811643614 0 -0.069699265148304212 -0.0036499089843969961 0 -0.051962259112192065 -0.0097872530519693864 0 -0.059521367736580968 -0.0053773043572647415 0 -0.069615839549570679 -0.0015285498239077117 0 -0.071306436356554037 -0.0023216176877601737 0 -0.069699265148304212 -0.0036499089843969961 0 -0.06738857901135524 -0.00093023733532445569 0 -0.069614517043384685 -0.0015323674465041611 0 -0.068754055341745515 -0.001774492811643614 0 -0.059721821951969657 -0.01226327072373907 0 -0.060365336577410979 -0.011960502451661524 0 -0.069615839549570679 -0.0015285498239077117 0 -0.068754055341745515 -0.001774492811643614 0 -0.069699265148304212 -0.0036499089843969961 0 -0.035214043564506442 -0.025371435250859473 0 -0.040398235791783414 -0.026939661903827412 0 -0.039922448333629693 -0.023162818707246808 0 -0.040742288449365262 -0.019610187443196082 0 -0.039922448333629693 -0.023162818707246808 0 -0.043989747734830054 -0.021986393036819266 0 -0.040398235791783414 -0.026939661903827412 0 -0.039922448333629693 -0.023162818707246808 0 -0.043989747734830054 -0.021986393036819266 0 -0.049667126754120446 -0.024468897163585343 0 -0.040398235791783414 -0.026939661903827412 0 -0.043989747734830054 -0.021986393036819266 0 -0.064074120684488672 -0.018374619981637724 0 -0.059721821951969657 -0.01226327072373907 0 -0.048680626061217445 -0.019513287026604646 0 -0.049667126754120446 -0.024468897163585343 0 -0.043989747734830054 -0.021986393036819266 0 -0.072193943627376966 -0.012092944314988394 0 -0.072037459961747194 -0.016028163386954661 0 -0.065158430584567578 -0.014042593028057285 0 -0.0709684928867262 -0.011695733902806399 0 -0.059721821951969657 -0.01226327072373907 0 -0.073495367785288132 -0.0025972329857901566 0 -0.069615839549570679 -0.0015285498239077117 0 -0.071306436356554037 -0.0023216176877601737 0 -0.073495367785288132 -0.0025972329857901566 0 -0.071306436356554037 -0.0023216176877601737 0 -0.07295876223640152 -0.0038521832290228262 0 -0.072511307447284332 -0.005575365649006239 0 -0.071785064543868224 -0.006177863894996625 0 -0.069699265148304212 -0.0036499089843969961 0 -0.071306436356554037 -0.0023216176877601737 0 -0.072511307447284332 -0.005575365649006239 0 -0.069699265148304212 -0.0036499089843969961 0 -0.071306436356554037 -0.0023216176877601737 0 -0.07295876223640152 -0.0038521832290228262 0 -0.072858049392753768 -0.0057063776708668893 0 -0.071756159693205521 -0.0039351768891515617 0 -0.072042973891690676 -0.0048112533906015022 0 -0.072511307447284332 -0.005575365649006239 0 -0.071785064543868224 -0.006177863894996625 0 -0.073676624393401807 -0.0085418425319381958 0 -0.065255832030266442 -0.0038452077057428797 0 -0.070988859389462006 -0.0028092504153493809 0 -0.059501868654820239 -0.00063237895866467711 0 -0.058027581826674918 -0.00083120314600086741 0 -0.059319760337940716 -0.0019680026404858375 0 -0.059501868654820239 -0.00063237895866467711 0 -0.058027581826674918 -0.00083120314600086741 0 -0.058301855336645385 0.00083063912267948212 0 -0.065255832030266442 -0.0038452077057428797 0 -0.059521367736580968 -0.0053773043572647415 0 -0.058027581826674918 -0.00083120314600086741 0 -0.058301855336645385 0.00083063912267948212 0 -0.05644799509446316 0.00059297831468754347 0 -0.058027581826674918 -0.00083120314600086741 0 -0.056407656698452872 -0.0014269585824945507 0 -0.05644799509446316 0.00059297831468754347 0 -0.062087558887969997 0.0088408641450286023 0 -0.058986096230638441 0.0067852072877055648 0 -0.056407656698452872 -0.0014269585824945507 0 -0.05644799509446316 0.00059297831468754347 0 -0.0546467857037371 -0.00047305149396166193 0 -0.070608840342468282 0.024244474170781384 0 -0.07037614569649428 0.024004525774496174 0 -0.070447195997877063 0.024484268448927676 0 -0.071054897698597769 0.024245445551655795 0 -0.07083030056918084 0.024260952140256562 0 -0.070856865023828833 0.024465489387318039 0 -0.07083030056918084 0.024260952140256562 0 -0.070727340683281917 0.024392298567292133 0 -0.070856865023828833 0.024465489387318039 0 -0.07083030056918084 0.024260952140256562 0 -0.071029763211765323 0.024081214939206817 0 -0.070676949009001275 0.024033915970741733 0 -0.071054897698597769 0.024245445551655795 0 -0.07083030056918084 0.024260952140256562 0 -0.071029763211765323 0.024081214939206817 0 -0.070794028395709738 0.023681453638621189 0 -0.071029763211765323 0.024081214939206817 0 -0.071421570255715924 0.023893209036753019 0 -0.070794028395709738 0.023681453638621189 0 -0.071029763211765323 0.024081214939206817 0 -0.070676949009001275 0.024033915970741733 0 -0.062087558887969997 0.0088408641450286023 0 -0.063838483730350198 0.0098163559296223207 0 -0.058027581826674918 -0.00083120314600086741 0 -0.056407656698452872 -0.0014269585824945507 0 -0.058159479906629889 -0.002359356209456332 0 -0.070794028395709738 0.023681453638621189 0 -0.070676949009001275 0.024033915970741733 0 -0.07037614569649428 0.024004525774496174 0 -0.070676949009001275 0.024033915970741733 0 -0.070608840342468282 0.024244474170781384 0 -0.07037614569649428 0.024004525774496174 0 -0.07083030056918084 0.024260952140256562 0 -0.070676949009001275 0.024033915970741733 0 -0.070608840342468282 0.024244474170781384 0 -0.07083030056918084 0.024260952140256562 0 -0.070608840342468282 0.024244474170781384 0 -0.070727340683281917 0.024392298567292133 0 -0.07037614569649428 0.024004525774496174 0 -0.070099401748156417 0.024173935335644197 0 -0.070447195997877063 0.024484268448927676 0 -0.058027581826674918 -0.00083120314600086741 0 -0.058159479906629889 -0.002359356209456332 0 -0.059319760337940716 -0.0019680026404858375 0 -0.059501868654820239 -0.00063237895866467711 0 -0.059319760337940716 -0.0019680026404858375 0 -0.060679860666868188 -0.0020683068821094946 0 -0.059319760337940716 -0.0019680026404858375 0 -0.059888491291286108 -0.0032638061029538552 0 -0.060679860666868188 -0.0020683068821094946 0 -0.058159479906629889 -0.002359356209456332 0 -0.059319760337940716 -0.0019680026404858375 0 -0.059888491291286108 -0.0032638061029538552 0 -0.063838483730350198 0.0098163559296223207 0 -0.065612980080348993 0.010048207734626384 0 -0.070099401748156417 0.024173935335644197 0 -0.070100211282742089 0.024449055871946186 0 -0.070447195997877063 0.024484268448927676 0 -0.067435598000127994 0.028165812262427571 0 -0.067050022978044563 0.028766717133305378 0 -0.067796372600301982 0.028802086914632149 0 -0.067435598000127994 0.028165812262427571 0 -0.068526414463443375 0.027894295983809374 0 -0.067796372600301982 0.028802086914632149 0 -0.068526414463443375 0.027894295983809374 0 -0.068631098939873583 0.028617741923147578 0 -0.067796372600301982 0.028802086914632149 0 -0.068905600347424184 0.023169912058536215 0 -0.069461142086446562 0.024963102991381835 0 -0.070608840342468282 0.024244474170781384 0 -0.070447195997877063 0.024484268448927676 0 -0.070727340683281917 0.024392298567292133 0 -0.070447195997877063 0.024484268448927676 0 -0.070840913443886766 0.024502970687222649 0 -0.070727340683281917 0.024392298567292133 0 -0.069461142086446562 0.024963102991381835 0 -0.070303948106292632 0.025891387120368221 0 -0.068526414463443375 0.027894295983809374 0 -0.06911153298475696 0.028282719128625365 0 -0.069801313877214069 0.027648330679775752 0 -0.068526414463443375 0.027894295983809374 0 -0.068631098939873583 0.028617741923147578 0 -0.06911153298475696 0.028282719128625365 0 -0.068631098939873583 0.028617741923147578 0 -0.06911153298475696 0.028282719128625365 0 -0.069376139150750527 0.028988167439755155 0 -0.070512151710913573 0.025856825012480295 0 -0.070346459177276263 0.025092889756317148 0 -0.069492991261179277 0.027651041717392078 0 -0.06911153298475696 0.028282719128625365 0 -0.069801313877214069 0.027648330679775752 0 -0.069376139150750527 0.028988167439755155 0 -0.070303948106292632 0.025891387120368221 0 -0.069490933835298391 0.028288062446297672 0 -0.070512151710913573 0.025856825012480295 0 -0.070993694410524152 0.026374451171349209 0 -0.069492991261179277 0.027651041717392078 0 -0.070512151710913573 0.025856825012480295 0 -0.070988519747156184 0.025411184391302681 0 -0.070993694410524152 0.026374451171349209 0 -0.070512151710913573 0.025856825012480295 0 -0.070346459177276263 0.025092889756317148 0 -0.070506457980767615 0.025070891226978701 0 -0.070512151710913573 0.025856825012480295 0 -0.070506457980767615 0.025070891226978701 0 -0.070988519747156184 0.025411184391302681 0 -0.070506457980767615 0.025070891226978701 0 -0.071020924806407634 0.024808763211792349 0 -0.070988519747156184 0.025411184391302681 0 -0.070303948106292632 0.025891387120368221 0 -0.070304839735833541 0.025890547559850846 0 -0.070840913443886766 0.024502970687222649 0 -0.070727340683281917 0.024392298567292133 0 -0.070856865023828833 0.024465489387318039 0 -0.070303948106292632 0.025891387120368221 0 -0.070349343925146621 0.025767155081907009 0 -0.070369381853973831 0.025087030141518481 0 -0.070506457980767615 0.025070891226978701 0 -0.070856865023828833 0.024465489387318039 0 -0.070506457980767615 0.025070891226978701 0 -0.070856865023828833 0.024465489387318039 0 -0.071020924806407634 0.024808763211792349 0 -0.078113421741390729 -0.010654227044252963 0 -0.079498323802544985 -0.011398129306359923 0 -0.078946602865689594 -0.0092781511390953274 0 -0.078113421741390729 -0.010654227044252963 0 -0.076499977285992005 -0.011564167313935886 0 -0.078553591320242699 -0.012145697248295277 0 -0.078113421741390729 -0.010654227044252963 0 -0.079498323802544985 -0.011398129306359923 0 -0.078553591320242699 -0.012145697248295277 0 -0.079498323802544985 -0.011398129306359923 0 -0.081158630018786343 -0.010825305098024042 0 -0.080206697019763615 -0.013092366641762969 0 -0.08304886513062229 -0.011264525941682911 0 -0.084342868732759452 -0.010711568765991679 0 -0.079498323802544985 -0.011398129306359923 0 -0.081158630018786343 -0.010825305098024042 0 -0.080909812191072683 -0.0087219190212919039 0 -0.081158630018786343 -0.010825305098024042 0 -0.080909812191072683 -0.0087219190212919039 0 -0.08213388672195801 -0.0087099934792612757 0 -0.079498323802544985 -0.011398129306359923 0 -0.080961969685829499 -0.0083586088379539944 0 -0.078946602865689594 -0.0092781511390953274 0 -0.079257632871875455 -0.0072881672331818088 0 -0.080961969685829499 -0.0083586088379539944 0 -0.078946602865689594 -0.0092781511390953274 0 -0.079257632871875455 -0.0072881672331818088 0 -0.078946602865689594 -0.0092781511390953274 0 -0.077071557021438655 -0.0088677395151648963 0 -0.078113421741390729 -0.010654227044252963 0 -0.078946602865689594 -0.0092781511390953274 0 -0.077071557021438655 -0.0088677395151648963 0 -0.074943353514755659 -0.0072463571608105256 0 -0.077071557021438655 -0.0088677395151648963 0 -0.074287053461634472 -0.0089194163082735641 0 -0.077071557021438655 -0.0088677395151648963 0 -0.074287053461634472 -0.0089194163082735641 0 -0.076499977285992005 -0.011564167313935886 0 -0.070988859389462006 -0.0028092504153493809 0 -0.070141908919542556 0.0022606848996692018 0 -0.070988859389462006 -0.0028092504153493809 0 -0.074880794596130132 -0.0023601744596209013 0 -0.065612980080348993 0.010048207734626384 0 -0.069533293812686761 0.0090241509225931354 0 -0.072894552236070165 0.00075671801517594088 0 -0.07263186241345268 0.0015011227440214245 0 -0.072143100269852461 0.0018036309620303892 0 -0.059888491291286108 -0.0032638061029538552 0 -0.060679860666868188 -0.0020683068821094946 0 -0.061120109657659974 -0.0031135050762467315 0 -0.059888491291286108 -0.0032638061029538552 0 -0.061120109657659974 -0.0031135050762467315 0 -0.061568105153664454 -0.0041398179443035118 0 -0.078113421741390729 -0.010654227044252963 0 -0.077071557021438655 -0.0088677395151648963 0 -0.076499977285992005 -0.011564167313935886 0 -0.070141908919542556 0.0022606848996692018 0 -0.069533293812686761 0.0090241509225931354 0 -0.07263186241345268 0.0015011227440214245 0 -0.072143100269852461 0.0018036309620303892 0 -0.07235942793615506 0.0022287226499353987 0 -0.069533293812686761 0.0090241509225931354 0 -0.076285686371161718 0.0031720924247065326 0 -0.072143100269852461 0.0018036309620303892 0 -0.07235942793615506 0.0022287226499353987 0 -0.071419957825714184 0.0028074404861087726 0 -0.070072531166055566 0.013872688411011729 0 -0.070782857135621421 0.012143246520874229 0 -0.073781033505673679 0.011811563692781921 0 -0.069907524724756434 0.02430486301245317 0 -0.06993722198382811 0.024326687252157544 0 -0.069913295777350559 0.024336296987306726 0 -0.069533293812686761 0.0090241509225931354 0 -0.07012492529928506 0.0169648532460276 0 -0.069647382303344815 0.017737772109217478 0 -0.07012492529928506 0.0169648532460276 0 -0.070099401748156417 0.024173935335644197 0 -0.070100211282742089 0.024449055871946186 0 -0.06993722198382811 0.024326687252157544 0 -0.070099401748156417 0.024173935335644197 0 -0.069907524724756434 0.02430486301245317 0 -0.06993722198382811 0.024326687252157544 0 -0.070100211282742089 0.024449055871946186 0 -0.06993722198382811 0.024326687252157544 0 -0.069860271917380354 0.0243940805056218 0 -0.068905600347424184 0.023169912058536215 0 -0.070215847935793857 0.019019604963802329 0 -0.070100211282742089 0.024449055871946186 0 -0.06984147484674337 0.024437686310695345 0 -0.069860271917380354 0.0243940805056218 0 -0.067435598000127994 0.028165812262427571 0 -0.066547681783884718 0.028344928392820722 0 -0.067050022978044563 0.028766717133305378 0 -0.072492554233645146 0.019209016851532881 0 -0.072421534652217082 0.019220830189285693 0 -0.072377068492719993 0.019530160832477918 0 -0.070215847935793857 0.019019604963802329 0 -0.071206624078785918 0.023602733751558368 0 -0.071900168010741311 0.011135021596039255 0 -0.070782857135621421 0.012143246520874229 0 -0.073781033505673679 0.011811563692781921 0 -0.070215847935793857 0.019019604963802329 0 -0.07119984273823303 0.017847839315389937 0 -0.068990092034939582 0.017606947815680316 0 -0.069178319857828297 0.017580053316911395 0 -0.068897652654408323 0.017830142368829623 0 -0.07119984273823303 0.017847839315389937 0 -0.07012492529928506 0.0169648532460276 0 -0.070215847935793857 0.019019604963802329 0 -0.07012492529928506 0.0169648532460276 0 -0.066547681783884718 0.028344928392820722 0 -0.066678069123179182 0.028817539991213094 0 -0.067050022978044563 0.028766717133305378 0 -0.07119984273823303 0.017847839315389937 0 -0.072455687530671165 0.016919826218803023 0 -0.071900168010741311 0.011135021596039255 0 -0.074992848045320137 0.010693232021361432 0 -0.073781033505673679 0.011811563692781921 0 -0.071935548268833804 0.011175481708863672 0 -0.074992848045320137 0.010693232021361432 0 -0.075735388938403689 0.0076886648019657746 0 -0.076499977285992005 -0.011564167313935886 0 -0.078630373225742803 -0.014196789417774964 0 -0.078553591320242699 -0.012145697248295277 0 -0.078630373225742803 -0.014196789417774964 0 -0.078553591320242699 -0.012145697248295277 0 -0.080206697019763615 -0.013092366641762969 0 -0.074880794596130132 -0.0023601744596209013 0 -0.076285686371161718 0.0031720924247065326 0 -0.079498323802544985 -0.011398129306359923 0 -0.078553591320242699 -0.012145697248295277 0 -0.080206697019763615 -0.013092366641762969 0 -0.081488995265927927 -0.010374697706148111 0 -0.080206697019763615 -0.013092366641762969 0 -0.082253164794475156 -0.012386672127573958 0 -0.080206697019763615 -0.013092366641762969 0 -0.081366430318175989 -0.015791259780320394 0 -0.082253164794475156 -0.012386672127573958 0 -0.084086363008373285 -0.011556051705908916 0 -0.083277662259458235 -0.012273649864070316 0 -0.078630373225742803 -0.014196789417774964 0 -0.080206697019763615 -0.013092366641762969 0 -0.081366430318175989 -0.015791259780320394 0 -0.076285686371161718 0.0031720924247065326 0 -0.081155355019041114 0.0060446780317584608 0 -0.074992848045320137 0.010693232021361432 0 -0.073781033505673679 0.011811563692781921 0 -0.077297297364735645 0.0098380642664416349 0 -0.081155355019041114 0.0060446780317584608 0 -0.087823646591272009 -0.003812496424329619 0 -0.10495627455700222 -0.00017812103563343492 0 -0.10190604974124498 -0.00089564657057387867 0 -0.10226843051521507 -0.0040001702914892962 0 -0.10190604974124498 -0.00089564657057387867 0 -0.099680198013063701 -8.7478918939954314e-05 0 -0.10047465217806371 -0.0026668876745679511 0 -0.10190604974124498 -0.00089564657057387867 0 -0.10047465217806371 -0.0026668876745679511 0 -0.10226843051521507 -0.0040001702914892962 0 -0.10047465217806371 -0.0026668876745679511 0 -0.10226843051521507 -0.0040001702914892962 0 -0.099992115172965648 -0.0050777791437280218 0 -0.081366430318175989 -0.015791259780320394 0 -0.083951985063301038 -0.012361708159370859 0 -0.082253164794475156 -0.012386672127573958 0 -0.083951985063301038 -0.012361708159370859 0 -0.082253164794475156 -0.012386672127573958 0 -0.083219246089862406 -0.01133275286375165 0 -0.082253164794475156 -0.012386672127573958 0 -0.08253742801259982 -0.010055288524834827 0 -0.083219246089862406 -0.01133275286375165 0 -0.084881611809398544 -0.011071482995224603 0 -0.085191590425678435 -0.010703869588007666 0 -0.081488995265927927 -0.010374697706148111 0 -0.082253164794475156 -0.012386672127573958 0 -0.082490881573629535 -0.010035845014388367 0 -0.08253742801259982 -0.010055288524834827 0 -0.084132236555468101 -0.010535387470770048 0 -0.083766419043041718 -0.0091050016344209391 0 -0.08253742801259982 -0.010055288524834827 0 -0.084132236555468101 -0.010535387470770048 0 -0.083219246089862406 -0.01133275286375165 0 -0.083951985063301038 -0.012361708159370859 0 -0.084132236555468101 -0.010535387470770048 0 -0.083219246089862406 -0.01133275286375165 0 -0.087823646591272009 -0.003812496424329619 0 -0.091384312696659031 -0.0085709154116843066 0 -0.084132236555468101 -0.010535387470770048 0 -0.085087440319709648 -0.0092237950626361444 0 -0.086502975582305519 -0.0088908122510184592 0 -0.083951985063301038 -0.012361708159370859 0 -0.084132236555468101 -0.010535387470770048 0 -0.086502975582305519 -0.0088908122510184592 0 -0.10226843051521507 -0.0040001702914892962 0 -0.099992115172965648 -0.0050777791437280218 0 -0.099604284776332208 -0.0076867994653332175 0 -0.084132236555468101 -0.010535387470770048 0 -0.085087440319709648 -0.0092237950626361444 0 -0.083766419043041718 -0.0091050016344209391 0 -0.085087440319709648 -0.0092237950626361444 0 -0.084771989531724865 -0.0081882500343573011 0 -0.083766419043041718 -0.0091050016344209391 0 -0.084771989531724865 -0.0081882500343573011 0 -0.08667311383099699 -0.008612443733342804 0 -0.083833332070398128 -0.0055407039178517374 0 -0.085087440319709648 -0.0092237950626361444 0 -0.084771989531724865 -0.0081882500343573011 0 -0.086467020937830624 -0.0088978423490625562 0 -0.084771989531724865 -0.0081882500343573011 0 -0.08667311383099699 -0.008612443733342804 0 -0.086467020937830624 -0.0088978423490625562 0 -0.090561629069012911 -0.008733680870316422 0 -0.091384312696659031 -0.0085709154116843066 0 -0.081488995265927927 -0.010374697706148111 0 -0.082490881573629535 -0.010035845014388367 0 -0.082742675323150605 -0.007725910393957201 0 -0.085191590425678435 -0.010703869588007666 0 -0.086061532153577119 -0.010759729793611991 0 -0.084086363008373285 -0.011556051705908916 0 -0.086061532153577119 -0.010759729793611991 0 -0.08253742801259982 -0.010055288524834827 0 -0.082798265802358023 -0.007757669149838416 0 -0.083766419043041718 -0.0091050016344209391 0 -0.084771989531724865 -0.0081882500343573011 0 -0.082798265802358023 -0.007757669149838416 0 -0.083766419043041718 -0.0091050016344209391 0 -0.092248952766312078 -0.0099194701677913569 0 -0.092579234356823276 -0.0098436731480766818 0 -0.092174382296467017 -0.0096752257221566409 0 -0.093073150714524558 -0.0095344660495099952 0 -0.092313990507980379 -0.010516696517352498 0 -0.096543055688352045 -0.0089022862278827445 0 -0.095584422912277658 -0.0066592351130926371 0 -0.094196969406645972 -0.0078140150965882726 0 -0.092248952766312078 -0.0099194701677913569 0 -0.092071931144053598 -0.0098437893158059234 0 -0.092174382296467017 -0.0096752257221566409 0 -0.092248952766312078 -0.0099194701677913569 0 -0.092071931144053598 -0.0098437893158059234 0 -0.091895654801439214 -0.009969589058699364 0 -0.096543055688352045 -0.0089022862278827445 0 -0.099681525946088381 -0.0084122146955336909 0 -0.097681975993567566 -0.0062111501497066719 0 -0.093073150714524558 -0.0095344660495099952 0 -0.091840532399423483 -0.0088366834012950871 0 -0.091840532399423483 -0.0088366834012950871 0 -0.09222045426511867 -0.011610687820022206 0 -0.092071931144053598 -0.0098437893158059234 0 -0.091895654801439214 -0.009969589058699364 0 -0.09212282322239794 -0.0096605378131790452 0 -0.09938292389641451 -0.00798794964184508 0 -0.099604284776332208 -0.0076867994653332175 0 -0.099077513608934215 -0.0063205244287564367 0 -0.091840532399423483 -0.0088366834012950871 0 -0.091384312696659031 -0.0085709154116843066 0 -0.091840532399423483 -0.0088366834012950871 0 -0.093781664892318858 -0.0083466108335817739 0 -0.099992115172965648 -0.0050777791437280218 0 -0.099604284776332208 -0.0076867994653332175 0 -0.099077513608934215 -0.0063205244287564367 0 -0.09938292389641451 -0.00798794964184508 0 -0.099077513608934215 -0.0063205244287564367 0 -0.097501745401934639 -0.0058930796827142036 0 -0.099992115172965648 -0.0050777791437280218 0 -0.099077513608934215 -0.0063205244287564367 0 -0.098281455157950018 -0.0042882819153884635 0 -0.099077513608934215 -0.0063205244287564367 0 -0.097501745401934639 -0.0058930796827142036 0 -0.098281455157950018 -0.0042882819153884635 0 -0.096543055688352045 -0.0089022862278827445 0 -0.097681975993567566 -0.0062111501497066719 0 -0.095584422912277658 -0.0066592351130926371 0 -0.093781664892318858 -0.0083466108335817739 0 -0.093918942983532427 -0.007805405842681132 0 -0.097681975993567566 -0.0062111501497066719 0 -0.095584422912277658 -0.0066592351130926371 0 -0.095834795863311686 -0.004155439271338407 0 -0.095584422912277658 -0.0066592351130926371 0 -0.095834795863311686 -0.004155439271338407 0 -0.093941455309814459 -0.0057514323065330688 0 -0.095834795863311686 -0.004155439271338407 0 -0.098281455157950018 -0.0042882819153884635 0 -0.096893134050060781 -0.0016260315301709085 0 -0.095834795863311686 -0.004155439271338407 0 -0.096893134050060781 -0.0016260315301709085 0 -0.093819857408301913 -0.0032153003233283389 0 -0.097501745401934639 -0.0058930796827142036 0 -0.095834795863311686 -0.004155439271338407 0 -0.098281455157950018 -0.0042882819153884635 0 -0.10047465217806371 -0.0026668876745679511 0 -0.098281455157950018 -0.0042882819153884635 0 -0.096893134050060781 -0.0016260315301709085 0 -0.10047465217806371 -0.0026668876745679511 0 -0.099992115172965648 -0.0050777791437280218 0 -0.098281455157950018 -0.0042882819153884635 0 -0.099680198013063701 -8.7478918939954314e-05 0 -0.10047465217806371 -0.0026668876745679511 0 -0.096786229863006765 -0.0012336167657163739 0 -0.09823325998001535 -0.0018813405574301585 0 -0.096412155367404578 -0.0012608893241386205 0 -0.099680198013063701 -8.7478918939954314e-05 0 -0.096786229863006765 -0.0012336167657163739 0 -0.098371133770293065 0.0014822093406395083 0 -0.096412155367404578 -0.0012608893241386205 0 -0.09307943887260367 -0.00011996992274388144 0 -0.096786229863006765 -0.0012336167657163739 0 -0.093083182835637421 6.5380517053980117e-05 0 -0.096317560151918863 0.0018619796969590692 0 -0.096893134050060781 -0.0016260315301709085 0 -0.093186676103100247 -0.00034894934721047953 0 -0.093819857408301913 -0.0032153003233283389 0 -0.093186676103100247 -0.00034894934721047953 0 -0.091284406161056944 -0.0024478712649960198 0 -0.093819857408301913 -0.0032153003233283389 0 -0.093186676103100247 -0.00034894934721047953 0 -0.091284406161056944 -0.0024478712649960198 0 -0.089335128974143196 0.0010598223247153453 0 -0.091284406161056944 -0.0024478712649960198 0 -0.09034644619075631 -0.0047089745285702851 0 -0.092223641016252578 -0.0050200828876507848 0 -0.091284406161056944 -0.0024478712649960198 0 -0.092223641016252578 -0.0050200828876507848 0 -0.093819857408301913 -0.0032153003233283389 0 -0.092223641016252578 -0.0050200828876507848 0 -0.093819857408301913 -0.0032153003233283389 0 -0.093941455309814459 -0.0057514323065330688 0 -0.095834795863311686 -0.004155439271338407 0 -0.093819857408301913 -0.0032153003233283389 0 -0.093941455309814459 -0.0057514323065330688 0 -0.085000006052126501 -0.0025870435660185517 0 -0.088681368476491509 -0.0023875780275634593 0 -0.086850746080874924 0.00037919646598306793 0 -0.088681368476491509 -0.0023875780275634593 0 -0.089335128974143196 0.0010598223247153453 0 -0.086850746080874924 0.00037919646598306793 0 -0.091284406161056944 -0.0024478712649960198 0 -0.088681368476491509 -0.0023875780275634593 0 -0.089335128974143196 0.0010598223247153453 0 -0.091284406161056944 -0.0024478712649960198 0 -0.09034644619075631 -0.0047089745285702851 0 -0.088681368476491509 -0.0023875780275634593 0 -0.09034644619075631 -0.0047089745285702851 0 -0.088681368476491509 -0.0023875780275634593 0 -0.088757477361582113 -0.0046259724789253203 0 -0.085000006052126501 -0.0025870435660185517 0 -0.088757477361582113 -0.0046259724789253203 0 -0.087894429259975704 -0.0063867119027291985 0 -0.085000006052126501 -0.0025870435660185517 0 -0.088681368476491509 -0.0023875780275634593 0 -0.088757477361582113 -0.0046259724789253203 0 -0.085000006052126501 -0.0025870435660185517 0 -0.084999945406115676 -0.0074751965774830153 0 -0.087894429259975704 -0.0063867119027291985 0 -0.084999945406115676 -0.0074751965774830153 0 -0.087894429259975704 -0.0063867119027291985 0 -0.08807871945423934 -0.0084380611308961361 0 -0.08959536258337987 -0.0086115211090078119 0 -0.090236061809827545 -0.0092552725649529006 0 -0.087894429259975704 -0.0063867119027291985 0 -0.08996236882162742 -0.0082391962003876586 0 -0.08807871945423934 -0.0084380611308961361 0 -0.088757477361582113 -0.0046259724789253203 0 -0.087894429259975704 -0.0063867119027291985 0 -0.089836456505470466 -0.0063664652575656623 0 -0.09034644619075631 -0.0047089745285702851 0 -0.088757477361582113 -0.0046259724789253203 0 -0.089836456505470466 -0.0063664652575656623 0 -0.089836456505470466 -0.0063664652575656623 0 -0.089798651525627507 -0.0078782357993501407 0 -0.090603917098325007 -0.0073530822809541735 0 -0.087894429259975704 -0.0063867119027291985 0 -0.089836456505470466 -0.0063664652575656623 0 -0.089798651525627507 -0.0078782357993501407 0 -0.08996236882162742 -0.0082391962003876586 0 -0.089897122209112806 -0.009347999732127946 0 -0.08807871945423934 -0.0084380611308961361 0 -0.08996236882162742 -0.0082391962003876586 0 -0.089897122209112806 -0.009347999732127946 0 -0.090928902348516652 -0.0097374190989950992 0 -0.089897122209112806 -0.009347999732127946 0 -0.088782303425704312 -0.010039093403997312 0 -0.090957647216693166 -0.010938580678852942 0 -0.088782303425704312 -0.010039093403997312 0 -0.08807871945423934 -0.0084380611308961361 0 -0.086961231186357138 -0.0099923595350725654 0 -0.089897122209112806 -0.009347999732127946 0 -0.088782303425704312 -0.010039093403997312 0 -0.08807871945423934 -0.0084380611308961361 0 -0.088782303425704312 -0.010039093403997312 0 -0.086961231186357138 -0.0099923595350725654 0 -0.087967405175049931 -0.011649265053599717 0 -0.084999945406115676 -0.0074751965774830153 0 -0.086961231186357138 -0.0099923595350725654 0 -0.085000012135466471 -0.012363762277638633 0 -0.084999945406115676 -0.0074751965774830153 0 -0.08807871945423934 -0.0084380611308961361 0 -0.086961231186357138 -0.0099923595350725654 0 -0.092708314931621086 -0.0072791349454330466 0 -0.093941455309814459 -0.0057514323065330688 0 -0.094196969406645972 -0.0078140150965882726 0 -0.095584422912277658 -0.0066592351130926371 0 -0.093941455309814459 -0.0057514323065330688 0 -0.094196969406645972 -0.0078140150965882726 0 -0.092223641016252578 -0.0050200828876507848 0 -0.092708314931621086 -0.0072791349454330466 0 -0.093941455309814459 -0.0057514323065330688 0 -0.092223641016252578 -0.0050200828876507848 0 -0.092708314931621086 -0.0072791349454330466 0 -0.091229008422388319 -0.0065206908400217067 0 -0.09034644619075631 -0.0047089745285702851 0 -0.092223641016252578 -0.0050200828876507848 0 -0.091229008422388319 -0.0065206908400217067 0 -0.09034644619075631 -0.0047089745285702851 0 -0.089836456505470466 -0.0063664652575656623 0 -0.091229008422388319 -0.0065206908400217067 0 -0.089836456505470466 -0.0063664652575656623 0 -0.091229008422388319 -0.0065206908400217067 0 -0.090603917098325007 -0.0073530822809541735 0 -0.091229008422388319 -0.0065206908400217067 0 -0.090603917098325007 -0.0073530822809541735 0 -0.091634225293447918 -0.0076309468765687477 0 -0.092708314931621086 -0.0072791349454330466 0 -0.091229008422388319 -0.0065206908400217067 0 -0.091634225293447918 -0.0076309468765687477 0 -0.092708314931621086 -0.0072791349454330466 0 -0.092535261991152126 -0.0081402571274272837 0 -0.091634225293447918 -0.0076309468765687477 0 -0.092535261991152126 -0.0081402571274272837 0 -0.091634225293447918 -0.0076309468765687477 0 -0.090536850678636191 -0.0083677283546185807 0 -0.090536850678636191 -0.0083677283546185807 0 -0.091620281101817261 -0.0094728903497543933 0 -0.093535790382135942 -0.0095981249499548522 0 -0.09177478576386372 -0.010065426749819088 0 -0.092313990507980379 -0.010516696517352498 0 -0.092535261991152126 -0.0081402571274272837 0 -0.090536850678636191 -0.0083677283546185807 0 -0.093606218332273172 -0.0096066155570734453 0 -0.090236061809827545 -0.0092552725649529006 0 -0.091555204116817446 -0.010678942615260225 0 -0.089798651525627507 -0.0078782357993501407 0 -0.090536850678636191 -0.0083677283546185807 0 -0.091620281101817261 -0.0094728903497543933 0 -0.089798651525627507 -0.0078782357993501407 0 -0.090603917098325007 -0.0073530822809541735 0 -0.090536850678636191 -0.0083677283546185807 0 -0.090603917098325007 -0.0073530822809541735 0 -0.091634225293447918 -0.0076309468765687477 0 -0.090536850678636191 -0.0083677283546185807 0 -0.089897122209112806 -0.009347999732127946 0 -0.090928902348516652 -0.0097374190989950992 0 -0.090957647216693166 -0.010938580678852942 0 -0.08996236882162742 -0.0082391962003876586 0 -0.090928902348516652 -0.0097374190989950992 0 -0.09198659226912291 -0.010049007576016783 0 -0.091528130452712436 -0.010658587715505732 0 -0.091555204116817446 -0.010678942615260225 0 -0.090266206103328361 -0.011490608755776174 0 -0.090190225534526783 -0.011579748568922457 0 -0.090928902348516652 -0.0097374190989950992 0 -0.091663016657146823 -0.010053155251829381 0 -0.090957647216693166 -0.010938580678852942 0 -0.090928902348516652 -0.0097374190989950992 0 -0.091663016657146823 -0.010053155251829381 0 -0.091976505252040236 -0.010043778900022435 0 -0.091663016657146823 -0.010053155251829381 0 -0.092547735156607511 -0.010548029789128992 0 -0.09096030687154967 -0.010924438566030543 0 -0.091663016657146823 -0.010053155251829381 0 -0.091976505252040236 -0.010043778900022435 0 -0.092547735156607511 -0.010548029789128992 0 -0.091555204116817446 -0.010678942615260225 0 -0.091771246122481498 -0.011044569211386442 0 -0.091555204116817446 -0.010678942615260225 0 -0.092047907259069861 -0.010852471750152515 0 -0.092327770710590881 -0.010830920077552701 0 -0.091874371363419777 -0.010430501619716974 0 -0.09136341678695685 -0.010552250895924578 0 -0.091771246122481498 -0.011044569211386442 0 -0.092047907259069861 -0.010852471750152515 0 -0.096543055688352045 -0.0089022862278827445 0 -0.093606218332273172 -0.0096066155570734453 0 -0.094196969406645972 -0.0078140150965882726 0 -0.091620281101817261 -0.0094728903497543933 0 -0.092723291601950447 -0.0097914291396906886 0 -0.093535790382135942 -0.0095981249499548522 0 -0.092047907259069861 -0.010852471750152515 0 -0.092313990507980379 -0.010516696517352498 0 -0.092535261991152126 -0.0081402571274272837 0 -0.093606218332273172 -0.0096066155570734453 0 -0.094196969406645972 -0.0078140150965882726 0 -0.092708314931621086 -0.0072791349454330466 0 -0.092535261991152126 -0.0081402571274272837 0 -0.094196969406645972 -0.0078140150965882726 0 -0.092047907259069861 -0.010852471750152515 0 -0.092411064243637681 -0.011481495999368449 0 -0.092605495551647959 -0.011854442030662292 0 -0.093102865741131566 -0.011737000795622959 0 -0.09480086068411249 -0.013794343365869507 0 -0.092342357689932875 -0.011220259273107137 0 -0.094831322560142067 -0.013561398557867923 0 -0.091765527725880286 -0.012968529727572783 0 -0.093102865741131566 -0.011737000795622959 0 -0.09480086068411249 -0.013794343365869507 0 -0.096749592798314243 -0.012799211429267477 0 -0.092166227776268594 -0.01111867484781452 0 -0.092210747739665255 -0.011108313456349146 0 -0.092401580921643953 -0.011187911119654918 0 -0.091771246122481498 -0.011044569211386442 0 -0.094161741886270897 -0.013139823452263664 0 -0.091771246122481498 -0.011044569211386442 0 -0.090190225534526783 -0.011579748568922457 0 -0.092342357689932875 -0.011220259273107137 0 -0.090901883253601726 -0.011525872044424646 0 -0.091765527725880286 -0.012968529727572783 0 -0.09208377458784156 -0.014610687591724542 0 -0.088068155330784256 -0.01481258385529622 0 -0.091613014821748551 -0.016882547748971462 0 -0.091765527725880286 -0.012968529727572783 0 -0.09208377458784156 -0.014610687591724542 0 -0.088068155330784256 -0.01481258385529622 0 -0.09208377458784156 -0.014610687591724542 0 -0.093660128693643804 -0.015365262533725964 0 -0.091613014821748551 -0.016882547748971462 0 -0.094831322560142067 -0.013561398557867923 0 -0.09208377458784156 -0.014610687591724542 0 -0.093660128693643804 -0.015365262533725964 0 -0.094831322560142067 -0.013561398557867923 0 -0.091765527725880286 -0.012968529727572783 0 -0.09208377458784156 -0.014610687591724542 0 -0.093660128693643804 -0.015365262533725964 0 -0.094712714733669517 -0.016760178228100303 0 -0.095058807153727054 -0.015333497707515397 0 -0.094831322560142067 -0.013561398557867923 0 -0.093660128693643804 -0.015365262533725964 0 -0.095058807153727054 -0.015333497707515397 0 -0.085003932882093028 -0.012363305551289505 0 -0.087748452857106252 -0.011908988399807868 0 -0.086961231186357138 -0.0099923595350725654 0 -0.085000012135466471 -0.012363762277638633 0 -0.087967405175049931 -0.011649265053599717 0 -0.085000008960042728 -0.01236375097294623 0 -0.087951532135390573 -0.011674965879984565 0 -0.087955048340442182 -0.014639715646710951 0 -0.090190225534526783 -0.011579748568922457 0 -0.087748452857106252 -0.011908988399807868 0 -0.088782303425704312 -0.010039093403997312 0 -0.090957647216693166 -0.010938580678852942 0 -0.087967405175049931 -0.011649265053599717 0 -0.090901883253601726 -0.011525872044424646 0 -0.091765527725880286 -0.012968529727572783 0 -0.088068155330784256 -0.01481258385529622 0 -0.090889207660741225 -0.010975611260807087 0 -0.087951532135390573 -0.011674965879984565 0 -0.087955048340442182 -0.014639715646710951 0 -0.090190225534526783 -0.011579748568922457 0 -0.087789075267038677 -0.014789681607254031 0 -0.085000008960042728 -0.01236375097294623 0 -0.087955048340442182 -0.014639715646710951 0 -0.084999986229228178 -0.015350350522624406 0 -0.087955048340442182 -0.014639715646710951 0 -0.084999986229228178 -0.015350350522624406 0 -0.085000003929126905 -0.018337014566170005 0 -0.087789075267038677 -0.014789681607254031 0 -0.085002495695471303 -0.018333814767902534 0 -0.088068155330784256 -0.01481258385529622 0 -0.085000030063617379 -0.01833732705132176 0 -0.088408933512240537 -0.018048670417126388 0 -0.088068155330784256 -0.01481258385529622 0 -0.088408933512240537 -0.018048670417126388 0 -0.091613014821748551 -0.016882547748971462 0 -0.088408933512240537 -0.018048670417126388 0 -0.089763185341187435 -0.020850784385879565 0 -0.091613014821748551 -0.016882547748971462 0 -0.088408933512240537 -0.018048670417126388 0 -0.089763185341187435 -0.020850784385879565 0 -0.087278281772057223 -0.020647523826886539 0 -0.084999907574015696 -0.022290419106810608 0 -0.085000030063617379 -0.01833732705132176 0 -0.087278281772057223 -0.020647523826886539 0 -0.085000030063617379 -0.01833732705132176 0 -0.088408933512240537 -0.018048670417126388 0 -0.087278281772057223 -0.020647523826886539 0 -0.094703597803748873 -0.015857987122893626 0 -0.093729743460256337 -0.016010299069664832 0 -0.095747570157420372 -0.017027117160077782 0 -0.091613014821748551 -0.016882547748971462 0 -0.093589111532897645 -0.020022299678969076 0 -0.093660128693643804 -0.015365262533725964 0 -0.094712714733669517 -0.016760178228100303 0 -0.091613014821748551 -0.016882547748971462 0 -0.089763185341187435 -0.020850784385879565 0 -0.091613014821748551 -0.016882547748971462 0 -0.093589111532897645 -0.020022299678969076 0 -0.091793973307565585 -0.022786430763555361 0 -0.089763185341187435 -0.020850784385879565 0 -0.093589111532897645 -0.020022299678969076 0 -0.095807115207938484 -0.022981292440070543 0 -0.093589111532897645 -0.020022299678969076 0 -0.096976272084798934 -0.01943662767155864 0 -0.095747570157420372 -0.017027117160077782 0 -0.093589111532897645 -0.020022299678969076 0 -0.096976272084798934 -0.01943662767155864 0 -0.093124523943191484 -0.023073451475428389 0 -0.093960579681251696 -0.020155962286579517 0 -0.095807115207938484 -0.022981292440070543 0 -0.096976272084798934 -0.01943662767155864 0 -0.099532029268963693 -0.020067574854420969 0 -0.096976272084798934 -0.01943662767155864 0 -0.099440937192198375 -0.01853100007652041 0 -0.099532029268963693 -0.020067574854420969 0 -0.094712714733669517 -0.016760178228100303 0 -0.097531019745309616 -0.016763668705503547 0 -0.097000128207448341 -0.01568367564272706 0 -0.094712714733669517 -0.016760178228100303 0 -0.095058807153727054 -0.015333497707515397 0 -0.097000128207448341 -0.01568367564272706 0 -0.095747570157420372 -0.017027117160077782 0 -0.096976272084798934 -0.01943662767155864 0 -0.098347284150732614 -0.017614158879203853 0 -0.094703597803748873 -0.015857987122893626 0 -0.094738334172270317 -0.015254262105226086 0 -0.095747570157420372 -0.017027117160077782 0 -0.098347284150732614 -0.017614158879203853 0 -0.099711621376463888 -0.017225846447110917 0 -0.096976272084798934 -0.01943662767155864 0 -0.098347284150732614 -0.017614158879203853 0 -0.099440937192198375 -0.01853100007652041 0 -0.094738334172270317 -0.015254262105226086 0 -0.091732203420038516 -0.016218471724637942 0 -0.093960579681251696 -0.020155962286579517 0 -0.091732203420038516 -0.016218471724637942 0 -0.097531019745309616 -0.016763668705503547 0 -0.10001396358618488 -0.015972776352100065 0 -0.098444539218987465 -0.015254165275673172 0 -0.099665002707920808 -0.017251573080478082 0 -0.099440937192198375 -0.01853100007652041 0 -0.10314833139362378 -0.017357375359138682 0 -0.094738334172270317 -0.015254262105226086 0 -0.090822390932414968 -0.013807264118441631 0 -0.099440937192198375 -0.01853100007652041 0 -0.099532029268963693 -0.020067574854420969 0 -0.10314833139362378 -0.017357375359138682 0 -0.098347284150732614 -0.017614158879203853 0 -0.099665002707920808 -0.017251573080478082 0 -0.099440937192198375 -0.01853100007652041 0 -0.095047433311799864 -0.015245222806199277 0 -0.094738334172270317 -0.015254262105226086 0 -0.0953616243160718 -0.027191820260000877 0 -0.094543734286462955 -0.02660729048919162 0 -0.095677806602827792 -0.026621719973159614 0 -0.094543734286462955 -0.02660729048919162 0 -0.095677806602827792 -0.026621719973159614 0 -0.095770613701031918 -0.025818574139542139 0 -0.096167173735300163 -0.027296216179955535 0 -0.0953616243160718 -0.027191820260000877 0 -0.095677806602827792 -0.026621719973159614 0 -0.096167173735300163 -0.027296216179955535 0 -0.095677806602827792 -0.026621719973159614 0 -0.096323770410910753 -0.026668062901345761 0 -0.095677806602827792 -0.026621719973159614 0 -0.096323770410910753 -0.026668062901345761 0 -0.095977641699405217 -0.026201230963012485 0 -0.096167173735300163 -0.027296216179955535 0 -0.096909125598522661 -0.027243530835184146 0 -0.096323770410910753 -0.026668062901345761 0 -0.096323770410910753 -0.026668062901345761 0 -0.096907604780768417 -0.026359225125512583 0 -0.096364186396497103 -0.026190181463429787 0 -0.096323770410910753 -0.026668062901345761 0 -0.096364186396497103 -0.026190181463429787 0 -0.095977641699405217 -0.026201230963012485 0 -0.096909125598522661 -0.027243530835184146 0 -0.096323770410910753 -0.026668062901345761 0 -0.096907604780768417 -0.026359225125512583 0 -0.097750455033036282 -0.026872606374915176 0 -0.096909125598522661 -0.027243530835184146 0 -0.096907604780768417 -0.026359225125512583 0 -0.098091797155170454 -0.025862475396744789 0 -0.096907604780768417 -0.026359225125512583 0 -0.096517043604433361 -0.02581964577379376 0 -0.096907604780768417 -0.026359225125512583 0 -0.096517043604433361 -0.02581964577379376 0 -0.096364186396497103 -0.026190181463429787 0 -0.089554513480979064 -0.016326929393336295 0 -0.090123346818666752 -0.01623283376076962 0 -0.096517043604433361 -0.02581964577379376 0 -0.096364186396497103 -0.026190181463429787 0 -0.096160105250655672 -0.025809341642237721 0 -0.089554513480979064 -0.016326929393336295 0 -0.08878058890652385 -0.014490154079720628 0 -0.088849639821775156 -0.015758548369364647 0 -0.088830999096940866 -0.015758292782057651 0 -0.0888424995753994 -0.015729903707122933 0 -0.088849639821775156 -0.015758548369364647 0 -0.088851943206871536 -0.015721840970756591 0 -0.0888424995753994 -0.015729903707122933 0 -0.090123346818666752 -0.01623283376076962 0 -0.089319694929690774 -0.014894805263096006 0 -0.088390569419833004 -0.016516997720743023 0 -0.088032801349731474 -0.016825268593824407 0 -0.088339791914205337 -0.017013551971319891 0 -0.093417825391784254 -0.014114848448322927 0 -0.091202643241114573 -0.01403990066053855 0 -0.091443284350306575 -0.014232088937054252 0 -0.093417825391784254 -0.014114848448322927 0 -0.091192148426325073 -0.014774539191786965 0 -0.091443284350306575 -0.014232088937054252 0 -0.095677806602827792 -0.026621719973159614 0 -0.095977641699405217 -0.026201230963012485 0 -0.095770613701031918 -0.025818574139542139 0 -0.096364186396497103 -0.026190181463429787 0 -0.095977641699405217 -0.026201230963012485 0 -0.096160105250655672 -0.025809341642237721 0 -0.095977641699405217 -0.026201230963012485 0 -0.095770613701031918 -0.025818574139542139 0 -0.096154880866022044 -0.025824737370669888 0 -0.090086736739032697 -0.016733807885157281 0 -0.090123346818666752 -0.01623283376076962 0 -0.091202643241114573 -0.01403990066053855 0 -0.09119161994172123 -0.014771530794327961 0 -0.091443284350306575 -0.014232088937054252 0 -0.091202643241114573 -0.01403990066053855 0 -0.09119161994172123 -0.014771530794327961 0 -0.090074175855596461 -0.014853536067147684 0 -0.089312843357352303 -0.015922819122654603 0 -0.089720682704257759 -0.015935078407655626 0 -0.089951839999100516 -0.015452597122545483 0 -0.091732203420038516 -0.016218471724637942 0 -0.089319694929690774 -0.014894805263096006 0 -0.091732203420038516 -0.016218471724637942 0 -0.090123346818666752 -0.01623283376076962 0 -0.090822390932414968 -0.013807264118441631 0 -0.090824127823686485 -0.013824686172783471 0 -0.10001396358618488 -0.015972776352100065 0 -0.099510462743993236 -0.014872026823120882 0 -0.098444539218987465 -0.015254165275673172 0 -0.10001396358618488 -0.015972776352100065 0 -0.10068107537225938 -0.014504000550499597 0 -0.099510462743993236 -0.014872026823120882 0 -0.089369323043241522 -0.014295897122239344 0 -0.089671078518179431 -0.013634676726198683 0 -0.09000747119071302 -0.014103747191871093 0 -0.090822390932414968 -0.013807264118441631 0 -0.089358628684175517 -0.013200897248391481 0 -0.090822390932414968 -0.013807264118441631 0 -0.088956880210934633 -0.014407842671730259 0 -0.08968854765902054 -0.011450124624370679 0 -0.089551358372992565 -0.011747504257209237 0 -0.090871984079186771 -0.012122145571651506 0 -0.089358628684175517 -0.013200897248391481 0 -0.088865128848472141 -0.012426109063859662 0 -0.089358628684175517 -0.013200897248391481 0 -0.091980635822692142 -0.012778060287334745 0 -0.10068107537225938 -0.014504000550499597 0 -0.099510462743993236 -0.014872026823120882 0 -0.098898285191405588 -0.013753207974398681 0 -0.099510462743993236 -0.014872026823120882 0 -0.098898285191405588 -0.013753207974398681 0 -0.098444539218987465 -0.015254165275673172 0 -0.087117542130883047 -0.014287778764024173 0 -0.087405305433364944 -0.013920194127758131 0 -0.087207536688953563 -0.014652666075714844 0 -0.087236115896037789 -0.014644153314520934 0 -0.087149967641345014 -0.014548708766509011 0 -0.086470737615987295 -0.014472702913355661 0 -0.086001514355933686 -0.014277685517316344 0 -0.086230064552815552 -0.014209728952095418 0 -0.087405305433364944 -0.013920194127758131 0 -0.086904481458013674 -0.013749746547967276 0 -0.087810878947796989 -0.017086177608264381 0 -0.088032801349731474 -0.016825268593824407 0 -0.088004961407485371 -0.017164873874538862 0 -0.087405305433364944 -0.013920194127758131 0 -0.08878058890652385 -0.014490154079720628 0 -0.088032801349731474 -0.016825268593824407 0 -0.088004961407485371 -0.017164873874538862 0 -0.088339791914205337 -0.017013551971319891 0 -0.087405305433364944 -0.013920194127758131 0 -0.088186664766809211 -0.013538692100916658 0 -0.088940223180351344 -0.014467733708893463 0 -0.089381942821809987 -0.014600918273956999 0 -0.089417307550544944 -0.014252319187722887 0 -0.089671078518179431 -0.013634676726198683 0 -0.090125278062386599 -0.013859916913686189 0 -0.09000747119071302 -0.014103747191871093 0 -0.09119161994172123 -0.014771530794327961 0 -0.089931162382565322 -0.015145139955156171 0 -0.090074175855596461 -0.014853536067147684 0 -0.088186664766809211 -0.013538692100916658 0 -0.08878058890652385 -0.014490154079720628 0 -0.088186664766809211 -0.013538692100916658 0 -0.088956880210934633 -0.014407842671730259 0 -0.087716997030708871 -0.014308169574431972 0 -0.087726761360088348 -0.01421398295034155 0 -0.087758522627217825 -0.014224599804305269 0 -0.090005198250017238 -0.015034057703437491 0 -0.089893105246901459 -0.014996406929354521 0 -0.089803823774391528 -0.015180889570275958 0 -0.088956880210934633 -0.014407842671730259 0 -0.089319694929690774 -0.014894805263096006 0 -0.08878058890652385 -0.014490154079720628 0 -0.089319694929690774 -0.014894805263096006 0 -0.08878058890652385 -0.014490154079720628 0 -0.088956880210934633 -0.014407842671730259 0 -0.089358628684175517 -0.013200897248391481 0 -0.088186664766809211 -0.013538692100916658 0 -0.08865953272167755 -0.012793685361528771 0 -0.087676738048746816 -0.012308573269901783 0 -0.087611874535817355 -0.012958146264167934 0 -0.08865953272167755 -0.012793685361528771 0 -0.088469611919691063 -0.013205726544899111 0 -0.087611874535817355 -0.012958146264167934 0 -0.087696678949315862 -0.01328662694446299 0 -0.088030100564910035 -0.013383646502235841 0 -0.087799926910122589 -0.013061818798400458 0 -0.088865128848472141 -0.012426109063859662 0 -0.087606049180247683 -0.012339651670685972 0 -0.088186664766809211 -0.013538692100916658 0 -0.087606049180247683 -0.012339651670685972 0 -0.087207536688953563 -0.014652666075714844 0 -0.087114046047838331 -0.014623463829510252 0 -0.087149967641345014 -0.014548708766509011 0 -0.088732921165635512 -0.01303229444344961 0 -0.088834192822486432 -0.012016646705125445 0 -0.08917885582209821 -0.012115639870547305 0 -0.088186664766809211 -0.013538692100916658 0 -0.087135375402328755 -0.012501682184583987 0 -0.087606049180247683 -0.012339651670685972 0 -0.087135375402328755 -0.012501682184583987 0 -0.086904481458013674 -0.013749746547967276 0 -0.087135375402328755 -0.012501682184583987 0 -0.084771989531724865 -0.0081882500343573011 0 -0.082798265802358023 -0.007757669149838416 0 -0.083833332070398128 -0.0055407039178517374 0 -0.086061532153577119 -0.010759729793611991 0 -0.088127778099039933 -0.011709543414847205 0 -0.084342868732759452 -0.010711568765991679 0 -0.087135375402328755 -0.012501682184583987 0 -0.080909812191072683 -0.0087219190212919039 0 -0.082401995321389296 -0.006245246984454428 0 -0.082198122146648248 -0.0061871336311620966 0 -0.086700663391620802 -0.011078945748219896 0 -0.086628450050631897 -0.011837546213068411 0 -0.086461543080918482 -0.011606306024017715 0 -0.086061532153577119 -0.010759729793611991 0 -0.087606049180247683 -0.012339651670685972 0 -0.080909812191072683 -0.0087219190212919039 0 -0.08213388672195801 -0.0087099934792612757 0 -0.082401995321389296 -0.006245246984454428 0 -0.087606049180247683 -0.012339651670685972 0 -0.088127778099039933 -0.011709543414847205 0 -0.088865128848472141 -0.012426109063859662 0 -0.088127778099039933 -0.011709543414847205 0 -0.090215097572406491 -0.011013393333214411 0 -0.09013160778077095 -0.011194685805955801 0 -0.090795998647206361 -0.011179401197986763 0 -0.091840532399423483 -0.0088366834012950871 0 -0.088127778099039933 -0.011709543414847205 0 -0.090893007347138177 -0.012011407195041051 0 -0.09013160778077095 -0.011194685805955801 0 -0.090795998647206361 -0.011179401197986763 0 -0.08968854765902054 -0.011450124624370679 0 -0.090871984079186771 -0.012122145571651506 0 -0.090948939434967568 -0.011961944028485189 0 -0.088865128848472141 -0.012426109063859662 0 -0.090607244494830361 -0.011993986257385309 0 -0.090893007347138177 -0.012011407195041051 0 -0.090795998647206361 -0.011179401197986763 0 -0.091375877431866329 -0.011346096366271652 0 -0.091980635822692142 -0.012778060287334745 0 -0.09222045426511867 -0.011610687820022206 0 -0.090607244494830361 -0.011993986257385309 0 -0.09222045426511867 -0.011610687820022206 0 -0.090871984079186771 -0.012122145571651506 0 -0.090948939434967568 -0.011961944028485189 0 -0.092186919046241392 -0.012483733300535987 0 -0.097107888744646167 -0.012950848857549855 0 -0.096473915077700312 -0.013814947915104899 0 -0.09737233859118069 -0.013945582299919535 0 -0.098898285191405588 -0.013753207974398681 0 -0.097107888744646167 -0.012950848857549855 0 -0.09737233859118069 -0.013945582299919535 0 -0.092071931144053598 -0.0098437893158059234 0 -0.09212282322239794 -0.0096605378131790452 0 -0.092174382296467017 -0.0096752257221566409 0 -0.092313990507980379 -0.010516696517352498 0 -0.092411064243637681 -0.011481495999368449 0 -0.09222045426511867 -0.011610687820022206 0 -0.092411064243637681 -0.011481495999368449 0 -0.09480086068411249 -0.013794343365869507 0 -0.096749592798314243 -0.012799211429267477 0 -0.096473915077700312 -0.013814947915104899 0 -0.09712391814514218 -0.012907539631451163 0 -0.096749592798314243 -0.012799211429267477 0 -0.096473915077700312 -0.013814947915104899 0 -0.09222045426511867 -0.011610687820022206 0 -0.092401036643636941 -0.011597042783821862 0 -0.096473915077700312 -0.013814947915104899 0 -0.096709143208657741 -0.014537886481473342 0 -0.09737233859118069 -0.013945582299919535 0 -0.09480086068411249 -0.013794343365869507 0 -0.096709143208657741 -0.014537886481473342 0 -0.097000128207448341 -0.01568367564272706 0 -0.094831322560142067 -0.013561398557867923 0 -0.095058807153727054 -0.015333497707515397 0 -0.097000128207448341 -0.01568367564272706 0 -0.094161741886270897 -0.013139823452263664 0 -0.095255404574338134 -0.01410735544357807 0 -0.09480086068411249 -0.013794343365869507 0 -0.096473915077700312 -0.013814947915104899 0 -0.096709143208657741 -0.014537886481473342 0 -0.097531019745309616 -0.016763668705503547 0 -0.097000128207448341 -0.01568367564272706 0 -0.098444539218987465 -0.015254165275673172 0 -0.096709143208657741 -0.014537886481473342 0 -0.097000128207448341 -0.01568367564272706 0 -0.097681325075517994 -0.014641119085644716 0 -0.097000128207448341 -0.01568367564272706 0 -0.098444539218987465 -0.015254165275673172 0 -0.097681325075517994 -0.014641119085644716 0 -0.098898285191405588 -0.013753207974398681 0 -0.098444539218987465 -0.015254165275673172 0 -0.097681325075517994 -0.014641119085644716 0 -0.098898285191405588 -0.013753207974398681 0 -0.09737233859118069 -0.013945582299919535 0 -0.097681325075517994 -0.014641119085644716 0 -0.096709143208657741 -0.014537886481473342 0 -0.09737233859118069 -0.013945582299919535 0 -0.097681325075517994 -0.014641119085644716 0 -0.037471319965197043 -0.0051679708168390201 0 -0.037123508457617277 -0.0047242621892845168 0 -0.03718626051662615 -0.0053268058038176769 0 -0.037471319965197043 -0.0051679708168390201 0 -0.03718626051662615 -0.0053268058038176769 0 -0.037393443744423938 -0.0057441390612892416 0 -0.037471319965197043 -0.0051679708168390201 0 -0.037393443744423938 -0.0057441390612892416 0 -0.037715914716751717 -0.005906037721499429 0 -0.037471319965197043 -0.0051679708168390201 0 -0.037910203935387771 -0.0056031448765692937 0 -0.037807421587199602 -0.0049896395429976474 0 -0.037471319965197043 -0.0051679708168390201 0 -0.037910203935387771 -0.0056031448765692937 0 -0.037715914716751717 -0.005906037721499429 0 -0.037910203935387771 -0.0056031448765692937 0 -0.037715914716751717 -0.005906037721499429 0 -0.038067662317525452 -0.0061049023275527156 0 -0.037910203935387771 -0.0056031448765692937 0 -0.037807421587199602 -0.0049896395429976474 0 -0.038116042087980938 -0.0052923720855878199 0 -0.037471319965197043 -0.0051679708168390201 0 -0.037807421587199602 -0.0049896395429976474 0 -0.037614545296771981 -0.0044811946147219643 0 -0.037614545296771981 -0.0044811946147219643 0 -0.037929859979705514 -0.0044534891549707165 0 -0.037588251835564482 -0.0038876451743461594 0 -0.037807421587199602 -0.0049896395429976474 0 -0.037614545296771981 -0.0044811946147219643 0 -0.037929859979705514 -0.0044534891549707165 0 -0.037614545296771981 -0.0044811946147219643 0 -0.037413822794711775 -0.0043648125691411821 0 -0.037588251835564482 -0.0038876451743461594 0 -0.037471319965197043 -0.0051679708168390201 0 -0.037413822794711775 -0.0043648125691411821 0 -0.037123508457617277 -0.0047242621892845168 0 -0.037471319965197043 -0.0051679708168390201 0 -0.037614545296771981 -0.0044811946147219643 0 -0.037413822794711775 -0.0043648125691411821 0 -0.037413822794711775 -0.0043648125691411821 0 -0.037123508457617277 -0.0047242621892845168 0 -0.037146072548214983 -0.0039995879250104022 0 -0.037123508457617277 -0.0047242621892845168 0 -0.036819776812415494 -0.0043002241610380857 0 -0.037146072548214983 -0.0039995879250104022 0 -0.037123508457617277 -0.0047242621892845168 0 -0.036819776812415494 -0.0043002241610380857 0 -0.036777015496995441 -0.0049000812866610635 0 -0.036819776812415494 -0.0043002241610380857 0 -0.036367910446260227 -0.004070461149242823 0 -0.036463881873170116 -0.0046347803474379966 0 -0.036777015496995441 -0.0049000812866610635 0 -0.036465418296306049 -0.0052098220524964337 0 -0.036463881873170116 -0.0046347803474379966 0 -0.036819776812415494 -0.0043002241610380857 0 -0.036777015496995441 -0.0049000812866610635 0 -0.036463881873170116 -0.0046347803474379966 0 -0.036777015496995441 -0.0049000812866610635 0 -0.036465418296306049 -0.0052098220524964337 0 -0.036882791549545817 -0.0053606026596842013 0 -0.036465418296306049 -0.0052098220524964337 0 -0.036882791549545817 -0.0053606026596842013 0 -0.036576077845135391 -0.0057740541874234056 0 -0.036465418296306049 -0.0052098220524964337 0 -0.036576077845135391 -0.0057740541874234056 0 -0.036189318126138244 -0.0058863754011630838 0 -0.03718626051662615 -0.0053268058038176769 0 -0.036882791549545817 -0.0053606026596842013 0 -0.037010415965095841 -0.0060347982043185361 0 -0.037123508457617277 -0.0047242621892845168 0 -0.03718626051662615 -0.0053268058038176769 0 -0.036882791549545817 -0.0053606026596842013 0 -0.037123508457617277 -0.0047242621892845168 0 -0.036777015496995441 -0.0049000812866610635 0 -0.036882791549545817 -0.0053606026596842013 0 -0.03718626051662615 -0.0053268058038176769 0 -0.037010415965095841 -0.0060347982043185361 0 -0.037393443744423938 -0.0057441390612892416 0 -0.036882791549545817 -0.0053606026596842013 0 -0.037010415965095841 -0.0060347982043185361 0 -0.036576077845135391 -0.0057740541874234056 0 -0.037010415965095841 -0.0060347982043185361 0 -0.036576077845135391 -0.0057740541874234056 0 -0.036501599696685198 -0.0063121550720275661 0 -0.036576077845135391 -0.0057740541874234056 0 -0.036501599696685198 -0.0063121550720275661 0 -0.036189318126138244 -0.0058863754011630838 0 -0.036501599696685198 -0.0063121550720275661 0 -0.036904846667611256 -0.0066526393753023527 0 -0.036398798615245913 -0.0069037374862722803 0 -0.037010415965095841 -0.0060347982043185361 0 -0.036904846667611256 -0.0066526393753023527 0 -0.03741718109276599 -0.0067053477979927747 0 -0.037010415965095841 -0.0060347982043185361 0 -0.036501599696685198 -0.0063121550720275661 0 -0.036904846667611256 -0.0066526393753023527 0 -0.03741718109276599 -0.0067053477979927747 0 -0.037564190584354791 -0.0062591131963875548 0 -0.037893149816764643 -0.0066649302682287121 0 -0.037010415965095841 -0.0060347982043185361 0 -0.03741718109276599 -0.0067053477979927747 0 -0.037564190584354791 -0.0062591131963875548 0 -0.037010415965095841 -0.0060347982043185361 0 -0.037564190584354791 -0.0062591131963875548 0 -0.037393443744423938 -0.0057441390612892416 0 -0.037564190584354791 -0.0062591131963875548 0 -0.037393443744423938 -0.0057441390612892416 0 -0.037715914716751717 -0.005906037721499429 0 -0.037715914716751717 -0.005906037721499429 0 -0.037889016790753606 -0.0063038584209008262 0 -0.038067662317525452 -0.0061049023275527156 0 -0.037564190584354791 -0.0062591131963875548 0 -0.037889016790753606 -0.0063038584209008262 0 -0.037893149816764643 -0.0066649302682287121 0 -0.037564190584354791 -0.0062591131963875548 0 -0.037715914716751717 -0.005906037721499429 0 -0.037889016790753606 -0.0063038584209008262 0 -0.037889016790753606 -0.0063038584209008262 0 -0.038067662317525452 -0.0061049023275527156 0 -0.038218306387870694 -0.0065733451343060259 0 -0.037889016790753606 -0.0063038584209008262 0 -0.037893149816764643 -0.0066649302682287121 0 -0.038218306387870694 -0.0065733451343060259 0 -0.03741718109276599 -0.0067053477979927747 0 -0.037893149816764643 -0.0066649302682287121 0 -0.037900983019519753 -0.0071016562318189022 0 -0.037893149816764643 -0.0066649302682287121 0 -0.038285033819218814 -0.0068891692137213268 0 -0.037900983019519753 -0.0071016562318189022 0 -0.038285033819218814 -0.0068891692137213268 0 -0.038606790267053361 -0.0071460268068981956 0 -0.037900983019519753 -0.0071016562318189022 0 -0.025154001550875011 -0.021545954805097526 0 -0.025356624563829387 -0.02064707016461647 0 -0.025965558396311025 -0.022625107598136403 0 -0.038285033819218814 -0.0068891692137213268 0 -0.038521821647851215 -0.0068279867695161577 0 -0.038218306387870694 -0.0065733451343060259 0 -0.037893149816764643 -0.0066649302682287121 0 -0.038285033819218814 -0.0068891692137213268 0 -0.038218306387870694 -0.0065733451343060259 0 -0.038285033819218814 -0.0068891692137213268 0 -0.038521821647851215 -0.0068279867695161577 0 -0.038552648665327711 -0.00698813570032796 0 -0.038285033819218814 -0.0068891692137213268 0 -0.038552648665327711 -0.00698813570032796 0 -0.038606790267053361 -0.0071460268068981956 0 -0.025154001550875011 -0.021545954805097526 0 -0.025356624563829387 -0.02064707016461647 0 -0.030554558762518565 -0.01871662223023066 0 -0.038809890270326108 -0.007090861020990471 0 -0.039056714588718212 -0.0071287124961125162 0 -0.039481175639568149 -0.0075635560916521771 0 -0.033954271879023751 -0.013158029935463774 0 -0.036697623238634923 -0.011510929908802951 0 -0.038606790267053361 -0.0071460268068981956 0 -0.038809890270326108 -0.007090861020990471 0 -0.039481175639568149 -0.0075635560916521771 0 -0.024590181453526105 -0.021078299405757037 0 -0.024957056219693369 -0.020987656778273443 0 -0.038552648665327711 -0.00698813570032796 0 -0.038606790267053361 -0.0071460268068981956 0 -0.038809890270326108 -0.007090861020990471 0 -0.038521821647851215 -0.0068279867695161577 0 -0.038552648665327711 -0.00698813570032796 0 -0.038809890270326108 -0.007090861020990471 0 -0.038521821647851215 -0.0068279867695161577 0 -0.038809890270326108 -0.007090861020990471 0 -0.038810257773779805 -0.0068440092192848957 0 -0.038521821647851215 -0.0068279867695161577 0 -0.038810257773779805 -0.0068440092192848957 0 -0.038475412906954366 -0.0064594587855198579 0 -0.038810257773779805 -0.0068440092192848957 0 -0.039056714588718212 -0.0071287124961125162 0 -0.039209280085589923 -0.0070061451083988984 0 -0.038809890270326108 -0.007090861020990471 0 -0.038810257773779805 -0.0068440092192848957 0 -0.039056714588718212 -0.0071287124961125162 0 -0.038817638766972196 -0.006536920168141531 0 -0.039209280085589923 -0.0070061451083988984 0 -0.039072430827954856 -0.0064301143162588253 0 -0.038810257773779805 -0.0068440092192848957 0 -0.038817638766972196 -0.006536920168141531 0 -0.039209280085589923 -0.0070061451083988984 0 -0.038810257773779805 -0.0068440092192848957 0 -0.038817638766972196 -0.006536920168141531 0 -0.038475412906954366 -0.0064594587855198579 0 -0.038817638766972196 -0.006536920168141531 0 -0.038475412906954366 -0.0064594587855198579 0 -0.038617577876580253 -0.0059133865969507706 0 -0.038475412906954366 -0.0064594587855198579 0 -0.038067662317525452 -0.0061049023275527156 0 -0.038218306387870694 -0.0065733451343060259 0 -0.038475412906954366 -0.0064594587855198579 0 -0.038067662317525452 -0.0061049023275527156 0 -0.038249060894167963 -0.0058810491059538431 0 -0.038521821647851215 -0.0068279867695161577 0 -0.038475412906954366 -0.0064594587855198579 0 -0.038218306387870694 -0.0065733451343060259 0 -0.039479969151222191 -0.016990686770754063 0 -0.031512967924971991 -0.014062927746590549 0 -0.040643672864846284 -0.0091131252298891317 0 -0.023129082582660238 -0.020853182055703804 0 -0.024957056219693369 -0.020987656778273443 0 -0.039479969151222191 -0.016990686770754063 0 -0.031512967924971991 -0.014062927746590549 0 -0.030554558762518565 -0.01871662223023066 0 -0.025356624563829387 -0.02064707016461647 0 -0.031512967924971991 -0.014062927746590549 0 -0.030554558762518565 -0.01871662223023066 0 -0.039056714588718212 -0.0071287124961125162 0 -0.039481175639568149 -0.0075635560916521771 0 -0.039209280085589923 -0.0070061451083988984 0 -0.039209280085589923 -0.0070061451083988984 0 -0.039505608953816253 -0.0066447618876717884 0 -0.039072430827954856 -0.0064301143162588253 0 -0.039209280085589923 -0.0070061451083988984 0 -0.039749773707700539 -0.0074924972413355287 0 -0.039505608953816253 -0.0066447618876717884 0 -0.039749773707700539 -0.0074924972413355287 0 -0.040185374332400457 -0.0071569699973545531 0 -0.039505608953816253 -0.0066447618876717884 0 -0.039481175639568149 -0.0075635560916521771 0 -0.039209280085589923 -0.0070061451083988984 0 -0.039749773707700539 -0.0074924972413355287 0 -0.039749773707700539 -0.0074924972413355287 0 -0.040185374332400457 -0.0071569699973545531 0 -0.040643672864846284 -0.0091131252298891317 0 -0.039481175639568149 -0.0075635560916521771 0 -0.039749773707700539 -0.0074924972413355287 0 -0.040643672864846284 -0.0091131252298891317 0 -0.040185374332400457 -0.0071569699973545531 0 -0.040643672864846284 -0.0091131252298891317 0 -0.041303632487567174 -0.0066659887000149005 0 -0.036697623238634923 -0.011510929908802951 0 -0.038681798296740053 -0.010580570354623288 0 -0.040185374332400457 -0.0071569699973545531 0 -0.040208643734241115 -0.0057856688686914902 0 -0.041303632487567174 -0.0066659887000149005 0 -0.040185374332400457 -0.0071569699973545531 0 -0.039505608953816253 -0.0066447618876717884 0 -0.040208643734241115 -0.0057856688686914902 0 -0.039505608953816253 -0.0066447618876717884 0 -0.039471508946004888 -0.0053259548888993395 0 -0.040208643734241115 -0.0057856688686914902 0 -0.039505608953816253 -0.0066447618876717884 0 -0.039471508946004888 -0.0053259548888993395 0 -0.038993760992226144 -0.0057862641663411251 0 -0.039505608953816253 -0.0066447618876717884 0 -0.039072430827954856 -0.0064301143162588253 0 -0.038993760992226144 -0.0057862641663411251 0 -0.039471508946004888 -0.0053259548888993395 0 -0.040208643734241115 -0.0057856688686914902 0 -0.040226828316392606 -0.0043098226889121067 0 -0.039471508946004888 -0.0053259548888993395 0 -0.040226828316392606 -0.0043098226889121067 0 -0.03920714326624912 -0.004307180633966126 0 -0.040208643734241115 -0.0057856688686914902 0 -0.041303632487567174 -0.0066659887000149005 0 -0.041501293159815641 -0.0047254195759156474 0 -0.040208643734241115 -0.0057856688686914902 0 -0.040226828316392606 -0.0043098226889121067 0 -0.041501293159815641 -0.0047254195759156474 0 -0.038116042087980938 -0.0052923720855878199 0 -0.038617577876580253 -0.0059133865969507706 0 -0.038438144785731584 -0.0051300284357195082 0 -0.038116042087980938 -0.0052923720855878199 0 -0.038249060894167963 -0.0058810491059538431 0 -0.038617577876580253 -0.0059133865969507706 0 -0.037910203935387771 -0.0056031448765692937 0 -0.038116042087980938 -0.0052923720855878199 0 -0.038249060894167963 -0.0058810491059538431 0 -0.037910203935387771 -0.0056031448765692937 0 -0.038067662317525452 -0.0061049023275527156 0 -0.038249060894167963 -0.0058810491059538431 0 -0.038475412906954366 -0.0064594587855198579 0 -0.038249060894167963 -0.0058810491059538431 0 -0.038617577876580253 -0.0059133865969507706 0 -0.038817638766972196 -0.006536920168141531 0 -0.038617577876580253 -0.0059133865969507706 0 -0.039072430827954856 -0.0064301143162588253 0 -0.038617577876580253 -0.0059133865969507706 0 -0.039072430827954856 -0.0064301143162588253 0 -0.038993760992226144 -0.0057862641663411251 0 -0.038617577876580253 -0.0059133865969507706 0 -0.038993760992226144 -0.0057862641663411251 0 -0.038438144785731584 -0.0051300284357195082 0 -0.038993760992226144 -0.0057862641663411251 0 -0.038886588570400983 -0.0050037688614625025 0 -0.038438144785731584 -0.0051300284357195082 0 -0.039471508946004888 -0.0053259548888993395 0 -0.038993760992226144 -0.0057862641663411251 0 -0.038886588570400983 -0.0050037688614625025 0 -0.039471508946004888 -0.0053259548888993395 0 -0.038886588570400983 -0.0050037688614625025 0 -0.03920714326624912 -0.004307180633966126 0 -0.038886588570400983 -0.0050037688614625025 0 -0.038508035235213012 -0.004332701834643524 0 -0.03920714326624912 -0.004307180633966126 0 -0.038886588570400983 -0.0050037688614625025 0 -0.038438144785731584 -0.0051300284357195082 0 -0.038508035235213012 -0.004332701834643524 0 -0.038438144785731584 -0.0051300284357195082 0 -0.037929859979705514 -0.0044534891549707165 0 -0.038508035235213012 -0.004332701834643524 0 -0.038116042087980938 -0.0052923720855878199 0 -0.038438144785731584 -0.0051300284357195082 0 -0.037929859979705514 -0.0044534891549707165 0 -0.037807421587199602 -0.0049896395429976474 0 -0.038116042087980938 -0.0052923720855878199 0 -0.037929859979705514 -0.0044534891549707165 0 -0.037929859979705514 -0.0044534891549707165 0 -0.038077051731990975 -0.003644947835782896 0 -0.037758214016938497 -0.0038028230498144415 0 -0.037929859979705514 -0.0044534891549707165 0 -0.038077051731990975 -0.003644947835782896 0 -0.038508035235213012 -0.004332701834643524 0 -0.038077051731990975 -0.003644947835782896 0 -0.037568609862280923 -0.0032002745203988563 0 -0.037758214016938497 -0.0038028230498144415 0 -0.038508035235213012 -0.004332701834643524 0 -0.03867072671502933 -0.0034024506442086951 0 -0.03920714326624912 -0.004307180633966126 0 -0.038077051731990975 -0.003644947835782896 0 -0.038508035235213012 -0.004332701834643524 0 -0.03867072671502933 -0.0034024506442086951 0 -0.03867072671502933 -0.0034024506442086951 0 -0.037812043932836666 -0.002875906505465999 0 -0.038814007754627088 -0.0019688766266250006 0 -0.037812043932836666 -0.002875906505465999 0 -0.037677979806166634 -0.0015294677196797031 0 -0.038814007754627088 -0.0019688766266250006 0 -0.03867072671502933 -0.0034024506442086951 0 -0.039979387320967209 -0.0030162819578315528 0 -0.038814007754627088 -0.0019688766266250006 0 -0.037812043932836666 -0.002875906505465999 0 -0.037259697713681171 -0.0023998698482991018 0 -0.037677979806166634 -0.0015294677196797031 0 -0.037812043932836666 -0.002875906505465999 0 -0.037259697713681171 -0.0023998698482991018 0 -0.037568609862280923 -0.0032002745203988563 0 -0.038077051731990975 -0.003644947835782896 0 -0.037812043932836666 -0.002875906505465999 0 -0.037568609862280923 -0.0032002745203988563 0 -0.038077051731990975 -0.003644947835782896 0 -0.03867072671502933 -0.0034024506442086951 0 -0.037812043932836666 -0.002875906505465999 0 -0.040226828316392606 -0.0043098226889121067 0 -0.039979387320967209 -0.0030162819578315528 0 -0.041478565752750565 -0.0029465572407330574 0 -0.040226828316392606 -0.0043098226889121067 0 -0.041478565752750565 -0.0029465572407330574 0 -0.041501293159815641 -0.0047254195759156474 0 -0.03867072671502933 -0.0034024506442086951 0 -0.03920714326624912 -0.004307180633966126 0 -0.039979387320967209 -0.0030162819578315528 0 -0.040226828316392606 -0.0043098226889121067 0 -0.03920714326624912 -0.004307180633966126 0 -0.039979387320967209 -0.0030162819578315528 0 -0.039979387320967209 -0.0030162819578315528 0 -0.040984455127904836 -0.0015470086720363596 0 -0.038814007754627088 -0.0019688766266250006 0 -0.039979387320967209 -0.0030162819578315528 0 -0.041478565752750565 -0.0029465572407330574 0 -0.040984455127904836 -0.0015470086720363596 0 -0.040984455127904836 -0.0015470086720363596 0 -0.04004042181722256 -0.00039988202011067799 0 -0.041376734492540618 -0.00020418426614173554 0 -0.040984455127904836 -0.0015470086720363596 0 -0.041376734492540618 -0.00020418426614173554 0 -0.042411484701662866 -0.00061790863917635162 0 -0.040984455127904836 -0.0015470086720363596 0 -0.04004042181722256 -0.00039988202011067799 0 -0.038814007754627088 -0.0019688766266250006 0 -0.039539032139550394 0.00044148760894373361 0 -0.039025793688323943 -0.00046316023413216911 0 -0.039701882076118029 0.0001990925625835699 0 -0.040969689139101928 0.0024924486028589246 0 -0.038724114661483823 0.0018165807471946344 0 -0.039701882076118029 0.0001990925625835699 0 -0.038011346858776399 0.00019977342186599519 0 -0.038724114661483823 0.0018165807471946344 0 -0.04004042181722256 -0.00039988202011067799 0 -0.041376734492540618 -0.00020418426614173554 0 -0.041238012849064205 0.0009160359433641683 0 -0.039539032139550394 0.00044148760894373361 0 -0.040410488116321704 0.0022953584190164847 0 -0.037677979806166634 -0.0015294677196797031 0 -0.038011346858776399 0.00019977342186599519 0 -0.036421548431436197 -0.00044930730708313493 0 -0.036623814833720375 -0.00086724394429238741 0 -0.03656472404219456 -0.00046315047423119035 0 -0.037259697713681171 -0.0023998698482991018 0 -0.037677979806166634 -0.0015294677196797031 0 -0.036421548431436197 -0.00044930730708313493 0 -0.037677979806166634 -0.0015294677196797031 0 -0.038814007754627088 -0.0019688766266250006 0 -0.038011346858776399 0.00019977342186599519 0 -0.039701882076118029 0.0001990925625835699 0 -0.038814007754627088 -0.0019688766266250006 0 -0.038011346858776399 0.00019977342186599519 0 -0.038011346858776399 0.00019977342186599519 0 -0.03752686067889166 0.0023253790397177719 0 -0.036139149182791742 0.0011917660872971881 0 -0.038011346858776399 0.00019977342186599519 0 -0.036421548431436197 -0.00044930730708313493 0 -0.036139149182791742 0.0011917660872971881 0 -0.03656472404219456 -0.00046315047423119035 0 -0.036418203116732786 0.00073039645276544364 0 -0.038642714917487227 -0.001599757917852567 0 -0.038619132242002377 -0.00087472506224239323 0 -0.039609988841735624 -0.0013620334074572605 0 -0.037133943990157993 -0.00055086843471034285 0 -0.036418203116732786 0.00073039645276544364 0 -0.037316784283805894 -0.0026901052930129498 0 -0.037521349228430437 -0.0026958781132707869 0 -0.037321344208602905 -0.0028099729956734261 0 -0.038642714917487227 -0.001599757917852567 0 -0.038119798667812337 -0.00094486966434336546 0 -0.038619132242002377 -0.00087472506224239323 0 -0.037521349228430437 -0.0026958781132707869 0 -0.037536421831175046 -0.0026863258273898236 0 -0.037639534733470474 -0.002238820364505878 0 -0.037521349228430437 -0.0026958781132707869 0 -0.037536421831175046 -0.0026863258273898236 0 -0.037471375974700447 -0.0026524956924692659 0 -0.037316784283805894 -0.0026901052930129498 0 -0.037521349228430437 -0.0026958781132707869 0 -0.037471375974700447 -0.0026524956924692659 0 -0.037259697713681171 -0.0023998698482991018 0 -0.037316784283805894 -0.0026901052930129498 0 -0.037471375974700447 -0.0026524956924692659 0 -0.037259697713681171 -0.0023998698482991018 0 -0.037471375974700447 -0.0026524956924692659 0 -0.037500145489793565 -0.0030658980717641628 0 -0.037259697713681171 -0.0023998698482991018 0 -0.037568609862280923 -0.0032002745203988563 0 -0.037500145489793565 -0.0030658980717641628 0 -0.037536421831175046 -0.0026863258273898236 0 -0.037471375974700447 -0.0026524956924692659 0 -0.037500145489793565 -0.0030658980717641628 0 -0.037536421831175046 -0.0026863258273898236 0 -0.037500145489793565 -0.0030658980717641628 0 -0.03734700814638868 -0.0033749110605036207 0 -0.037500145489793565 -0.0030658980717641628 0 -0.037430935952800025 -0.0036885129043622688 0 -0.037588251835564482 -0.0038876451743461594 0 -0.037500145489793565 -0.0030658980717641628 0 -0.037430935952800025 -0.0036885129043622688 0 -0.03734700814638868 -0.0033749110605036207 0 -0.037413822794711775 -0.0043648125691411821 0 -0.037430935952800025 -0.0036885129043622688 0 -0.037146072548214983 -0.0039995879250104022 0 -0.037413822794711775 -0.0043648125691411821 0 -0.037430935952800025 -0.0036885129043622688 0 -0.037588251835564482 -0.0038876451743461594 0 -0.037568609862280923 -0.0032002745203988563 0 -0.037500145489793565 -0.0030658980717641628 0 -0.037588251835564482 -0.0038876451743461594 0 -0.037929859979705514 -0.0044534891549707165 0 -0.037588251835564482 -0.0038876451743461594 0 -0.037758214016938497 -0.0038028230498144415 0 -0.037568609862280923 -0.0032002745203988563 0 -0.037588251835564482 -0.0038876451743461594 0 -0.037758214016938497 -0.0038028230498144415 0 -0.036819776812415494 -0.0043002241610380857 0 -0.036956935942749444 -0.0034316613817019209 0 -0.037146072548214983 -0.0039995879250104022 0 -0.036819776812415494 -0.0043002241610380857 0 -0.036956935942749444 -0.0034316613817019209 0 -0.036367910446260227 -0.004070461149242823 0 -0.036956935942749444 -0.0034316613817019209 0 -0.037146072548214983 -0.0039995879250104022 0 -0.03734700814638868 -0.0033749110605036207 0 -0.037430935952800025 -0.0036885129043622688 0 -0.037146072548214983 -0.0039995879250104022 0 -0.03734700814638868 -0.0033749110605036207 0 -0.036956935942749444 -0.0034316613817019209 0 -0.03734700814638868 -0.0033749110605036207 0 -0.037639534733470474 -0.002238820364505878 0 -0.037536421831175046 -0.0026863258273898236 0 -0.03734700814638868 -0.0033749110605036207 0 -0.037639534733470474 -0.002238820364505878 0 -0.036956935942749444 -0.0034316613817019209 0 -0.037639534733470474 -0.002238820364505878 0 -0.0367026850395109 -0.0024321665892997105 0 -0.037639534733470474 -0.002238820364505878 0 -0.037286490085736181 -0.001317747525894211 0 -0.0367026850395109 -0.0024321665892997105 0 -0.037133943990157993 -0.00055086843471034285 0 -0.037155604843263669 -0.00098635563138971174 0 -0.037639534733470474 -0.002238820364505878 0 -0.037716574011617231 -0.00069057233495935125 0 -0.038119798667812337 -0.00094486966434336546 0 -0.038642714917487227 -0.001599757917852567 0 -0.037639534733470474 -0.002238820364505878 0 -0.038119798667812337 -0.00094486966434336546 0 -0.037639534733470474 -0.002238820364505878 0 -0.037286490085736181 -0.001317747525894211 0 -0.037716574011617231 -0.00069057233495935125 0 -0.037286490085736181 -0.001317747525894211 0 -0.036081623890360258 -0.0013504307741314119 0 -0.038071912356343232 0.00048683299449689253 0 -0.037286490085736181 -0.001317747525894211 0 -0.038071912356343232 0.00048683299449689253 0 -0.037716574011617231 -0.00069057233495935125 0 -0.037286490085736181 -0.001317747525894211 0 -0.0367026850395109 -0.0024321665892997105 0 -0.036081623890360258 -0.0013504307741314119 0 -0.039360543002300789 0.0045097045375635325 0 -0.040924353728775321 0.007424561472764277 0 -0.0367026850395109 -0.0024321665892997105 0 -0.036081623890360258 -0.0013504307741314119 0 -0.035281022004231048 -0.0027324991830187609 0 -0.039360543002300789 0.0045097045375635325 0 -0.038710333312610944 0.0029092778676661577 0 -0.040352822756168916 0.0096702197905497601 0 -0.043190667448147632 0.0033130649165183179 0 -0.038071912356343232 0.00048683299449689253 0 -0.040352822756168916 0.0096702197905497601 0 -0.052304820312192565 0.0046266194464087765 0 -0.043190667448147632 0.0033130649165183179 0 -0.040352822756168916 0.0096702197905497601 0 -0.052304820312192565 0.0046266194464087765 0 -0.053267939714495859 0.016978726239164719 0 -0.0639154873324983 0.017622066342147819 0 -0.067808267040132833 0.019941214113112851 0 -0.052304820312192565 0.0046266194464087765 0 -0.053267939714495859 0.016978726239164719 0 -0.062527095931164567 0.013363154768239545 0 -0.040352822756168916 0.0096702197905497601 0 -0.053267939714495859 0.016978726239164719 0 -0.044016674847849477 0.019438980414209869 0 -0.040924353728775321 0.007424561472764277 0 -0.042775836410766536 0.0090418860788848299 0 -0.053267939714495859 0.016978726239164719 0 -0.044016674847849477 0.019438980414209869 0 -0.047807110387264172 0.029375896976747053 0 -0.053267939714495859 0.016978726239164719 0 -0.057825934205971617 0.02535849499369586 0 -0.059612898839865959 0.019118183457907802 0 -0.053267939714495859 0.016978726239164719 0 -0.057825934205971617 0.02535849499369586 0 -0.047807110387264172 0.029375896976747053 0 -0.057825934205971617 0.02535849499369586 0 -0.047807110387264172 0.029375896976747053 0 -0.054886143421156719 0.032165236077895246 0 -0.035281022004231048 -0.0027324991830187609 0 -0.034757271746021487 -0.0039212107916133925 0 -0.035644008894315633 -0.0040894191464056684 0 -0.035281022004231048 -0.0027324991830187609 0 -0.035644008894315633 -0.0040894191464056684 0 -0.036250964616590046 -0.0033748542900639764 0 -0.036956935942749444 -0.0034316613817019209 0 -0.036250964616590046 -0.0033748542900639764 0 -0.036367910446260227 -0.004070461149242823 0 -0.035644008894315633 -0.0040894191464056684 0 -0.036250964616590046 -0.0033748542900639764 0 -0.036367910446260227 -0.004070461149242823 0 -0.036956935942749444 -0.0034316613817019209 0 -0.0367026850395109 -0.0024321665892997105 0 -0.036250964616590046 -0.0033748542900639764 0 -0.0367026850395109 -0.0024321665892997105 0 -0.035281022004231048 -0.0027324991830187609 0 -0.036250964616590046 -0.0033748542900639764 0 -0.070856865023828833 0.024465489387318039 0 -0.071020924806407634 0.024808763211792349 0 -0.071264557448347865 0.02437000914235922 0 -0.071020924806407634 0.024808763211792349 0 -0.071363486576272839 0.024926453574681599 0 -0.071264557448347865 0.02437000914235922 0 -0.071645140300797633 0.024541237061058086 0 -0.071363486576272839 0.024926453574681599 0 -0.071970444925105778 0.025232268453693692 0 -0.071645140300797633 0.024541237061058086 0 -0.071363486576272839 0.024926453574681599 0 -0.071264557448347865 0.02437000914235922 0 -0.071363486576272839 0.024926453574681599 0 -0.071508470026609969 0.02559512164262959 0 -0.071970444925105778 0.025232268453693692 0 -0.071363486576272839 0.024926453574681599 0 -0.071508470026609969 0.02559512164262959 0 -0.070988519747156184 0.025411184391302681 0 -0.071020924806407634 0.024808763211792349 0 -0.071363486576272839 0.024926453574681599 0 -0.070988519747156184 0.025411184391302681 0 -0.071508470026609969 0.02559512164262959 0 -0.070988519747156184 0.025411184391302681 0 -0.070993694410524152 0.026374451171349209 0 -0.070993694410524152 0.026374451171349209 0 -0.07182299386287383 0.026328532069969306 0 -0.071443364592164244 0.02762267680783001 0 -0.071508470026609969 0.02559512164262959 0 -0.07182299386287383 0.026328532069969306 0 -0.071970444925105778 0.025232268453693692 0 -0.071508470026609969 0.02559512164262959 0 -0.070993694410524152 0.026374451171349209 0 -0.07182299386287383 0.026328532069969306 0 -0.07182299386287383 0.026328532069969306 0 -0.073196852652130023 0.026456773552573917 0 -0.072469143474212114 0.027414597537064288 0 -0.07182299386287383 0.026328532069969306 0 -0.073196852652130023 0.026456773552573917 0 -0.071970444925105778 0.025232268453693692 0 -0.073196852652130023 0.026456773552573917 0 -0.071970444925105778 0.025232268453693692 0 -0.072800583063788532 0.024867217161952612 0 -0.071645140300797633 0.024541237061058086 0 -0.071970444925105778 0.025232268453693692 0 -0.072040631838646521 0.024287231978221139 0 -0.071970444925105778 0.025232268453693692 0 -0.072800583063788532 0.024867217161952612 0 -0.072040631838646521 0.024287231978221139 0 -0.073196852652130023 0.026456773552573917 0 -0.072800583063788532 0.024867217161952612 0 -0.075139462293570644 0.025118413207459993 0 -0.072800583063788532 0.024867217161952612 0 -0.075139462293570644 0.025118413207459993 0 -0.072031383257204887 0.023236017695831997 0 -0.073196852652130023 0.026456773552573917 0 -0.075139462293570644 0.025118413207459993 0 -0.075169487226930426 0.027474294476849407 0 -0.077220244664769705 0.027018843511165559 0 -0.075139462293570644 0.025118413207459993 0 -0.075169487226930426 0.027474294476849407 0 -0.053267939714495859 0.016978726239164719 0 -0.062527095931164567 0.013363154768239545 0 -0.059612898839865959 0.019118183457907802 0 -0.062527095931164567 0.013363154768239545 0 -0.059612898839865959 0.019118183457907802 0 -0.064544385944212648 0.022532142122612755 0 -0.057825934205971617 0.02535849499369586 0 -0.059612898839865959 0.019118183457907802 0 -0.064544385944212648 0.022532142122612755 0 -0.057825934205971617 0.02535849499369586 0 -0.064307399610539329 0.029692440199103054 0 -0.054886143421156719 0.032165236077895246 0 -0.057825934205971617 0.02535849499369586 0 -0.064544385944212648 0.022532142122612755 0 -0.064307399610539329 0.029692440199103054 0 -0.064307399610539329 0.029692440199103054 0 -0.070059650775386187 0.024659871246786848 0 -0.071144814517017541 0.033225904780866046 0 -0.064544385944212648 0.022532142122612755 0 -0.064307399610539329 0.029692440199103054 0 -0.070059650775386187 0.024659871246786848 0 -0.055109574710238911 0.017980452168554296 0 -0.052251329594164626 0.011917555392112367 0 -0.070059650775386187 0.024659871246786848 0 -0.071397596982495606 0.024334234702806407 0 -0.071251552172210159 0.024894133201234458 0 -0.067808267040132833 0.019941214113112851 0 -0.069875457723671527 0.021632854593065416 0 -0.062527095931164567 0.013363154768239545 0 -0.064544385944212648 0.022532142122612755 0 -0.072031383257204887 0.023236017695831997 0 -0.064544385944212648 0.022532142122612755 0 -0.070059650775386187 0.024659871246786848 0 -0.072031383257204887 0.023236017695831997 0 -0.070059650775386187 0.024659871246786848 0 -0.072031383257204887 0.023236017695831997 0 -0.071397596982495606 0.024334234702806407 0 -0.072800583063788532 0.024867217161952612 0 -0.072040631838646521 0.024287231978221139 0 -0.072031383257204887 0.023236017695831997 0 -0.072040631838646521 0.024287231978221139 0 -0.072031383257204887 0.023236017695831997 0 -0.071823281824058047 0.023767526566448059 0 -0.072040631838646521 0.024287231978221139 0 -0.071823281824058047 0.023767526566448059 0 -0.071631169291797386 0.024047573199508641 0 -0.071645140300797633 0.024541237061058086 0 -0.072040631838646521 0.024287231978221139 0 -0.071631169291797386 0.024047573199508641 0 -0.071823281824058047 0.023767526566448059 0 -0.071522499209026147 0.024171945889441812 0 -0.071631169291797386 0.024047573199508641 0 -0.072031383257204887 0.023236017695831997 0 -0.071823281824058047 0.023767526566448059 0 -0.071397596982495606 0.024334234702806407 0 -0.071823281824058047 0.023767526566448059 0 -0.071397596982495606 0.024334234702806407 0 -0.071522499209026147 0.024171945889441812 0 -0.063538014929641368 0.013377320638830802 0 -0.052251329594164626 0.011917555392112367 0 -0.071397596982495606 0.024334234702806407 0 -0.071522499209026147 0.024171945889441812 0 -0.071251552172210159 0.024894133201234458 0 -0.071522499209026147 0.024171945889441812 0 -0.071421570255715924 0.023893209036753019 0 -0.071251552172210159 0.024894133201234458 0 -0.071522499209026147 0.024171945889441812 0 -0.071421570255715924 0.023893209036753019 0 -0.071405463306880662 0.024062951419661079 0 -0.071029763211765323 0.024081214939206817 0 -0.071421570255715924 0.023893209036753019 0 -0.071405463306880662 0.024062951419661079 0 -0.071054897698597769 0.024245445551655795 0 -0.071029763211765323 0.024081214939206817 0 -0.071405463306880662 0.024062951419661079 0 -0.071522499209026147 0.024171945889441812 0 -0.071405463306880662 0.024062951419661079 0 -0.071631169291797386 0.024047573199508641 0 -0.071645140300797633 0.024541237061058086 0 -0.071631169291797386 0.024047573199508641 0 -0.071264557448347865 0.02437000914235922 0 -0.071405463306880662 0.024062951419661079 0 -0.071631169291797386 0.024047573199508641 0 -0.071264557448347865 0.02437000914235922 0 -0.071054897698597769 0.024245445551655795 0 -0.070856865023828833 0.024465489387318039 0 -0.071264557448347865 0.02437000914235922 0 -0.071054897698597769 0.024245445551655795 0 -0.071405463306880662 0.024062951419661079 0 -0.071264557448347865 0.02437000914235922 0 -0.0546467857037371 -0.00047305149396166193 0 -0.053820869468223044 0.00091718664844715303 0 -0.05473564220418152 0.0013753005948488519 0 -0.05644799509446316 0.00059297831468754347 0 -0.0546467857037371 -0.00047305149396166193 0 -0.05473564220418152 0.0013753005948488519 0 -0.070794028395709738 0.023681453638621189 0 -0.071421570255715924 0.023893209036753019 0 -0.07141791539820419 0.023329504376422339 0 -0.071421570255715924 0.023893209036753019 0 -0.07141791539820419 0.023329504376422339 0 -0.071734726523989073 0.023320662029156797 0 -0.071421570255715924 0.023893209036753019 0 -0.071734726523989073 0.023320662029156797 0 -0.07195936055403053 0.023544064575774005 0 -0.071734726523989073 0.023320662029156797 0 -0.071870287283046869 0.023009527121270107 0 -0.07195936055403053 0.023544064575774005 0 -0.07141791539820419 0.023329504376422339 0 -0.071734726523989073 0.023320662029156797 0 -0.071870287283046869 0.023009527121270107 0 -0.058986096230638441 0.0067852072877055648 0 -0.050687469305826183 0.0036237704097571198 0 -0.0546467857037371 -0.00047305149396166193 0 -0.05288203438913721 0.00049684137739121261 0 -0.053820869468223044 0.00091718664844715303 0 -0.030335174044149208 -0.010808701363827451 0 -0.030326541425103038 -0.010857419270045012 0 -0.030310815753693324 -0.010574634109984413 0 -0.030335174044149208 -0.010808701363827451 0 -0.0303628765345061 -0.010810452091609567 0 -0.030326541425103038 -0.010857419270045012 0 -0.050687469305826183 0.0036237704097571198 0 -0.050173251062034289 0.0036322146457390138 0 -0.050687469305826183 0.0036237704097571198 0 -0.052251329594164626 0.011917555392112367 0 -0.064307399610539329 0.029692440199103054 0 -0.071144814517017541 0.033225904780866046 0 -0.061307314263185898 0.036359931688150035 0 -0.052251329594164626 0.011917555392112367 0 -0.046326667786536352 0.0087986283994898589 0 -0.030326541425103038 -0.010857419270045012 0 -0.030310815753693324 -0.010574634109984413 0 -0.030525445143365363 -0.010623328762431926 0 -0.064307399610539329 0.029692440199103054 0 -0.061307314263185898 0.036359931688150035 0 -0.054886143421156719 0.032165236077895246 0 -0.030326541425103038 -0.010857419270045012 0 -0.030525445143365363 -0.010623328762431926 0 -0.030614854183453721 -0.010938487231435867 0 -0.030326541425103038 -0.010857419270045012 0 -0.030614854183453721 -0.010938487231435867 0 -0.030463496541693853 -0.011182524259504544 0 -0.030614854183453721 -0.010938487231435867 0 -0.030463496541693853 -0.011182524259504544 0 -0.030703348844286802 -0.011321464639053608 0 -0.030326541425103038 -0.010857419270045012 0 -0.030463496541693853 -0.011182524259504544 0 -0.030256596204956746 -0.011305856792789693 0 -0.030463496541693853 -0.011182524259504544 0 -0.030394602321676227 -0.011450098998720182 0 -0.030256596204956746 -0.011305856792789693 0 -0.030463496541693853 -0.011182524259504544 0 -0.030394602321676227 -0.011450098998720182 0 -0.030703348844286802 -0.011321464639053608 0 -0.03565576938273405 -0.0078737465021914785 0 -0.033894899138945021 -0.010139620511712688 0 -0.030394602321676227 -0.011450098998720182 0 -0.03009842562695722 -0.011670234036899816 0 -0.030397615320181263 -0.011550225026617501 0 -0.030394602321676227 -0.011450098998720182 0 -0.030703348844286802 -0.011321464639053608 0 -0.030397615320181263 -0.011550225026617501 0 -0.030394602321676227 -0.011450098998720182 0 -0.030136144673486107 -0.011637827013333171 0 -0.03009842562695722 -0.011670234036899816 0 -0.03009842562695722 -0.011670234036899816 0 -0.029971492982809479 -0.011912537940732919 0 -0.029739066321969251 -0.011900366783542731 0 -0.0299315850592515 -0.012671666801679226 0 -0.030126706891061571 -0.013244934254090273 0 -0.029971492982809479 -0.011912537940732919 0 -0.029732293427237485 -0.013128720063893613 0 -0.030340187096182074 -0.013357364477949267 0 -0.030136144673486107 -0.011637827013333171 0 -0.03009842562695722 -0.011670234036899816 0 -0.029971492982809479 -0.011912537940732919 0 -0.030136144673486107 -0.011637827013333171 0 -0.029773014402201373 -0.011330959866283222 0 -0.029971492982809479 -0.011912537940732919 0 -0.030136144673486107 -0.011637827013333171 0 -0.030256596204956746 -0.011305856792789693 0 -0.029773014402201373 -0.011330959866283222 0 -0.030394602321676227 -0.011450098998720182 0 -0.030136144673486107 -0.011637827013333171 0 -0.030256596204956746 -0.011305856792789693 0 -0.0303628765345061 -0.010810452091609567 0 -0.030326541425103038 -0.010857419270045012 0 -0.030423360469896563 -0.01070059951621532 0 -0.030422998134322869 -0.010832525258385002 0 -0.0303628765345061 -0.010810452091609567 0 -0.030423360469896563 -0.01070059951621532 0 -0.037748680667884955 -0.0096847371861080757 0 -0.042630583930398779 -0.0060315593282829448 0 -0.030326541425103038 -0.010857419270045012 0 -0.030256596204956746 -0.011305856792789693 0 -0.029773014402201373 -0.011330959866283222 0 -0.053820869468223044 0.00091718664844715303 0 -0.053033096456477712 0.0015734483003372768 0 -0.05473564220418152 0.0013753005948488519 0 -0.050687469305826183 0.0036237704097571198 0 -0.042630583930398779 -0.0060315593282829448 0 -0.05288203438913721 0.00049684137739121261 0 -0.053820869468223044 0.00091718664844715303 0 -0.053033096456477712 0.0015734483003372768 0 -0.042630583930398779 -0.0060315593282829448 0 -0.041781257542175487 -0.010461573719251242 0 -0.029735936767843911 -0.01371638742910047 0 -0.029732293427237485 -0.013128720063893613 0 -0.030091002628087154 -0.013454279077075897 0 -0.029735936767843911 -0.01371638742910047 0 -0.030191384946533464 -0.013483706849100453 0 -0.030091002628087154 -0.013454279077075897 0 -0.042630583930398779 -0.0060315593282829448 0 -0.040183743299427324 -0.0098646928675949 0 -0.029773014402201373 -0.011330959866283222 0 -0.029971492982809479 -0.011912537940732919 0 -0.029732293427237485 -0.013128720063893613 0 -0.055801508423442128 0.0026734445447711848 0 -0.05450960383122077 0.0030354081619100633 0 -0.05473564220418152 0.0013753005948488519 0 -0.045495036148129123 -0.0098759055433349473 0 -0.041781257542175487 -0.010461573719251242 0 -0.041781257542175487 -0.010461573719251242 0 -0.041348732694630595 -0.010406415155589634 0 -0.053033096456477712 0.0015734483003372768 0 -0.05450960383122077 0.0030354081619100633 0 -0.05473564220418152 0.0013753005948488519 0 -0.035618924232354555 -0.0055079784748716561 0 -0.036036372109774222 -0.0053718027828458482 0 -0.03566466940740301 -0.0049404053648704812 0 -0.035618924232354555 -0.0055079784748716561 0 -0.03566466940740301 -0.0049404053648704812 0 -0.035206093800529588 -0.0047130863125649401 0 -0.035618924232354555 -0.0055079784748716561 0 -0.034355942193596008 -0.0060388224443152635 0 -0.035588002102056718 -0.0064348877953391047 0 -0.035618924232354555 -0.0055079784748716561 0 -0.036036372109774222 -0.0053718027828458482 0 -0.035909635442205538 -0.00597300567099294 0 -0.036036372109774222 -0.0053718027828458482 0 -0.036189318126138244 -0.0058863754011630838 0 -0.035909635442205538 -0.00597300567099294 0 -0.036465418296306049 -0.0052098220524964337 0 -0.036036372109774222 -0.0053718027828458482 0 -0.036189318126138244 -0.0058863754011630838 0 -0.036465418296306049 -0.0052098220524964337 0 -0.036036372109774222 -0.0053718027828458482 0 -0.036057317411820798 -0.0047544019311861014 0 -0.036036372109774222 -0.0053718027828458482 0 -0.036057317411820798 -0.0047544019311861014 0 -0.03566466940740301 -0.0049404053648704812 0 -0.035644008894315633 -0.0040894191464056684 0 -0.036367910446260227 -0.004070461149242823 0 -0.036057317411820798 -0.0047544019311861014 0 -0.036465418296306049 -0.0052098220524964337 0 -0.036057317411820798 -0.0047544019311861014 0 -0.036463881873170116 -0.0046347803474379966 0 -0.036367910446260227 -0.004070461149242823 0 -0.036057317411820798 -0.0047544019311861014 0 -0.036463881873170116 -0.0046347803474379966 0 -0.035644008894315633 -0.0040894191464056684 0 -0.036057317411820798 -0.0047544019311861014 0 -0.03566466940740301 -0.0049404053648704812 0 -0.034757271746021487 -0.0039212107916133925 0 -0.035644008894315633 -0.0040894191464056684 0 -0.035206093800529588 -0.0047130863125649401 0 -0.035644008894315633 -0.0040894191464056684 0 -0.03566466940740301 -0.0049404053648704812 0 -0.035206093800529588 -0.0047130863125649401 0 -0.042775836410766536 0.0090418860788848299 0 -0.043134175926600245 0.0031167588076424437 0 -0.034757271746021487 -0.0039212107916133925 0 -0.035206093800529588 -0.0047130863125649401 0 -0.034331510762369684 -0.005042216806384457 0 -0.046326667786536352 0.0087986283994898589 0 -0.043134175926600245 0.0031167588076424437 0 -0.047807110387264172 0.029375896976747053 0 -0.054886143421156719 0.032165236077895246 0 -0.051675103737481326 0.039427172111491576 0 -0.061307314263185898 0.036359931688150035 0 -0.054886143421156719 0.032165236077895246 0 -0.051675103737481326 0.039427172111491576 0 -0.030525445143365363 -0.010623328762431926 0 -0.030614854183453721 -0.010938487231435867 0 -0.030988353975770308 -0.010719610879873616 0 -0.043134175926600245 0.0031167588076424437 0 -0.03565576938273405 -0.0078737465021914785 0 -0.030614854183453721 -0.010938487231435867 0 -0.030988353975770308 -0.010719610879873616 0 -0.030703348844286802 -0.011321464639053608 0 -0.038994710518085472 0.0017103173155250111 0 -0.043134175926600245 0.0031167588076424437 0 -0.032624641259689141 -0.0043454879625521026 0 -0.034355942193596008 -0.0060388224443152635 0 -0.033406230365056813 -0.0066889127988706693 0 -0.035618924232354555 -0.0055079784748716561 0 -0.032624641259689141 -0.0043454879625521026 0 -0.034355942193596008 -0.0060388224443152635 0 -0.035618924232354555 -0.0055079784748716561 0 -0.035206093800529588 -0.0047130863125649401 0 -0.034331510762369684 -0.005042216806384457 0 -0.034355942193596008 -0.0060388224443152635 0 -0.033406230365056813 -0.0066889127988706693 0 -0.034420278299633872 -0.0071775295529334779 0 -0.033406230365056813 -0.0066889127988706693 0 -0.031272379120976003 -0.0076102411163418487 0 -0.034046854620964566 -0.0086914130220155598 0 -0.033406230365056813 -0.0066889127988706693 0 -0.034420278299633872 -0.0071775295529334779 0 -0.034046854620964566 -0.0086914130220155598 0 -0.032624641259689141 -0.0043454879625521026 0 -0.033406230365056813 -0.0066889127988706693 0 -0.031272379120976003 -0.0076102411163418487 0 -0.031272379120976003 -0.0076102411163418487 0 -0.032351814286408022 -0.0098174392327576975 0 -0.034046854620964566 -0.0086914130220155598 0 -0.031272379120976003 -0.0076102411163418487 0 -0.032351814286408022 -0.0098174392327576975 0 -0.030397615320181263 -0.011550225026617501 0 -0.034420278299633872 -0.0071775295529334779 0 -0.034046854620964566 -0.0086914130220155598 0 -0.035869559383836638 -0.009303415973939605 0 -0.032351814286408022 -0.0098174392327576975 0 -0.034046854620964566 -0.0086914130220155598 0 -0.034042228869820008 -0.010738453646970687 0 -0.034046854620964566 -0.0086914130220155598 0 -0.035864795376593192 -0.0094847599021807612 0 -0.034042228869820008 -0.010738453646970687 0 -0.033644290511579814 -0.010737863723853602 0 -0.03350714100284536 -0.010866599718177234 0 -0.034420278299633872 -0.0071775295529334779 0 -0.035869559383836638 -0.009303415973939605 0 -0.035588002102056718 -0.0064348877953391047 0 -0.03350714100284536 -0.010866599718177234 0 -0.033739323362226188 -0.00938140678391957 0 -0.035657589653012946 -0.0066359273485123516 0 -0.035588002102056718 -0.0064348877953391047 0 -0.03591427102017998 -0.0063975774059731594 0 -0.035618924232354555 -0.0055079784748716561 0 -0.035588002102056718 -0.0064348877953391047 0 -0.035909635442205538 -0.00597300567099294 0 -0.035588002102056718 -0.0064348877953391047 0 -0.035909635442205538 -0.00597300567099294 0 -0.03591427102017998 -0.0063975774059731594 0 -0.034355942193596008 -0.0060388224443152635 0 -0.034420278299633872 -0.0071775295529334779 0 -0.035588002102056718 -0.0064348877953391047 0 -0.036501599696685198 -0.0063121550720275661 0 -0.036189318126138244 -0.0058863754011630838 0 -0.03591427102017998 -0.0063975774059731594 0 -0.036189318126138244 -0.0058863754011630838 0 -0.035909635442205538 -0.00597300567099294 0 -0.03591427102017998 -0.0063975774059731594 0 -0.036501599696685198 -0.0063121550720275661 0 -0.03591427102017998 -0.0063975774059731594 0 -0.036398798615245913 -0.0069037374862722803 0 -0.035657589653012946 -0.0066359273485123516 0 -0.03591427102017998 -0.0063975774059731594 0 -0.036398798615245913 -0.0069037374862722803 0 -0.03350714100284536 -0.010866599718177234 0 -0.034048948215644984 -0.012264122151407562 0 -0.033329427215593538 -0.014040891630642673 0 -0.033421052472301205 -0.013971014926855447 0 -0.033423147586757185 -0.014110423637039442 0 -0.033230634959347985 -0.013891171900324894 0 -0.033329427215593538 -0.014040891630642673 0 -0.033421052472301205 -0.013971014926855447 0 -0.032868779148657282 -0.016236085967186144 0 -0.032180459837181034 -0.016333759930445581 0 -0.033329427215593538 -0.014040891630642673 0 -0.033236566129880435 -0.014181811154130614 0 -0.033423147586757185 -0.014110423637039442 0 -0.035813382202944395 -0.012172921123471068 0 -0.03465259274411369 -0.014110939161719117 0 -0.035802250945117964 -0.014649897810172108 0 -0.033329427215593538 -0.014040891630642673 0 -0.03323302567429532 -0.014036492671828145 0 -0.033236566129880435 -0.014181811154130614 0 -0.033378170643542572 -0.013339806110450814 0 -0.032868779148657282 -0.016236085967186144 0 -0.03350714100284536 -0.010866599718177234 0 -0.033378170643542572 -0.013339806110450814 0 -0.035864795376593192 -0.0094847599021807612 0 -0.035813382202944395 -0.012172921123471068 0 -0.034042228869820008 -0.010738453646970687 0 -0.033230634959347985 -0.013891171900324894 0 -0.033329427215593538 -0.014040891630642673 0 -0.03323302567429532 -0.014036492671828145 0 -0.032351814286408022 -0.0098174392327576975 0 -0.034042228869820008 -0.010738453646970687 0 -0.032415210978767317 -0.011575578348074364 0 -0.034042228869820008 -0.010738453646970687 0 -0.032415210978767317 -0.011575578348074364 0 -0.03387939638941135 -0.012693354371416589 0 -0.032415210978767317 -0.011575578348074364 0 -0.03271528438653145 -0.013197649637059501 0 -0.03387939638941135 -0.012693354371416589 0 -0.035813382202944395 -0.012172921123471068 0 -0.034042228869820008 -0.010738453646970687 0 -0.03387939638941135 -0.012693354371416589 0 -0.032351814286408022 -0.0098174392327576975 0 -0.032415210978767317 -0.011575578348074364 0 -0.030397615320181263 -0.011550225026617501 0 -0.032415210978767317 -0.011575578348074364 0 -0.031443372259294264 -0.012602844663321263 0 -0.030397615320181263 -0.011550225026617501 0 -0.032415210978767317 -0.011575578348074364 0 -0.031443372259294264 -0.012602844663321263 0 -0.03271528438653145 -0.013197649637059501 0 -0.031443372259294264 -0.012602844663321263 0 -0.031843826444395894 -0.013532693857281867 0 -0.031050348388563697 -0.013676158995412519 0 -0.031443372259294264 -0.012602844663321263 0 -0.031843826444395894 -0.013532693857281867 0 -0.03271528438653145 -0.013197649637059501 0 -0.031843826444395894 -0.013532693857281867 0 -0.03271528438653145 -0.013197649637059501 0 -0.032414041432782287 -0.014562111833814216 0 -0.031843826444395894 -0.013532693857281867 0 -0.031672774236102853 -0.01444191485726711 0 -0.032414041432782287 -0.014562111833814216 0 -0.03271528438653145 -0.013197649637059501 0 -0.033372091123551495 -0.014087764975875994 0 -0.032414041432782287 -0.014562111833814216 0 -0.031843826444395894 -0.013532693857281867 0 -0.031672774236102853 -0.01444191485726711 0 -0.031050348388563697 -0.013676158995412519 0 -0.031672774236102853 -0.01444191485726711 0 -0.031085068967430997 -0.014949042299844601 0 -0.031050348388563697 -0.013676158995412519 0 -0.035813382202944395 -0.012172921123471068 0 -0.03387939638941135 -0.012693354371416589 0 -0.03465259274411369 -0.014110939161719117 0 -0.03271528438653145 -0.013197649637059501 0 -0.03387939638941135 -0.012693354371416589 0 -0.033372091123551495 -0.014087764975875994 0 -0.033372091123551495 -0.014087764975875994 0 -0.03465259274411369 -0.014110939161719117 0 -0.033500503161201678 -0.015158839754896635 0 -0.03387939638941135 -0.012693354371416589 0 -0.033372091123551495 -0.014087764975875994 0 -0.03465259274411369 -0.014110939161719117 0 -0.03465259274411369 -0.014110939161719117 0 -0.033500503161201678 -0.015158839754896635 0 -0.033585055741357436 -0.015387297100167298 0 -0.032891542921266975 -0.016578917673140934 0 -0.032868779148657282 -0.016236085967186144 0 -0.03465259274411369 -0.014110939161719117 0 -0.033585055741357436 -0.015387297100167298 0 -0.035802250945117964 -0.014649897810172108 0 -0.032898807043101795 -0.014892732850467902 0 -0.033500503161201678 -0.015158839754896635 0 -0.032284715263626237 -0.015790224257223831 0 -0.033372091123551495 -0.014087764975875994 0 -0.032898807043101795 -0.014892732850467902 0 -0.033500503161201678 -0.015158839754896635 0 -0.033500503161201678 -0.015158839754896635 0 -0.033585798676636351 -0.01539250495869433 0 -0.032284715263626237 -0.015790224257223831 0 -0.033372091123551495 -0.014087764975875994 0 -0.032898807043101795 -0.014892732850467902 0 -0.032414041432782287 -0.014562111833814216 0 -0.032890871998319422 -0.016572386296157718 0 -0.032891542921266975 -0.016578917673140934 0 -0.033187400961002832 -0.015533521842951708 0 -0.032284715263626237 -0.015790224257223831 0 -0.032469603764972634 -0.017007444841828374 0 -0.032891542921266975 -0.016578917673140934 0 -0.032889171500032552 -0.016537469649344494 0 -0.031672774236102853 -0.01444191485726711 0 -0.031085068967430997 -0.014949042299844601 0 -0.032284715263626237 -0.015790224257223831 0 -0.031672774236102853 -0.01444191485726711 0 -0.032414041432782287 -0.014562111833814216 0 -0.032284715263626237 -0.015790224257223831 0 -0.032898807043101795 -0.014892732850467902 0 -0.032414041432782287 -0.014562111833814216 0 -0.032284715263626237 -0.015790224257223831 0 -0.031085068967430997 -0.014949042299844601 0 -0.032284715263626237 -0.015790224257223831 0 -0.030943349830414121 -0.016697950529686742 0 -0.031247719956765892 -0.016277141062414135 0 -0.031607737509641638 -0.017175533593574412 0 -0.032469603764972634 -0.017007444841828374 0 -0.030943349830414121 -0.016697950529686742 0 -0.032013453674769037 -0.018744353520391357 0 -0.032284715263626237 -0.015790224257223831 0 -0.032469603764972634 -0.017007444841828374 0 -0.030943349830414121 -0.016697950529686742 0 -0.032891542921266975 -0.016578917673140934 0 -0.033082546181187791 -0.017922664575287687 0 -0.032432518033726127 -0.016930931357750874 0 -0.033130383198715342 -0.017802752491400373 0 -0.032794885337414634 -0.017921427719318834 0 -0.033187400961002832 -0.015533521842951708 0 -0.032469603764972634 -0.017007444841828374 0 -0.033769794976314889 -0.018139629874629398 0 -0.032418254003861224 -0.018831738682998079 0 -0.031612494782216304 -0.019962475184328591 0 -0.031308936554109136 -0.019064222389033301 0 -0.031612494782216304 -0.019962475184328591 0 -0.032648040816897345 -0.020477559818521458 0 -0.031109131616727601 -0.021192888893180429 0 -0.032418254003861224 -0.018831738682998079 0 -0.031612494782216304 -0.019962475184328591 0 -0.032648040816897345 -0.020477559818521458 0 -0.032945033165986667 -0.018306433871655623 0 -0.032868779148657282 -0.016236085967186144 0 -0.032432518033726127 -0.016930931357750874 0 -0.033130383198715342 -0.017802752491400373 0 -0.033101977553511075 -0.016694069183599107 0 -0.031756633447700369 -0.013618289787100207 0 -0.030365319895072969 -0.012339275699771153 0 -0.030294244107700707 -0.013436029749551222 0 -0.030365319895072969 -0.012339275699771153 0 -0.030294244107700707 -0.013436029749551222 0 -0.029949968855882358 -0.013343939854245429 0 -0.031756633447700369 -0.013618289787100207 0 -0.030279233104110351 -0.013723958736719648 0 -0.030294244107700707 -0.013436029749551222 0 -0.035431927509099181 -0.014491466298334386 0 -0.041781257542175487 -0.010461573719251242 0 -0.030091002628087154 -0.013454279077075897 0 -0.030294244107700707 -0.013436029749551222 0 -0.029920327019462473 -0.013355856102888891 0 -0.030279233104110351 -0.013723958736719648 0 -0.030091002628087154 -0.013454279077075897 0 -0.030294244107700707 -0.013436029749551222 0 -0.030294244107700707 -0.013436029749551222 0 -0.029949968855882358 -0.013343939854245429 0 -0.029920327019462473 -0.013355856102888891 0 -0.029732293427237485 -0.013128720063893613 0 -0.030091002628087154 -0.013454279077075897 0 -0.029920327019462473 -0.013355856102888891 0 -0.029732293427237485 -0.013128720063893613 0 -0.029920327019462473 -0.013355856102888891 0 -0.029901876896520387 -0.01343131766516833 0 -0.029949968855882358 -0.013343939854245429 0 -0.029920327019462473 -0.013355856102888891 0 -0.029901876896520387 -0.01343131766516833 0 -0.029949968855882358 -0.013343939854245429 0 -0.029901876896520387 -0.01343131766516833 0 -0.029814079490831657 -0.014133099319309707 0 -0.030273821574139596 -0.015922164492487012 0 -0.030098156121402164 -0.015349798898553209 0 -0.026980105406978528 -0.014984648568518206 0 -0.029814079490831657 -0.014133099319309707 0 -0.028416841008811811 -0.016026107098877543 0 -0.030365319895072969 -0.012339275699771153 0 -0.029949968855882358 -0.013343939854245429 0 -0.029814079490831657 -0.014133099319309707 0 -0.029814079490831657 -0.014133099319309707 0 -0.030340187096182074 -0.013357364477949267 0 -0.030946918332784925 -0.014640961290445096 0 -0.030126706891061571 -0.013244934254090273 0 -0.030617702312751609 -0.014629894621325377 0 -0.029901876896520387 -0.01343131766516833 0 -0.029814079490831657 -0.014133099319309707 0 -0.030340187096182074 -0.013357364477949267 0 -0.029732293427237485 -0.013128720063893613 0 -0.029901876896520387 -0.01343131766516833 0 -0.030340187096182074 -0.013357364477949267 0 -0.03009842562695722 -0.011670234036899816 0 -0.029739066321969251 -0.011900366783542731 0 -0.030397615320181263 -0.011550225026617501 0 -0.029739066321969251 -0.011900366783542731 0 -0.030397615320181263 -0.011550225026617501 0 -0.030423016699994348 -0.012651349241539826 0 -0.031443372259294264 -0.012602844663321263 0 -0.030397615320181263 -0.011550225026617501 0 -0.030423016699994348 -0.012651349241539826 0 -0.029739066321969251 -0.011900366783542731 0 -0.030423016699994348 -0.012651349241539826 0 -0.029897896801330349 -0.014031983842378248 0 -0.030423016699994348 -0.012651349241539826 0 -0.029897896801330349 -0.014031983842378248 0 -0.031050348388563697 -0.013676158995412519 0 -0.031443372259294264 -0.012602844663321263 0 -0.030423016699994348 -0.012651349241539826 0 -0.031050348388563697 -0.013676158995412519 0 -0.031085068967430997 -0.014949042299844601 0 -0.029897896801330349 -0.014031983842378248 0 -0.031050348388563697 -0.013676158995412519 0 -0.031085068967430997 -0.014949042299844601 0 -0.029897896801330349 -0.014031983842378248 0 -0.030943349830414121 -0.016697950529686742 0 -0.030946918332784925 -0.014640961290445096 0 -0.031671215849792045 -0.016865621885786834 0 -0.030026629591913007 -0.016114964438878377 0 -0.030617702312751609 -0.014629894621325377 0 -0.031247719956765892 -0.016277141062414135 0 -0.031671215849792045 -0.016865621885786834 0 -0.030467491910681377 -0.017464415514840907 0 -0.030026629591913007 -0.016114964438878377 0 -0.031671215849792045 -0.016865621885786834 0 -0.030467491910681377 -0.017464415514840907 0 -0.03122906415164042 -0.018128551580828375 0 -0.030467491910681377 -0.017464415514840907 0 -0.030026629591913007 -0.016114964438878377 0 -0.028590739252406717 -0.017776733441815105 0 -0.029814079490831657 -0.014133099319309707 0 -0.030946918332784925 -0.014640961290445096 0 -0.030026629591913007 -0.016114964438878377 0 -0.029814079490831657 -0.014133099319309707 0 -0.030026629591913007 -0.016114964438878377 0 -0.028416841008811811 -0.016026107098877543 0 -0.030026629591913007 -0.016114964438878377 0 -0.028416841008811811 -0.016026107098877543 0 -0.028590739252406717 -0.017776733441815105 0 -0.028416841008811811 -0.016026107098877543 0 -0.028590739252406717 -0.017776733441815105 0 -0.026793962453009971 -0.016886293534663942 0 -0.027694455737604765 -0.017479804734805288 0 -0.026793962453009971 -0.016886293534663942 0 -0.026645512168814597 -0.018395681241360949 0 -0.028457093883182093 -0.01780162523264342 0 -0.027759781834368134 -0.017406736148249131 0 -0.026980105406978528 -0.014984648568518206 0 -0.028416841008811811 -0.016026107098877543 0 -0.026793962453009971 -0.016886293534663942 0 -0.026177297233495631 -0.016444579144816986 0 -0.026980105406978528 -0.014984648568518206 0 -0.026793962453009971 -0.016886293534663942 0 -0.025733748063918666 -0.019140244300123094 0 -0.026645512168814597 -0.018395681241360949 0 -0.027672998687654386 -0.019392308472983365 0 -0.026295749123181257 -0.01805448149725955 0 -0.026793962453009971 -0.016886293534663942 0 -0.026645512168814597 -0.018395681241360949 0 -0.027694455737604765 -0.017479804734805288 0 -0.026645512168814597 -0.018395681241360949 0 -0.027672998687654386 -0.019392308472983365 0 -0.027672998687654386 -0.019392308472983365 0 -0.029349328586144214 -0.018164953305323667 0 -0.029834730894853279 -0.019777185137396795 0 -0.028457093883182093 -0.01780162523264342 0 -0.029820797908603321 -0.018584948747678371 0 -0.030467491910681377 -0.017464415514840907 0 -0.028590739252406717 -0.017776733441815105 0 -0.030272566584591359 -0.018713509019422658 0 -0.027694455737604765 -0.017479804734805288 0 -0.027672998687654386 -0.019392308472983365 0 -0.029349328586144214 -0.018164953305323667 0 -0.030272566584591359 -0.018713509019422658 0 -0.03122906415164042 -0.018128551580828375 0 -0.031610924913735357 -0.019674440784883996 0 -0.030467491910681377 -0.017464415514840907 0 -0.030272566584591359 -0.018713509019422658 0 -0.03122906415164042 -0.018128551580828375 0 -0.029834730894853279 -0.019777185137396795 0 -0.03140214446733619 -0.019425469528569661 0 -0.031627876489917994 -0.021368559410343178 0 -0.029349328586144214 -0.018164953305323667 0 -0.029834730894853279 -0.019777185137396795 0 -0.03140214446733619 -0.019425469528569661 0 -0.029820797908603321 -0.018584948747678371 0 -0.031192517924311654 -0.019417408196365005 0 -0.029834730894853279 -0.019777185137396795 0 -0.02982063256143869 -0.021506315432281705 0 -0.031627876489917994 -0.021368559410343178 0 -0.031071725436861212 -0.02265806631913149 0 -0.030587173790584708 -0.024521406295156072 0 -0.031948789182369798 -0.023260478337027258 0 -0.031071725436861212 -0.02265806631913149 0 -0.02982063256143869 -0.021506315432281705 0 -0.030587173790584708 -0.024521406295156072 0 -0.031071725436861212 -0.02265806631913149 0 -0.02982063256143869 -0.021506315432281705 0 -0.031627876489917994 -0.021368559410343178 0 -0.02982063256143869 -0.021506315432281705 0 -0.026391218321301625 -0.021193057631239427 0 -0.028072348366039019 -0.024905028156135336 0 -0.02982063256143869 -0.021506315432281705 0 -0.028072348366039019 -0.024905028156135336 0 -0.030587173790584708 -0.024521406295156072 0 -0.027672998687654386 -0.019392308472983365 0 -0.029834730894853279 -0.019777185137396795 0 -0.02982063256143869 -0.021506315432281705 0 -0.027672998687654386 -0.019392308472983365 0 -0.02982063256143869 -0.021506315432281705 0 -0.026391218321301625 -0.021193057631239427 0 -0.019915093232948548 -0.022501604721139934 0 -0.026391218321301625 -0.021193057631239427 0 -0.023362425172097637 -0.026206062255146882 0 -0.019915093232948548 -0.022501604721139934 0 -0.020337730636666489 -0.015100910231249596 0 -0.026391218321301625 -0.021193057631239427 0 -0.025733748063918666 -0.019140244300123094 0 -0.027672998687654386 -0.019392308472983365 0 -0.026391218321301625 -0.021193057631239427 0 -0.027757011893518244 -0.017610540595230893 0 -0.027064899068094644 -0.018175318848615167 0 -0.033932558493781649 -0.0204614877036432 0 -0.033769794976314889 -0.018139629874629398 0 -0.033415257385388857 -0.019976031861323056 0 -0.033415257385388857 -0.019976031861323056 0 -0.032892395359846512 -0.020765573626132138 0 -0.033767593935187724 -0.020905674966546727 0 -0.033932558493781649 -0.0204614877036432 0 -0.033415257385388857 -0.019976031861323056 0 -0.033767593935187724 -0.020905674966546727 0 -0.033155164997165802 -0.019198111462473813 0 -0.033162252708128323 -0.019255031047532529 0 -0.032109165097238504 -0.018475972738023951 0 -0.032751603994762159 -0.019537971925963491 0 -0.032172159742897478 -0.018248203048295098 0 -0.031771655327535446 -0.018802639636985242 0 -0.032109165097238504 -0.018475972738023951 0 -0.032751603994762159 -0.019537971925963491 0 -0.032418254003861224 -0.018831738682998079 0 -0.032109165097238504 -0.018475972738023951 0 -0.031308936554109136 -0.019064222389033301 0 -0.033155164997165802 -0.019198111462473813 0 -0.033082546181187791 -0.017922664575287687 0 -0.033130383198715342 -0.017802752491400373 0 -0.033159725350116957 -0.018915357802096099 0 -0.032794885337414634 -0.017921427719318834 0 -0.032945033165986667 -0.018306433871655623 0 -0.033155164997165802 -0.019198111462473813 0 -0.032418254003861224 -0.018831738682998079 0 -0.031771655327535446 -0.018802639636985242 0 -0.032109165097238504 -0.018475972738023951 0 -0.032469603764972634 -0.017007444841828374 0 -0.033769794976314889 -0.018139629874629398 0 -0.032013453674769037 -0.018744353520391357 0 -0.033769794976314889 -0.018139629874629398 0 -0.032013453674769037 -0.018744353520391357 0 -0.032690314781234346 -0.019500978509131048 0 -0.033769794976314889 -0.018139629874629398 0 -0.032690314781234346 -0.019500978509131048 0 -0.033415257385388857 -0.019976031861323056 0 -0.03122906415164042 -0.018128551580828375 0 -0.032013453674769037 -0.018744353520391357 0 -0.031610924913735357 -0.019674440784883996 0 -0.031671215849792045 -0.016865621885786834 0 -0.03122906415164042 -0.018128551580828375 0 -0.032013453674769037 -0.018744353520391357 0 -0.031192517924311654 -0.019417408196365005 0 -0.031905916088112801 -0.019872077473993745 0 -0.031610924913735357 -0.019674440784883996 0 -0.032690314781234346 -0.019500978509131048 0 -0.032892395359846512 -0.020765573626132138 0 -0.032013453674769037 -0.018744353520391357 0 -0.031610924913735357 -0.019674440784883996 0 -0.032690314781234346 -0.019500978509131048 0 -0.032690314781234346 -0.019500978509131048 0 -0.033415257385388857 -0.019976031861323056 0 -0.032892395359846512 -0.020765573626132138 0 -0.032892395359846512 -0.020765573626132138 0 -0.032623158407584493 -0.022210604999632923 0 -0.03323341686263756 -0.021645763084368573 0 -0.032892395359846512 -0.020765573626132138 0 -0.031627876489917994 -0.021368559410343178 0 -0.032623158407584493 -0.022210604999632923 0 -0.03140214446733619 -0.019425469528569661 0 -0.032892395359846512 -0.020765573626132138 0 -0.031627876489917994 -0.021368559410343178 0 -0.031627876489917994 -0.021368559410343178 0 -0.032623158407584493 -0.022210604999632923 0 -0.031948789182369798 -0.023260478337027258 0 -0.031071725436861212 -0.02265806631913149 0 -0.031627876489917994 -0.021368559410343178 0 -0.031948789182369798 -0.023260478337027258 0 -0.032623158407584493 -0.022210604999632923 0 -0.031948789182369798 -0.023260478337027258 0 -0.03255393848517564 -0.023600355114541133 0 -0.032623158407584493 -0.022210604999632923 0 -0.033065570608441612 -0.0225777530413513 0 -0.03255393848517564 -0.023600355114541133 0 -0.032623158407584493 -0.022210604999632923 0 -0.033065570608441612 -0.0225777530413513 0 -0.03323341686263756 -0.021645763084368573 0 -0.033065570608441612 -0.0225777530413513 0 -0.033141999459446993 -0.021573372187295041 0 -0.03322867615143052 -0.023011072759569363 0 -0.033065570608441612 -0.0225777530413513 0 -0.03323341686263756 -0.021645763084368573 0 -0.033141999459446993 -0.021573372187295041 0 -0.033919635635265913 -0.020759647287811683 0 -0.033767593935187724 -0.020905674966546727 0 -0.033141999459446993 -0.021573372187295041 0 -0.032892395359846512 -0.020765573626132138 0 -0.03323341686263756 -0.021645763084368573 0 -0.033767593935187724 -0.020905674966546727 0 -0.033155164997165802 -0.019198111462473813 0 -0.033286595831839218 -0.020049378567466046 0 -0.03323341686263756 -0.021645763084368573 0 -0.033767593935187724 -0.020905674966546727 0 -0.033141999459446993 -0.021573372187295041 0 -0.031771655327535446 -0.018802639636985242 0 -0.032751603994762159 -0.019537971925963491 0 -0.033141999459446993 -0.021573372187295041 0 -0.032751603994762159 -0.019537971925963491 0 -0.033141999459446993 -0.021573372187295041 0 -0.034230712862009537 -0.020913112115208649 0 -0.033141999459446993 -0.021573372187295041 0 -0.034230712862009537 -0.020913112115208649 0 -0.033847380584025137 -0.022312876355394473 0 -0.032168601841742681 -0.015365404896211842 0 -0.030779084713287091 -0.013871903505543966 0 -0.032070059021589548 -0.01268424452476931 0 -0.032243525132372705 -0.019245888061513328 0 -0.031783932947257343 -0.021503203752481617 0 -0.034230712862009537 -0.020913112115208649 0 -0.034596436784690571 -0.023077655574897046 0 -0.033847380584025137 -0.022312876355394473 0 -0.032168601841742681 -0.015365404896211842 0 -0.030779084713287091 -0.013871903505543966 0 -0.030633550075087123 -0.015279385826394805 0 -0.029319831176575419 -0.014906323924159578 0 -0.030633550075087123 -0.015279385826394805 0 -0.030312603985999095 -0.016740190875293517 0 -0.030779084713287091 -0.013871903505543966 0 -0.029319831176575419 -0.014906323924159578 0 -0.029331639417772205 -0.013040923396978377 0 -0.030779084713287091 -0.013871903505543966 0 -0.029319831176575419 -0.014906323924159578 0 -0.030633550075087123 -0.015279385826394805 0 -0.030312603985999095 -0.016740190875293517 0 -0.028495400497539212 -0.016395199237892833 0 -0.029250825304099334 -0.017876045588188966 0 -0.029319831176575419 -0.014906323924159578 0 -0.030312603985999095 -0.016740190875293517 0 -0.028495400497539212 -0.016395199237892833 0 -0.032751603994762159 -0.019537971925963491 0 -0.034230712862009537 -0.020913112115208649 0 -0.032172159742897478 -0.018248203048295098 0 -0.032243525132372705 -0.019245888061513328 0 -0.032296860229902656 -0.01898256862557977 0 -0.032168601841742681 -0.015365404896211842 0 -0.030633550075087123 -0.015279385826394805 0 -0.030312603985999095 -0.016740190875293517 0 -0.032168601841742681 -0.015365404896211842 0 -0.030312603985999095 -0.016740190875293517 0 -0.032172159742897478 -0.018248203048295098 0 -0.026025712217369334 -0.014196309001598481 0 -0.026559469370659651 -0.01619244444861381 0 -0.024588572503281 -0.015120615303855717 0 -0.026025712217369334 -0.014196309001598481 0 -0.027743154024185115 -0.015213152459874445 0 -0.027811586321021816 -0.013708333826977873 0 -0.026025712217369334 -0.014196309001598481 0 -0.027743154024185115 -0.015213152459874445 0 -0.026559469370659651 -0.01619244444861381 0 -0.029319831176575419 -0.014906323924159578 0 -0.027811586321021816 -0.013708333826977873 0 -0.029331639417772205 -0.013040923396978377 0 -0.029319831176575419 -0.014906323924159578 0 -0.027743154024185115 -0.015213152459874445 0 -0.027811586321021816 -0.013708333826977873 0 -0.029319831176575419 -0.014906323924159578 0 -0.027743154024185115 -0.015213152459874445 0 -0.028495400497539212 -0.016395199237892833 0 -0.027733943544187935 -0.017087338980843077 0 -0.028495400497539212 -0.016395199237892833 0 -0.026559469370659651 -0.01619244444861381 0 -0.027743154024185115 -0.015213152459874445 0 -0.028495400497539212 -0.016395199237892833 0 -0.026559469370659651 -0.01619244444861381 0 -0.027733943544187935 -0.017087338980843077 0 -0.028495400497539212 -0.016395199237892833 0 -0.029250825304099334 -0.017876045588188966 0 -0.026559469370659651 -0.01619244444861381 0 -0.026570335100451967 -0.017815526423818877 0 -0.024440166740489579 -0.017371973655776987 0 -0.027733943544187935 -0.017087338980843077 0 -0.026559469370659651 -0.01619244444861381 0 -0.026570335100451967 -0.017815526423818877 0 -0.026559469370659651 -0.01619244444861381 0 -0.024153025605435616 -0.016498561195379798 0 -0.024588572503281 -0.015120615303855717 0 -0.028066141394979986 -0.017831388808147636 0 -0.028245340078959572 -0.017492484441295957 0 -0.028425006864690346 -0.017877365616946236 0 -0.028245340078959572 -0.017492484441295957 0 -0.029250825304099334 -0.017876045588188966 0 -0.028425006864690346 -0.017877365616946236 0 -0.0265624299638232 -0.01736612729822716 0 -0.027620241571831999 -0.01758735809691539 0 -0.027733943544187935 -0.017087338980843077 0 -0.026570335100451967 -0.017815526423818877 0 -0.029250825304099334 -0.017876045588188966 0 -0.029250825304099334 -0.017876045588188966 0 -0.028329324105299977 -0.018081449658988589 0 -0.028425006864690346 -0.017877365616946236 0 -0.029250825304099334 -0.017876045588188966 0 -0.028329324105299977 -0.018081449658988589 0 -0.029738535282743422 -0.018839822600591249 0 -0.028066141394979986 -0.017831388808147636 0 -0.028329324105299977 -0.018081449658988589 0 -0.028425006864690346 -0.017877365616946236 0 -0.025561046472573297 -0.017424519298529978 0 -0.026400917855106471 -0.017829423157695676 0 -0.026335042098285411 -0.015466234538309332 0 -0.028329324105299977 -0.018081449658988589 0 -0.025979083219307142 -0.017838752294368515 0 -0.030312603985999095 -0.016740190875293517 0 -0.032172159742897478 -0.018248203048295098 0 -0.030707674535778134 -0.018553217523843014 0 -0.032109165097238504 -0.018475972738023951 0 -0.032172159742897478 -0.018248203048295098 0 -0.030707674535778134 -0.018553217523843014 0 -0.030312603985999095 -0.016740190875293517 0 -0.029250825304099334 -0.017876045588188966 0 -0.030707674535778134 -0.018553217523843014 0 -0.029250825304099334 -0.017876045588188966 0 -0.030707674535778134 -0.018553217523843014 0 -0.029738535282743422 -0.018839822600591249 0 -0.032109165097238504 -0.018475972738023951 0 -0.030707674535778134 -0.018553217523843014 0 -0.031308936554109136 -0.019064222389033301 0 -0.030707674535778134 -0.018553217523843014 0 -0.031308936554109136 -0.019064222389033301 0 -0.029738535282743422 -0.018839822600591249 0 -0.031612494782216304 -0.019962475184328591 0 -0.031308936554109136 -0.019064222389033301 0 -0.030409634796169861 -0.019929614976110944 0 -0.031308936554109136 -0.019064222389033301 0 -0.030409634796169861 -0.019929614976110944 0 -0.029738535282743422 -0.018839822600591249 0 -0.031612494782216304 -0.019962475184328591 0 -0.030409634796169861 -0.019929614976110944 0 -0.031109131616727601 -0.021192888893180429 0 -0.030409634796169861 -0.019929614976110944 0 -0.029152411710247062 -0.019933924558693365 0 -0.029275584272600384 -0.020935865729945963 0 -0.030409634796169861 -0.019929614976110944 0 -0.029152411710247062 -0.019933924558693365 0 -0.029738535282743422 -0.018839822600591249 0 -0.029152411710247062 -0.019933924558693365 0 -0.029738535282743422 -0.018839822600591249 0 -0.027784087463134984 -0.019302361191583302 0 -0.028329324105299977 -0.018081449658988589 0 -0.029738535282743422 -0.018839822600591249 0 -0.027784087463134984 -0.019302361191583302 0 -0.028329324105299977 -0.018081449658988589 0 -0.027784087463134984 -0.019302361191583302 0 -0.025979083219307142 -0.017838752294368515 0 -0.027784087463134984 -0.019302361191583302 0 -0.025311464515830408 -0.019419257876517437 0 -0.025979083219307142 -0.017838752294368515 0 -0.027784087463134984 -0.019302361191583302 0 -0.026457866346273579 -0.020526203976789892 0 -0.025311464515830408 -0.019419257876517437 0 -0.027784087463134984 -0.019302361191583302 0 -0.028057222584303397 -0.020649446762015845 0 -0.026457866346273579 -0.020526203976789892 0 -0.029152411710247062 -0.019933924558693365 0 -0.027784087463134984 -0.019302361191583302 0 -0.028057222584303397 -0.020649446762015845 0 -0.029152411710247062 -0.019933924558693365 0 -0.028057222584303397 -0.020649446762015845 0 -0.029275584272600384 -0.020935865729945963 0 -0.028057222584303397 -0.020649446762015845 0 -0.026908888341776349 -0.021510347934408858 0 -0.02860780138826681 -0.021980107549383236 0 -0.028057222584303397 -0.020649446762015845 0 -0.02860780138826681 -0.021980107549383236 0 -0.029275584272600384 -0.020935865729945963 0 -0.028948038574534391 -0.022082436774177979 0 -0.02860780138826681 -0.021980107549383236 0 -0.029275584272600384 -0.020935865729945963 0 -0.028057222584303397 -0.020649446762015845 0 -0.026457866346273579 -0.020526203976789892 0 -0.026908888341776349 -0.021510347934408858 0 -0.026457866346273579 -0.020526203976789892 0 -0.026908888341776349 -0.021510347934408858 0 -0.025500222230652635 -0.021743384575255615 0 -0.026908888341776349 -0.021510347934408858 0 -0.025965558396311025 -0.022625107598136403 0 -0.025500222230652635 -0.021743384575255615 0 -0.032886251146504307 -0.014273673501502937 0 -0.033176666457404268 -0.014829999687762581 0 -0.025965558396311025 -0.022625107598136403 0 -0.029029379904034511 -0.022180948741559205 0 -0.02860780138826681 -0.021980107549383236 0 -0.03741718109276599 -0.0067053477979927747 0 -0.037900983019519753 -0.0071016562318189022 0 -0.037210834125455297 -0.0072607441816746592 0 -0.026908888341776349 -0.021510347934408858 0 -0.025965558396311025 -0.022625107598136403 0 -0.02860780138826681 -0.021980107549383236 0 -0.033176666457404268 -0.014829999687762581 0 -0.033128345322715795 -0.014857658091440747 0 -0.036904846667611256 -0.0066526393753023527 0 -0.037210834125455297 -0.0072607441816746592 0 -0.036398798615245913 -0.0069037374862722803 0 -0.033176666457404268 -0.014829999687762581 0 -0.034048948215644984 -0.012264122151407562 0 -0.036904846667611256 -0.0066526393753023527 0 -0.03741718109276599 -0.0067053477979927747 0 -0.037210834125455297 -0.0072607441816746592 0 -0.033605830886378939 -0.01404427845717701 0 -0.033421052472301205 -0.013971014926855447 0 -0.033423147586757185 -0.014110423637039442 0 -0.030409634796169861 -0.019929614976110944 0 -0.031109131616727601 -0.021192888893180429 0 -0.029275584272600384 -0.020935865729945963 0 -0.028948038574534391 -0.022082436774177979 0 -0.031109131616727601 -0.021192888893180429 0 -0.029275584272600384 -0.020935865729945963 0 -0.033176666457404268 -0.014829999687762581 0 -0.032180459837181034 -0.016333759930445581 0 -0.02250452614628019 -0.020754823255158598 0 -0.018906760782529133 -0.021467642597423901 0 -0.021147542700132443 -0.019952682850470031 0 -0.018880957987517766 -0.020542184340740267 0 -0.016797037324416147 -0.020230206027010294 0 -0.02250452614628019 -0.020754823255158598 0 -0.022199685884487376 -0.022119364679703057 0 -0.023608901631104188 -0.021694085337730852 0 -0.018598774576275307 -0.018998026643860431 0 -0.020487636854670657 -0.022613500204246434 0 -0.017518043443783455 -0.021966651845037197 0 -0.02250452614628019 -0.020754823255158598 0 -0.018598774576275307 -0.018998026643860431 0 -0.020487636854670657 -0.022613500204246434 0 -0.018670271612380791 -0.023900544111872094 0 -0.022156972532082882 -0.023563514162134359 0 -0.020487636854670657 -0.022613500204246434 0 -0.017549095351013993 -0.024930756607211207 0 -0.020487636854670657 -0.022613500204246434 0 -0.017518043443783455 -0.021966651845037197 0 -0.023129082582660238 -0.020853182055703804 0 -0.021972333768678756 -0.021653037885514165 0 -0.022156972532082882 -0.023563514162134359 0 -0.020487636854670657 -0.022613500204246434 0 -0.022199685884487376 -0.022119364679703057 0 -0.02250452614628019 -0.020754823255158598 0 -0.020487636854670657 -0.022613500204246434 0 -0.022199685884487376 -0.022119364679703057 0 -0.022156972532082882 -0.023563514162134359 0 -0.022199685884487376 -0.022119364679703057 0 -0.023608901631104188 -0.021694085337730852 0 -0.025154001550875011 -0.021545954805097526 0 -0.022156972532082882 -0.023563514162134359 0 -0.024027298112438644 -0.022034801993207689 0 -0.022156972532082882 -0.023563514162134359 0 -0.024027298112438644 -0.022034801993207689 0 -0.023608901631104188 -0.021694085337730852 0 -0.025154001550875011 -0.021545954805097526 0 -0.024027298112438644 -0.022034801993207689 0 -0.024813520890726557 -0.021664499040389702 0 -0.024027298112438644 -0.022034801993207689 0 -0.023608901631104188 -0.021694085337730852 0 -0.024813520890726557 -0.021664499040389702 0 -0.023608901631104188 -0.021694085337730852 0 -0.024813520890726557 -0.021664499040389702 0 -0.024741131863632911 -0.021041924424958228 0 -0.025154001550875011 -0.021545954805097526 0 -0.025965558396311025 -0.022625107598136403 0 -0.025500222230652635 -0.021743384575255615 0 -0.033954271879023751 -0.013158029935463774 0 -0.032886251146504307 -0.014273673501502937 0 -0.025154001550875011 -0.021545954805097526 0 -0.024813520890726557 -0.021664499040389702 0 -0.025500222230652635 -0.021743384575255615 0 -0.026457866346273579 -0.020526203976789892 0 -0.025500222230652635 -0.021743384575255615 0 -0.024741131863632911 -0.021041924424958228 0 -0.024813520890726557 -0.021664499040389702 0 -0.025500222230652635 -0.021743384575255615 0 -0.024741131863632911 -0.021041924424958228 0 -0.02250452614628019 -0.020754823255158598 0 -0.024741131863632911 -0.021041924424958228 0 -0.023173380816175412 -0.019681532417469373 0 -0.02250452614628019 -0.020754823255158598 0 -0.023608901631104188 -0.021694085337730852 0 -0.024741131863632911 -0.021041924424958228 0 -0.024741131863632911 -0.021041924424958228 0 -0.023173380816175412 -0.019681532417469373 0 -0.025311464515830408 -0.019419257876517437 0 -0.023173380816175412 -0.019681532417469373 0 -0.025311464515830408 -0.019419257876517437 0 -0.023802985119404235 -0.018113639395659954 0 -0.026457866346273579 -0.020526203976789892 0 -0.024741131863632911 -0.021041924424958228 0 -0.025311464515830408 -0.019419257876517437 0 -0.025311464515830408 -0.019419257876517437 0 -0.025979083219307142 -0.017838752294368515 0 -0.023802985119404235 -0.018113639395659954 0 -0.025979083219307142 -0.017838752294368515 0 -0.023802985119404235 -0.018113639395659954 0 -0.023993090156057998 -0.016173244195943688 0 -0.023173380816175412 -0.019681532417469373 0 -0.023802985119404235 -0.018113639395659954 0 -0.021352924669750008 -0.01843877260116791 0 -0.023802985119404235 -0.018113639395659954 0 -0.021352924669750008 -0.01843877260116791 0 -0.022209569228152468 -0.0168553099623182 0 -0.021352924669750008 -0.01843877260116791 0 -0.02037808151672053 -0.016762130423914702 0 -0.022209569228152468 -0.0168553099623182 0 -0.02250452614628019 -0.020754823255158598 0 -0.023173380816175412 -0.019681532417469373 0 -0.021147542700132443 -0.019952682850470031 0 -0.023173380816175412 -0.019681532417469373 0 -0.021352924669750008 -0.01843877260116791 0 -0.021147542700132443 -0.019952682850470031 0 -0.021352924669750008 -0.01843877260116791 0 -0.021147542700132443 -0.019952682850470031 0 -0.019315253355842006 -0.019441877922120075 0 -0.018906760782529133 -0.021467642597423901 0 -0.019315253355842006 -0.019441877922120075 0 -0.016681842311583629 -0.019308645297103778 0 -0.018906760782529133 -0.021467642597423901 0 -0.021147542700132443 -0.019952682850470031 0 -0.019315253355842006 -0.019441877922120075 0 -0.019315253355842006 -0.019441877922120075 0 -0.019168911984570602 -0.017918746615448115 0 -0.016681842311583629 -0.019308645297103778 0 -0.021352924669750008 -0.01843877260116791 0 -0.019315253355842006 -0.019441877922120075 0 -0.019168911984570602 -0.017918746615448115 0 -0.021352924669750008 -0.01843877260116791 0 -0.019168911984570602 -0.017918746615448115 0 -0.02037808151672053 -0.016762130423914702 0 -0.019168911984570602 -0.017918746615448115 0 -0.02037808151672053 -0.016762130423914702 0 -0.018257240235630669 -0.015958243083898139 0 -0.01972513390835056 -0.017019028741744619 0 -0.018790798809331904 -0.016807090085009167 0 -0.018587670330026427 -0.017617238409626628 0 -0.02037808151672053 -0.016762130423914702 0 -0.021440839886065984 -0.014812158239682204 0 -0.018257240235630669 -0.015958243083898139 0 -0.020643789080403499 -0.016635825466733145 0 -0.017588179790772242 -0.017342779617807832 0 -0.017368962154782727 -0.016599385652832196 0 -0.017588179790772242 -0.017342779617807832 0 -0.02037808151672053 -0.016762130423914702 0 -0.022209569228152468 -0.0168553099623182 0 -0.021440839886065984 -0.014812158239682204 0 -0.01972513390835056 -0.017019028741744619 0 -0.019352575294271864 -0.016501244697445204 0 -0.019904047611867672 -0.016183475936785863 0 -0.014261690984714375 -0.016571765332402452 0 -0.014458587075930915 -0.015902297034432532 0 -0.013835678214884205 -0.016378496757701363 0 -0.018790798809331904 -0.016807090085009167 0 -0.019352575294271864 -0.016501244697445204 0 -0.018991194665143915 -0.015994601682258049 0 -0.01972513390835056 -0.017019028741744619 0 -0.018790798809331904 -0.016807090085009167 0 -0.019352575294271864 -0.016501244697445204 0 -0.017368962154782727 -0.016599385652832196 0 -0.017417411258023308 -0.015607570901838414 0 -0.026335042098285411 -0.015466234538309332 0 -0.025979083219307142 -0.017838752294368515 0 -0.023993090156057998 -0.016173244195943688 0 -0.023802985119404235 -0.018113639395659954 0 -0.022209569228152468 -0.0168553099623182 0 -0.023993090156057998 -0.016173244195943688 0 -0.022209569228152468 -0.0168553099623182 0 -0.021440839886065984 -0.014812158239682204 0 -0.023993090156057998 -0.016173244195943688 0 -0.020643789080403499 -0.016635825466733145 0 -0.023386053139875154 -0.016662499482858844 0 -0.01972513390835056 -0.017019028741744619 0 -0.020918146910010007 -0.016395181949671225 0 -0.020823283382145018 -0.016375229400403434 0 -0.021440839886065984 -0.014812158239682204 0 -0.023993090156057998 -0.016173244195943688 0 -0.024426179340357512 -0.01345841310313654 0 -0.01972513390835056 -0.017019028741744619 0 -0.020823283382145018 -0.016375229400403434 0 -0.019904047611867672 -0.016183475936785863 0 -0.0265624299638232 -0.01736612729822716 0 -0.023386053139875154 -0.016662499482858844 0 -0.028066141394979986 -0.017831388808147636 0 -0.028245340078959572 -0.017492484441295957 0 -0.027553893692087477 -0.017356311194139485 0 -0.026335042098285411 -0.015466234538309332 0 -0.023993090156057998 -0.016173244195943688 0 -0.024426179340357512 -0.01345841310313654 0 -0.025561046472573297 -0.017424519298529978 0 -0.023386053139875154 -0.016662499482858844 0 -0.026559469370659651 -0.01619244444861381 0 -0.022534804230971383 -0.018654924445094683 0 -0.024153025605435616 -0.016498561195379798 0 -0.024569924882617313 -0.016354836092363486 0 -0.023386053139875154 -0.016662499482858844 0 -0.022534804230971383 -0.018654924445094683 0 -0.024153025605435616 -0.016498561195379798 0 -0.022450309728894058 -0.017632261933942617 0 -0.024153025605435616 -0.016498561195379798 0 -0.022928569111027659 -0.016397482897779671 0 -0.023072382775461229 -0.015329493757295889 0 -0.024153025605435616 -0.016498561195379798 0 -0.022450309728894058 -0.017632261933942617 0 -0.022928569111027659 -0.016397482897779671 0 -0.021842613849744768 -0.018215094814175711 0 -0.019941215340780485 -0.016543251227393828 0 -0.019121698300083409 -0.017655696347206325 0 -0.022808390632623431 -0.016608215020934042 0 -0.019910338800387738 -0.016192489423052361 0 -0.022450309728894058 -0.017632261933942617 0 -0.022928569111027659 -0.016397482897779671 0 -0.02150833175663493 -0.015920185533814593 0 -0.022450309728894058 -0.017632261933942617 0 -0.020084039458758383 -0.01666774768909943 0 -0.02150833175663493 -0.015920185533814593 0 -0.022450309728894058 -0.017632261933942617 0 -0.022206992848557122 -0.018569646588671808 0 -0.020084039458758383 -0.01666774768909943 0 -0.022534804230971383 -0.018654924445094683 0 -0.022450309728894058 -0.017632261933942617 0 -0.022206992848557122 -0.018569646588671808 0 -0.023386053139875154 -0.016662499482858844 0 -0.022808390632623431 -0.016608215020934042 0 -0.022808390632623431 -0.016608215020934042 0 -0.021330288424153278 -0.01597319039599452 0 -0.020084039458758383 -0.01666774768909943 0 -0.02150833175663493 -0.015920185533814593 0 -0.019748039010356669 -0.014980691460489134 0 -0.020639691638568776 -0.013994051940384932 0 -0.02150833175663493 -0.015920185533814593 0 -0.019748039010356669 -0.014980691460489134 0 -0.020639691638568776 -0.013994051940384932 0 -0.02201008566979026 -0.014643812896692129 0 -0.02150833175663493 -0.015920185533814593 0 -0.020639691638568776 -0.013994051940384932 0 -0.02201008566979026 -0.014643812896692129 0 -0.023040402800270074 -0.013304741700794787 0 -0.02201008566979026 -0.014643812896692129 0 -0.02150833175663493 -0.015920185533814593 0 -0.023072382775461229 -0.015329493757295889 0 -0.026025712217369334 -0.014196309001598481 0 -0.024588572503281 -0.015120615303855717 0 -0.023040402800270074 -0.013304741700794787 0 -0.022928569111027659 -0.016397482897779671 0 -0.02150833175663493 -0.015920185533814593 0 -0.023072382775461229 -0.015329493757295889 0 -0.023072382775461229 -0.015329493757295889 0 -0.024588572503281 -0.015120615303855717 0 -0.023040402800270074 -0.013304741700794787 0 -0.02201008566979026 -0.014643812896692129 0 -0.023072382775461229 -0.015329493757295889 0 -0.023040402800270074 -0.013304741700794787 0 -0.024153025605435616 -0.016498561195379798 0 -0.023072382775461229 -0.015329493757295889 0 -0.024588572503281 -0.015120615303855717 0 -0.019352575294271864 -0.016501244697445204 0 -0.018991194665143915 -0.015994601682258049 0 -0.019904047611867672 -0.016183475936785863 0 -0.016388792504641009 -0.017097136601567788 0 -0.019121698300083409 -0.017655696347206325 0 -0.018451696163826369 -0.016308730080391385 0 -0.017417411258023308 -0.015607570901838414 0 -0.019910338800387738 -0.016192489423052361 0 -0.019941215340780485 -0.016543251227393828 0 -0.019121698300083409 -0.017655696347206325 0 -0.018451696163826369 -0.016308730080391385 0 -0.016388792504641009 -0.017097136601567788 0 -0.018451696163826369 -0.016308730080391385 0 -0.018033413055127085 -0.014860071488562868 0 -0.020084039458758383 -0.01666774768909943 0 -0.019748039010356669 -0.014980691460489134 0 -0.018033413055127085 -0.014860071488562868 0 -0.019941215340780485 -0.016543251227393828 0 -0.018451696163826369 -0.016308730080391385 0 -0.018033413055127085 -0.014860071488562868 0 -0.021330288424153278 -0.01597319039599452 0 -0.020577774099246361 -0.015514128028907993 0 -0.020639691638568776 -0.013994051940384932 0 -0.019748039010356669 -0.014980691460489134 0 -0.018832202005041494 -0.013133432287661262 0 -0.019748039010356669 -0.014980691460489134 0 -0.018033413055127085 -0.014860071488562868 0 -0.018832202005041494 -0.013133432287661262 0 -0.018033413055127085 -0.014860071488562868 0 -0.017133705423472971 -0.013979900124186137 0 -0.018832202005041494 -0.013133432287661262 0 -0.015814541836995575 -0.016325736887295664 0 -0.01663458555453257 -0.013803716167200521 0 -0.014395143546475832 -0.014060421680727835 0 -0.016388792504641009 -0.017097136601567788 0 -0.018033413055127085 -0.014860071488562868 0 -0.017133705423472971 -0.013979900124186137 0 -0.017417411258023308 -0.015607570901838414 0 -0.017459878577387854 -0.014042949455559324 0 -0.01663458555453257 -0.013803716167200521 0 -0.015448628889049828 -0.012223697443372462 0 -0.014395143546475832 -0.014060421680727835 0 -0.01663458555453257 -0.013803716167200521 0 -0.015448628889049828 -0.012223697443372462 0 -0.017772874522034122 -0.010787595064907906 0 -0.017459878577387854 -0.014042949455559324 0 -0.017657852529496889 -0.012872164480739278 0 -0.018832202005041494 -0.013133432287661262 0 -0.017772874522034122 -0.010787595064907906 0 -0.020909013952243694 -0.011948163226403814 0 -0.017133705423472971 -0.013979900124186137 0 -0.018832202005041494 -0.013133432287661262 0 -0.017772874522034122 -0.010787595064907906 0 -0.017772874522034122 -0.010787595064907906 0 -0.020274740133045917 -0.0077556902425437186 0 -0.020967668786185813 -0.0098866760825552791 0 -0.015448628889049828 -0.012223697443372462 0 -0.017772874522034122 -0.010787595064907906 0 -0.015031189004560401 -0.010151747562452774 0 -0.017772874522034122 -0.010787595064907906 0 -0.015031189004560401 -0.010151747562452774 0 -0.016016051983613052 -0.0082904101431530187 0 -0.016016051983613052 -0.0082904101431530187 0 -0.018218002608983947 -0.0067242231829442627 0 -0.015316917044213544 -0.0057501432197684952 0 -0.016016051983613052 -0.0082904101431530187 0 -0.015316917044213544 -0.0057501432197684952 0 -0.013673650383579749 -0.007972286740135762 0 -0.015031189004560401 -0.010151747562452774 0 -0.016016051983613052 -0.0082904101431530187 0 -0.013673650383579749 -0.007972286740135762 0 -0.017772874522034122 -0.010787595064907906 0 -0.016016051983613052 -0.0082904101431530187 0 -0.018218002608983947 -0.0067242231829442627 0 -0.017772874522034122 -0.010787595064907906 0 -0.018218002608983947 -0.0067242231829442627 0 -0.020274740133045917 -0.0077556902425437186 0 -0.018218002608983947 -0.0067242231829442627 0 -0.020274740133045917 -0.0077556902425437186 0 -0.020858860260169816 -0.0038181029079067097 0 -0.018218002608983947 -0.0067242231829442627 0 -0.017296567964640349 -0.0039987067567179655 0 -0.020858860260169816 -0.0038181029079067097 0 -0.018218002608983947 -0.0067242231829442627 0 -0.015316917044213544 -0.0057501432197684952 0 -0.017296567964640349 -0.0039987067567179655 0 -0.024027357597205163 -0.0067119496567530929 0 -0.023917123895138101 -0.0073446061055348465 0 -0.02683889727150917 -0.0058682682828972155 0 -0.024027357597205163 -0.0067119496567530929 0 -0.022792659373278235 -0.0081541847197730746 0 -0.023100843118371173 -0.0045798968678689286 0 -0.024027357597205163 -0.0067119496567530929 0 -0.023917123895138101 -0.0073446061055348465 0 -0.022792659373278235 -0.0081541847197730746 0 -0.02912819945374881 -0.02509072728628119 0 -0.028151127573679637 -0.031569074520629639 0 -0.024027357597205163 -0.0067119496567530929 0 -0.025305293972876602 -0.0053718157014731923 0 -0.024680854586538736 -0.0047398674136306046 0 -0.024027357597205163 -0.0067119496567530929 0 -0.023100843118371173 -0.0045798968678689286 0 -0.024622336340250614 -0.0041672079013425059 0 -0.022819967417854334 -0.0078517808639759889 0 -0.02202314307654913 -0.0061263463785486538 0 -0.022792659373278235 -0.0081541847197730746 0 -0.020858860260169816 -0.0038181029079067097 0 -0.023100843118371173 -0.0045798968678689286 0 -0.020274740133045917 -0.0077556902425437186 0 -0.022407573027271203 -0.0071407184446014172 0 -0.020858860260169816 -0.0038181029079067097 0 -0.020274740133045917 -0.0077556902425437186 0 -0.022407573027271203 -0.0071407184446014172 0 -0.020967668786185813 -0.0098866760825552791 0 -0.022819967417854334 -0.0078517808639759889 0 -0.024127638575656904 -0.010618337543051096 0 -0.022792659373278235 -0.0081541847197730746 0 -0.024869797594435285 -0.0091188165740601467 0 -0.024554981420756496 -0.011369235756117795 0 -0.023917123895138101 -0.0073446061055348465 0 -0.024869797594435285 -0.0091188165740601467 0 -0.025909527339724975 -0.0078621937732490741 0 -0.023917123895138101 -0.0073446061055348465 0 -0.022792659373278235 -0.0081541847197730746 0 -0.024869797594435285 -0.0091188165740601467 0 -0.022407573027271203 -0.0071407184446014172 0 -0.024162087024857021 -0.010602318223779609 0 -0.020967668786185813 -0.0098866760825552791 0 -0.017772874522034122 -0.010787595064907906 0 -0.020967668786185813 -0.0098866760825552791 0 -0.020909013952243694 -0.011948163226403814 0 -0.024162087024857021 -0.010602318223779609 0 -0.020967668786185813 -0.0098866760825552791 0 -0.020909013952243694 -0.011948163226403814 0 -0.020639691638568776 -0.013994051940384932 0 -0.020909013952243694 -0.011948163226403814 0 -0.023040402800270074 -0.013304741700794787 0 -0.020639691638568776 -0.013994051940384932 0 -0.018832202005041494 -0.013133432287661262 0 -0.020909013952243694 -0.011948163226403814 0 -0.024162087024857021 -0.010602318223779609 0 -0.020909013952243694 -0.011948163226403814 0 -0.023040402800270074 -0.013304741700794787 0 -0.026025712217369334 -0.014196309001598481 0 -0.024162087024857021 -0.010602318223779609 0 -0.023040402800270074 -0.013304741700794787 0 -0.026025712217369334 -0.014196309001598481 0 -0.024554981420756496 -0.011369235756117795 0 -0.026530263056865001 -0.012473491556684931 0 -0.024883518260130546 -0.012214285861174226 0 -0.024127638575656904 -0.010618337543051096 0 -0.026025712217369334 -0.014196309001598481 0 -0.026530263056865001 -0.012473491556684931 0 -0.027811586321021816 -0.013708333826977873 0 -0.027811586321021816 -0.013708333826977873 0 -0.027889280383244789 -0.012087457239255493 0 -0.029331639417772205 -0.013040923396978377 0 -0.027889280383244789 -0.012087457239255493 0 -0.029331639417772205 -0.013040923396978377 0 -0.029243787943135046 -0.011513602661446727 0 -0.026530263056865001 -0.012473491556684931 0 -0.027811586321021816 -0.013708333826977873 0 -0.027889280383244789 -0.012087457239255493 0 -0.027889280383244789 -0.012087457239255493 0 -0.028106811618827585 -0.010553719319538501 0 -0.026469758637477653 -0.010817811904384559 0 -0.027889280383244789 -0.012087457239255493 0 -0.028106811618827585 -0.010553719319538501 0 -0.029243787943135046 -0.011513602661446727 0 -0.028106811618827585 -0.010553719319538501 0 -0.029243787943135046 -0.011513602661446727 0 -0.029940874483797897 -0.0097887812257603478 0 -0.028106811618827585 -0.010553719319538501 0 -0.026469758637477653 -0.010817811904384559 0 -0.026792683266256848 -0.0091643781540850788 0 -0.024869797594435285 -0.0091188165740601467 0 -0.024554981420756496 -0.011369235756117795 0 -0.026469758637477653 -0.010817811904384559 0 -0.024554981420756496 -0.011369235756117795 0 -0.026530263056865001 -0.012473491556684931 0 -0.026469758637477653 -0.010817811904384559 0 -0.026530263056865001 -0.012473491556684931 0 -0.027889280383244789 -0.012087457239255493 0 -0.026469758637477653 -0.010817811904384559 0 -0.030779084713287091 -0.013871903505543966 0 -0.032070059021589548 -0.01268424452476931 0 -0.030786774599842394 -0.012157204723890268 0 -0.030779084713287091 -0.013871903505543966 0 -0.030786774599842394 -0.012157204723890268 0 -0.029331639417772205 -0.013040923396978377 0 -0.030786774599842394 -0.012157204723890268 0 -0.029331639417772205 -0.013040923396978377 0 -0.029243787943135046 -0.011513602661446727 0 -0.030786774599842394 -0.012157204723890268 0 -0.031114731968053127 -0.011296221039279209 0 -0.030335078565675133 -0.010930716933091191 0 -0.030786774599842394 -0.012157204723890268 0 -0.029243787943135046 -0.011513602661446727 0 -0.029940874483797897 -0.0097887812257603478 0 -0.025577837782979455 -0.016492270120956203 0 -0.025402069379679176 -0.018447308446292842 0 -0.034596436784690571 -0.023077655574897046 0 -0.034535013138742174 -0.02458167666823562 0 -0.033944710688417146 -0.02353390253007288 0 -0.032070059021589548 -0.01268424452476931 0 -0.031114731968053127 -0.011296221039279209 0 -0.031901812661315518 -0.01078060182147721 0 -0.031783932947257343 -0.021503203752481617 0 -0.030508715668732717 -0.032717312730895148 0 -0.032070059021589548 -0.01268424452476931 0 -0.030786774599842394 -0.012157204723890268 0 -0.031114731968053127 -0.011296221039279209 0 -0.030508715668732717 -0.032717312730895148 0 -0.027977356923265147 -0.048676185678344232 0 -0.025672110272871869 -0.038596460530906672 0 -0.027379957591688129 -0.039536449357317802 0 -0.025618570186985313 -0.041581035437189266 0 -0.031114731968053127 -0.011296221039279209 0 -0.031901812661315518 -0.01078060182147721 0 -0.030807177498985833 -0.010298061975851085 0 -0.030508715668732717 -0.032717312730895148 0 -0.028041896635332242 -0.029662974113367276 0 -0.030807177498985833 -0.010298061975851085 0 -0.030335078565675133 -0.010930716933091191 0 -0.029842025917814423 -0.0098377805981194055 0 -0.025402069379679176 -0.018447308446292842 0 -0.026202314644662748 -0.02809730743484215 0 -0.031114731968053127 -0.011296221039279209 0 -0.030807177498985833 -0.010298061975851085 0 -0.030335078565675133 -0.010930716933091191 0 -0.028041896635332242 -0.029662974113367276 0 -0.026202314644662748 -0.02809730743484215 0 -0.027643973765166446 -0.041431441924295945 0 -0.029081518016815529 -0.040472280979632937 0 -0.029865245262858043 -0.042298589979931731 0 -0.027379957591688129 -0.039536449357317802 0 -0.027643973765166446 -0.041431441924295945 0 -0.029081518016815529 -0.040472280979632937 0 -0.035642878753801267 -0.053248720815110985 0 -0.035502155204703609 -0.05965486175679266 0 -0.033356135383904695 -0.05791414213270818 0 -0.027379957591688129 -0.039536449357317802 0 -0.027643973765166446 -0.041431441924295945 0 -0.025618570186985313 -0.041581035437189266 0 -0.025909527339724975 -0.0078621937732490741 0 -0.026792683266256848 -0.0091643781540850788 0 -0.027341212331838789 -0.0079419771892392382 0 -0.024869797594435285 -0.0091188165740601467 0 -0.025909527339724975 -0.0078621937732490741 0 -0.026792683266256848 -0.0091643781540850788 0 -0.024869797594435285 -0.0091188165740601467 0 -0.026469758637477653 -0.010817811904384559 0 -0.026792683266256848 -0.0091643781540850788 0 -0.028106811618827585 -0.010553719319538501 0 -0.026792683266256848 -0.0091643781540850788 0 -0.028347517228359147 -0.0091041378934636034 0 -0.029940874483797897 -0.0097887812257603478 0 -0.028347517228359147 -0.0091041378934636034 0 -0.028999227547943762 -0.0074585482927669033 0 -0.028106811618827585 -0.010553719319538501 0 -0.029940874483797897 -0.0097887812257603478 0 -0.028347517228359147 -0.0091041378934636034 0 -0.028347517228359147 -0.0091041378934636034 0 -0.027341212331838789 -0.0079419771892392382 0 -0.028999227547943762 -0.0074585482927669033 0 -0.026792683266256848 -0.0091643781540850788 0 -0.028347517228359147 -0.0091041378934636034 0 -0.027341212331838789 -0.0079419771892392382 0 -0.027341212331838789 -0.0079419771892392382 0 -0.028999227547943762 -0.0074585482927669033 0 -0.02664522550450955 -0.0061255509460720267 0 -0.026202314644662748 -0.02809730743484215 0 -0.027296133066223801 -0.030708694057295715 0 -0.030336125095858753 -0.031855114143218122 0 -0.024761667090176791 -0.028841432508353596 0 -0.028245490240174441 -0.02704341684058342 0 -0.026202314644662748 -0.02809730743484215 0 -0.024990711679182966 -0.038940930151408475 0 -0.027296133066223801 -0.030708694057295715 0 -0.024990711679182966 -0.038940930151408475 0 -0.024027357597205163 -0.0067119496567530929 0 -0.02683889727150917 -0.0058682682828972155 0 -0.025305293972876602 -0.0053718157014731923 0 -0.023917123895138101 -0.0073446061055348465 0 -0.025909527339724975 -0.0078621937732490741 0 -0.02664522550450955 -0.0061255509460720267 0 -0.027296133066223801 -0.030708694057295715 0 -0.027783853834777824 -0.033068914092911489 0 -0.029478848656799006 -0.0253632152730245 0 -0.027296133066223801 -0.030708694057295715 0 -0.025909527339724975 -0.0078621937732490741 0 -0.027341212331838789 -0.0079419771892392382 0 -0.02664522550450955 -0.0061255509460720267 0 -0.02683889727150917 -0.0058682682828972155 0 -0.025305293972876602 -0.0053718157014731923 0 -0.025622333393830219 -0.0052132211111052314 0 -0.027840733452569905 -0.032975464765519859 0 -0.027783853834777824 -0.033068914092911489 0 -0.027783853834777824 -0.033068914092911489 0 -0.023947106361741532 -0.045476349821626794 0 -0.022015076312865346 -0.042663858547355257 0 -0.020586448199506776 -0.043407721415873381 0 -0.022396797255940615 -0.043621803920370981 0 -0.025305293972876602 -0.0053718157014731923 0 -0.025602588265075166 -0.0052254019119386628 0 -0.024680854586538736 -0.0047398674136306046 0 -0.026004245335277627 -0.039066444017648493 0 -0.022144987760122328 -0.036970661230200381 0 -0.029776364563703434 -0.03306575443636172 0 -0.027783853834777824 -0.033068914092911489 0 -0.028151127573679637 -0.031569074520629639 0 -0.022015076312865346 -0.042663858547355257 0 -0.022592784618320722 -0.042967769962820861 0 -0.022396797255940615 -0.043621803920370981 0 -0.023947106361741532 -0.045476349821626794 0 -0.020180727399260693 -0.058156832388506531 0 -0.026004245335277627 -0.039066444017648493 0 -0.031215349548573305 -0.03638022296283417 0 -0.029776364563703434 -0.03306575443636172 0 -0.024502076959346211 -0.052388620176011466 0 -0.024728201534800955 -0.052914011675499924 0 -0.023165583175891315 -0.053118176041132857 0 -0.024990711679182966 -0.038940930151408475 0 -0.023947106361741532 -0.045476349821626794 0 -0.017566975529028549 -0.076826677426545559 0 -0.016885045814468317 -0.078405488955924196 0 -0.015720460699393507 -0.077874973870113481 0 -0.017566975529028549 -0.076826677426545559 0 -0.016885045814468317 -0.078405488955924196 0 -0.018587660770343559 -0.079189284701517759 0 -0.020586448199506776 -0.043407721415873381 0 -0.021510680958067678 -0.045607793270526185 0 -0.022396797255940615 -0.043621803920370981 0 -0.021824510650450414 -0.045552611386038187 0 -0.021510680958067678 -0.045607793270526185 0 -0.022396797255940615 -0.043621803920370981 0 -0.017826289316283928 -0.056781600450061739 0 -0.026348175176595542 -0.03393380859828548 0 -0.023947106361741532 -0.045476349821626794 0 -0.017569067305200664 -0.059683918841499851 0 -0.025618570186985313 -0.041581035437189266 0 -0.027728651684346003 -0.043431615966720592 0 -0.02556701348753742 -0.044580098063236005 0 -0.027977356923265147 -0.048676185678344232 0 -0.024165662702908142 -0.059369585013762133 0 -0.035502155204703609 -0.05965486175679266 0 -0.034405733365865471 -0.062745563633468643 0 -0.035318863849655061 -0.065922238821021731 0 -0.027643973765166446 -0.041431441924295945 0 -0.025618570186985313 -0.041581035437189266 0 -0.027728651684346003 -0.043431615966720592 0 -0.025021099581744335 -0.048864148353723692 0 -0.024165662702908142 -0.059369585013762133 0 -0.025274350666870754 -0.062316885033140992 0 -0.024503775764373084 -0.061706406721915005 0 -0.027643973765166446 -0.041431441924295945 0 -0.029865245262858043 -0.042298589979931731 0 -0.027728651684346003 -0.043431615966720592 0 -0.024728201534800955 -0.052914011675499924 0 -0.023165583175891315 -0.053118176041132857 0 -0.023275059305312366 -0.053704246645944489 0 -0.024990711679182966 -0.038940930151408475 0 -0.025021099581744335 -0.048864148353723692 0 -0.023165583175891315 -0.053118176041132857 0 -0.023275059305312366 -0.053704246645944489 0 -0.021824067804908018 -0.053851356403642692 0 -0.016885045814468317 -0.078405488955924196 0 -0.015720460699393507 -0.077874973870113481 0 -0.015686070509067829 -0.079733554601425338 0 -0.015720460699393507 -0.077874973870113481 0 -0.014863048336684202 -0.07946856696478638 0 -0.015686070509067829 -0.079733554601425338 0 -0.020180727399260693 -0.058156832388506531 0 -0.022482589739740814 -0.064794240897227587 0 -0.023275059305312366 -0.053704246645944489 0 -0.02181734640026177 -0.054498469426656385 0 -0.021824067804908018 -0.053851356403642692 0 -0.015720460699393507 -0.077874973870113481 0 -0.014101733252854864 -0.078862874412789705 0 -0.014863048336684202 -0.07946856696478638 0 -0.023990078101233794 -0.060513016861394174 0 -0.022002280691427133 -0.06152993534561213 0 -0.02398851352465857 -0.065014572899310188 0 -0.022482589739740814 -0.064794240897227587 0 -0.024165662702908142 -0.059369585013762133 0 -0.023170617715574899 -0.065922024848761973 0 -0.024503775764373084 -0.061706406721915005 0 -0.023170617715574899 -0.065922024848761973 0 -0.022482589739740814 -0.064794240897227587 0 -0.034405733365865471 -0.062745563633468643 0 -0.034350264704561762 -0.066418463749300924 0 -0.035318863849655061 -0.065922238821021731 0 -0.022002280691427133 -0.06152993534561213 0 -0.02398851352465857 -0.065014572899310188 0 -0.021944713514531023 -0.066067732089275522 0 -0.024503775764373084 -0.061706406721915005 0 -0.024165662702908142 -0.059369585013762133 0 -0.013875027845290879 -0.07903203861470269 0 -0.014188028019028879 -0.079982126487376154 0 -0.013996798812597222 -0.081155903239494953 0 -0.023170617715574899 -0.065922024848761973 0 -0.02258366505937711 -0.074928834983015641 0 -0.022482589739740814 -0.064794240897227587 0 -0.021872950085633967 -0.06841668209980202 0 -0.014101733252854864 -0.078862874412789705 0 -0.014188028019028879 -0.079982126487376154 0 -0.014863048336684202 -0.07946856696478638 0 -0.013875027845290879 -0.07903203861470269 0 -0.01417976464376402 -0.078870845182857238 0 -0.014188028019028879 -0.079982126487376154 0 -0.014188028019028879 -0.079982126487376154 0 -0.014863048336684202 -0.07946856696478638 0 -0.014881008696952925 -0.080645424171922192 0 -0.014863048336684202 -0.07946856696478638 0 -0.015686070509067829 -0.079733554601425338 0 -0.014881008696952925 -0.080645424171922192 0 -0.01570722592812741 -0.081511814830253493 0 -0.014881008696952925 -0.080645424171922192 0 -0.014925305815335022 -0.081885326834551991 0 -0.015686070509067829 -0.079733554601425338 0 -0.01570722592812741 -0.081511814830253493 0 -0.016476190996154157 -0.081031141355305328 0 -0.015686070509067829 -0.079733554601425338 0 -0.01570722592812741 -0.081511814830253493 0 -0.014881008696952925 -0.080645424171922192 0 -0.014881008696952925 -0.080645424171922192 0 -0.013996798812597222 -0.081155903239494953 0 -0.014925305815335022 -0.081885326834551991 0 -0.014188028019028879 -0.079982126487376154 0 -0.014881008696952925 -0.080645424171922192 0 -0.013996798812597222 -0.081155903239494953 0 -0.017698375393906059 -0.079779535109380559 0 -0.016947177541139613 -0.080221306830423583 0 -0.017326603703868144 -0.081071010876550845 0 -0.016858572812178028 -0.080408802692576262 0 -0.017045772494340774 -0.081044839848704489 0 -0.01713713342927348 -0.080609337893139912 0 -0.017580730309712533 -0.063924200038059514 0 -0.01575382162910741 -0.074975810062300446 0 -0.017580730309712533 -0.063924200038059514 0 -0.019610018654348499 -0.073587304596280989 0 -0.016858572812178028 -0.080408802692576262 0 -0.016920505796081613 -0.080223155892497358 0 -0.01713713342927348 -0.080609337893139912 0 -0.017580730309712533 -0.063924200038059514 0 -0.017826289316283928 -0.056781600450061739 0 -0.013710166016043244 -0.049195647830835659 0 -0.0094029048373807881 -0.063899783567554408 0 -0.019359290730940372 -0.062213956890568287 0 -0.017580730309712533 -0.063924200038059514 0 -0.017569067305200664 -0.059683918841499851 0 -0.017698375393906059 -0.079779535109380559 0 -0.017563521102143795 -0.079485506014826901 0 -0.016947177541139613 -0.080221306830423583 0 -0.017826289316283928 -0.056781600450061739 0 -0.017569067305200664 -0.059683918841499851 0 -0.015686070509067829 -0.079733554601425338 0 -0.016947177541139613 -0.080221306830423583 0 -0.016476190996154157 -0.081031141355305328 0 -0.015686070509067829 -0.079733554601425338 0 -0.017563521102143795 -0.079485506014826901 0 -0.016947177541139613 -0.080221306830423583 0 -0.016885045814468317 -0.078405488955924196 0 -0.015686070509067829 -0.079733554601425338 0 -0.018587660770343559 -0.079189284701517759 0 -0.015301959807141366 -0.065828994427779258 0 -0.017569067305200664 -0.059683918841499851 0 -0.016476190996154157 -0.081031141355305328 0 -0.017326603703868144 -0.081071010876550845 0 -0.016706463961821214 -0.082407958932085898 0 -0.016947177541139613 -0.080221306830423583 0 -0.016476190996154157 -0.081031141355305328 0 -0.017326603703868144 -0.081071010876550845 0 -0.016984043315376143 -0.08083989897562488 0 -0.016787404403576005 -0.08160853995160075 0 -0.017249114081363329 -0.081521815140633974 0 -0.016787404403576005 -0.08160853995160075 0 -0.017249114081363329 -0.081521815140633974 0 -0.017068226760092564 -0.082027179725714341 0 -0.017045772494340774 -0.081044839848704489 0 -0.017611199870479911 -0.081280326143529744 0 -0.017410205370650488 -0.081979453384033479 0 -0.019610018654348499 -0.073587304596280989 0 -0.020023229083070356 -0.076075184278596511 0 -0.017611199870479911 -0.081280326143529744 0 -0.017408344295507076 -0.080876646640870617 0 -0.017875526633132809 -0.080924369634460633 0 -0.017045772494340774 -0.081044839848704489 0 -0.017408344295507076 -0.080876646640870617 0 -0.01713713342927348 -0.080609337893139912 0 -0.017045772494340774 -0.081044839848704489 0 -0.017611199870479911 -0.081280326143529744 0 -0.017408344295507076 -0.080876646640870617 0 -0.017408344295507076 -0.080876646640870617 0 -0.01713713342927348 -0.080609337893139912 0 -0.017460889253236429 -0.080521304404681568 0 -0.016920505796081613 -0.080223155892497358 0 -0.017460889253236429 -0.080521304404681568 0 -0.017870320511094953 -0.080152118965312324 0 -0.017408344295507076 -0.080876646640870617 0 -0.017460889253236429 -0.080521304404681568 0 -0.017875526633132809 -0.080924369634460633 0 -0.016920505796081613 -0.080223155892497358 0 -0.01713713342927348 -0.080609337893139912 0 -0.017460889253236429 -0.080521304404681568 0 -0.017460889253236429 -0.080521304404681568 0 -0.01800835522627681 -0.080513703552403795 0 -0.017875526633132809 -0.080924369634460633 0 -0.017460889253236429 -0.080521304404681568 0 -0.01800835522627681 -0.080513703552403795 0 -0.017870320511094953 -0.080152118965312324 0 -0.01800835522627681 -0.080513703552403795 0 -0.018192842229541671 -0.080302847957800183 0 -0.017870320511094953 -0.080152118965312324 0 -0.01800835522627681 -0.080513703552403795 0 -0.017875526633132809 -0.080924369634460633 0 -0.018124167207571578 -0.080826081208106013 0 -0.017875526633132809 -0.080924369634460633 0 -0.018224966231255291 -0.081161426326866945 0 -0.018124167207571578 -0.080826081208106013 0 -0.017611199870479911 -0.081280326143529744 0 -0.017875526633132809 -0.080924369634460633 0 -0.018034217012473552 -0.081352898068076454 0 -0.017875526633132809 -0.080924369634460633 0 -0.018034217012473552 -0.081352898068076454 0 -0.018224966231255291 -0.081161426326866945 0 -0.018034217012473552 -0.081352898068076454 0 -0.018224966231255291 -0.081161426326866945 0 -0.018384090262035187 -0.081348916583214068 0 -0.018224966231255291 -0.081161426326866945 0 -0.018418075940461111 -0.081307415498536414 0 -0.018384090262035187 -0.081348916583214068 0 -0.018224966231255291 -0.081161426326866945 0 -0.018418075940461111 -0.081307415498536414 0 -0.018266591877378707 -0.081062723599224923 0 -0.018418075940461111 -0.081307415498536414 0 -0.018431695102643628 -0.081610779716286136 0 -0.018266591877378707 -0.081062723599224923 0 -0.018431695102643628 -0.081610779716286136 0 -0.018266591877378707 -0.081062723599224923 0 -0.018246963564586622 -0.080701238105667358 0 -0.018266591877378707 -0.081062723599224923 0 -0.018246963564586622 -0.080701238105667358 0 -0.018192888356603105 -0.080597627417226175 0 -0.018266591877378707 -0.081062723599224923 0 -0.018124167207571578 -0.080826081208106013 0 -0.018192888356603105 -0.080597627417226175 0 -0.018224966231255291 -0.081161426326866945 0 -0.018266591877378707 -0.081062723599224923 0 -0.018124167207571578 -0.080826081208106013 0 -0.018431695102643628 -0.081610779716286136 0 -0.018246963564586622 -0.080701238105667358 0 -0.018190548299842419 -0.079960205454605762 0 -0.019174743558117158 -0.076445571793591613 0 -0.017857602204861003 -0.078469836330636283 0 -0.018190548299842419 -0.079960205454605762 0 -0.018409121182207871 -0.07800401829354317 0 -0.018146354083628118 -0.079177792695956137 0 -0.017063036349211958 -0.076877126723464015 0 -0.017916236199243332 -0.077243906694444059 0 -0.017166929398828679 -0.077730756043518409 0 -0.017063036349211958 -0.076877126723464015 0 -0.017968142132111075 -0.076440804260711606 0 -0.017091021949556248 -0.076019354580865117 0 -0.017063036349211958 -0.076877126723464015 0 -0.017968142132111075 -0.076440804260711606 0 -0.017916236199243332 -0.077243906694444059 0 -0.019174743558117158 -0.076445571793591613 0 -0.017916236199243332 -0.077243906694444059 0 -0.017857602204861003 -0.078469836330636283 0 -0.019174743558117158 -0.076445571793591613 0 -0.017968142132111075 -0.076440804260711606 0 -0.017916236199243332 -0.077243906694444059 0 -0.017916236199243332 -0.077243906694444059 0 -0.017857602204861003 -0.078469836330636283 0 -0.017166929398828679 -0.077730756043518409 0 -0.017857602204861003 -0.078469836330636283 0 -0.017166929398828679 -0.077730756043518409 0 -0.016740140558487562 -0.078527826231671538 0 -0.017857602204861003 -0.078469836330636283 0 -0.01785846774126645 -0.0795631750639859 0 -0.018190548299842419 -0.079960205454605762 0 -0.017857602204861003 -0.078469836330636283 0 -0.017130142442933621 -0.07908965173066218 0 -0.016740140558487562 -0.078527826231671538 0 -0.017857602204861003 -0.078469836330636283 0 -0.017130142442933621 -0.07908965173066218 0 -0.01785846774126645 -0.0795631750639859 0 -0.018246963564586622 -0.080701238105667358 0 -0.018190548299842419 -0.079960205454605762 0 -0.018219974036453149 -0.080346656519668075 0 -0.018190548299842419 -0.079960205454605762 0 -0.018237184543419809 -0.080179010783279062 0 -0.018219974036453149 -0.080346656519668075 0 -0.01800835522627681 -0.080513703552403795 0 -0.018124167207571578 -0.080826081208106013 0 -0.018192888356603105 -0.080597627417226175 0 -0.01800835522627681 -0.080513703552403795 0 -0.018192888356603105 -0.080597627417226175 0 -0.018192842229541671 -0.080302847957800183 0 -0.018192888356603105 -0.080597627417226175 0 -0.018219974036453149 -0.080346656519668075 0 -0.018192842229541671 -0.080302847957800183 0 -0.018246963564586622 -0.080701238105667358 0 -0.018192888356603105 -0.080597627417226175 0 -0.018219974036453149 -0.080346656519668075 0 -0.018237184543419809 -0.080179010783279062 0 -0.018219974036453149 -0.080346656519668075 0 -0.018192842229541671 -0.080302847957800183 0 -0.016972590098661904 -0.00080392632326786251 0 -0.020858860260169816 -0.0038181029079067097 0 -0.021370923412083374 -0.00024627180427432683 0 -0.016969245066924498 -0.043733708548735317 0 -0.019519147900959807 -0.047391226946021166 0 -0.018192842229541671 -0.080302847957800183 0 -0.018299335407656471 -0.080256585137330125 0 -0.017870320511094953 -0.080152118965312324 0 -0.018237184543419809 -0.080179010783279062 0 -0.018192842229541671 -0.080302847957800183 0 -0.018299335407656471 -0.080256585137330125 0 -0.016972590098661904 -0.00080392632326786251 0 -0.015067290065484474 -0.0029939519132992478 0 -0.012578415740953341 -0.0012927349449588345 0 -0.018190548299842419 -0.079960205454605762 0 -0.018299335407656471 -0.080256585137330125 0 -0.017238093176844764 -0.080488301910154714 0 -0.018190548299842419 -0.079960205454605762 0 -0.018237184543419809 -0.080179010783279062 0 -0.018299335407656471 -0.080256585137330125 0 -0.015316917044213544 -0.0057501432197684952 0 -0.017296567964640349 -0.0039987067567179655 0 -0.015067290065484474 -0.0029939519132992478 0 -0.016972590098661904 -0.00080392632326786251 0 -0.017296567964640349 -0.0039987067567179655 0 -0.015067290065484474 -0.0029939519132992478 0 -0.016972590098661904 -0.00080392632326786251 0 -0.017296567964640349 -0.0039987067567179655 0 -0.020858860260169816 -0.0038181029079067097 0 -0.020858860260169816 -0.0038181029079067097 0 -0.022888539312158843 -0.0023686533437408566 0 -0.021370923412083374 -0.00024627180427432683 0 -0.020858860260169816 -0.0038181029079067097 0 -0.023100843118371173 -0.0045798968678689286 0 -0.022888539312158843 -0.0023686533437408566 0 -0.023100843118371173 -0.0045798968678689286 0 -0.024622336340250614 -0.0041672079013425059 0 -0.024910283824270428 -0.0029684605590388868 0 -0.028151127573679637 -0.031569074520629639 0 -0.026348175176595542 -0.03393380859828548 0 -0.024910283824270428 -0.0029684605590388868 0 -0.022888539312158843 -0.0023686533437408566 0 -0.023750013240932576 -0.0013037201844954115 0 -0.023100843118371173 -0.0045798968678689286 0 -0.024910283824270428 -0.0029684605590388868 0 -0.022888539312158843 -0.0023686533437408566 0 -0.02584233589215371 0.00035046481411400184 0 -0.024910283824270428 -0.0029684605590388868 0 -0.023750013240932576 -0.0013037201844954115 0 -0.02584233589215371 0.00035046481411400184 0 -0.023750013240932576 -0.0013037201844954115 0 -0.021370923412083374 -0.00024627180427432683 0 -0.022888539312158843 -0.0023686533437408566 0 -0.023750013240932576 -0.0013037201844954115 0 -0.021370923412083374 -0.00024627180427432683 0 -0.017826289316283928 -0.056781600450061739 0 -0.019519147900959807 -0.047391226946021166 0 -0.01869850923211968 -0.035433590452823203 0 -0.021839895901447384 -0.040527202229414631 0 -0.023518035112036942 -0.035475461890993834 0 -0.021839895901447384 -0.040527202229414631 0 -0.026130700548894197 -0.040643523875835363 0 -0.023518035112036942 -0.035475461890993834 0 -0.026130700548894197 -0.040643523875835363 0 -0.028757899016175328 -0.03533131610269593 0 -0.032462499301777338 -0.042231992913662503 0 -0.026130700548894197 -0.040643523875835363 0 -0.028757899016175328 -0.03533131610269593 0 -0.023518035112036942 -0.035475461890993834 0 -0.028757899016175328 -0.03533131610269593 0 -0.023518035112036942 -0.035475461890993834 0 -0.025210863788972145 -0.030563138938023978 0 -0.028757899016175328 -0.03533131610269593 0 -0.025210863788972145 -0.030563138938023978 0 -0.029356320047410175 -0.028563478402854892 0 -0.01869850923211968 -0.035433590452823203 0 -0.023518035112036942 -0.035475461890993834 0 -0.020930047971290652 -0.03098709748378168 0 -0.023518035112036942 -0.035475461890993834 0 -0.020930047971290652 -0.03098709748378168 0 -0.025210863788972145 -0.030563138938023978 0 -0.020930047971290652 -0.03098709748378168 0 -0.023362425172097637 -0.026206062255146882 0 -0.025210863788972145 -0.030563138938023978 0 -0.018988173407069039 -0.027524915390995039 0 -0.020930047971290652 -0.03098709748378168 0 -0.023362425172097637 -0.026206062255146882 0 -0.023362425172097637 -0.026206062255146882 0 -0.028072348366039019 -0.024905028156135336 0 -0.025210863788972145 -0.030563138938023978 0 -0.026391218321301625 -0.021193057631239427 0 -0.023362425172097637 -0.026206062255146882 0 -0.028072348366039019 -0.024905028156135336 0 -0.028072348366039019 -0.024905028156135336 0 -0.025210863788972145 -0.030563138938023978 0 -0.029356320047410175 -0.028563478402854892 0 -0.029356320047410175 -0.028563478402854892 0 -0.030587173790584708 -0.024521406295156072 0 -0.030986876268154221 -0.026449437374850334 0 -0.031729393518482016 -0.031169128114475014 0 -0.033695702461215164 -0.032084343921687117 0 -0.028072348366039019 -0.024905028156135336 0 -0.029356320047410175 -0.028563478402854892 0 -0.030587173790584708 -0.024521406295156072 0 -0.030587173790584708 -0.024521406295156072 0 -0.030986876268154221 -0.026449437374850334 0 -0.031832796169085305 -0.024776864513178922 0 -0.038061261784296203 -0.03010107100018778 0 -0.034981868902302059 -0.035658286966238233 0 -0.041412129901204638 -0.035666299761547691 0 -0.029356320047410175 -0.028563478402854892 0 -0.038061261784296203 -0.03010107100018778 0 -0.034981868902302059 -0.035658286966238233 0 -0.028757899016175328 -0.03533131610269593 0 -0.029356320047410175 -0.028563478402854892 0 -0.034981868902302059 -0.035658286966238233 0 -0.028757899016175328 -0.03533131610269593 0 -0.034981868902302059 -0.035658286966238233 0 -0.032462499301777338 -0.042231992913662503 0 -0.034981868902302059 -0.035658286966238233 0 -0.038949268498547025 -0.040248802774828916 0 -0.041412129901204638 -0.035666299761547691 0 -0.034981868902302059 -0.035658286966238233 0 -0.038949268498547025 -0.040248802774828916 0 -0.032462499301777338 -0.042231992913662503 0 -0.043254162591376523 -0.03965271487297381 0 -0.047175691263264208 -0.036669266533289488 0 -0.041412129901204638 -0.035666299761547691 0 -0.038949268498547025 -0.040248802774828916 0 -0.043254162591376523 -0.03965271487297381 0 -0.041412129901204638 -0.035666299761547691 0 -0.038949268498547025 -0.040248802774828916 0 -0.043254162591376523 -0.03965271487297381 0 -0.041908546786315774 -0.042846489209808873 0 -0.043254162591376523 -0.03965271487297381 0 -0.046943943251054727 -0.04192178799835039 0 -0.047175691263264208 -0.036669266533289488 0 -0.043254162591376523 -0.03965271487297381 0 -0.046943943251054727 -0.04192178799835039 0 -0.041908546786315774 -0.042846489209808873 0 -0.040254723986278482 -0.049634926321183173 0 -0.04304886654552912 -0.046568029811910126 0 -0.041785654446277798 -0.050140005313118144 0 -0.039595988599465275 -0.04547860149663218 0 -0.035952817150798774 -0.045103166540410113 0 -0.046943943251054727 -0.04192178799835039 0 -0.047175691263264208 -0.036669266533289488 0 -0.052331666717368101 -0.036056295641304928 0 -0.036339383716259062 -0.034876279444346486 0 -0.035113049165229386 -0.040141874458712902 0 -0.047175691263264208 -0.036669266533289488 0 -0.04584156105343061 -0.031584791029517494 0 -0.052331666717368101 -0.036056295641304928 0 -0.04584156105343061 -0.031584791029517494 0 -0.053488674178697307 -0.032887529089670534 0 -0.052331666717368101 -0.036056295641304928 0 -0.038061261784296203 -0.03010107100018778 0 -0.04584156105343061 -0.031584791029517494 0 -0.041412129901204638 -0.035666299761547691 0 -0.047175691263264208 -0.036669266533289488 0 -0.04584156105343061 -0.031584791029517494 0 -0.041412129901204638 -0.035666299761547691 0 -0.033695702461215164 -0.032084343921687117 0 -0.036339383716259062 -0.034876279444346486 0 -0.030986876268154221 -0.026449437374850334 0 -0.03224206765026106 -0.025471793500359698 0 -0.031832796169085305 -0.024776864513178922 0 -0.031832796169085305 -0.024776864513178922 0 -0.031948789182369798 -0.023260478337027258 0 -0.03255393848517564 -0.023600355114541133 0 -0.030587173790584708 -0.024521406295156072 0 -0.031832796169085305 -0.024776864513178922 0 -0.031948789182369798 -0.023260478337027258 0 -0.031832796169085305 -0.024776864513178922 0 -0.03255393848517564 -0.023600355114541133 0 -0.032691246730312082 -0.024435031900948822 0 -0.033065570608441612 -0.0225777530413513 0 -0.03255393848517564 -0.023600355114541133 0 -0.032979762940643656 -0.023608929445251555 0 -0.03255393848517564 -0.023600355114541133 0 -0.032979762940643656 -0.023608929445251555 0 -0.032691246730312082 -0.024435031900948822 0 -0.03224206765026106 -0.025471793500359698 0 -0.033255162073093009 -0.024796708041098941 0 -0.03353974488755837 -0.025432770390135567 0 -0.03224206765026106 -0.025471793500359698 0 -0.031832796169085305 -0.024776864513178922 0 -0.032691246730312082 -0.024435031900948822 0 -0.032979762940643656 -0.023608929445251555 0 -0.032691246730312082 -0.024435031900948822 0 -0.033318849110042209 -0.023945130985624005 0 -0.03224206765026106 -0.025471793500359698 0 -0.032691246730312082 -0.024435031900948822 0 -0.033255162073093009 -0.024796708041098941 0 -0.033255162073093009 -0.024796708041098941 0 -0.033977218929984059 -0.024384886283201835 0 -0.03353974488755837 -0.025432770390135567 0 -0.029635225488741132 -0.049953784245909939 0 -0.03002155413680286 -0.054025344957055695 0 -0.028244392756095034 -0.053727805117980601 0 -0.032784134308741046 -0.0329263590410327 0 -0.035113049165229386 -0.040141874458712902 0 -0.033561426834378939 -0.024007651141941953 0 -0.033318849110042209 -0.023945130985624005 0 -0.033504421028477512 -0.023065533584510793 0 -0.032784134308741046 -0.0329263590410327 0 -0.032555699641073112 -0.032556434079674602 0 -0.033255162073093009 -0.024796708041098941 0 -0.033977218929984059 -0.024384886283201835 0 -0.033318849110042209 -0.023945130985624005 0 -0.032691246730312082 -0.024435031900948822 0 -0.033255162073093009 -0.024796708041098941 0 -0.033318849110042209 -0.023945130985624005 0 -0.033141999459446993 -0.021573372187295041 0 -0.03322867615143052 -0.023011072759569363 0 -0.033504421028477512 -0.023065533584510793 0 -0.032979762940643656 -0.023608929445251555 0 -0.033318849110042209 -0.023945130985624005 0 -0.03322867615143052 -0.023011072759569363 0 -0.032784134308741046 -0.0329263590410327 0 -0.033343212992380931 -0.03090952522740301 0 -0.033318849110042209 -0.023945130985624005 0 -0.03322867615143052 -0.023011072759569363 0 -0.033504421028477512 -0.023065533584510793 0 -0.033065570608441612 -0.0225777530413513 0 -0.032979762940643656 -0.023608929445251555 0 -0.03322867615143052 -0.023011072759569363 0 -0.034596436784690571 -0.023077655574897046 0 -0.033847380584025137 -0.022312876355394473 0 -0.033944710688417146 -0.02353390253007288 0 -0.033847380584025137 -0.022312876355394473 0 -0.033504421028477512 -0.023065533584510793 0 -0.033944710688417146 -0.02353390253007288 0 -0.033141999459446993 -0.021573372187295041 0 -0.033847380584025137 -0.022312876355394473 0 -0.033504421028477512 -0.023065533584510793 0 -0.034535013138742174 -0.02458167666823562 0 -0.033176592691901576 -0.023786422715299137 0 -0.033944710688417146 -0.02353390253007288 0 -0.035642878753801267 -0.053248720815110985 0 -0.029635225488741132 -0.049953784245909939 0 -0.031990743634597842 -0.053637092059079863 0 -0.030508715668732717 -0.032717312730895148 0 -0.032784134308741046 -0.0329263590410327 0 -0.033176592691901576 -0.023786422715299137 0 -0.033504421028477512 -0.023065533584510793 0 -0.033944710688417146 -0.02353390253007288 0 -0.029635225488741132 -0.049953784245909939 0 -0.031990743634597842 -0.053637092059079863 0 -0.03002155413680286 -0.054025344957055695 0 -0.035642878753801267 -0.053248720815110985 0 -0.031999361715171724 -0.05621703367735463 0 -0.031990743634597842 -0.053637092059079863 0 -0.035642878753801267 -0.053248720815110985 0 -0.031999361715171724 -0.05621703367735463 0 -0.033356135383904695 -0.05791414213270818 0 -0.031999361715171724 -0.05621703367735463 0 -0.030850138747771826 -0.055255676455957713 0 -0.031990743634597842 -0.053637092059079863 0 -0.030586335655976089 -0.05665523627104848 0 -0.031999361715171724 -0.05621703367735463 0 -0.030850138747771826 -0.055255676455957713 0 -0.030850138747771826 -0.055255676455957713 0 -0.031990743634597842 -0.053637092059079863 0 -0.03002155413680286 -0.054025344957055695 0 -0.034827800057465545 -0.040371227924613215 0 -0.035113049165229386 -0.040141874458712902 0 -0.03002155413680286 -0.054025344957055695 0 -0.028264684327023393 -0.05375311869871098 0 -0.028974347569623898 -0.054752623686180044 0 -0.028264684327023393 -0.05375311869871098 0 -0.028012006101145369 -0.055505862855082785 0 -0.028974347569623898 -0.054752623686180044 0 -0.028264684327023393 -0.05375311869871098 0 -0.028012006101145369 -0.055505862855082785 0 -0.027367506081122352 -0.056206680105930176 0 -0.035113049165229386 -0.040141874458712902 0 -0.035952817150798774 -0.045103166540410113 0 -0.028012006101145369 -0.055505862855082785 0 -0.027352547726037044 -0.05623047526456091 0 -0.028515695269601848 -0.05655241772926925 0 -0.035763638111112814 -0.045316980752510581 0 -0.035952817150798774 -0.045103166540410113 0 -0.030850138747771826 -0.055255676455957713 0 -0.03002155413680286 -0.054025344957055695 0 -0.029652005205858464 -0.055739343366883104 0 -0.03002155413680286 -0.054025344957055695 0 -0.028974347569623898 -0.054752623686180044 0 -0.029652005205858464 -0.055739343366883104 0 -0.028012006101145369 -0.055505862855082785 0 -0.028974347569623898 -0.054752623686180044 0 -0.029652005205858464 -0.055739343366883104 0 -0.028515695269601848 -0.05655241772926925 0 -0.029652005205858464 -0.055739343366883104 0 -0.029373897101581177 -0.057446626851791811 0 -0.028012006101145369 -0.055505862855082785 0 -0.028515695269601848 -0.05655241772926925 0 -0.029652005205858464 -0.055739343366883104 0 -0.030586335655976089 -0.05665523627104848 0 -0.030850138747771826 -0.055255676455957713 0 -0.029652005205858464 -0.055739343366883104 0 -0.030586335655976089 -0.05665523627104848 0 -0.029652005205858464 -0.055739343366883104 0 -0.029373897101581177 -0.057446626851791811 0 -0.029373897101581177 -0.057446626851791811 0 -0.02881569570124333 -0.059028229644817638 0 -0.030876563051134887 -0.058756224881987347 0 -0.027352547726037044 -0.05623047526456091 0 -0.027291394150691029 -0.05921127368835459 0 -0.025515920078342282 -0.061542584917379108 0 -0.035952817150798774 -0.045103166540410113 0 -0.032586028434914947 -0.054740860568281986 0 -0.030586335655976089 -0.05665523627104848 0 -0.029373897101581177 -0.057446626851791811 0 -0.030876563051134887 -0.058756224881987347 0 -0.028515695269601848 -0.05655241772926925 0 -0.029373897101581177 -0.057446626851791811 0 -0.028248288424545253 -0.057706108685658716 0 -0.029373897101581177 -0.057446626851791811 0 -0.028248288424545253 -0.057706108685658716 0 -0.02881569570124333 -0.059028229644817638 0 -0.027352547726037044 -0.05623047526456091 0 -0.028248288424545253 -0.057706108685658716 0 -0.027291394150691029 -0.05921127368835459 0 -0.027352547726037044 -0.05623047526456091 0 -0.028515695269601848 -0.05655241772926925 0 -0.028248288424545253 -0.057706108685658716 0 -0.028248288424545253 -0.057706108685658716 0 -0.027291394150691029 -0.05921127368835459 0 -0.02881569570124333 -0.059028229644817638 0 -0.027291394150691029 -0.05921127368835459 0 -0.027045620845906431 -0.060776523571279398 0 -0.025515920078342282 -0.061542584917379108 0 -0.027291394150691029 -0.05921127368835459 0 -0.027979415987284467 -0.060396740035920042 0 -0.02881569570124333 -0.059028229644817638 0 -0.027291394150691029 -0.05921127368835459 0 -0.027979415987284467 -0.060396740035920042 0 -0.027045620845906431 -0.060776523571279398 0 -0.029320985911203759 -0.06084403847782887 0 -0.03091116373371184 -0.060821816644527328 0 -0.030876563051134887 -0.058756224881987347 0 -0.02881569570124333 -0.059028229644817638 0 -0.029320985911203759 -0.06084403847782887 0 -0.030876563051134887 -0.058756224881987347 0 -0.027979415987284467 -0.060396740035920042 0 -0.02881569570124333 -0.059028229644817638 0 -0.029320985911203759 -0.06084403847782887 0 -0.033356135383904695 -0.05791414213270818 0 -0.030876563051134887 -0.058756224881987347 0 -0.032674858753092346 -0.060894158551497303 0 -0.03091116373371184 -0.060821816644527328 0 -0.030876563051134887 -0.058756224881987347 0 -0.032674858753092346 -0.060894158551497303 0 -0.035502155204703609 -0.05965486175679266 0 -0.033356135383904695 -0.05791414213270818 0 -0.032674858753092346 -0.060894158551497303 0 -0.030586335655976089 -0.05665523627104848 0 -0.031999361715171724 -0.05621703367735463 0 -0.030876563051134887 -0.058756224881987347 0 -0.031999361715171724 -0.05621703367735463 0 -0.033356135383904695 -0.05791414213270818 0 -0.030876563051134887 -0.058756224881987347 0 -0.032097842148046854 -0.063439924983848997 0 -0.030745500993531807 -0.062398652578230449 0 -0.030404948075120557 -0.064066749232986525 0 -0.032097842148046854 -0.063439924983848997 0 -0.030404948075120557 -0.064066749232986525 0 -0.031311995242555256 -0.065416297936025963 0 -0.032097842148046854 -0.063439924983848997 0 -0.033115259286626994 -0.064795620878590601 0 -0.031311995242555256 -0.065416297936025963 0 -0.034405733365865471 -0.062745563633468643 0 -0.034353892199033204 -0.066413292918130612 0 -0.033115259286626994 -0.064795620878590601 0 -0.034405733365865471 -0.062745563633468643 0 -0.032097842148046854 -0.063439924983848997 0 -0.033115259286626994 -0.064795620878590601 0 -0.034405733365865471 -0.062745563633468643 0 -0.032097842148046854 -0.063439924983848997 0 -0.032674858753092346 -0.060894158551497303 0 -0.035502155204703609 -0.05965486175679266 0 -0.034405733365865471 -0.062745563633468643 0 -0.032674858753092346 -0.060894158551497303 0 -0.032097842148046854 -0.063439924983848997 0 -0.032674858753092346 -0.060894158551497303 0 -0.030745500993531807 -0.062398652578230449 0 -0.03091116373371184 -0.060821816644527328 0 -0.032674858753092346 -0.060894158551497303 0 -0.030745500993531807 -0.062398652578230449 0 -0.029320985911203759 -0.06084403847782887 0 -0.03091116373371184 -0.060821816644527328 0 -0.030745500993531807 -0.062398652578230449 0 -0.029320985911203759 -0.06084403847782887 0 -0.030745500993531807 -0.062398652578230449 0 -0.029303756641734079 -0.063044000345644377 0 -0.029320985911203759 -0.06084403847782887 0 -0.027418661425486861 -0.062133885477147578 0 -0.029303756641734079 -0.063044000345644377 0 -0.027045620845906431 -0.060776523571279398 0 -0.027418661425486861 -0.062133885477147578 0 -0.025515920078342282 -0.061542584917379108 0 -0.027979415987284467 -0.060396740035920042 0 -0.029320985911203759 -0.06084403847782887 0 -0.027418661425486861 -0.062133885477147578 0 -0.027979415987284467 -0.060396740035920042 0 -0.027045620845906431 -0.060776523571279398 0 -0.027418661425486861 -0.062133885477147578 0 -0.029303756641734079 -0.063044000345644377 0 -0.030404948075120557 -0.064066749232986525 0 -0.028691455514259424 -0.065432207835105505 0 -0.027418661425486861 -0.062133885477147578 0 -0.029303756641734079 -0.063044000345644377 0 -0.028691455514259424 -0.065432207835105505 0 -0.030745500993531807 -0.062398652578230449 0 -0.029303756641734079 -0.063044000345644377 0 -0.030404948075120557 -0.064066749232986525 0 -0.028691455514259424 -0.065432207835105505 0 -0.026637279355386286 -0.067385470197619313 0 -0.030574598941754516 -0.068255154136728308 0 -0.030404948075120557 -0.064066749232986525 0 -0.028691455514259424 -0.065432207835105505 0 -0.031311995242555256 -0.065416297936025963 0 -0.027418661425486861 -0.062133885477147578 0 -0.028691455514259424 -0.065432207835105505 0 -0.026637279355386286 -0.067385470197619313 0 -0.028691455514259424 -0.065432207835105505 0 -0.030574598941754516 -0.068255154136728308 0 -0.031311995242555256 -0.065416297936025963 0 -0.026637279355386286 -0.067385470197619313 0 -0.030574598941754516 -0.068255154136728308 0 -0.026893240750016117 -0.069869376251938703 0 -0.030574598941754516 -0.068255154136728308 0 -0.032336396297412272 -0.066224426115737881 0 -0.031311995242555256 -0.065416297936025963 0 -0.033115259286626994 -0.064795620878590601 0 -0.032336396297412272 -0.066224426115737881 0 -0.031311995242555256 -0.065416297936025963 0 -0.034353892199033204 -0.066413292918130612 0 -0.033115259286626994 -0.064795620878590601 0 -0.032336396297412272 -0.066224426115737881 0 -0.024503775764373084 -0.061706406721915005 0 -0.026013007641079146 -0.063273365448179894 0 -0.030982273848755498 -0.0689539679845491 0 -0.030976213063279703 -0.067794490657574744 0 -0.0289502458199365 -0.068867337326552855 0 -0.034353892199033204 -0.066413292918130612 0 -0.030574598941754516 -0.068255154136728308 0 -0.032336396297412272 -0.066224426115737881 0 -0.023170617715574899 -0.065922024848761973 0 -0.025369735966036457 -0.067461811679333308 0 -0.029869415409811965 -0.067565047799537564 0 -0.02866639377764053 -0.069571570750571007 0 -0.026496219744735556 -0.069399233651015954 0 -0.030982273848755498 -0.0689539679845491 0 -0.0289502458199365 -0.068867337326552855 0 -0.027896370899395971 -0.070611105464536694 0 -0.029869415409811965 -0.067565047799537564 0 -0.029977485410220481 -0.071452835803785655 0 -0.02866639377764053 -0.069571570750571007 0 -0.02866639377764053 -0.069571570750571007 0 -0.027390363462201112 -0.070874017553555754 0 -0.026496219744735556 -0.069399233651015954 0 -0.029977485410220481 -0.071452835803785655 0 -0.02866639377764053 -0.069571570750571007 0 -0.027390363462201112 -0.070874017553555754 0 -0.029977485410220481 -0.071452835803785655 0 -0.027390363462201112 -0.070874017553555754 0 -0.026270491020003103 -0.072619008565226656 0 -0.025583653615566145 -0.071372542941307793 0 -0.024570365409413274 -0.072134279566848189 0 -0.026270491020003103 -0.072619008565226656 0 -0.025583653615566145 -0.071372542941307793 0 -0.027390363462201112 -0.070874017553555754 0 -0.026270491020003103 -0.072619008565226656 0 -0.025583653615566145 -0.071372542941307793 0 -0.027390363462201112 -0.070874017553555754 0 -0.026496219744735556 -0.069399233651015954 0 -0.027896370899395971 -0.070611105464536694 0 -0.026893240750016117 -0.069869376251938703 0 -0.025486194598605925 -0.070562527263608982 0 -0.026013007641079146 -0.063273365448179894 0 -0.025971661693894928 -0.064015624097488566 0 -0.0289502458199365 -0.068867337326552855 0 -0.027896370899395971 -0.070611105464536694 0 -0.026893240750016117 -0.069869376251938703 0 -0.026637279355386286 -0.067385470197619313 0 -0.026893240750016117 -0.069869376251938703 0 -0.025288189984888645 -0.069204939159471707 0 -0.025288189984888645 -0.069204939159471707 0 -0.023799651177467695 -0.071618338076934435 0 -0.024197890018036065 -0.066792616115861195 0 -0.026893240750016117 -0.069869376251938703 0 -0.025288189984888645 -0.069204939159471707 0 -0.025486194598605925 -0.070562527263608982 0 -0.027896370899395971 -0.070611105464536694 0 -0.025486194598605925 -0.070562527263608982 0 -0.024117468298098323 -0.071712337552267469 0 -0.026891479505074433 -0.067793852013484451 0 -0.02915285842155637 -0.063016729404011138 0 -0.025288189984888645 -0.069204939159471707 0 -0.025486194598605925 -0.070562527263608982 0 -0.023799651177467695 -0.071618338076934435 0 -0.025486194598605925 -0.070562527263608982 0 -0.024117468298098323 -0.071712337552267469 0 -0.023799651177467695 -0.071618338076934435 0 -0.025369735966036457 -0.067461811679333308 0 -0.024904707718358923 -0.068464774922729316 0 -0.025583653615566145 -0.071372542941307793 0 -0.026496219744735556 -0.069399233651015954 0 -0.024117468298098323 -0.071712337552267469 0 -0.025583653615566145 -0.071372542941307793 0 -0.024117468298098323 -0.071712337552267469 0 -0.024570365409413274 -0.072134279566848189 0 -0.024255759326725388 -0.071819120572772704 0 -0.02418766508861768 -0.072001696189094272 0 -0.026287359901862182 -0.071790083987086348 0 -0.024117468298098323 -0.071712337552267469 0 -0.024255759326725388 -0.071819120572772704 0 -0.023111682600734797 -0.072008348422105919 0 -0.024255759326725388 -0.071819120572772704 0 -0.02418766508861768 -0.072001696189094272 0 -0.023799651177467695 -0.071618338076934435 0 -0.024117468298098323 -0.071712337552267469 0 -0.024255759326725388 -0.071819120572772704 0 -0.023799651177467695 -0.071618338076934435 0 -0.029962181239812893 -0.064214836697596311 0 -0.02915285842155637 -0.063016729404011138 0 -0.02418766508861768 -0.072001696189094272 0 -0.023799651177467695 -0.071618338076934435 0 -0.023320477661607469 -0.072954370299114377 0 -0.03772326710324473 -0.057433710379113156 0 -0.037335762540231979 -0.052751074022771106 0 -0.040519735081589493 -0.053812413871136493 0 -0.027418661425486861 -0.062133885477147578 0 -0.026637279355386286 -0.067385470197619313 0 -0.024197890018036065 -0.066792616115861195 0 -0.026637279355386286 -0.067385470197619313 0 -0.025288189984888645 -0.069204939159471707 0 -0.024197890018036065 -0.066792616115861195 0 -0.028118929656302957 -0.063727034649112113 0 -0.02915285842155637 -0.063016729404011138 0 -0.027418661425486861 -0.062133885477147578 0 -0.023676895196969704 -0.066637439720037064 0 -0.025515920078342282 -0.061542584917379108 0 -0.040254723986278482 -0.049634926321183173 0 -0.040519735081589493 -0.053812413871136493 0 -0.041785654446277798 -0.050140005313118144 0 -0.02915285842155637 -0.063016729404011138 0 -0.032586028434914947 -0.054740860568281986 0 -0.046943943251054727 -0.04192178799835039 0 -0.041512328980279518 -0.047768931336288317 0 -0.041908546786315774 -0.042846489209808873 0 -0.039595988599465275 -0.04547860149663218 0 -0.037878228213488255 -0.049427733251960426 0 -0.040254723986278482 -0.049634926321183173 0 -0.037335762540231979 -0.052751074022771106 0 -0.040519735081589493 -0.053812413871136493 0 -0.041512328980279518 -0.047768931336288317 0 -0.041908546786315774 -0.042846489209808873 0 -0.038885988193313771 -0.044619263284680605 0 -0.038949268498547025 -0.040248802774828916 0 -0.038885988193313771 -0.044619263284680605 0 -0.032462499301777338 -0.042231992913662503 0 -0.041512328980279518 -0.047768931336288317 0 -0.038885988193313771 -0.044619263284680605 0 -0.035233384523773212 -0.04649868641403767 0 -0.038885988193313771 -0.044619263284680605 0 -0.032462499301777338 -0.042231992913662503 0 -0.035233384523773212 -0.04649868641403767 0 -0.038949268498547025 -0.040248802774828916 0 -0.041908546786315774 -0.042846489209808873 0 -0.038885988193313771 -0.044619263284680605 0 -0.032462499301777338 -0.042231992913662503 0 -0.035233384523773212 -0.04649868641403767 0 -0.030195382717604038 -0.048640663544602163 0 -0.030195382717604038 -0.048640663544602163 0 -0.036133848162663615 -0.05355906028765401 0 -0.028278547592632351 -0.054370680757588143 0 -0.035233384523773212 -0.04649868641403767 0 -0.030195382717604038 -0.048640663544602163 0 -0.036133848162663615 -0.05355906028765401 0 -0.03772326710324473 -0.057433710379113156 0 -0.037335762540231979 -0.052751074022771106 0 -0.034121970027149506 -0.056029962593272843 0 -0.041512328980279518 -0.047768931336288317 0 -0.035233384523773212 -0.04649868641403767 0 -0.036133848162663615 -0.05355906028765401 0 -0.037878228213488255 -0.049427733251960426 0 -0.034877216694281281 -0.053570085485113342 0 -0.03772326710324473 -0.057433710379113156 0 -0.034269067168453661 -0.058680102896307179 0 -0.034121970027149506 -0.056029962593272843 0 -0.029962181239812893 -0.064214836697596311 0 -0.029719535961072779 -0.06569442083676641 0 -0.03772326710324473 -0.057433710379113156 0 -0.034269067168453661 -0.058680102896307179 0 -0.034651239628911687 -0.061815673695214721 0 -0.034651239628911687 -0.061815673695214721 0 -0.030305291023049671 -0.059500623632566439 0 -0.028132898513290046 -0.063602941103375804 0 -0.034269067168453661 -0.058680102896307179 0 -0.034651239628911687 -0.061815673695214721 0 -0.030305291023049671 -0.059500623632566439 0 -0.036133848162663615 -0.05355906028765401 0 -0.030305291023049671 -0.059500623632566439 0 -0.028278547592632351 -0.054370680757588143 0 -0.034877216694281281 -0.053570085485113342 0 -0.032992555583394312 -0.055826039595207932 0 -0.034269067168453661 -0.058680102896307179 0 -0.034121970027149506 -0.056029962593272843 0 -0.030305291023049671 -0.059500623632566439 0 -0.028278547592632351 -0.054370680757588143 0 -0.025711511558683779 -0.0604159448276319 0 -0.022443524663109487 -0.055530927779120866 0 -0.030305291023049671 -0.059500623632566439 0 -0.025711511558683779 -0.0604159448276319 0 -0.028132898513290046 -0.063602941103375804 0 -0.030305291023049671 -0.059500623632566439 0 -0.028278547592632351 -0.054370680757588143 0 -0.025711511558683779 -0.0604159448276319 0 -0.020460320897466047 -0.062440143220855573 0 -0.025711511558683779 -0.0604159448276319 0 -0.022443524663109487 -0.055530927779120866 0 -0.028278547592632351 -0.054370680757588143 0 -0.022443524663109487 -0.055530927779120866 0 -0.024844161712986108 -0.049841845145649682 0 -0.01970085995682485 -0.04988889605234411 0 -0.024844161712986108 -0.049841845145649682 0 -0.022364167031784246 -0.045291249536457467 0 -0.01970085995682485 -0.04988889605234411 0 -0.022443524663109487 -0.055530927779120866 0 -0.024844161712986108 -0.049841845145649682 0 -0.030195382717604038 -0.048640663544602163 0 -0.024844161712986108 -0.049841845145649682 0 -0.026976131815473033 -0.045325554198074665 0 -0.030195382717604038 -0.048640663544602163 0 -0.028278547592632351 -0.054370680757588143 0 -0.024844161712986108 -0.049841845145649682 0 -0.026130700548894197 -0.040643523875835363 0 -0.032462499301777338 -0.042231992913662503 0 -0.026976131815473033 -0.045325554198074665 0 -0.032462499301777338 -0.042231992913662503 0 -0.030195382717604038 -0.048640663544602163 0 -0.026976131815473033 -0.045325554198074665 0 -0.021839895901447384 -0.040527202229414631 0 -0.026130700548894197 -0.040643523875835363 0 -0.022364167031784246 -0.045291249536457467 0 -0.026130700548894197 -0.040643523875835363 0 -0.026976131815473033 -0.045325554198074665 0 -0.022364167031784246 -0.045291249536457467 0 -0.018331616667315198 -0.044471459401052453 0 -0.021839895901447384 -0.040527202229414631 0 -0.022364167031784246 -0.045291249536457467 0 -0.024844161712986108 -0.049841845145649682 0 -0.026976131815473033 -0.045325554198074665 0 -0.022364167031784246 -0.045291249536457467 0 -0.026002277023022029 -0.078936923391848157 0 -0.030020931918841233 -0.075966993896398299 0 -0.025233225900138094 -0.074233116921845962 0 -0.026002277023022029 -0.078936923391848157 0 -0.030020931918841233 -0.075966993896398299 0 -0.030919697631010767 -0.07956799543005752 0 -0.030020931918841233 -0.075966993896398299 0 -0.034668060156407256 -0.074172040977382198 0 -0.032785040858184844 -0.07754197227723654 0 -0.030020931918841233 -0.075966993896398299 0 -0.032785040858184844 -0.07754197227723654 0 -0.030919697631010767 -0.07956799543005752 0 -0.032785040858184844 -0.07754197227723654 0 -0.033203197864248191 -0.079690203607787516 0 -0.030919697631010767 -0.07956799543005752 0 -0.026611341367973242 -0.072024048001638571 0 -0.028547836676577273 -0.074312020066976389 0 -0.030020931918841233 -0.075966993896398299 0 -0.029776868111721824 -0.071453311636583555 0 -0.034668060156407256 -0.074172040977382198 0 -0.021867760794468897 -0.068239911977937232 0 -0.025233225900138094 -0.074233116921845962 0 -0.029776868111721824 -0.071453311636583555 0 -0.030020931918841233 -0.075966993896398299 0 -0.025233225900138094 -0.074233116921845962 0 -0.029776868111721824 -0.071453311636583555 0 -0.021867760794468897 -0.068239911977937232 0 -0.025245812620641586 -0.065573022261343678 0 -0.026724308364973109 -0.068926273442270175 0 -0.024705798197314721 -0.070917838612133299 0 -0.026611341367973242 -0.072024048001638571 0 -0.020460320897466047 -0.062440143220855573 0 -0.025711511558683779 -0.0604159448276319 0 -0.025245812620641586 -0.065573022261343678 0 -0.020460320897466047 -0.062440143220855573 0 -0.021867760794468897 -0.068239911977937232 0 -0.025245812620641586 -0.065573022261343678 0 -0.025711511558683779 -0.0604159448276319 0 -0.025245812620641586 -0.065573022261343678 0 -0.028132898513290046 -0.063602941103375804 0 -0.025245812620641586 -0.065573022261343678 0 -0.028132898513290046 -0.063602941103375804 0 -0.02919799208193288 -0.067776094335321696 0 -0.025245812620641586 -0.065573022261343678 0 -0.026724308364973109 -0.068926273442270175 0 -0.02919799208193288 -0.067776094335321696 0 -0.02919799208193288 -0.067776094335321696 0 -0.026840872834437205 -0.06798282078486953 0 -0.028194423864682929 -0.067655805945824127 0 -0.026724308364973109 -0.068926273442270175 0 -0.02919799208193288 -0.067776094335321696 0 -0.028194423864682929 -0.067655805945824127 0 -0.029719535961072779 -0.06569442083676641 0 -0.029364467094629868 -0.066455274620726631 0 -0.034651239628911687 -0.061815673695214721 0 -0.028132898513290046 -0.063602941103375804 0 -0.02919799208193288 -0.067776094335321696 0 -0.024255759326725388 -0.071819120572772704 0 -0.026287359901862182 -0.071790083987086348 0 -0.025492213344035567 -0.070243163121911908 0 -0.026287359901862182 -0.071790083987086348 0 -0.02919799208193288 -0.067776094335321696 0 -0.025492213344035567 -0.070243163121911908 0 -0.025492213344035567 -0.070243163121911908 0 -0.026840872834437205 -0.06798282078486953 0 -0.024468724020434533 -0.0681629377154922 0 -0.02919799208193288 -0.067776094335321696 0 -0.025492213344035567 -0.070243163121911908 0 -0.026840872834437205 -0.06798282078486953 0 -0.028547836676577273 -0.074312020066976389 0 -0.028134165719851566 -0.077873046614284416 0 -0.026840872834437205 -0.06798282078486953 0 -0.028194423864682929 -0.067655805945824127 0 -0.025800354989912372 -0.066075217601761577 0 -0.034668060156407256 -0.074172040977382198 0 -0.032785040858184844 -0.07754197227723654 0 -0.035078973905042631 -0.078030986683726114 0 -0.032785040858184844 -0.07754197227723654 0 -0.035078973905042631 -0.078030986683726114 0 -0.033203197864248191 -0.079690203607787516 0 -0.028134165719851566 -0.077873046614284416 0 -0.030195560759616217 -0.080344260558321084 0 -0.034668060156407256 -0.074172040977382198 0 -0.035078973905042631 -0.078030986683726114 0 -0.038911701760512833 -0.076075250167572286 0 -0.035078973905042631 -0.078030986683726114 0 -0.038911701760512833 -0.076075250167572286 0 -0.036600470209783388 -0.080783019661061328 0 -0.02828191679681237 -0.087731644141333026 0 -0.027680842184314065 -0.085854560177848094 0 -0.030139186382224081 -0.085588583704722138 0 -0.028134165719851566 -0.077873046614284416 0 -0.027060953849579537 -0.0800747576562824 0 -0.02828191679681237 -0.087731644141333026 0 -0.026607208797811487 -0.086440379798718603 0 -0.027680842184314065 -0.085854560177848094 0 -0.026607208797811487 -0.086440379798718603 0 -0.026053936592471943 -0.084606841404845867 0 -0.026354980211459211 -0.085567960937000545 0 -0.027060953849579537 -0.0800747576562824 0 -0.027146177751104526 -0.080847446746676266 0 -0.022431119317319788 -0.082682502500099148 0 -0.023092609318590383 -0.079156518976751369 0 -0.025781810667748904 -0.081169888964679998 0 -0.018574033731569236 -0.081158766804005467 0 -0.022431119317319788 -0.082682502500099148 0 -0.023092609318590383 -0.079156518976751369 0 -0.026840872834437205 -0.06798282078486953 0 -0.025800354989912372 -0.066075217601761577 0 -0.024468724020434533 -0.0681629377154922 0 -0.028134165719851566 -0.077873046614284416 0 -0.026615124599225114 -0.075280681776315514 0 -0.018574033731569236 -0.081158766804005467 0 -0.023092609318590383 -0.079156518976751369 0 -0.02032640249366895 -0.076988214045163678 0 -0.025492213344035567 -0.070243163121911908 0 -0.024468724020434533 -0.0681629377154922 0 -0.023111682600734797 -0.072008348422105919 0 -0.026615124599225114 -0.075280681776315514 0 -0.026197359939840119 -0.074472078980646686 0 -0.024255759326725388 -0.071819120572772704 0 -0.025492213344035567 -0.070243163121911908 0 -0.023111682600734797 -0.072008348422105919 0 -0.024117468298098323 -0.071712337552267469 0 -0.023111682600734797 -0.072008348422105919 0 -0.024570365409413274 -0.072134279566848189 0 -0.023111682600734797 -0.072008348422105919 0 -0.024570365409413274 -0.072134279566848189 0 -0.024933502368442665 -0.074589590634889472 0 -0.02032640249366895 -0.076988214045163678 0 -0.023111682600734797 -0.072008348422105919 0 -0.024933502368442665 -0.074589590634889472 0 -0.023092609318590383 -0.079156518976751369 0 -0.024933502368442665 -0.074589590634889472 0 -0.026872075239702278 -0.077906784934124659 0 -0.023092609318590383 -0.079156518976751369 0 -0.02032640249366895 -0.076988214045163678 0 -0.024933502368442665 -0.074589590634889472 0 -0.024933502368442665 -0.074589590634889472 0 -0.027587596683694281 -0.075000861079096259 0 -0.026872075239702278 -0.077906784934124659 0 -0.024933502368442665 -0.074589590634889472 0 -0.027587596683694281 -0.075000861079096259 0 -0.026270491020003103 -0.072619008565226656 0 -0.024570365409413274 -0.072134279566848189 0 -0.024933502368442665 -0.074589590634889472 0 -0.026270491020003103 -0.072619008565226656 0 -0.029977485410220481 -0.071452835803785655 0 -0.027587596683694281 -0.075000861079096259 0 -0.026270491020003103 -0.072619008565226656 0 -0.029977485410220481 -0.071452835803785655 0 -0.027587596683694281 -0.075000861079096259 0 -0.030359013692314005 -0.075784285225996867 0 -0.027587596683694281 -0.075000861079096259 0 -0.026872075239702278 -0.077906784934124659 0 -0.030359013692314005 -0.075784285225996867 0 -0.026872075239702278 -0.077906784934124659 0 -0.030359013692314005 -0.075784285225996867 0 -0.029907076935223126 -0.081481118248451043 0 -0.026872075239702278 -0.077906784934124659 0 -0.025781810667748904 -0.081169888964679998 0 -0.029907076935223126 -0.081481118248451043 0 -0.023092609318590383 -0.079156518976751369 0 -0.026872075239702278 -0.077906784934124659 0 -0.025781810667748904 -0.081169888964679998 0 -0.025781810667748904 -0.081169888964679998 0 -0.026053936592471943 -0.084606841404845867 0 -0.029907076935223126 -0.081481118248451043 0 -0.022431119317319788 -0.082682502500099148 0 -0.025781810667748904 -0.081169888964679998 0 -0.026053936592471943 -0.084606841404845867 0 -0.026053936592471943 -0.084606841404845867 0 -0.029907076935223126 -0.081481118248451043 0 -0.027841165755949721 -0.085560211560137406 0 -0.026053936592471943 -0.084606841404845867 0 -0.026213258951378691 -0.086014345987650773 0 -0.027841165755949721 -0.085560211560137406 0 -0.026053936592471943 -0.084606841404845867 0 -0.026213258951378691 -0.086014345987650773 0 -0.026354980211459211 -0.085567960937000545 0 -0.026213258951378691 -0.086014345987650773 0 -0.026426159257396217 -0.085930155137616676 0 -0.026354980211459211 -0.085567960937000545 0 -0.026213258951378691 -0.086014345987650773 0 -0.025610640353480485 -0.086195940080759439 0 -0.026426159257396217 -0.085930155137616676 0 -0.026213258951378691 -0.086014345987650773 0 -0.027841165755949721 -0.085560211560137406 0 -0.02514722352009291 -0.086560258196079459 0 -0.024132951986314891 -0.085884058321520143 0 -0.025610640353480485 -0.086195940080759439 0 -0.02514722352009291 -0.086560258196079459 0 -0.026213258951378691 -0.086014345987650773 0 -0.025610640353480485 -0.086195940080759439 0 -0.02514722352009291 -0.086560258196079459 0 -0.024132951986314891 -0.085884058321520143 0 -0.024354140011990055 -0.084999081535050508 0 -0.021250768751575267 -0.084999893062390267 0 -0.024132951986314891 -0.085884058321520143 0 -0.02514722352009291 -0.086560258196079459 0 -0.021250768751575267 -0.084999893062390267 0 -0.024354140011990055 -0.084999081535050508 0 -0.025610640353480485 -0.086195940080759439 0 -0.027452951880985739 -0.085000105242539439 0 -0.024132951986314891 -0.085884058321520143 0 -0.024354140011990055 -0.084999081535050508 0 -0.025610640353480485 -0.086195940080759439 0 -0.025610640353480485 -0.086195940080759439 0 -0.026895948418536573 -0.085746178833495793 0 -0.026426159257396217 -0.085930155137616676 0 -0.026895948418536573 -0.085746178833495793 0 -0.027452951880985739 -0.085000105242539439 0 -0.027176487601355097 -0.085482730773194182 0 -0.027460281531987631 -0.084999727275731643 0 -0.029660369214822915 -0.085413353659000921 0 -0.025610640353480485 -0.086195940080759439 0 -0.026895948418536573 -0.085746178833495793 0 -0.027452951880985739 -0.085000105242539439 0 -0.027457589918586735 -0.084999997850302739 0 -0.031651929903297508 -0.084999991723977139 0 -0.030669385255476373 -0.086966222268328355 0 -0.031651929903297508 -0.084999991723977139 0 -0.030669385255476373 -0.086966222268328355 0 -0.032956125445750273 -0.086764910632843431 0 -0.026895948418536573 -0.085746178833495793 0 -0.027176487601355097 -0.085482730773194182 0 -0.027141296250746197 -0.085657695261426664 0 -0.026895948418536573 -0.085746178833495793 0 -0.027141296250746197 -0.085657695261426664 0 -0.026965690418768572 -0.085698892158392159 0 -0.027141296250746197 -0.085657695261426664 0 -0.026965690418768572 -0.085698892158392159 0 -0.027236590769308178 -0.085726121527590932 0 -0.026895948418536573 -0.085746178833495793 0 -0.026965690418768572 -0.085698892158392159 0 -0.026426159257396217 -0.085930155137616676 0 -0.026965690418768572 -0.085698892158392159 0 -0.026426159257396217 -0.085930155137616676 0 -0.026354980211459211 -0.085567960937000545 0 -0.026607208797811487 -0.086440379798718603 0 -0.026354980211459211 -0.085567960937000545 0 -0.027680842184314065 -0.085854560177848094 0 -0.026965690418768572 -0.085698892158392159 0 -0.026354980211459211 -0.085567960937000545 0 -0.027680842184314065 -0.085854560177848094 0 -0.026965690418768572 -0.085698892158392159 0 -0.027680842184314065 -0.085854560177848094 0 -0.027236590769308178 -0.085726121527590932 0 -0.030352716217630544 -0.086411802562607595 0 -0.030983005184654303 -0.086086207216869687 0 -0.027680842184314065 -0.085854560177848094 0 -0.030139186382224081 -0.085588583704722138 0 -0.029977173025200199 -0.083759809584425415 0 -0.035078973905042631 -0.078030986683726114 0 -0.036600470209783388 -0.080783019661061328 0 -0.034661762185190396 -0.080395491673467434 0 -0.035078973905042631 -0.078030986683726114 0 -0.034661762185190396 -0.080395491673467434 0 -0.033203197864248191 -0.079690203607787516 0 -0.034661762185190396 -0.080395491673467434 0 -0.033203197864248191 -0.079690203607787516 0 -0.0337141229312799 -0.08147483792356372 0 -0.0337141229312799 -0.08147483792356372 0 -0.033276086290156319 -0.082554704304089441 0 -0.032475889700329753 -0.081560174287035783 0 -0.033203197864248191 -0.079690203607787516 0 -0.0337141229312799 -0.08147483792356372 0 -0.032475889700329753 -0.081560174287035783 0 -0.036600470209783388 -0.080783019661061328 0 -0.034661762185190396 -0.080395491673467434 0 -0.034437951076546763 -0.081747471013387571 0 -0.034661762185190396 -0.080395491673467434 0 -0.0337141229312799 -0.08147483792356372 0 -0.034437951076546763 -0.081747471013387571 0 -0.034437951076546763 -0.081747471013387571 0 -0.033750409559966069 -0.082449914255114803 0 -0.033172899826881645 -0.082802212311825552 0 -0.0337141229312799 -0.08147483792356372 0 -0.034437951076546763 -0.081747471013387571 0 -0.033750409559966069 -0.082449914255114803 0 -0.0337141229312799 -0.08147483792356372 0 -0.033750409559966069 -0.082449914255114803 0 -0.033276086290156319 -0.082554704304089441 0 -0.033750409559966069 -0.082449914255114803 0 -0.033276086290156319 -0.082554704304089441 0 -0.033702815993873418 -0.08287294523034848 0 -0.033750409559966069 -0.082449914255114803 0 -0.033702815993873418 -0.08287294523034848 0 -0.033172899826881645 -0.082802212311825552 0 -0.030139186382224081 -0.085588583704722138 0 -0.033172899826881645 -0.082802212311825552 0 -0.029977173025200199 -0.083759809584425415 0 -0.036600470209783388 -0.080783019661061328 0 -0.034437951076546763 -0.081747471013387571 0 -0.033172899826881645 -0.082802212311825552 0 -0.030983005184654303 -0.086086207216869687 0 -0.032599590694966173 -0.085769687895008412 0 -0.030195560759616217 -0.080344260558321084 0 -0.030881185824319351 -0.080744303179487387 0 -0.033172899826881645 -0.082802212311825552 0 -0.029977173025200199 -0.083759809584425415 0 -0.032471986674151535 -0.081547371634987362 0 -0.027141296250746197 -0.085657695261426664 0 -0.027236590769308178 -0.085726121527590932 0 -0.027280965385612702 -0.085625144841715059 0 -0.027176487601355097 -0.085482730773194182 0 -0.027141296250746197 -0.085657695261426664 0 -0.027280965385612702 -0.085625144841715059 0 -0.029660369214822915 -0.085413353659000921 0 -0.032599590694966173 -0.085769687895008412 0 -0.033871389973531833 -0.088928686130114343 0 -0.032956125445750273 -0.086764910632843431 0 -0.03584624207476364 -0.084999994897131906 0 -0.030669385255476373 -0.086966222268328355 0 -0.033871389973531833 -0.088928686130114343 0 -0.032956125445750273 -0.086764910632843431 0 -0.031651929903297508 -0.084999991723977139 0 -0.032956125445750273 -0.086764910632843431 0 -0.03584624207476364 -0.084999994897131906 0 -0.035846917924959691 -0.085001087535235192 0 -0.036290463461705988 -0.087115076812139494 0 -0.036731231192877425 -0.088110916844126821 0 -0.032599590694966173 -0.085769687895008412 0 -0.03584130319144381 -0.085000053408261306 0 -0.035562281963458252 -0.087381921915245256 0 -0.035846917924959691 -0.085001087535235192 0 -0.036290463461705988 -0.087115076812139494 0 -0.036898509652586627 -0.086862322333707262 0 -0.035562281963458252 -0.087381921915245256 0 -0.036290463461705988 -0.087115076812139494 0 -0.032985378886227358 -0.085342453643407867 0 -0.032599590694966173 -0.085769687895008412 0 -0.033702815993873418 -0.08287294523034848 0 -0.033172899826881645 -0.082802212311825552 0 -0.032471986674151535 -0.081547371634987362 0 -0.036898509652586627 -0.086862322333707262 0 -0.036290463461705988 -0.087115076812139494 0 -0.036731231192877425 -0.088110916844126821 0 -0.036898509652586627 -0.086862322333707262 0 -0.036731231192877425 -0.088110916844126821 0 -0.034421633155303562 -0.085581011015933878 0 -0.036731231192877425 -0.088110916844126821 0 -0.0402400931305784 -0.089394012369573089 0 -0.039448271999511356 -0.092592212550460171 0 -0.035846917924959691 -0.085001087535235192 0 -0.036731231192877425 -0.088110916844126821 0 -0.039815701471264613 -0.087062086984621839 0 -0.035846917924959691 -0.085001087535235192 0 -0.040824459449760001 -0.084998935584411878 0 -0.039815701471264613 -0.087062086984621839 0 -0.043177155400143774 -0.088059782634474448 0 -0.040824459449760001 -0.084998935584411878 0 -0.039815701471264613 -0.087062086984621839 0 -0.043177155400143774 -0.088059782634474448 0 -0.0402400931305784 -0.089394012369573089 0 -0.041782798339571853 -0.091364958928482495 0 -0.043177155400143774 -0.088059782634474448 0 -0.039815701471264613 -0.087062086984621839 0 -0.0402400931305784 -0.089394012369573089 0 -0.036731231192877425 -0.088110916844126821 0 -0.039815701471264613 -0.087062086984621839 0 -0.0402400931305784 -0.089394012369573089 0 -0.0402400931305784 -0.089394012369573089 0 -0.041782798339571853 -0.091364958928482495 0 -0.039448271999511356 -0.092592212550460171 0 -0.041782798339571853 -0.091364958928482495 0 -0.039448271999511356 -0.092592212550460171 0 -0.041549901370927692 -0.093506988637328384 0 -0.036731231192877425 -0.088110916844126821 0 -0.029969852935628632 -0.083338036354846851 0 -0.034421633155303562 -0.085581011015933878 0 -0.03680529317148927 -0.086125936566374933 0 -0.03697217184353635 -0.085643644494826435 0 -0.032985378886227358 -0.085342453643407867 0 -0.032767776911009211 -0.085008635732831586 0 -0.033276086290156319 -0.082554704304089441 0 -0.033702815993873418 -0.08287294523034848 0 -0.032544756273374838 -0.083398773686857955 0 -0.036898509652586627 -0.086862322333707262 0 -0.034421633155303562 -0.085581011015933878 0 -0.032544756273374838 -0.083398773686857955 0 -0.033276086290156319 -0.082554704304089441 0 -0.032544756273374838 -0.083398773686857955 0 -0.032475889700329753 -0.081560174287035783 0 -0.029969852935628632 -0.083338036354846851 0 -0.034421633155303562 -0.085581011015933878 0 -0.032544756273374838 -0.083398773686857955 0 -0.029969852935628632 -0.083338036354846851 0 -0.032544756273374838 -0.083398773686857955 0 -0.030416136826986226 -0.081349824329329662 0 -0.032544756273374838 -0.083398773686857955 0 -0.030416136826986226 -0.081349824329329662 0 -0.032475889700329753 -0.081560174287035783 0 -0.030416136826986226 -0.081349824329329662 0 -0.032475889700329753 -0.081560174287035783 0 -0.030919697631010767 -0.07956799543005752 0 -0.033203197864248191 -0.079690203607787516 0 -0.032475889700329753 -0.081560174287035783 0 -0.030919697631010767 -0.07956799543005752 0 -0.026002277023022029 -0.078936923391848157 0 -0.030416136826986226 -0.081349824329329662 0 -0.030919697631010767 -0.07956799543005752 0 -0.041598964245134637 -0.096314864691378385 0 -0.039448271999511356 -0.092592212550460171 0 -0.041549901370927692 -0.093506988637328384 0 -0.026002277023022029 -0.078936923391848157 0 -0.029969852935628632 -0.083338036354846851 0 -0.030416136826986226 -0.081349824329329662 0 -0.038015500880710609 -0.083857215554355075 0 -0.03697217184353635 -0.085643644494826435 0 -0.019011544569345704 -0.075115159694976077 0 -0.018725691697555766 -0.072747093892032086 0 -0.018221657224449222 -0.078092138765587141 0 -0.019011544569345704 -0.075115159694976077 0 -0.019907043917651451 -0.07307564621722365 0 -0.018842271680328211 -0.077775798804436219 0 -0.018089484002685403 -0.078986385231473 0 -0.018106941214672961 -0.080126893248691586 0 -0.018180342420607953 -0.083534066388411182 0 -0.018250096917260514 -0.084420826871190985 0 -0.018731425534241824 -0.082931420682902671 0 -0.017920447043504598 -0.083996963253000351 0 -0.018180342420607953 -0.083534066388411182 0 -0.018250096917260514 -0.084420826871190985 0 -0.019011544569345704 -0.075115159694976077 0 -0.019907043917651451 -0.07307564621722365 0 -0.019302148039056676 -0.07320637865210862 0 -0.018180342420607953 -0.083534066388411182 0 -0.01790806941047975 -0.083168434161331822 0 -0.018236436938414455 -0.082996488355459003 0 -0.017920447043504598 -0.083996963253000351 0 -0.018180342420607953 -0.083534066388411182 0 -0.017832994659258281 -0.083611404241885012 0 -0.018180342420607953 -0.083534066388411182 0 -0.017832994659258281 -0.083611404241885012 0 -0.01790806941047975 -0.083168434161331822 0 -0.017832994659258281 -0.083611404241885012 0 -0.01790806941047975 -0.083168434161331822 0 -0.017522097360668128 -0.083304496230897765 0 -0.017832994659258281 -0.083611404241885012 0 -0.017546768605884749 -0.084086734644303718 0 -0.017522097360668128 -0.083304496230897765 0 -0.017546768605884749 -0.084086734644303718 0 -0.017522097360668128 -0.083304496230897765 0 -0.017140671992669686 -0.083799789337608524 0 -0.017546768605884749 -0.084086734644303718 0 -0.017140671992669686 -0.083799789337608524 0 -0.016949264483324143 -0.084692076595744417 0 -0.017920447043504598 -0.083996963253000351 0 -0.017832994659258281 -0.083611404241885012 0 -0.017546768605884749 -0.084086734644303718 0 -0.017920447043504598 -0.083996963253000351 0 -0.017546768605884749 -0.084086734644303718 0 -0.017803380367556802 -0.084331457131850335 0 -0.017803380367556802 -0.084331457131850335 0 -0.017529552382912723 -0.084834723446834626 0 -0.018250096917260514 -0.084420826871190985 0 -0.017546768605884749 -0.084086734644303718 0 -0.017803380367556802 -0.084331457131850335 0 -0.017529552382912723 -0.084834723446834626 0 -0.017529552382912723 -0.084834723446834626 0 -0.018250096917260514 -0.084420826871190985 0 -0.017451790795676762 -0.085672047366787199 0 -0.017546768605884749 -0.084086734644303718 0 -0.017529552382912723 -0.084834723446834626 0 -0.016949264483324143 -0.084692076595744417 0 -0.017529552382912723 -0.084834723446834626 0 -0.016949264483324143 -0.084692076595744417 0 -0.016933337612708717 -0.085323689237736269 0 -0.019434084801193519 -0.072499098496967132 0 -0.018953296757158043 -0.071320111911223394 0 -0.02098920250834712 -0.069923423151135963 0 -0.019907043917651451 -0.07307564621722365 0 -0.019434084801193519 -0.072499098496967132 0 -0.02098920250834712 -0.069923423151135963 0 -0.018089484002685403 -0.078986385231473 0 -0.017262412233485697 -0.078566830738358087 0 -0.017920447043504598 -0.083996963253000351 0 -0.017803380367556802 -0.084331457131850335 0 -0.018250096917260514 -0.084420826871190985 0 -0.019011544569345704 -0.075115159694976077 0 -0.019302148039056676 -0.07320637865210862 0 -0.018725691697555766 -0.072747093892032086 0 -0.019907043917651451 -0.07307564621722365 0 -0.019302148039056676 -0.07320637865210862 0 -0.019434084801193519 -0.072499098496967132 0 -0.018800045232517507 -0.072764781411431972 0 -0.01878468769032093 -0.072770877241498902 0 -0.019302148039056676 -0.07320637865210862 0 -0.019434084801193519 -0.072499098496967132 0 -0.018725691697555766 -0.072747093892032086 0 -0.019434084801193519 -0.072499098496967132 0 -0.018829929346649277 -0.07257691545867398 0 -0.018612855899951885 -0.072143628164805226 0 -0.019434084801193519 -0.072499098496967132 0 -0.018612855899951885 -0.072143628164805226 0 -0.018953296757158043 -0.071320111911223394 0 -0.018612855899951885 -0.072143628164805226 0 -0.018953296757158043 -0.071320111911223394 0 -0.018119901570997 -0.07171988592252572 0 -0.018829929346649277 -0.07257691545867398 0 -0.017630569551295994 -0.072178313236091016 0 -0.015823884266686211 -0.073016088399225174 0 -0.01878468769032093 -0.072770877241498902 0 -0.017241832971312775 -0.072509504057788388 0 -0.018953296757158043 -0.071320111911223394 0 -0.018119901570997 -0.07171988592252572 0 -0.0178139133144701 -0.071157343714820451 0 -0.018612855899951885 -0.072143628164805226 0 -0.018119901570997 -0.07171988592252572 0 -0.017630569551295994 -0.072178313236091016 0 -0.017639460221869602 -0.071752494288647245 0 -0.0178139133144701 -0.071157343714820451 0 -0.016906900176113755 -0.071812364219741215 0 -0.018119901570997 -0.07171988592252572 0 -0.017639460221869602 -0.071752494288647245 0 -0.017630569551295994 -0.072178313236091016 0 -0.018119901570997 -0.07171988592252572 0 -0.017639460221869602 -0.071752494288647245 0 -0.0178139133144701 -0.071157343714820451 0 -0.016906900176113755 -0.071812364219741215 0 -0.016277843835683026 -0.071446524809925277 0 -0.016695820074462926 -0.070853852408453336 0 -0.0178139133144701 -0.071157343714820451 0 -0.016906900176113755 -0.071812364219741215 0 -0.016695820074462926 -0.070853852408453336 0 -0.017639460221869602 -0.071752494288647245 0 -0.016906900176113755 -0.071812364219741215 0 -0.017630569551295994 -0.072178313236091016 0 -0.016906900176113755 -0.071812364219741215 0 -0.017630569551295994 -0.072178313236091016 0 -0.015823884266686211 -0.073016088399225174 0 -0.018829929346649277 -0.07257691545867398 0 -0.018612855899951885 -0.072143628164805226 0 -0.017630569551295994 -0.072178313236091016 0 -0.015557046531754191 -0.071230473262824903 0 -0.015853265697974954 -0.071924222729937898 0 -0.014732441158600312 -0.072127791663537166 0 -0.016906900176113755 -0.071812364219741215 0 -0.016277843835683026 -0.071446524809925277 0 -0.015853265697974954 -0.071924222729937898 0 -0.015557046531754191 -0.071230473262824903 0 -0.016277843835683026 -0.071446524809925277 0 -0.016695820074462926 -0.070853852408453336 0 -0.015557046531754191 -0.071230473262824903 0 -0.016277843835683026 -0.071446524809925277 0 -0.015853265697974954 -0.071924222729937898 0 -0.016906900176113755 -0.071812364219741215 0 -0.015853265697974954 -0.071924222729937898 0 -0.015823884266686211 -0.073016088399225174 0 -0.015853265697974954 -0.071924222729937898 0 -0.015823884266686211 -0.073016088399225174 0 -0.014732441158600312 -0.072127791663537166 0 -0.018335981212153178 -0.070706088057645042 0 -0.019446408044675689 -0.07173301160649441 0 -0.018726539521656382 -0.073056203287685306 0 -0.018335981212153178 -0.070706088057645042 0 -0.017002519305674129 -0.072621129718098892 0 -0.018726539521656382 -0.073056203287685306 0 -0.021443116006154655 -0.069561487593125249 0 -0.018335981212153178 -0.070706088057645042 0 -0.019446408044675689 -0.07173301160649441 0 -0.021443116006154655 -0.069561487593125249 0 -0.019446408044675689 -0.07173301160649441 0 -0.020284395767629984 -0.072984658036116881 0 -0.01878468769032093 -0.072770877241498902 0 -0.018871763526234715 -0.075115713899102363 0 -0.019011544569345704 -0.075115159694976077 0 -0.018221657224449222 -0.078092138765587141 0 -0.018842271680328211 -0.077775798804436219 0 -0.018221657224449222 -0.078092138765587141 0 -0.018842271680328211 -0.077775798804436219 0 -0.018564658976934593 -0.080957303466964753 0 -0.018106941214672961 -0.080126893248691586 0 -0.01803112097196188 -0.08065768316280067 0 -0.019446408044675689 -0.07173301160649441 0 -0.020284395767629984 -0.072984658036116881 0 -0.018726539521656382 -0.073056203287685306 0 -0.020284395767629984 -0.072984658036116881 0 -0.018726539521656382 -0.073056203287685306 0 -0.018880881725717367 -0.074745519644667385 0 -0.017002519305674129 -0.072621129718098892 0 -0.018726539521656382 -0.073056203287685306 0 -0.01713979270999948 -0.07387015130428691 0 -0.018726539521656382 -0.073056203287685306 0 -0.01713979270999948 -0.07387015130428691 0 -0.018032156093882944 -0.074400514097273177 0 -0.018726539521656382 -0.073056203287685306 0 -0.018032156093882944 -0.074400514097273177 0 -0.018880881725717367 -0.074745519644667385 0 -0.01713979270999948 -0.07387015130428691 0 -0.017258733829116402 -0.075088586685629066 0 -0.018032156093882944 -0.074400514097273177 0 -0.017258733829116402 -0.075088586685629066 0 -0.018156410621686936 -0.075237143549754054 0 -0.018032156093882944 -0.074400514097273177 0 -0.018156410621686936 -0.075237143549754054 0 -0.018880881725717367 -0.074745519644667385 0 -0.018443313877033383 -0.075850534493309307 0 -0.018156410621686936 -0.075237143549754054 0 -0.018032156093882944 -0.074400514097273177 0 -0.018880881725717367 -0.074745519644667385 0 -0.019174743558117158 -0.076445571793591613 0 -0.017968142132111075 -0.076440804260711606 0 -0.018443313877033383 -0.075850534493309307 0 -0.019174743558117158 -0.076445571793591613 0 -0.018880881725717367 -0.074745519644667385 0 -0.018443313877033383 -0.075850534493309307 0 -0.017968142132111075 -0.076440804260711606 0 -0.018443313877033383 -0.075850534493309307 0 -0.017781533051407165 -0.075779477998614717 0 -0.018156410621686936 -0.075237143549754054 0 -0.018443313877033383 -0.075850534493309307 0 -0.017781533051407165 -0.075779477998614717 0 -0.017258733829116402 -0.075088586685629066 0 -0.018156410621686936 -0.075237143549754054 0 -0.017781533051407165 -0.075779477998614717 0 -0.017968142132111075 -0.076440804260711606 0 -0.017781533051407165 -0.075779477998614717 0 -0.017091021949556248 -0.076019354580865117 0 -0.017258733829116402 -0.075088586685629066 0 -0.017781533051407165 -0.075779477998614717 0 -0.017091021949556248 -0.076019354580865117 0 -0.019174743558117158 -0.076445571793591613 0 -0.020284395767629984 -0.072984658036116881 0 -0.018880881725717367 -0.074745519644667385 0 -0.018731425534241824 -0.082931420682902671 0 -0.018430029381626967 -0.08179014230108797 0 -0.018564658976934593 -0.080957303466964753 0 -0.018431695102643628 -0.081610779716286136 0 -0.018221657224449222 -0.078092138765587141 0 -0.018564658976934593 -0.080957303466964753 0 -0.018409121182207871 -0.07800401829354317 0 -0.018871763526234715 -0.075115713899102363 0 -0.018418075940461111 -0.081307415498536414 0 -0.018431695102643628 -0.081610779716286136 0 -0.018564658976934593 -0.080957303466964753 0 -0.018418075940461111 -0.081307415498536414 0 -0.018564658976934593 -0.080957303466964753 0 -0.018384090262035187 -0.081348916583214068 0 -0.018430029381626967 -0.08179014230108797 0 -0.018564658976934593 -0.080957303466964753 0 -0.018384090262035187 -0.081348916583214068 0 -0.018034217012473552 -0.081352898068076454 0 -0.018384090262035187 -0.081348916583214068 0 -0.018177678714829081 -0.081734828108684751 0 -0.018034217012473552 -0.081352898068076454 0 -0.01782771138062236 -0.081695739924776731 0 -0.018177678714829081 -0.081734828108684751 0 -0.017611199870479911 -0.081280326143529744 0 -0.018034217012473552 -0.081352898068076454 0 -0.01782771138062236 -0.081695739924776731 0 -0.01782771138062236 -0.081695739924776731 0 -0.017860977651120491 -0.082173424917142676 0 -0.018177678714829081 -0.081734828108684751 0 -0.017860977651120491 -0.082173424917142676 0 -0.018177678714829081 -0.081734828108684751 0 -0.018349024485027336 -0.08230647889475351 0 -0.018430029381626967 -0.08179014230108797 0 -0.018177678714829081 -0.081734828108684751 0 -0.018349024485027336 -0.08230647889475351 0 -0.018430029381626967 -0.08179014230108797 0 -0.018384090262035187 -0.081348916583214068 0 -0.018177678714829081 -0.081734828108684751 0 -0.018731425534241824 -0.082931420682902671 0 -0.018430029381626967 -0.08179014230108797 0 -0.018349024485027336 -0.08230647889475351 0 -0.018349024485027336 -0.08230647889475351 0 -0.018036692874946435 -0.082652815892299197 0 -0.018361470986712959 -0.08271585098483504 0 -0.017860977651120491 -0.082173424917142676 0 -0.018349024485027336 -0.08230647889475351 0 -0.018036692874946435 -0.082652815892299197 0 -0.018036692874946435 -0.082652815892299197 0 -0.01790806941047975 -0.083168434161331822 0 -0.018236436938414455 -0.082996488355459003 0 -0.018036692874946435 -0.082652815892299197 0 -0.018236436938414455 -0.082996488355459003 0 -0.018361470986712959 -0.08271585098483504 0 -0.018731425534241824 -0.082931420682902671 0 -0.018349024485027336 -0.08230647889475351 0 -0.018361470986712959 -0.08271585098483504 0 -0.018180342420607953 -0.083534066388411182 0 -0.018731425534241824 -0.082931420682902671 0 -0.018236436938414455 -0.082996488355459003 0 -0.018731425534241824 -0.082931420682902671 0 -0.018236436938414455 -0.082996488355459003 0 -0.018361470986712959 -0.08271585098483504 0 -0.017522097360668128 -0.083304496230897765 0 -0.017166394575318884 -0.082746826628054576 0 -0.017140671992669686 -0.083799789337608524 0 -0.017522097360668128 -0.083304496230897765 0 -0.017570015654930708 -0.08258695224789421 0 -0.017166394575318884 -0.082746826628054576 0 -0.01790806941047975 -0.083168434161331822 0 -0.017522097360668128 -0.083304496230897765 0 -0.017570015654930708 -0.08258695224789421 0 -0.018036692874946435 -0.082652815892299197 0 -0.01790806941047975 -0.083168434161331822 0 -0.017570015654930708 -0.08258695224789421 0 -0.017860977651120491 -0.082173424917142676 0 -0.018036692874946435 -0.082652815892299197 0 -0.017570015654930708 -0.08258695224789421 0 -0.017570015654930708 -0.08258695224789421 0 -0.017410205370650488 -0.081979453384033479 0 -0.017166394575318884 -0.082746826628054576 0 -0.017249114081363329 -0.081521815140633974 0 -0.017410205370650488 -0.081979453384033479 0 -0.017068226760092564 -0.082027179725714341 0 -0.017860977651120491 -0.082173424917142676 0 -0.017570015654930708 -0.08258695224789421 0 -0.017410205370650488 -0.081979453384033479 0 -0.01782771138062236 -0.081695739924776731 0 -0.017860977651120491 -0.082173424917142676 0 -0.017410205370650488 -0.081979453384033479 0 -0.017611199870479911 -0.081280326143529744 0 -0.01782771138062236 -0.081695739924776731 0 -0.017410205370650488 -0.081979453384033479 0 -0.016787404403576005 -0.08160853995160075 0 -0.017068226760092564 -0.082027179725714341 0 -0.016706463961821214 -0.082407958932085898 0 -0.017068226760092564 -0.082027179725714341 0 -0.016706463961821214 -0.082407958932085898 0 -0.017166394575318884 -0.082746826628054576 0 -0.017410205370650488 -0.081979453384033479 0 -0.017068226760092564 -0.082027179725714341 0 -0.017166394575318884 -0.082746826628054576 0 -0.01570722592812741 -0.081511814830253493 0 -0.016476190996154157 -0.081031141355305328 0 -0.016706463961821214 -0.082407958932085898 0 -0.01575382162910741 -0.074975810062300446 0 -0.015383177760463782 -0.077689506096961125 0 -0.016365147334278678 -0.083229517695786681 0 -0.015711406107223345 -0.082942668839641021 0 -0.016183816289674316 -0.084099691753974012 0 -0.016706463961821214 -0.082407958932085898 0 -0.016365147334278678 -0.083229517695786681 0 -0.016781581432666608 -0.083578768507280604 0 -0.016706463961821214 -0.082407958932085898 0 -0.016365147334278678 -0.083229517695786681 0 -0.015711406107223345 -0.082942668839641021 0 -0.016706463961821214 -0.082407958932085898 0 -0.017166394575318884 -0.082746826628054576 0 -0.016781581432666608 -0.083578768507280604 0 -0.017166394575318884 -0.082746826628054576 0 -0.017140671992669686 -0.083799789337608524 0 -0.016781581432666608 -0.083578768507280604 0 -0.013996798812597222 -0.081155903239494953 0 -0.014925305815335022 -0.081885326834551991 0 -0.014295818843014837 -0.083008668506493438 0 -0.02258366505937711 -0.074928834983015641 0 -0.022335847849461372 -0.079082451266392226 0 -0.014925305815335022 -0.081885326834551991 0 -0.015711406107223345 -0.082942668839641021 0 -0.014295818843014837 -0.083008668506493438 0 -0.01570722592812741 -0.081511814830253493 0 -0.016706463961821214 -0.082407958932085898 0 -0.015711406107223345 -0.082942668839641021 0 -0.01570722592812741 -0.081511814830253493 0 -0.014925305815335022 -0.081885326834551991 0 -0.015711406107223345 -0.082942668839641021 0 -0.015711406107223345 -0.082942668839641021 0 -0.014295818843014837 -0.083008668506493438 0 -0.015407181011788664 -0.084052408084612965 0 -0.014798124296847672 -0.084709443365543813 0 -0.015407181011788664 -0.084052408084612965 0 -0.015890731276760949 -0.085350461213890019 0 -0.022335847849461372 -0.079082451266392226 0 -0.022125094466639492 -0.082155294424877789 0 -0.014295818843014837 -0.083008668506493438 0 -0.014798124296847672 -0.084709443365543813 0 -0.015407181011788664 -0.084052408084612965 0 -0.015711406107223345 -0.082942668839641021 0 -0.015407181011788664 -0.084052408084612965 0 -0.016183816289674316 -0.084099691753974012 0 -0.015407181011788664 -0.084052408084612965 0 -0.015890731276760949 -0.085350461213890019 0 -0.016183816289674316 -0.084099691753974012 0 -0.014798124296847672 -0.084709443365543813 0 -0.015890731276760949 -0.085350461213890019 0 -0.015798997291483752 -0.086139812409779665 0 -0.022125094466639492 -0.082155294424877789 0 -0.021833043245166738 -0.084175044561151255 0 -0.016662489035238127 -0.084362111677828033 0 -0.017140671992669686 -0.083799789337608524 0 -0.016949264483324143 -0.084692076595744417 0 -0.016662489035238127 -0.084362111677828033 0 -0.017140671992669686 -0.083799789337608524 0 -0.016781581432666608 -0.083578768507280604 0 -0.016662489035238127 -0.084362111677828033 0 -0.016781581432666608 -0.083578768507280604 0 -0.016183816289674316 -0.084099691753974012 0 -0.016365147334278678 -0.083229517695786681 0 -0.016781581432666608 -0.083578768507280604 0 -0.016183816289674316 -0.084099691753974012 0 -0.016662489035238127 -0.084362111677828033 0 -0.016183816289674316 -0.084099691753974012 0 -0.016378449339230813 -0.085035249937683882 0 -0.015890731276760949 -0.085350461213890019 0 -0.016183816289674316 -0.084099691753974012 0 -0.016378449339230813 -0.085035249937683882 0 -0.015890731276760949 -0.085350461213890019 0 -0.016378449339230813 -0.085035249937683882 0 -0.016219701648476893 -0.086043377456277298 0 -0.016378449339230813 -0.085035249937683882 0 -0.016949264483324143 -0.084692076595744417 0 -0.016523072423738468 -0.085428216154282477 0 -0.016662489035238127 -0.084362111677828033 0 -0.016378449339230813 -0.085035249937683882 0 -0.016949264483324143 -0.084692076595744417 0 -0.016949264483324143 -0.084692076595744417 0 -0.016933337612708717 -0.085323689237736269 0 -0.016523072423738468 -0.085428216154282477 0 -0.016933337612708717 -0.085323689237736269 0 -0.016380104064923684 -0.085897924531882205 0 -0.016523072423738468 -0.085428216154282477 0 -0.016378449339230813 -0.085035249937683882 0 -0.016523072423738468 -0.085428216154282477 0 -0.016219701648476893 -0.086043377456277298 0 -0.016380104064923684 -0.085897924531882205 0 -0.016523072423738468 -0.085428216154282477 0 -0.016219701648476893 -0.086043377456277298 0 -0.016380104064923684 -0.085897924531882205 0 -0.016219701648476893 -0.086043377456277298 0 -0.01593082115229711 -0.086424158140233173 0 -0.016219701648476893 -0.086043377456277298 0 -0.01593082115229711 -0.086424158140233173 0 -0.016339703359046748 -0.086603336326054187 0 -0.01593082115229711 -0.086424158140233173 0 -0.016151390714201901 -0.086303428570171481 0 -0.015599391860763904 -0.086560674877371763 0 -0.016380104064923684 -0.085897924531882205 0 -0.016151390714201901 -0.086303428570171481 0 -0.017451790795676762 -0.085672047366787199 0 -0.016151390714201901 -0.086303428570171481 0 -0.015599391860763904 -0.086560674877371763 0 -0.016417334116288637 -0.08656361776005915 0 -0.016380104064923684 -0.085897924531882205 0 -0.01593082115229711 -0.086424158140233173 0 -0.016151390714201901 -0.086303428570171481 0 -0.015890731276760949 -0.085350461213890019 0 -0.015798997291483752 -0.086139812409779665 0 -0.016561768309745383 -0.086553589096172348 0 -0.015890731276760949 -0.085350461213890019 0 -0.016219701648476893 -0.086043377456277298 0 -0.016561768309745383 -0.086553589096172348 0 -0.016219701648476893 -0.086043377456277298 0 -0.016561768309745383 -0.086553589096172348 0 -0.016339703359046748 -0.086603336326054187 0 -0.021833043245166738 -0.084175044561151255 0 -0.021529905284742586 -0.084726314347312259 0 -0.015798997291483752 -0.086139812409779665 0 -0.016561768309745383 -0.086553589096172348 0 -0.017806136881942266 -0.086738556997784835 0 -0.016561768309745383 -0.086553589096172348 0 -0.017806136881942266 -0.086738556997784835 0 -0.017618389198322263 -0.086419730572796463 0 -0.016561768309745383 -0.086553589096172348 0 -0.017618389198322263 -0.086419730572796463 0 -0.016339703359046748 -0.086603336326054187 0 -0.017618389198322263 -0.086419730572796463 0 -0.016339703359046748 -0.086603336326054187 0 -0.015982669452648746 -0.086111277826862412 0 -0.017618389198322263 -0.086419730572796463 0 -0.01709352761590999 -0.084998945621933553 0 -0.015982669452648746 -0.086111277826862412 0 -0.017806136881942266 -0.086738556997784835 0 -0.017618389198322263 -0.086419730572796463 0 -0.021242137528748182 -0.084999976792639403 0 -0.017618389198322263 -0.086419730572796463 0 -0.01709352761590999 -0.084998945621933553 0 -0.021242137528748182 -0.084999976792639403 0 -0.021529905284742586 -0.084726314347312259 0 -0.021247421375697337 -0.084998576066245266 0 -0.015599391860763904 -0.086560674877371763 0 -0.015426436791200322 -0.086426623204647474 0 -0.014851171673076832 -0.086213292058940391 0 -0.015426436791200322 -0.086426623204647474 0 -0.01465927794156148 -0.086022949530860149 0 -0.014851171673076832 -0.086213292058940391 0 -0.013140763387739797 -0.084304078676862126 0 -0.013876966197573493 -0.081844912862738539 0 -0.011658143613535996 -0.087527586676101374 0 -0.009713990653819355 -0.087879651014803231 0 -0.010421781240137816 -0.090001720464690016 0 -0.015599391860763904 -0.086560674877371763 0 -0.014851171673076832 -0.086213292058940391 0 -0.015538702905881961 -0.086655496802514179 0 -0.01393217251266426 -0.081975251968594995 0 -0.013876966197573493 -0.081844912862738539 0 -0.01593082115229711 -0.086424158140233173 0 -0.015599391860763904 -0.086560674877371763 0 -0.015426436791200322 -0.086426623204647474 0 -0.01593082115229711 -0.086424158140233173 0 -0.016339703359046748 -0.086603336326054187 0 -0.015426436791200322 -0.086426623204647474 0 -0.016339703359046748 -0.086603336326054187 0 -0.015426436791200322 -0.086426623204647474 0 -0.015982669452648746 -0.086111277826862412 0 -0.01709352761590999 -0.084998945621933553 0 -0.015982669452648746 -0.086111277826862412 0 -0.012946784360140245 -0.085000319145437639 0 -0.01465927794156148 -0.086022949530860149 0 -0.015982669452648746 -0.086111277826862412 0 -0.012946784360140245 -0.085000319145437639 0 -0.015426436791200322 -0.086426623204647474 0 -0.01465927794156148 -0.086022949530860149 0 -0.015982669452648746 -0.086111277826862412 0 -0.012941716536880504 -0.084998903784061053 0 -0.013140763387739797 -0.084304078676862126 0 -0.012941337630772154 -0.084999974214222368 0 -0.011658143613535996 -0.087527586676101374 0 -0.0093636356778497506 -0.08499991944600474 0 -0.01465927794156148 -0.086022949530860149 0 -0.012946784360140245 -0.085000319145437639 0 -0.014851171673076832 -0.086213292058940391 0 -0.011658143613535996 -0.087527586676101374 0 -0.0093636356778497506 -0.08499991944600474 0 -0.009713990653819355 -0.087879651014803231 0 -0.0093636356778497506 -0.08499991944600474 0 -0.0076001646183766636 -0.087988794225519376 0 -0.009713990653819355 -0.087879651014803231 0 -0.0093636356778497506 -0.08499991944600474 0 -0.0057865654255615136 -0.085000036356155093 0 -0.0076001646183766636 -0.087988794225519376 0 -0.0057865654255615136 -0.085000036356155093 0 -0.0076001646183766636 -0.087988794225519376 0 -0.0051682104674547306 -0.087977254997591806 0 -0.0076001646183766636 -0.087988794225519376 0 -0.0061917816586194658 -0.091751540888211899 0 -0.0051682104674547306 -0.087977254997591806 0 -0.0076001646183766636 -0.087988794225519376 0 -0.010421781240137816 -0.090001720464690016 0 -0.0061917816586194658 -0.091751540888211899 0 -0.0076001646183766636 -0.087988794225519376 0 -0.009713990653819355 -0.087879651014803231 0 -0.010421781240137816 -0.090001720464690016 0 -0.022204493675354094 -0.067259238806602326 0 -0.019014386693427806 -0.068599367695548669 0 -0.02098920250834712 -0.069923423151135963 0 -0.013876966197573493 -0.081844912862738539 0 -0.012265098817245485 -0.080039831781015425 0 -0.016151390714201901 -0.086303428570171481 0 -0.016417334116288637 -0.08656361776005915 0 -0.017451790795676762 -0.085672047366787199 0 -0.013876966197573493 -0.081844912862738539 0 -0.017262412233485697 -0.078566830738358087 0 -0.018953296757158043 -0.071320111911223394 0 -0.01882667307611503 -0.070365666495563542 0 -0.02098920250834712 -0.069923423151135963 0 -0.019014386693427806 -0.068599367695548669 0 -0.01882667307611503 -0.070365666495563542 0 -0.02098920250834712 -0.069923423151135963 0 -0.019014386693427806 -0.068599367695548669 0 -0.01882667307611503 -0.070365666495563542 0 -0.017612142283517158 -0.070402712789033525 0 -0.018953296757158043 -0.071320111911223394 0 -0.0178139133144701 -0.071157343714820451 0 -0.01882667307611503 -0.070365666495563542 0 -0.016933337612708717 -0.085323689237736269 0 -0.016380104064923684 -0.085897924531882205 0 -0.017451790795676762 -0.085672047366787199 0 -0.017529552382912723 -0.084834723446834626 0 -0.016933337612708717 -0.085323689237736269 0 -0.017451790795676762 -0.085672047366787199 0 -0.015557046531754191 -0.071230473262824903 0 -0.015722003219256535 -0.07028784701243386 0 -0.013869036989387882 -0.071081832553980567 0 -0.015557046531754191 -0.071230473262824903 0 -0.015740924147564454 -0.070014965592521752 0 -0.016695820074462926 -0.070853852408453336 0 -0.0099140959287882958 -0.07723883065982376 0 -0.0094751457684740716 -0.078545133159570152 0 -0.0178139133144701 -0.071157343714820451 0 -0.016695820074462926 -0.070853852408453336 0 -0.017612142283517158 -0.070402712789033525 0 -0.019014386693427806 -0.068599367695548669 0 -0.015740924147564454 -0.070014965592521752 0 -0.017612142283517158 -0.070402712789033525 0 -0.012265098817245485 -0.080039831781015425 0 -0.0094751457684740716 -0.078545133159570152 0 -0.015740924147564454 -0.070014965592521752 0 -0.016695820074462926 -0.070853852408453336 0 -0.017612142283517158 -0.070402712789033525 0 -0.0178139133144701 -0.071157343714820451 0 -0.01882667307611503 -0.070365666495563542 0 -0.017612142283517158 -0.070402712789033525 0 -0.0061917816586194658 -0.091751540888211899 0 -0.0021261613484619786 -0.093477515954013449 0 -0.0028043637811275487 -0.089554081489585977 0 -0.0094751457684740716 -0.078545133159570152 0 -0.0055085088167749988 -0.083522779515318141 0 -0.0035199953390112064 -0.079228720302454786 0 -0.0035010549710370155 -0.079298286889786587 0 -0.003545476984220653 -0.079265211217267664 0 -0.0035010549710370155 -0.079298286889786587 0 -0.003529406216149287 -0.079313580454573818 0 -0.003545476984220653 -0.079265211217267664 0 -0.0035010549710370155 -0.079298286889786587 0 -0.003529406216149287 -0.079313580454573818 0 -0.0034842025896967229 -0.079373744869159185 0 -0.0055085088167749988 -0.083522779515318141 0 -0.0035096953524091307 -0.084605142075548742 0 -0.0028043637811275487 -0.089554081489585977 0 -0.0051682104674547306 -0.087977254997591806 0 -0.0034679422068699555 -0.085550773796972845 0 -0.0061917816586194658 -0.091751540888211899 0 -0.0028043637811275487 -0.089554081489585977 0 -0.0051682104674547306 -0.087977254997591806 0 -0.0057865654255615136 -0.085000036356155093 0 -0.0051682104674547306 -0.087977254997591806 0 -0.0034679422068699555 -0.085550773796972845 0 -0.0035096953524091307 -0.084605142075548742 0 -0.0033397608092175166 -0.084997257601820406 0 -0.0057820762756668849 -0.084998075821321614 0 -0.0035096953524091307 -0.084605142075548742 0 -0.0057861201896279215 -0.084999998665750989 0 -0.0032360960985319109 -0.085561373200458576 0 -0.0033377944000055433 -0.08499999610670321 0 -0.003529406216149287 -0.079313580454573818 0 -0.0034842025896967229 -0.079373744869159185 0 -0.0035411247086059323 -0.079343790372812015 0 -0.0035096953524091307 -0.084605142075548742 0 -0.001520597683627508 -0.083566058659366227 0 -0.0032361134755215493 -0.085560982530643037 0 -0.0033377544836841527 -0.084999995520834565 0 0.00067993627109342626 -0.086415084392627101 0 -0.0033377544836841527 -0.084999995520834565 0 0.00067993627109342626 -0.086415084392627101 0 0.0015815590624880594 -0.084999984997145048 0 -0.001520597683627508 -0.083566058659366227 0 0.00054283956873483466 -0.082883534258632471 0 0.00067993627109342626 -0.086415084392627101 0 0.0015815590624880594 -0.084999984997145048 0 0.0045451232377458428 -0.087254413077141144 0 0.0015816278238430567 -0.084999996452952517 0 0.0061389587639861824 -0.08499999375282917 0 0.0053399504765150691 -0.086396933382470661 0 0.0015851536014380497 -0.085001308482395774 0 0.0047469868959365826 -0.086176992380298106 0 0.0015815590624880594 -0.084999984997145048 0 0.0045451232377458428 -0.087254413077141144 0 0.0052890117255409864 -0.086369648178095518 0 -0.0035732050305586779 -0.079303179199761431 0 -0.0035648695503421994 -0.079294964566164361 0 -0.0035824318835243956 -0.079287370956671696 0 -0.0035411247086059323 -0.079343790372812015 0 -0.0035732050305586779 -0.079303179199761431 0 -0.0035648695503421994 -0.079294964566164361 0 -0.003529406216149287 -0.079313580454573818 0 -0.0035411247086059323 -0.079343790372812015 0 -0.0035648695503421994 -0.079294964566164361 0 -0.003529406216149287 -0.079313580454573818 0 -0.0035648695503421994 -0.079294964566164361 0 -0.003545476984220653 -0.079265211217267664 0 0.0076889627179171308 -0.086214204903071218 0 0.0061389587639861824 -0.08499999375282917 0 0.010696263006654128 -0.084999988988887512 0 0.0076889627179171308 -0.086214204903071218 0 0.0090781797659508934 -0.08778359658439204 0 0.010696263006654128 -0.084999988988887512 0 0.0052890117255409864 -0.086369648178095518 0 0.0084861149936692349 -0.088135201926816231 0 0.0090781797659508934 -0.08778359658439204 0 0.0045451232377458428 -0.087254413077141144 0 0.0052890117255409864 -0.086369648178095518 0 0.0084861149936692349 -0.088135201926816231 0 0.0047469868959365826 -0.086176992380298106 0 0.0064632029076181572 -0.08681562218917227 0 0.0076889627179171308 -0.086214204903071218 0 0.0053399504765150691 -0.086396933382470661 0 0.0090781797659508934 -0.08778359658439204 0 0.0076889627179171308 -0.086214204903071218 0 0.0061389587639861824 -0.08499999375282917 0 0.0053399504765150691 -0.086396933382470661 0 -0.003541475024262494 -0.079272651497163643 0 -0.0035571632312814488 -0.079294739119665683 0 -0.0035824318835243956 -0.079287370956671696 0 0.00054283956873483466 -0.082883534258632471 0 0.0025222169133961719 -0.081985733233524816 0 -0.0035732050305586779 -0.079303179199761431 0 -0.003541475024262494 -0.079272651497163643 0 -0.0035824318835243956 -0.079287370956671696 0 -0.003541475024262494 -0.079272651497163643 0 -0.0035340988439335986 -0.079305602183345134 0 -0.0034767229375419592 -0.079275205244585048 0 0.0084861149936692349 -0.088135201926816231 0 0.0090781797659508934 -0.08778359658439204 0 0.012402806484940581 -0.088994878724515364 0 0.0025222169133961719 -0.081985733233524816 0 0.0038623936874651512 -0.080115841626603818 0 -0.003541475024262494 -0.079272651497163643 0 -0.0035340988439335986 -0.079305602183345134 0 -0.0035571632312814488 -0.079294739119665683 0 -0.0035340988439335986 -0.079305602183345134 0 -0.0035571632312814488 -0.079294739119665683 0 -0.0035728270222834305 -0.079305727443990073 0 -0.0035571632312814488 -0.079294739119665683 0 -0.0035824318835243956 -0.079287370956671696 0 -0.0035728270222834305 -0.079305727443990073 0 -0.0049929532939014531 -0.078058183355832603 0 -0.0052475228165706749 -0.077435110053307971 0 -0.0035340988439335986 -0.079305602183345134 0 -0.0035728270222834305 -0.079305727443990073 0 -0.0035724626744595661 -0.079316633264040148 0 -0.0052475228165706749 -0.077435110053307971 0 -0.0061611482960386458 -0.075001536608432215 0 -0.0036167016747419016 -0.079241449649424089 0 -0.0036370244887220086 -0.079191656122777426 0 -0.0036012567105620751 -0.079211574626198475 0 -0.0091322551746849129 -0.064923213503433289 0 -0.011574376719946758 -0.067623694328528619 0 -0.0092007854589817063 -0.068443155876898781 0 -0.0021764300164251733 -0.076145309251143101 0 -0.0061611482960386458 -0.075001536608432215 0 -0.0091322551746849129 -0.064923213503433289 0 -0.0092007854589817063 -0.068443155876898781 0 -0.0068440524248998061 -0.06763667710522106 0 -0.0035648695503421994 -0.079294964566164361 0 -0.003545476984220653 -0.079265211217267664 0 -0.0035776664531026086 -0.079253495099423296 0 -0.0035648695503421994 -0.079294964566164361 0 -0.0035824318835243956 -0.079287370956671696 0 -0.0035776664531026086 -0.079253495099423296 0 -0.0035824318835243956 -0.079287370956671696 0 -0.0036167016747419016 -0.079241449649424089 0 -0.0035776664531026086 -0.079253495099423296 0 -0.0035776664531026086 -0.079253495099423296 0 -0.0036012567105620751 -0.079211574626198475 0 -0.003561990577957413 -0.079200130361203519 0 -0.0036167016747419016 -0.079241449649424089 0 -0.0035776664531026086 -0.079253495099423296 0 -0.0036012567105620751 -0.079211574626198475 0 -0.003545476984220653 -0.079265211217267664 0 -0.0035776664531026086 -0.079253495099423296 0 -0.003561990577957413 -0.079200130361203519 0 -0.0035199953390112064 -0.079228720302454786 0 -0.003545476984220653 -0.079265211217267664 0 -0.003561990577957413 -0.079200130361203519 0 -0.0094751457684740716 -0.078545133159570152 0 -0.0087591956753038554 -0.076157933892995758 0 -0.015557046531754191 -0.071230473262824903 0 -0.013869036989387882 -0.071081832553980567 0 -0.014732441158600312 -0.072127791663537166 0 -0.013869036989387882 -0.071081832553980567 0 -0.013587337621251906 -0.072231089315747246 0 -0.014732441158600312 -0.072127791663537166 0 -0.017241832971312775 -0.072509504057788388 0 -0.015029148796207672 -0.072891041849283786 0 -0.018335981212153178 -0.070706088057645042 0 -0.017002519305674129 -0.072621129718098892 0 -0.015126595779198832 -0.07187776453312375 0 -0.013587337621251906 -0.072231089315747246 0 -0.014732441158600312 -0.072127791663537166 0 -0.013586022748744573 -0.073261129724841612 0 -0.015823884266686211 -0.073016088399225174 0 -0.014732441158600312 -0.072127791663537166 0 -0.013586022748744573 -0.073261129724841612 0 -0.013586022748744573 -0.073261129724841612 0 -0.012823849581402673 -0.072714446193053506 0 -0.011939512133547592 -0.073348846348452887 0 -0.012823849581402673 -0.072714446193053506 0 -0.012103842300625852 -0.072611375876142734 0 -0.011939512133547592 -0.073348846348452887 0 -0.013587337621251906 -0.072231089315747246 0 -0.012823849581402673 -0.072714446193053506 0 -0.012554030252212732 -0.072012694657772852 0 -0.013587337621251906 -0.072231089315747246 0 -0.013586022748744573 -0.073261129724841612 0 -0.012823849581402673 -0.072714446193053506 0 -0.012823849581402673 -0.072714446193053506 0 -0.012405126286776633 -0.072386820632543508 0 -0.012103842300625852 -0.072611375876142734 0 -0.012823849581402673 -0.072714446193053506 0 -0.012405126286776633 -0.072386820632543508 0 -0.012554030252212732 -0.072012694657772852 0 -0.012405126286776633 -0.072386820632543508 0 -0.012554030252212732 -0.072012694657772852 0 -0.012161417556066017 -0.072202466260762793 0 -0.012554030252212732 -0.072012694657772852 0 -0.012339790086662207 -0.07178422837789164 0 -0.012161417556066017 -0.072202466260762793 0 -0.0036012567105620751 -0.079211574626198475 0 -0.003561990577957413 -0.079200130361203519 0 -0.0036148956208155352 -0.079163615930289921 0 -0.013869036989387882 -0.071081832553980567 0 -0.013587337621251906 -0.072231089315747246 0 -0.012554030252212732 -0.072012694657772852 0 -0.0087591956753038554 -0.076157933892995758 0 -0.007463671987875127 -0.074449856191978567 0 -0.013869036989387882 -0.071081832553980567 0 -0.012554030252212732 -0.072012694657772852 0 -0.012299698415509444 -0.071734043836691727 0 -0.0075381031856554953 -0.074456538563163047 0 -0.007463671987875127 -0.074449856191978567 0 -0.0036370244887220086 -0.079191656122777426 0 -0.0036012567105620751 -0.079211574626198475 0 -0.0036148956208155352 -0.079163615930289921 0 -0.0064683388569111737 -0.074013426528637766 0 -0.0069536664096606455 -0.074550260153952608 0 -0.0062805769232806173 -0.074846225593139748 0 -0.011574376719946758 -0.067623694328528619 0 -0.011122221252567368 -0.069610178985511445 0 -0.0092007854589817063 -0.068443155876898781 0 -0.0061611482960386458 -0.075001536608432215 0 -0.007463671987875127 -0.074449856191978567 0 -0.0061611482960386458 -0.075001536608432215 0 -0.0082994286912176519 -0.073056470956136113 0 -0.012339790086662207 -0.07178422837789164 0 -0.011645764391123891 -0.072064754019814575 0 -0.012161417556066017 -0.072202466260762793 0 -0.007463671987875127 -0.074449856191978567 0 -0.0082994286912176519 -0.073056470956136113 0 -0.011122221252567368 -0.069610178985511445 0 -0.0092007854589817063 -0.068443155876898781 0 -0.0093663961881571799 -0.070384707141421893 0 -0.0092007854589817063 -0.068443155876898781 0 -0.0093663961881571799 -0.070384707141421893 0 -0.0076267305275282372 -0.070417189998890101 0 -0.01112079509212373 -0.069613135056064715 0 -0.0093663961881571799 -0.070384707141421893 0 -0.010515934343802994 -0.072416112296315852 0 -0.0093663961881571799 -0.070384707141421893 0 -0.0090036415286748224 -0.07177658337297646 0 -0.0076267305275282372 -0.070417189998890101 0 -0.0082994286912176519 -0.073056470956136113 0 -0.0088849103136154316 -0.072631598879633663 0 -0.0093663961881571799 -0.070384707141421893 0 -0.0090036415286748224 -0.07177658337297646 0 -0.010515934343802994 -0.072416112296315852 0 -0.0082994286912176519 -0.073056470956136113 0 -0.0091351935853420992 -0.073080100210799706 0 -0.011645764391123891 -0.072064754019814575 0 -0.011689211535399343 -0.07278636172483692 0 -0.011094143229989344 -0.073153142611186717 0 -0.011645764391123891 -0.072064754019814575 0 -0.012103842300625852 -0.072611375876142734 0 -0.012161417556066017 -0.072202466260762793 0 -0.011645764391123891 -0.072064754019814575 0 -0.012103842300625852 -0.072611375876142734 0 -0.011689211535399343 -0.07278636172483692 0 -0.012405126286776633 -0.072386820632543508 0 -0.012103842300625852 -0.072611375876142734 0 -0.012161417556066017 -0.072202466260762793 0 -0.012103842300625852 -0.072611375876142734 0 -0.011689211535399343 -0.07278636172483692 0 -0.011939512133547592 -0.073348846348452887 0 -0.011094143229989344 -0.073153142611186717 0 -0.010014676822651997 -0.07524413295131914 0 -0.011534422444875857 -0.074654981176463339 0 -0.011689211535399343 -0.07278636172483692 0 -0.011939512133547592 -0.073348846348452887 0 -0.011094143229989344 -0.073153142611186717 0 -0.011939512133547592 -0.073348846348452887 0 -0.011094143229989344 -0.073153142611186717 0 -0.011534422444875857 -0.074654981176463339 0 -0.011939512133547592 -0.073348846348452887 0 -0.011534422444875857 -0.074654981176463339 0 -0.012684565968022827 -0.074522637809954453 0 -0.0091351935853420992 -0.073080100210799706 0 -0.0092193798770373661 -0.073733798120010963 0 -0.010515934343802994 -0.072416112296315852 0 -0.0090387936792920773 -0.073209093063732925 0 -0.010014676822651997 -0.07524413295131914 0 -0.0090036415286748224 -0.07177658337297646 0 -0.0090387936792920773 -0.073209093063732925 0 -0.0078201651618353355 -0.072508938204054421 0 -0.0090036415286748224 -0.07177658337297646 0 -0.010515934343802994 -0.072416112296315852 0 -0.0090387936792920773 -0.073209093063732925 0 -0.010014676822651997 -0.07524413295131914 0 -0.0079299485347412869 -0.074346882808732959 0 -0.0086832726847576019 -0.076902285901419634 0 -0.0090387936792920773 -0.073209093063732925 0 -0.010014676822651997 -0.07524413295131914 0 -0.0079299485347412869 -0.074346882808732959 0 -0.011534422444875857 -0.074654981176463339 0 -0.012627477204985827 -0.075721483251558225 0 -0.012684565968022827 -0.074522637809954453 0 -0.010014676822651997 -0.07524413295131914 0 -0.011534422444875857 -0.074654981176463339 0 -0.011050695405445394 -0.076513362402594293 0 -0.011534422444875857 -0.074654981176463339 0 -0.012627477204985827 -0.075721483251558225 0 -0.011050695405445394 -0.076513362402594293 0 -0.012627477204985827 -0.075721483251558225 0 -0.013756696719326004 -0.07518660810625627 0 -0.013825754964125418 -0.076343869694981026 0 -0.012627477204985827 -0.075721483251558225 0 -0.012684565968022827 -0.074522637809954453 0 -0.013756696719326004 -0.07518660810625627 0 -0.012684565968022827 -0.074522637809954453 0 -0.013756696719326004 -0.07518660810625627 0 -0.013913800696716397 -0.073862499465868606 0 -0.013756696719326004 -0.07518660810625627 0 -0.014982110148483933 -0.074846182530796015 0 -0.013913800696716397 -0.073862499465868606 0 -0.013756696719326004 -0.07518660810625627 0 -0.014877303645997835 -0.075974872397682344 0 -0.014982110148483933 -0.074846182530796015 0 -0.013756696719326004 -0.07518660810625627 0 -0.014877303645997835 -0.075974872397682344 0 -0.013825754964125418 -0.076343869694981026 0 -0.014877303645997835 -0.075974872397682344 0 -0.016120030633756974 -0.075496346055340474 0 -0.014982110148483933 -0.074846182530796015 0 -0.014877303645997835 -0.075974872397682344 0 -0.016120030633756974 -0.075496346055340474 0 -0.016009365415120644 -0.076410987791273935 0 -0.017091021949556248 -0.076019354580865117 0 -0.016120030633756974 -0.075496346055340474 0 -0.016009365415120644 -0.076410987791273935 0 -0.017258733829116402 -0.075088586685629066 0 -0.017091021949556248 -0.076019354580865117 0 -0.016120030633756974 -0.075496346055340474 0 -0.017258733829116402 -0.075088586685629066 0 -0.016120030633756974 -0.075496346055340474 0 -0.016090811974324614 -0.074609862983440647 0 -0.01713979270999948 -0.07387015130428691 0 -0.017258733829116402 -0.075088586685629066 0 -0.016090811974324614 -0.074609862983440647 0 -0.016090811974324614 -0.074609862983440647 0 -0.014982110148483933 -0.074846182530796015 0 -0.015662070421913449 -0.07359428976632168 0 -0.016120030633756974 -0.075496346055340474 0 -0.016090811974324614 -0.074609862983440647 0 -0.014982110148483933 -0.074846182530796015 0 -0.014982110148483933 -0.074846182530796015 0 -0.015662070421913449 -0.07359428976632168 0 -0.013913800696716397 -0.073862499465868606 0 -0.01713979270999948 -0.07387015130428691 0 -0.016090811974324614 -0.074609862983440647 0 -0.015662070421913449 -0.07359428976632168 0 -0.017002519305674129 -0.072621129718098892 0 -0.01713979270999948 -0.07387015130428691 0 -0.015662070421913449 -0.07359428976632168 0 -0.017002519305674129 -0.072621129718098892 0 -0.015126595779198832 -0.07187776453312375 0 -0.015662070421913449 -0.07359428976632168 0 -0.015126595779198832 -0.07187776453312375 0 -0.015662070421913449 -0.07359428976632168 0 -0.013913800696716397 -0.073862499465868606 0 -0.015126595779198832 -0.07187776453312375 0 -0.011939512133547592 -0.073348846348452887 0 -0.013913800696716397 -0.073862499465868606 0 -0.015029148796207672 -0.072891041849283786 0 -0.013831004767149935 -0.073195983365708664 0 -0.011939512133547592 -0.073348846348452887 0 -0.012684565968022827 -0.074522637809954453 0 -0.013913800696716397 -0.073862499465868606 0 -0.0028237864239334903 -0.073919281808219661 0 -0.0053383995187447032 -0.071993152461421475 0 -0.0014628595466639736 -0.071083768068048447 0 -0.00032677911768074511 -0.073854928282961488 0 -0.0014628595466639736 -0.071083768068048447 0 0.0019955612087441412 -0.073000101487859834 0 -0.00032677911768074511 -0.073854928282961488 0 -0.0028237864239334903 -0.073919281808219661 0 -0.0014628595466639736 -0.071083768068048447 0 -0.00032677911768074511 -0.073854928282961488 0 -0.0028237864239334903 -0.073919281808219661 0 -0.00042637095927450187 -0.07625555087488585 0 -0.0028237864239334903 -0.073919281808219661 0 -0.0030963821310524301 -0.076096107749746275 0 -0.00042637095927450187 -0.07625555087488585 0 -0.006020078467066029 -0.074798319857778434 0 -0.0055539311475451079 -0.072296002137584692 0 -0.0028237864239334903 -0.073919281808219661 0 -0.0059808650267578383 -0.07493654676596799 0 -0.0053383995187447032 -0.071993152461421475 0 -0.0028237864239334903 -0.073919281808219661 0 -0.0059808650267578383 -0.07493654676596799 0 -0.0030963821310524301 -0.076096107749746275 0 -0.0063407703602121048 -0.075550268266131496 0 -0.0079299485347412869 -0.074346882808732959 0 -0.0086832726847576019 -0.076902285901419634 0 -0.0063407703602121048 -0.075550268266131496 0 -0.0079299485347412869 -0.074346882808732959 0 -0.0057364334940137847 -0.07258113908124661 0 -0.0079299485347412869 -0.074346882808732959 0 -0.0078201651618353355 -0.072508938204054421 0 -0.0057364334940137847 -0.07258113908124661 0 -0.0090387936792920773 -0.073209093063732925 0 -0.0079299485347412869 -0.074346882808732959 0 -0.0078201651618353355 -0.072508938204054421 0 -0.0055539311475451079 -0.072296002137584692 0 -0.0050954389893182236 -0.069813374037002704 0 -0.0053383995187447032 -0.071993152461421475 0 -0.0048023117833559175 -0.069178927252983344 0 -0.0014628595466639736 -0.071083768068048447 0 -0.0078201651618353355 -0.072508938204054421 0 -0.0057364334940137847 -0.07258113908124661 0 -0.0076267305275282372 -0.070417189998890101 0 -0.0057364334940137847 -0.07258113908124661 0 -0.0076267305275282372 -0.070417189998890101 0 -0.0050966648347103433 -0.069536686241771367 0 -0.0090036415286748224 -0.07177658337297646 0 -0.0078201651618353355 -0.072508938204054421 0 -0.0076267305275282372 -0.070417189998890101 0 -0.0076267305275282372 -0.070417189998890101 0 -0.0050966648347103433 -0.069536686241771367 0 -0.0068440524248998061 -0.06763667710522106 0 -0.0092007854589817063 -0.068443155876898781 0 -0.0076267305275282372 -0.070417189998890101 0 -0.0068440524248998061 -0.06763667710522106 0 -0.0050954389893182236 -0.069813374037002704 0 -0.0048561352704129838 -0.068483601288577917 0 -0.0050966648347103433 -0.069536686241771367 0 -0.0068440524248998061 -0.06763667710522106 0 -0.0044213587190303789 -0.066392660771271539 0 -0.0048023117833559175 -0.069178927252983344 0 -0.0021972374886828987 -0.068560232872283952 0 -0.0044213587190303789 -0.066392660771271539 0 -0.0048023117833559175 -0.069178927252983344 0 -0.0021972374886828987 -0.068560232872283952 0 -0.0014628595466639736 -0.071083768068048447 0 0.0037838573986969711 -0.071441631385247562 0 0.0066392895662166253 -0.069985850869927632 0 -0.0021972374886828987 -0.068560232872283952 0 -0.0014628595466639736 -0.071083768068048447 0 0.00039259891302292693 -0.068107185066805742 0 -0.0021972374886828987 -0.068560232872283952 0 -0.0013888015444570572 -0.066057207176946728 0 0.00039259891302292693 -0.068107185066805742 0 -0.0013888015444570572 -0.066057207176946728 0 0.00054477854915152015 -0.06551938537198386 0 0.00077233972398430537 -0.068495380773843234 0 0.003758111767508687 -0.0676205918770965 0 0.0066392895662166253 -0.069985850869927632 0 -0.0021972374886828987 -0.068560232872283952 0 -0.0013888015444570572 -0.066057207176946728 0 -0.0044213587190303789 -0.066392660771271539 0 -0.0013888015444570572 -0.066057207176946728 0 -0.0044213587190303789 -0.066392660771271539 0 -0.0033846279713496356 -0.062952914205838442 0 0.011001223721680378 -0.076951253104719855 0 0.0067520058156501587 -0.077999760335518586 0 -0.0013888015444570572 -0.066057207176946728 0 -9.9132133857076884e-05 -0.063636856781834478 0 -0.0033846279713496356 -0.062952914205838442 0 -0.0013888015444570572 -0.066057207176946728 0 0.00054477854915152015 -0.06551938537198386 0 -9.9132133857076884e-05 -0.063636856781834478 0 -0.0091322551746849129 -0.064923213503433289 0 -0.0068440524248998061 -0.06763667710522106 0 -0.0066198724062808151 -0.065137277919555231 0 -0.0068440524248998061 -0.06763667710522106 0 -0.0044213587190303789 -0.066392660771271539 0 -0.0066198724062808151 -0.065137277919555231 0 -0.0044213587190303789 -0.066392660771271539 0 -0.0066198724062808151 -0.065137277919555231 0 -0.0033846279713496356 -0.062952914205838442 0 -0.0066198724062808151 -0.065137277919555231 0 -0.0066587072909320725 -0.062236422866827713 0 -0.0033846279713496356 -0.062952914205838442 0 -0.0021764300164251733 -0.076145309251143101 0 0.0038623936874651512 -0.080115841626603818 0 -0.0091322551746849129 -0.064923213503433289 0 -0.0066198724062808151 -0.065137277919555231 0 -0.0066587072909320725 -0.062236422866827713 0 0.0090781797659508934 -0.08778359658439204 0 0.012402806484940581 -0.088994878724515364 0 0.012607024577122643 -0.086450904664197054 0 0.012409192792472993 -0.088952338118887225 0 0.015578660331327276 -0.087893893954521879 0 0.016369053218743417 -0.089836452370985684 0 0.0038623936874651512 -0.080115841626603818 0 0.0067520058156501587 -0.077999760335518586 0 0.0038623936874651512 -0.080115841626603818 0 0.0072747514274350833 -0.081087471095276434 0 0.015253608337440315 -0.084999967158404077 0 0.015600940028560389 -0.085476261156573863 0 0.012607024577122643 -0.086450904664197054 0 0.012409192792472993 -0.088952338118887225 0 0.015578660331327276 -0.087893893954521879 0 0.015600940028560389 -0.085476261156573863 0 0.012402806484940581 -0.088994878724515364 0 0.015600940028560389 -0.085476261156573863 0 0.012607024577122643 -0.086450904664197054 0 0.015253608337440315 -0.084999967158404077 0 0.010696263006654128 -0.084999988988887512 0 0.012607024577122643 -0.086450904664197054 0 0.0090781797659508934 -0.08778359658439204 0 0.010696263006654128 -0.084999988988887512 0 0.012607024577122643 -0.086450904664197054 0 0.020333983365785808 -0.090703322023419228 0 0.017939242830757575 -0.0873112753504455 0 0.020925462145087385 -0.087596653773626687 0 0.020333983365785808 -0.090703322023419228 0 0.016369053218743417 -0.089836452370985684 0 0.017939242830757575 -0.0873112753504455 0 0.015578660331327276 -0.087893893954521879 0 0.016369053218743417 -0.089836452370985684 0 0.017939242830757575 -0.0873112753504455 0 0.015253608337440315 -0.084999967158404077 0 0.015600940028560389 -0.085476261156573863 0 0.019810937199381606 -0.084999976350073905 0 0.015600940028560389 -0.085476261156573863 0 0.017939242830757575 -0.0873112753504455 0 0.019810937199381606 -0.084999976350073905 0 0.015578660331327276 -0.087893893954521879 0 0.015600940028560389 -0.085476261156573863 0 0.017939242830757575 -0.0873112753504455 0 0.017939242830757575 -0.0873112753504455 0 0.019810937199381606 -0.084999976350073905 0 0.020925462145087385 -0.087596653773626687 0 0.019810937199381606 -0.084999976350073905 0 0.020925462145087385 -0.087596653773626687 0 0.024368303907879658 -0.084999955219382459 0 0.020925462145087385 -0.087596653773626687 0 0.023440611413096703 -0.088273917206417293 0 0.024368303907879658 -0.084999955219382459 0 0.020333983365785808 -0.090703322023419228 0 0.020925462145087385 -0.087596653773626687 0 0.023440611413096703 -0.088273917206417293 0 0.020333983365785808 -0.090703322023419228 0 0.023440611413096703 -0.088273917206417293 0 0.024295902830304781 -0.091569779647958122 0 0.026828132915161861 -0.087567487236687003 0 0.02838669320903171 -0.089979137967881831 0 0.024438789201433123 -0.091410965050950463 0 0.018186525163741585 -0.08167984208808135 0 0.017337908407808002 -0.076157884389012484 0 0.023440611413096703 -0.088273917206417293 0 0.026828132915161861 -0.087567487236687003 0 0.024295902830304781 -0.091569779647958122 0 0.023440611413096703 -0.088273917206417293 0 0.024368303907879658 -0.084999955219382459 0 0.026828132915161861 -0.087567487236687003 0 0.026828132915161861 -0.087567487236687003 0 0.028925609564870704 -0.084999980654162755 0 0.0304340497710772 -0.086696228402736053 0 0.024368303907879658 -0.084999955219382459 0 0.026828132915161861 -0.087567487236687003 0 0.028925609564870704 -0.084999980654162755 0 0.026828132915161861 -0.087567487236687003 0 0.0304340497710772 -0.086696228402736053 0 0.030409870733829218 -0.08856906465982306 0 0.028925609564870704 -0.084999980654162755 0 0.0304340497710772 -0.086696228402736053 0 0.033482924487287152 -0.08499996471690463 0 0.0304340497710772 -0.086696228402736053 0 0.030409870733829218 -0.08856906465982306 0 0.032565623334070669 -0.087336346601192147 0 0.032816614239266177 -0.087367024532670867 0 0.033343095444365672 -0.087317901282887869 0 0.030409870733829218 -0.08856906465982306 0 0.031743364959860229 -0.090624866026462178 0 0.032927891153524493 -0.08951212027406473 0 0.030409870733829218 -0.08856906465982306 0 0.029702795431034473 -0.090084134947018502 0 0.02838669320903171 -0.089979137967881831 0 0.030409870733829218 -0.08856906465982306 0 0.029702795431034473 -0.090084134947018502 0 0.030743505770195727 -0.090683675945061354 0 0.030409870733829218 -0.08856906465982306 0 0.031743364959860229 -0.090624866026462178 0 0.030743505770195727 -0.090683675945061354 0 0.026828132915161861 -0.087567487236687003 0 0.030409870733829218 -0.08856906465982306 0 0.02838669320903171 -0.089979137967881831 0 0.02418365092051691 -0.077987524181878029 0 0.029981728796287705 -0.079834918067691427 0 0.02838669320903171 -0.089979137967881831 0 0.027045724960764676 -0.09200019864356046 0 0.024438789201433123 -0.091410965050950463 0 0.027045724960764676 -0.09200019864356046 0 0.029265461097868598 -0.091103794412217776 0 0.029658384814322019 -0.092581585632831878 0 0.029702795431034473 -0.090084134947018502 0 0.02838669320903171 -0.089979137967881831 0 0.029265461097868598 -0.091103794412217776 0 0.02838669320903171 -0.089979137967881831 0 0.027045724960764676 -0.09200019864356046 0 0.029265461097868598 -0.091103794412217776 0 0.031757366866744248 -0.090627343804504379 0 0.030743505770195727 -0.090683675945061354 0 0.029658384814322019 -0.092581585632831878 0 0.031916207139315013 -0.086381384970148578 0 0.031856922120834984 -0.08644851867925471 0 0.029702795431034473 -0.090084134947018502 0 0.030743505770195727 -0.090683675945061354 0 0.029265461097868598 -0.091103794412217776 0 0.030743505770195727 -0.090683675945061354 0 0.029265461097868598 -0.091103794412217776 0 0.029658384814322019 -0.092581585632831878 0 0.031916207139315013 -0.086381384970148578 0 0.029981728796287705 -0.079834918067691427 0 0.027074120059001811 -0.062599736004025713 0 0.028841494250247793 -0.065354426227843418 0 0.03254113610662155 -0.063637986512674286 0 0.027074120059001811 -0.062599736004025713 0 0.028841494250247793 -0.065354426227843418 0 0.02441728174581935 -0.065209971615413795 0 0.023856780337576825 -0.062245403515302153 0 0.02441728174581935 -0.065209971615413795 0 0.022026477310550512 -0.064393488276376185 0 0.023856780337576825 -0.062245403515302153 0 0.02686407118024127 -0.062936407927961804 0 0.02441728174581935 -0.065209971615413795 0 0.029981728796287705 -0.079834918067691427 0 0.030803757543617249 -0.076738046554994596 0 0.02441728174581935 -0.065209971615413795 0 0.022026477310550512 -0.064393488276376185 0 0.023565856859856422 -0.067181037393410775 0 0.022026477310550512 -0.064393488276376185 0 0.020654827885057802 -0.066193824895994985 0 0.023565856859856422 -0.067181037393410775 0 0.022026477310550512 -0.064393488276376185 0 0.019053793476775389 -0.064281401988715403 0 0.020775705774378348 -0.061558970124410521 0 0.022026477310550512 -0.064393488276376185 0 0.019053793476775389 -0.064281401988715403 0 0.020654827885057802 -0.066193824895994985 0 0.00054477854915152015 -0.06551938537198386 0 0.0020528761535681082 -0.06642279652891063 0 0.00077233972398430537 -0.068495380773843234 0 0.019053793476775389 -0.064281401988715403 0 0.017311635636876051 -0.067051757216268965 0 0.020654827885057802 -0.066193824895994985 0 0.012567077267005591 -0.071106038969023233 0 0.0066392895662166253 -0.069985850869927632 0 0.00054477854915152015 -0.06551938537198386 0 0.0020528761535681082 -0.06642279652891063 0 0.0033406917419083171 -0.064374510718543151 0 0.011001223721680378 -0.076951253104719855 0 0.017337908407808002 -0.076157884389012484 0 0.00054477854915152015 -0.06551938537198386 0 -9.9132133857076884e-05 -0.063636856781834478 0 0.0033406917419083171 -0.064374510718543151 0 0.012567077267005591 -0.071106038969023233 0 0.017337908407808002 -0.076157884389012484 0 0.02418365092051691 -0.077987524181878029 0 0.017337908407808002 -0.076157884389012484 0 0.023856780337576825 -0.062245403515302153 0 0.022026477310550512 -0.064393488276376185 0 0.020775705774378348 -0.061558970124410521 0 0.039882347030517677 -0.08914755248536671 0 0.041854862119346442 -0.0892535734285064 0 0.041961327037835908 -0.087951228299493756 0 0.040190983003724305 -0.09012928520877192 0 0.044495267572864976 -0.089856205392472507 0 0.041961327037835908 -0.087951228299493756 0 0.038908394222206051 -0.087636601487049104 0 0.040190983003724305 -0.09012928520877192 0 0.041961327037835908 -0.087951228299493756 0 0.041843584274954014 -0.084999901242050646 0 0.038908394222206051 -0.087636601487049104 0 0.041839554043551531 -0.085001813736867687 0 0.038666857842320344 -0.087077372173097189 0 0.038040397483963893 -0.084999988544090951 0 0.038674800871052899 -0.087707545392650882 0 0.035666701369705803 -0.087263848062593588 0 0.041843015812086104 -0.084999991653216284 0 0.038040397483963893 -0.084999988544090951 0 0.038674800871052899 -0.087707545392650882 0 0.03775569049409061 -0.089597821369248543 0 0.036044622909230502 -0.090343799347429476 0 0.040190983003724305 -0.09012928520877192 0 0.038908394222206051 -0.087636601487049104 0 0.03775569049409061 -0.089597821369248543 0 0.035792001904907521 -0.090357883230996416 0 0.038908394222206051 -0.087636601487049104 0 0.03775569049409061 -0.089597821369248543 0 0.040190983003724305 -0.09012928520877192 0 0.038666857842320344 -0.087077372173097189 0 0.035863597288326672 -0.088416894868538098 0 0.035666701369705803 -0.087263848062593588 0 0.033306845976848388 -0.089481950713664854 0 0.035529849483531932 -0.0904241520509734 0 0.038674800871052899 -0.087707545392650882 0 0.035666701369705803 -0.087263848062593588 0 0.035529849483531932 -0.0904241520509734 0 0.038040289457615811 -0.085000002623756746 0 0.035569202417380985 -0.087295374855652377 0 0.033482924487287152 -0.08499996471690463 0 0.038036528414828706 -0.085001406097675189 0 0.035503488899846072 -0.086484644505241418 0 0.035569202417380985 -0.087295374855652377 0 0.033482924487287152 -0.08499996471690463 0 0.032565623334070669 -0.087336346601192147 0 0.0304340497710772 -0.086696228402736053 0 0.033482924487287152 -0.08499996471690463 0 0.032565623334070669 -0.087336346601192147 0 0.035569202417380985 -0.087295374855652377 0 0.032565623334070669 -0.087336346601192147 0 0.033099719218430933 -0.089593474751408927 0 0.030409870733829218 -0.08856906465982306 0 0.032565623334070669 -0.087336346601192147 0 0.033099719218430933 -0.089593474751408927 0 0.035503488899846072 -0.086484644505241418 0 0.033343095444365672 -0.087317901282887869 0 0.033343095444365672 -0.087317901282887869 0 0.035863597288326672 -0.088416894868538098 0 0.031916207139315013 -0.086381384970148578 0 0.033343095444365672 -0.087317901282887869 0 0.032092978425197344 -0.089880964174961761 0 0.034346438067257387 -0.090837720864787252 0 0.035651633404829651 -0.089700291317955302 0 0.032092978425197344 -0.089880964174961761 0 0.029939576290943824 -0.091881191366786366 0 0.034335899434009706 -0.092889619342796825 0 0.032092978425197344 -0.089880964174961761 0 0.034346438067257387 -0.090837720864787252 0 0.034335899434009706 -0.092889619342796825 0 0.033185130923283533 -0.087174795450335574 0 0.033516166265219138 -0.086867846889674027 0 0.034130253503495481 -0.087127576140075561 0 0.031916207139315013 -0.086381384970148578 0 0.035863597288326672 -0.088416894868538098 0 0.029981728796287705 -0.079834918067691427 0 0.033663340091298691 -0.07933680455240634 0 0.034335899434009706 -0.092889619342796825 0 0.036370987539449257 -0.09188636037817445 0 0.038757542216667384 -0.093923710828631934 0 0.033663340091298691 -0.07933680455240634 0 0.038549267695632251 -0.079742418976845586 0 0.03254113610662155 -0.063637986512674286 0 0.038278022474489456 -0.064749443319048916 0 0.035936537334300724 -0.068932948590065213 0 0.03738937999306817 -0.091130216206875697 0 0.036370987539449257 -0.09188636037817445 0 0.035923958288884297 -0.090588367164427627 0 0.03738937999306817 -0.091130216206875697 0 0.036370987539449257 -0.09188636037817445 0 0.038239878242115756 -0.092023189488515886 0 0.034346438067257387 -0.090837720864787252 0 0.036370987539449257 -0.09188636037817445 0 0.035923958288884297 -0.090588367164427627 0 0.034346438067257387 -0.090837720864787252 0 0.034335899434009706 -0.092889619342796825 0 0.036370987539449257 -0.09188636037817445 0 0.034346438067257387 -0.090837720864787252 0 0.035923958288884297 -0.090588367164427627 0 0.035652957851514941 -0.089706446677537327 0 0.035641107983818372 -0.088655909579316988 0 0.035863597288326672 -0.088416894868538098 0 0.035923958288884297 -0.090588367164427627 0 0.035652957851514941 -0.089706446677537327 0 0.035917053985630686 -0.089690903070498609 0 0.035863597288326672 -0.088416894868538098 0 0.036306305372706009 -0.088575123517367044 0 0.03775569049409061 -0.089597821369248543 0 0.035792001904907521 -0.090357883230996416 0 0.036044622909230502 -0.090343799347429476 0 0.03738937999306817 -0.091130216206875697 0 0.035923958288884297 -0.090588367164427627 0 0.035917053985630686 -0.089690903070498609 0 0.036306305372706009 -0.088575123517367044 0 0.040449800464485035 -0.090843045318141497 0 0.036803888137305146 -0.090265171037924433 0 0.04086637567146003 -0.091788776758554097 0 0.040651598551380438 -0.090063183882071907 0 0.03738937999306817 -0.091130216206875697 0 0.035917053985630686 -0.089690903070498609 0 0.040495097950806837 -0.091462617031368654 0 0.03738937999306817 -0.091130216206875697 0 0.038239878242115756 -0.092023189488515886 0 0.040495097950806837 -0.091462617031368654 0 0.036306305372706009 -0.088575123517367044 0 0.039882347030517677 -0.08914755248536671 0 0.036370987539449257 -0.09188636037817445 0 0.038239878242115756 -0.092023189488515886 0 0.038757542216667384 -0.093923710828631934 0 0.038239878242115756 -0.092023189488515886 0 0.038757542216667384 -0.093923710828631934 0 0.040495097950806837 -0.091462617031368654 0 0.038549267695632251 -0.079742418976845586 0 0.043615242596162659 -0.080433374323273771 0 0.038757542216667384 -0.093923710828631934 0 0.040495097950806837 -0.091462617031368654 0 0.043169149755467325 -0.094969670858901969 0 0.04086637567146003 -0.091788776758554097 0 0.040651598551380438 -0.090063183882071907 0 0.044495267572864976 -0.089856205392472507 0 0.040691589084300442 -0.069807142087416812 0 0.041571756648230859 -0.073260621641391216 0 0.044625322561952521 -0.071446567039486333 0 0.040691589084300442 -0.069807142087416812 0 0.038597236540152513 -0.07233371234474896 0 0.041571756648230859 -0.073260621641391216 0 0.040691589084300442 -0.069807142087416812 0 0.044116899324085634 -0.065941224109219695 0 0.044625322561952521 -0.071446567039486333 0 0.038278022474489456 -0.064749443319048916 0 0.040691589084300442 -0.069807142087416812 0 0.044116899324085634 -0.065941224109219695 0 0.038278022474489456 -0.064749443319048916 0 0.040691589084300442 -0.069807142087416812 0 0.035936537334300724 -0.068932948590065213 0 0.040691589084300442 -0.069807142087416812 0 0.038597236540152513 -0.07233371234474896 0 0.035936537334300724 -0.068932948590065213 0 0.038597236540152513 -0.07233371234474896 0 0.035936537334300724 -0.068932948590065213 0 0.035130009551549754 -0.072892746040259998 0 0.035936537334300724 -0.068932948590065213 0 0.030633369454734941 -0.069482665329831009 0 0.035130009551549754 -0.072892746040259998 0 0.03254113610662155 -0.063637986512674286 0 0.035936537334300724 -0.068932948590065213 0 0.030633369454734941 -0.069482665329831009 0 0.028841494250247793 -0.065354426227843418 0 0.03254113610662155 -0.063637986512674286 0 0.030633369454734941 -0.069482665329831009 0 0.033977819794527853 -0.069957076976223304 0 0.035799819708994644 -0.07074392864521474 0 0.030633369454734941 -0.069482665329831009 0 0.031542027309610879 -0.073077181432405214 0 0.029174754469150046 -0.072945228991912234 0 0.030633369454734941 -0.069482665329831009 0 0.031542027309610879 -0.073077181432405214 0 0.034489560935078517 -0.072486239435663513 0 0.031542027309610879 -0.073077181432405214 0 0.030543104640171719 -0.074919700103998607 0 0.029174754469150046 -0.072945228991912234 0 0.031542027309610879 -0.073077181432405214 0 0.030543104640171719 -0.074919700103998607 0 0.033343447486842107 -0.074715564292018768 0 0.027353297013463732 -0.072588332877392539 0 0.021683843070912538 -0.074131244684239733 0 0.02503055326899838 -0.073389603356795743 0 0.025064436348864984 -0.07338615520459571 0 0.025036220327499813 -0.073349196035184763 0 0.02503055326899838 -0.073389603356795743 0 0.025008978096401978 -0.07336143827015644 0 0.025036220327499813 -0.073349196035184763 0 0.030543104640171719 -0.074919700103998607 0 0.032249479292358808 -0.076584408486598129 0 0.02865185600245071 -0.077288431037343938 0 0.030543104640171719 -0.074919700103998607 0 0.032249479292358808 -0.076584408486598129 0 0.033343447486842107 -0.074715564292018768 0 0.027353297013463732 -0.072588332877392539 0 0.031799520254131193 -0.070503554666741103 0 0.024993149492819014 -0.07339435904025593 0 0.02497521498821241 -0.073343503310355301 0 0.025008978096401978 -0.07336143827015644 0 0.032249479292358808 -0.076584408486598129 0 0.033343447486842107 -0.074715564292018768 0 0.035774149614030866 -0.075890965970286522 0 0.02503055326899838 -0.073389603356795743 0 0.024993149492819014 -0.07339435904025593 0 0.025008978096401978 -0.07336143827015644 0 0.035684732709992673 -0.075152829161153317 0 0.033343447486842107 -0.074715564292018768 0 0.035774149614030866 -0.075890965970286522 0 0.035684732709992673 -0.075152829161153317 0 0.033343447486842107 -0.074715564292018768 0 0.034489560935078517 -0.072486239435663513 0 0.031542027309610879 -0.073077181432405214 0 0.033343447486842107 -0.074715564292018768 0 0.034489560935078517 -0.072486239435663513 0 0.038597236540152513 -0.07233371234474896 0 0.039651956239708561 -0.076285020917819552 0 0.041571756648230859 -0.073260621641391216 0 0.035684732709992673 -0.075152829161153317 0 0.034489560935078517 -0.072486239435663513 0 0.038352617316348502 -0.075403383207261088 0 0.038597236540152513 -0.07233371234474896 0 0.035130009551549754 -0.072892746040259998 0 0.039651956239708561 -0.076285020917819552 0 0.035799819708994644 -0.07074392864521474 0 0.037421789411380947 -0.069857521812349541 0 0.031799520254131193 -0.070503554666741103 0 0.037421789411380947 -0.069857521812349541 0 0.031799520254131193 -0.070503554666741103 0 0.028336640541325068 -0.071059866010362169 0 0.035684732709992673 -0.075152829161153317 0 0.035770789488702721 -0.075876626743727471 0 0.038352617316348502 -0.075403383207261088 0 0.037225626194736496 -0.065101441862848192 0 0.037465554729678163 -0.065477938071950667 0 0.037331909763786718 -0.066018794826358557 0 0.037225626194736496 -0.065101441862848192 0 0.037465554729678163 -0.065477938071950667 0 0.037854351062594986 -0.064995853123120007 0 0.031833952003648823 -0.070625795169428102 0 0.031799520254131193 -0.070503554666741103 0 0.038081513109264553 -0.066583282884613904 0 0.038751516334267606 -0.067078720258543501 0 0.040315081828567752 -0.065738079589839876 0 0.040725006983892732 -0.065652897975092259 0 0.040714674343751013 -0.066018693775921566 0 0.037465554729678163 -0.065477938071950667 0 0.037854351062594986 -0.064995853123120007 0 0.038785405688870567 -0.065702058668259761 0 0.037421789411380947 -0.069857521812349541 0 0.038751516334267606 -0.067078720258543501 0 0.041571756648230859 -0.073260621641391216 0 0.044625322561952521 -0.071446567039486333 0 0.044285095967153382 -0.075430918303084862 0 0.037421789411380947 -0.069857521812349541 0 0.041857961872174831 -0.069894127464468353 0 0.039651956239708561 -0.076285020917819552 0 0.041571756648230859 -0.073260621641391216 0 0.044285095967153382 -0.075430918303084862 0 0.020474942801381301 -0.070580337595040968 0 0.0227499138444184 -0.070430987071026144 0 0.021372529997973583 -0.068415839129450817 0 0.0227499138444184 -0.070430987071026144 0 0.021372529997973583 -0.068415839129450817 0 0.023650912693193755 -0.069291399392026803 0 0.020474942801381301 -0.070580337595040968 0 0.0227499138444184 -0.070430987071026144 0 0.023267472465503272 -0.072591818421780085 0 -0.0014628595466639736 -0.071083768068048447 0 0.0027252430140302852 -0.070216772109937126 0 0.00057076940708157315 -0.067815953468635101 0 0.020474942801381301 -0.070580337595040968 0 0.017311635636876051 -0.067051757216268965 0 0.021372529997973583 -0.068415839129450817 0 0.017311635636876051 -0.067051757216268965 0 0.020654827885057802 -0.066193824895994985 0 0.021372529997973583 -0.068415839129450817 0 0.01039167119375551 -0.071435918394223127 0 0.0066392895662166253 -0.069985850869927632 0 0.021372529997973583 -0.068415839129450817 0 0.023565856859856422 -0.067181037393410775 0 0.023650912693193755 -0.069291399392026803 0 0.020654827885057802 -0.066193824895994985 0 0.021372529997973583 -0.068415839129450817 0 0.023565856859856422 -0.067181037393410775 0 0.023565856859856422 -0.067181037393410775 0 0.02712476017208592 -0.067649705328179668 0 0.025435146252485264 -0.069217365007221962 0 0.02441728174581935 -0.065209971615413795 0 0.023565856859856422 -0.067181037393410775 0 0.02712476017208592 -0.067649705328179668 0 0.023565856859856422 -0.067181037393410775 0 0.023650912693193755 -0.069291399392026803 0 0.025435146252485264 -0.069217365007221962 0 0.028841494250247793 -0.065354426227843418 0 0.02441728174581935 -0.065209971615413795 0 0.02712476017208592 -0.067649705328179668 0 0.028841494250247793 -0.065354426227843418 0 0.030633369454734941 -0.069482665329831009 0 0.02712476017208592 -0.067649705328179668 0 0.030633369454734941 -0.069482665329831009 0 0.02712476017208592 -0.067649705328179668 0 0.027234630850810813 -0.071086504902733993 0 0.030633369454734941 -0.069482665329831009 0 0.027234630850810813 -0.071086504902733993 0 0.029174754469150046 -0.072945228991912234 0 0.02712476017208592 -0.067649705328179668 0 0.027234630850810813 -0.071086504902733993 0 0.025435146252485264 -0.069217365007221962 0 0.0227499138444184 -0.070430987071026144 0 0.023650912693193755 -0.069291399392026803 0 0.024722294532130946 -0.070925839391288339 0 0.023650912693193755 -0.069291399392026803 0 0.025435146252485264 -0.069217365007221962 0 0.024722294532130946 -0.070925839391288339 0 0.027234630850810813 -0.071086504902733993 0 0.025435146252485264 -0.069217365007221962 0 0.024722294532130946 -0.070925839391288339 0 0.027234630850810813 -0.071086504902733993 0 0.024722294532130946 -0.070925839391288339 0 0.025714360941493923 -0.072622186919786946 0 0.024722294532130946 -0.070925839391288339 0 0.025714360941493923 -0.072622186919786946 0 0.023267472465503272 -0.072591818421780085 0 0.0227499138444184 -0.070430987071026144 0 0.024722294532130946 -0.070925839391288339 0 0.023267472465503272 -0.072591818421780085 0 0.023434782887194687 -0.074882271657681687 0 0.023399805621147577 -0.074603619571650709 0 0.025714360941493923 -0.072622186919786946 0 0.025995734905160436 -0.074996680260591253 0 0.027293430524884511 -0.073374024961636475 0 0.025714360941493923 -0.072622186919786946 0 0.025995734905160436 -0.074996680260591253 0 0.023267472465503272 -0.072591818421780085 0 0.025518962413884429 -0.074700157350344715 0 0.023541585534324876 -0.073961813611202007 0 0.023267472465503272 -0.072591818421780085 0 0.029174754469150046 -0.072945228991912234 0 0.027293430524884511 -0.073374024961636475 0 0.02824021916957381 -0.074907940508619014 0 0.027234630850810813 -0.071086504902733993 0 0.029174754469150046 -0.072945228991912234 0 0.027293430524884511 -0.073374024961636475 0 0.027234630850810813 -0.071086504902733993 0 0.025714360941493923 -0.072622186919786946 0 0.027293430524884511 -0.073374024961636475 0 0.025995734905160436 -0.074996680260591253 0 0.027293430524884511 -0.073374024961636475 0 0.02824021916957381 -0.074907940508619014 0 0.030543104640171719 -0.074919700103998607 0 0.029174754469150046 -0.072945228991912234 0 0.02824021916957381 -0.074907940508619014 0 0.030543104640171719 -0.074919700103998607 0 0.02824021916957381 -0.074907940508619014 0 0.02865185600245071 -0.077288431037343938 0 0.023434782887194687 -0.074882271657681687 0 0.021683843070912538 -0.074131244684239733 0 0.025995734905160436 -0.074996680260591253 0 0.02824021916957381 -0.074907940508619014 0 0.02865185600245071 -0.077288431037343938 0 0.025518962413884429 -0.074700157350344715 0 0.026205298470388907 -0.076922233941549553 0 0.027692994266039245 -0.076642662140532197 0 0.01586494718438133 -0.074868348968153323 0 0.021683843070912538 -0.074131244684239733 0 0.019399879178884156 -0.074685147241931552 0 0.019283299583887498 -0.074702477085195854 0 0.019325971139646802 -0.07459512672054322 0 0.013032897428500119 -0.074871673203783143 0 0.014641833342190599 -0.074674791724836556 0 0.01560483123006459 -0.076262562875657539 0 0.016920188044228898 -0.076023549121681216 0 0.013926687256227963 -0.074378912169542233 0 0.01586494718438133 -0.074868348968153323 0 0.014641833342190599 -0.074674791724836556 0 0.0048791647966726689 -0.072584432790606349 0 0.0070730990466184376 -0.074982334470481582 0 0.0055731226224151687 -0.074619313335592075 0 0.0064565560549276107 -0.075102615178821594 0 0.0055731226224151687 -0.074619313335592075 0 0.0029596409647037465 -0.075703406658961012 0 0.013527347582029977 -0.073382310221287619 0 0.01586494718438133 -0.074868348968153323 0 0.025518962413884429 -0.074700157350344715 0 0.023541585534324876 -0.073961813611202007 0 0.026205298470388907 -0.076922233941549553 0 0.0048791647966726689 -0.072584432790606349 0 0.0055731226224151687 -0.074619313335592075 0 0.003787986010861936 -0.074068910547865643 0 0.0070730990466184376 -0.074982334470481582 0 0.0064603877157882062 -0.075096349152915007 0 0.0055731226224151687 -0.074619313335592075 0 0.013032897428500119 -0.074871673203783143 0 0.012542821040688799 -0.074685565749226676 0 0.01586494718438133 -0.074868348968153323 0 0.013032897428500119 -0.074871673203783143 0 0.003787986010861936 -0.074068910547865643 0 0.0019955612087441412 -0.073000101487859834 0 0.0029596409647037465 -0.075703406658961012 0 0.0055731226224151687 -0.074619313335592075 0 0.003787986010861936 -0.074068910547865643 0 0.0029596409647037465 -0.075703406658961012 0 0.013032897428500119 -0.074871673203783143 0 0.0049295123865355618 -0.075837936293515151 0 0.0048791647966726689 -0.072584432790606349 0 0.003787986010861936 -0.074068910547865643 0 0.0019955612087441412 -0.073000101487859834 0 0.0027252430140302852 -0.070216772109937126 0 0.0048791647966726689 -0.072584432790606349 0 0.0019955612087441412 -0.073000101487859834 0 0.020474942801381301 -0.070580337595040968 0 0.023541585534324876 -0.073961813611202007 0 0.023267472465503272 -0.072591818421780085 0 0.01039167119375551 -0.071435918394223127 0 0.013527347582029977 -0.073382310221287619 0 -0.0014628595466639736 -0.071083768068048447 0 0.0027252430140302852 -0.070216772109937126 0 0.0019955612087441412 -0.073000101487859834 0 -0.00032677911768074511 -0.073854928282961488 0 0.0029596409647037465 -0.075703406658961012 0 -0.00042637095927450187 -0.07625555087488585 0 -0.00032677911768074511 -0.073854928282961488 0 0.0019955612087441412 -0.073000101487859834 0 0.0029596409647037465 -0.075703406658961012 0 0.0021944988994105439 -0.077627189660362431 0 0.0033143279884903765 -0.075331678237320274 0 -0.00042637095927450187 -0.07625555087488585 0 0.0049295123865355618 -0.075837936293515151 0 0.0023939206964338385 -0.076165904547871185 0 0.0021944988994105439 -0.077627189660362431 0 0.0018154311340129669 -0.079557913238392272 0 -0.0004948256020724139 -0.078667245420374662 0 0.0021944988994105439 -0.077627189660362431 0 0.0018154311340129669 -0.079557913238392272 0 0.0043245735798840938 -0.078892916063142346 0 0.0021944988994105439 -0.077627189660362431 0 0.0043245735798840938 -0.078892916063142346 0 0.0047084184393782246 -0.077021995613179975 0 0.0043245735798840938 -0.078892916063142346 0 0.0059844934946533587 -0.079060471227349285 0 0.0039876946281032794 -0.080621135718606823 0 0.0043245735798840938 -0.078892916063142346 0 0.0047084184393782246 -0.077021995613179975 0 0.0057615923885054026 -0.077886832903800787 0 0.0021944988994105439 -0.077627189660362431 0 0.0047084184393782246 -0.077021995613179975 0 0.0033143279884903765 -0.075331678237320274 0 0.0070570600890821006 -0.074571098490301732 0 0.0047084184393782246 -0.077021995613179975 0 0.0033143279884903765 -0.075331678237320274 0 0.0070570600890821006 -0.074571098490301732 0 0.0047084184393782246 -0.077021995613179975 0 0.0067722393377769698 -0.076823682703375834 0 0.0070570600890821006 -0.074571098490301732 0 0.0067722393377769698 -0.076823682703375834 0 0.0077527738937247966 -0.075829891446368411 0 0.0047084184393782246 -0.077021995613179975 0 0.0067722393377769698 -0.076823682703375834 0 0.0057615923885054026 -0.077886832903800787 0 0.019283299583887498 -0.074702477085195854 0 0.019325971139646802 -0.07459512672054322 0 0.019103640400944061 -0.074520939240043785 0 0.014641833342190599 -0.074674791724836556 0 0.016747778333415484 -0.074294676110852539 0 0.014641833342190599 -0.074674791724836556 0 0.014001692963627337 -0.074493669838152046 0 0.0070570600890821006 -0.074571098490301732 0 0.0077527738937247966 -0.075829891446368411 0 0.0085281914480849711 -0.075359818523136918 0 0.0077527738937247966 -0.075829891446368411 0 0.0085281914480849711 -0.075359818523136918 0 0.0085584063785234064 -0.07659999481617015 0 0.0067722393377769698 -0.076823682703375834 0 0.0077527738937247966 -0.075829891446368411 0 0.0085584063785234064 -0.07659999481617015 0 0.0067722393377769698 -0.076823682703375834 0 0.0085584063785234064 -0.07659999481617015 0 0.0083056104523553526 -0.077737607029418149 0 0.0085584063785234064 -0.07659999481617015 0 0.0092535734257677259 -0.077457976360442368 0 0.0083056104523553526 -0.077737607029418149 0 0.0085584063785234064 -0.07659999481617015 0 0.0092535734257677259 -0.077457976360442368 0 0.0098632293846347002 -0.076784526454502858 0 0.0085281914480849711 -0.075359818523136918 0 0.0085584063785234064 -0.07659999481617015 0 0.0098632293846347002 -0.076784526454502858 0 0.0092535734257677259 -0.077457976360442368 0 0.0083056104523553526 -0.077737607029418149 0 0.0095146942833626152 -0.078490309373245179 0 0.0092535734257677259 -0.077457976360442368 0 0.0095146942833626152 -0.078490309373245179 0 0.010411935852948967 -0.077651192057038326 0 0.0083056104523553526 -0.077737607029418149 0 0.0078276326600788121 -0.078886078853526817 0 0.0069506346913173174 -0.078020550581655107 0 0.0083056104523553526 -0.077737607029418149 0 0.0078276326600788121 -0.078886078853526817 0 0.0095146942833626152 -0.078490309373245179 0 0.0095146942833626152 -0.078490309373245179 0 0.008814975019020772 -0.079687876401847699 0 0.010185505056500736 -0.079989631973572395 0 0.0078276326600788121 -0.078886078853526817 0 0.0095146942833626152 -0.078490309373245179 0 0.008814975019020772 -0.079687876401847699 0 0.0057615923885054026 -0.077886832903800787 0 0.0069506346913173174 -0.078020550581655107 0 0.0059844934946533587 -0.079060471227349285 0 0.0067722393377769698 -0.076823682703375834 0 0.0083056104523553526 -0.077737607029418149 0 0.0069506346913173174 -0.078020550581655107 0 0.0067722393377769698 -0.076823682703375834 0 0.0057615923885054026 -0.077886832903800787 0 0.0069506346913173174 -0.078020550581655107 0 0.0078276326600788121 -0.078886078853526817 0 0.0059844934946533587 -0.079060471227349285 0 0.0073932016001741858 -0.080318942982586211 0 0.0078276326600788121 -0.078886078853526817 0 0.0069506346913173174 -0.078020550581655107 0 0.0059844934946533587 -0.079060471227349285 0 0.0043245735798840938 -0.078892916063142346 0 0.0057615923885054026 -0.077886832903800787 0 0.0059844934946533587 -0.079060471227349285 0 0.0059844934946533587 -0.079060471227349285 0 0.0073932016001741858 -0.080318942982586211 0 0.005872918349678488 -0.081349852836982303 0 0.0059844934946533587 -0.079060471227349285 0 0.005872918349678488 -0.081349852836982303 0 0.0039876946281032794 -0.080621135718606823 0 0.0073932016001741858 -0.080318942982586211 0 0.005872918349678488 -0.081349852836982303 0 0.0074832267768563951 -0.081925911758597134 0 0.008814975019020772 -0.079687876401847699 0 0.0091094528176008938 -0.081152284844841646 0 0.010185505056500736 -0.079989631973572395 0 0.0078276326600788121 -0.078886078853526817 0 0.0073932016001741858 -0.080318942982586211 0 0.008814975019020772 -0.079687876401847699 0 0.0073932016001741858 -0.080318942982586211 0 0.008814975019020772 -0.079687876401847699 0 0.0091094528176008938 -0.081152284844841646 0 0.0073932016001741858 -0.080318942982586211 0 0.0091094528176008938 -0.081152284844841646 0 0.0074832267768563951 -0.081925911758597134 0 0.0074832267768563951 -0.081925911758597134 0 0.009478975116739825 -0.083334962411930752 0 0.0062605878433586335 -0.083320344230353824 0 0.0091094528176008938 -0.081152284844841646 0 0.0074832267768563951 -0.081925911758597134 0 0.009478975116739825 -0.083334962411930752 0 0.005872918349678488 -0.081349852836982303 0 0.0062605878433586335 -0.083320344230353824 0 0.0041414746694759773 -0.082834313077009836 0 0.005872918349678488 -0.081349852836982303 0 0.0074832267768563951 -0.081925911758597134 0 0.0062605878433586335 -0.083320344230353824 0 0.0041414746694759773 -0.082834313077009836 0 0.0045432860327222126 -0.084663988137036642 0 0.00052577819941229231 -0.084090850199433534 0 0.0062605878433586335 -0.083320344230353824 0 0.0041414746694759773 -0.082834313077009836 0 0.0045745257587734064 -0.084633218263132956 0 0.0077637372825907023 -0.057703943310610052 0 0.0067610975304169731 -0.049970618374728715 0 0.0019995539724557139 -0.081686388865857079 0 0.00052577819941229231 -0.084090850199433534 0 -0.00046090903793742118 -0.081324123627685388 0 0.0041414746694759773 -0.082834313077009836 0 0.0019995539724557139 -0.081686388865857079 0 0.00052577819941229231 -0.084090850199433534 0 0.0018154311340129669 -0.079557913238392272 0 0.0019995539724557139 -0.081686388865857079 0 -0.00046090903793742118 -0.081324123627685388 0 0.0018154311340129669 -0.079557913238392272 0 0.0019995539724557139 -0.081686388865857079 0 0.0039876946281032794 -0.080621135718606823 0 0.0041414746694759773 -0.082834313077009836 0 0.0019995539724557139 -0.081686388865857079 0 0.0039876946281032794 -0.080621135718606823 0 0.005872918349678488 -0.081349852836982303 0 0.0041414746694759773 -0.082834313077009836 0 0.0039876946281032794 -0.080621135718606823 0 0.0018154311340129669 -0.079557913238392272 0 0.0043245735798840938 -0.078892916063142346 0 0.0039876946281032794 -0.080621135718606823 0 0.038210968815471223 -0.066706180695906961 0 0.037435136271505916 -0.06700188209748939 0 0.038370211613589063 -0.067497830270770789 0 0.038210968815471223 -0.066706180695906961 0 0.038370211613589063 -0.067497830270770789 0 0.039041390564590675 -0.066672497346881104 0 0.037465554729678163 -0.065477938071950667 0 0.038139578711246049 -0.065906145455109505 0 0.038932640855765192 -0.065653336507700402 0 0.038139578711246049 -0.065906145455109505 0 0.039041390564590675 -0.066672497346881104 0 0.038932640855765192 -0.065653336507700402 0 0.038210968815471223 -0.066706180695906961 0 0.038139578711246049 -0.065906145455109505 0 0.039041390564590675 -0.066672497346881104 0 0.038210968815471223 -0.066706180695906961 0 0.038139578711246049 -0.065906145455109505 0 0.037783050828089387 -0.066342322048602187 0 0.037783050828089387 -0.066342322048602187 0 0.03767895117638409 -0.065933976463952396 0 0.037331909763786718 -0.066018794826358557 0 0.038139578711246049 -0.065906145455109505 0 0.037783050828089387 -0.066342322048602187 0 0.03767895117638409 -0.065933976463952396 0 0.037465554729678163 -0.065477938071950667 0 0.038139578711246049 -0.065906145455109505 0 0.03767895117638409 -0.065933976463952396 0 0.037465554729678163 -0.065477938071950667 0 0.03767895117638409 -0.065933976463952396 0 0.037331909763786718 -0.066018794826358557 0 0.02497521498821241 -0.073343503310355301 0 0.024961755686072923 -0.073282543865777622 0 0.02499930724295478 -0.073305974616083236 0 0.037783050828089387 -0.066342322048602187 0 0.037331909763786718 -0.066018794826358557 0 0.037435136271505916 -0.06700188209748939 0 0.028336640541325068 -0.071059866010362169 0 0.024102004174670531 -0.073335896569801232 0 0.038210968815471223 -0.066706180695906961 0 0.037783050828089387 -0.066342322048602187 0 0.037435136271505916 -0.06700188209748939 0 0.014965471761578825 -0.078741165016800202 0 0.014373201245843351 -0.078799537052684235 0 0.013966933833678228 -0.079948866489363252 0 0.014373201245843351 -0.078799537052684235 0 0.012802865125579484 -0.07912255298223031 0 0.013966933833678228 -0.079948866489363252 0 0.014373201245843351 -0.078799537052684235 0 0.012802865125579484 -0.07912255298223031 0 0.013212110076501714 -0.077796153591630196 0 0.014965471761578825 -0.078741165016800202 0 0.014373201245843351 -0.078799537052684235 0 0.013275030269326284 -0.077817415908766091 0 0.012802865125579484 -0.07912255298223031 0 0.013212110076501714 -0.077796153591630196 0 0.01168631841052447 -0.077995410368848786 0 0.019777465933543795 -0.074098060639635879 0 0.020206167090140479 -0.074032613750129081 0 0.024102004174670531 -0.073335896569801232 0 0.020206167090140479 -0.074032613750129081 0 0.02497521498821241 -0.073343503310355301 0 0.02499930724295478 -0.073305974616083236 0 0.025008978096401978 -0.07336143827015644 0 0.02499930724295478 -0.073305974616083236 0 0.025008978096401978 -0.07336143827015644 0 0.025036220327499813 -0.073349196035184763 0 0.020206167090140479 -0.074032613750129081 0 0.016747778333415484 -0.074294676110852539 0 0.020206167090140479 -0.074032613750129081 0 0.021262654782425196 -0.07420750081873928 0 0.0085697864322367822 -0.075338874108241125 0 0.010871856892607716 -0.076576857666332807 0 0.0098632293846347002 -0.076784526454502858 0 0.019325971139646802 -0.07459512672054322 0 0.019124756111368973 -0.074469964735266667 0 0.019103640400944061 -0.074520939240043785 0 0.018944337268614678 -0.074348239606590871 0 0.019124756111368973 -0.074469964735266667 0 0.019103640400944061 -0.074520939240043785 0 0.021683843070912538 -0.074131244684239733 0 0.021262654782425196 -0.07420750081873928 0 0.010871856892607716 -0.076576857666332807 0 0.0098632293846347002 -0.076784526454502858 0 0.010411935852948967 -0.077651192057038326 0 0.0092535734257677259 -0.077457976360442368 0 0.0098632293846347002 -0.076784526454502858 0 0.010411935852948967 -0.077651192057038326 0 0.0095146942833626152 -0.078490309373245179 0 0.010411935852948967 -0.077651192057038326 0 0.011134112602556152 -0.078830796687462262 0 0.013212110076501714 -0.077796153591630196 0 0.010871856892607716 -0.076576857666332807 0 0.01168631841052447 -0.077995410368848786 0 0.010411935852948967 -0.077651192057038326 0 0.01168631841052447 -0.077995410368848786 0 0.011134112602556152 -0.078830796687462262 0 0.010871856892607716 -0.076576857666332807 0 0.010411935852948967 -0.077651192057038326 0 0.01168631841052447 -0.077995410368848786 0 0.012802865125579484 -0.07912255298223031 0 0.01168631841052447 -0.077995410368848786 0 0.011134112602556152 -0.078830796687462262 0 0.012802865125579484 -0.07912255298223031 0 0.011134112602556152 -0.078830796687462262 0 0.011518268255953361 -0.080050500411743761 0 0.0095146942833626152 -0.078490309373245179 0 0.011134112602556152 -0.078830796687462262 0 0.010185505056500736 -0.079989631973572395 0 0.010185505056500736 -0.079989631973572395 0 0.011518268255953361 -0.080050500411743761 0 0.011019259775600292 -0.081272147050188981 0 0.011134112602556152 -0.078830796687462262 0 0.010185505056500736 -0.079989631973572395 0 0.011518268255953361 -0.080050500411743761 0 0.011518268255953361 -0.080050500411743761 0 0.011019259775600292 -0.081272147050188981 0 0.012739296215907496 -0.080749266049191554 0 0.0091094528176008938 -0.081152284844841646 0 0.010185505056500736 -0.079989631973572395 0 0.011019259775600292 -0.081272147050188981 0 0.009478975116739825 -0.083334962411930752 0 0.011019259775600292 -0.081272147050188981 0 0.012972460691962775 -0.082680495195699075 0 0.0091094528176008938 -0.081152284844841646 0 0.009478975116739825 -0.083334962411930752 0 0.011019259775600292 -0.081272147050188981 0 0.012972460691962775 -0.082680495195699075 0 0.015423586330008657 -0.082058667323199899 0 0.014453878368978587 -0.084420227251658347 0 0.012972460691962775 -0.082680495195699075 0 0.013794842390572484 -0.0814156970809993 0 0.015423586330008657 -0.082058667323199899 0 0.012972460691962775 -0.082680495195699075 0 0.013794842390572484 -0.0814156970809993 0 0.012739296215907496 -0.080749266049191554 0 0.013794842390572484 -0.0814156970809993 0 0.012739296215907496 -0.080749266049191554 0 0.013966933833678228 -0.079948866489363252 0 0.011019259775600292 -0.081272147050188981 0 0.012972460691962775 -0.082680495195699075 0 0.012739296215907496 -0.080749266049191554 0 0.012802865125579484 -0.07912255298223031 0 0.011518268255953361 -0.080050500411743761 0 0.012739296215907496 -0.080749266049191554 0 0.012802865125579484 -0.07912255298223031 0 0.012739296215907496 -0.080749266049191554 0 0.013966933833678228 -0.079948866489363252 0 0.014965471761578825 -0.078741165016800202 0 0.013966933833678228 -0.079948866489363252 0 0.015423586330008657 -0.082058667323199899 0 0.024102004174670531 -0.073335896569801232 0 0.020822872689669526 -0.078697949441825191 0 0.014505006962266915 -0.071392238720635284 0 0.015296465850538048 -0.078340994584839965 0 0.019808697052802741 -0.074287636447574495 0 0.024102004174670531 -0.073335896569801232 0 0.02903699669097529 -0.069051281051556682 0 0.013794842390572484 -0.0814156970809993 0 0.013966933833678228 -0.079948866489363252 0 0.015423586330008657 -0.082058667323199899 0 0.020822872689669526 -0.078697949441825191 0 0.020027589422121943 -0.081329171297778446 0 0.015296465850538048 -0.078340994584839965 0 0.020235591072559993 -0.078348712525395048 0 0.018343490853783936 -0.082270786302467799 0 0.020235591072559993 -0.078348712525395048 0 0.021739055664581296 -0.082144978024862148 0 0.018343490853783936 -0.082270786302467799 0 0.015296465850538048 -0.078340994584839965 0 0.020235591072559993 -0.078348712525395048 0 0.019808697052802741 -0.074287636447574495 0 0.020235591072559993 -0.078348712525395048 0 0.019808697052802741 -0.074287636447574495 0 0.025165405860670981 -0.077179000801336897 0 0.027073600549731555 -0.040335507043529908 0 0.027486026642730157 -0.039734808292334778 0 0.034463495679032813 -0.04159826289780004 0 0.035718754751540412 -0.012172954933332661 0 0.036093819853666477 -0.0111138002976477 0 0.035446848675318193 -0.011585718049667612 0 0.027581378517194423 -0.040354879467788249 0 0.036208120726853497 -0.033670267459618618 0 0.035718754751540412 -0.012172954933332661 0 0.035446848675318193 -0.011585718049667612 0 0.034788857809945693 -0.012087394143336752 0 0.039700165310615453 -0.025748008340203431 0 0.036208120726853497 -0.033670267459618618 0 0.027581378517194423 -0.040354879467788249 0 0.026539175420841617 -0.042776353324627259 0 0.018222634298517847 -0.086905850954089175 0 0.018343490853783936 -0.082270786302467799 0 0.016120124669970422 -0.085368858478601484 0 0.018222634298517847 -0.086905850954089175 0 0.021739055664581296 -0.082144978024862148 0 0.018343490853783936 -0.082270786302467799 0 0.026539175420841617 -0.042776353324627259 0 0.027103091055731207 -0.05808640910898815 0 0.031228018675950601 -0.04989461328120777 0 0.031744858583615081 -0.049185490388090197 0 0.03238455361671997 -0.049887838369152906 0 0.015423586330008657 -0.082058667323199899 0 0.016120124669970422 -0.085368858478601484 0 0.014453878368978587 -0.084420227251658347 0 0.015296465850538048 -0.078340994584839965 0 0.018343490853783936 -0.082270786302467799 0 0.016120124669970422 -0.085368858478601484 0 0.016120124669970422 -0.085368858478601484 0 0.014453878368978587 -0.084420227251658347 0 0.015851437058506199 -0.086567898353839601 0 0.019068153414594068 -0.035412484303976137 0 0.01881191688585012 -0.035366495948383703 0 0.018637885046991962 -0.035970560745546817 0 0.01881191688585012 -0.035366495948383703 0 0.018392395530307151 -0.035676712858038827 0 0.018637885046991962 -0.035970560745546817 0 0.023726162941344602 -0.042721589820542492 0 0.020736230938941679 -0.041027018842180914 0 0.027581378517194423 -0.040354879467788249 0 0.0275077430767929 -0.02753620491332931 0 0.018222634298517847 -0.086905850954089175 0 0.016120124669970422 -0.085368858478601484 0 0.015851437058506199 -0.086567898353839601 0 0.030534695575158696 -0.044259042675531657 0 0.031526453698870402 -0.042812284028967855 0 0.02305831909525391 -0.042985092187645686 0 0.026539175420841617 -0.042776353324627259 0 0.023726162941344602 -0.042721589820542492 0 0.027581378517194423 -0.040354879467788249 0 0.023726162941344602 -0.042721589820542492 0 0.018433417122952357 -0.03548915815731897 0 0.018054837350887285 -0.035267712035419674 0 0.017820573973071352 -0.035416496713089662 0 0.019096426272174366 -0.035529329797344585 0 0.018433417122952357 -0.03548915815731897 0 0.018054837350887285 -0.035267712035419674 0 0.023726162941344602 -0.042721589820542492 0 0.017186178896200496 -0.050508292895752732 0 0.020736230938941679 -0.041027018842180914 0 0.019891947540537889 -0.040496759157381136 0 0.018076463318970355 -0.035641682987251892 0 0.018306037897402278 -0.035375562226416635 0 0.017820573973071352 -0.035416496713089662 0 0.01881191688585012 -0.035366495948383703 0 0.018392395530307151 -0.035676712858038827 0 0.018306037897402278 -0.035375562226416635 0 0.018392395530307151 -0.035676712858038827 0 0.018076463318970355 -0.035641682987251892 0 0.018306037897402278 -0.035375562226416635 0 0.012972460691962775 -0.082680495195699075 0 0.014453878368978587 -0.084420227251658347 0 0.011931409801519105 -0.085795323997438805 0 0.014453878368978587 -0.084420227251658347 0 0.015851437058506199 -0.086567898353839601 0 0.011931409801519105 -0.085795323997438805 0 0.018054837350887285 -0.035267712035419674 0 0.017820573973071352 -0.035416496713089662 0 0.017232136710396456 -0.035148811204732712 0 0.009478975116739825 -0.083334962411930752 0 0.011931409801519105 -0.085795323997438805 0 0.0082455481291283366 -0.085222099410391772 0 0.009478975116739825 -0.083334962411930752 0 0.012972460691962775 -0.082680495195699075 0 0.011931409801519105 -0.085795323997438805 0 0.017186178896200496 -0.050508292895752732 0 0.01309186881667593 -0.052642673713823009 0 0.018076463318970355 -0.035641682987251892 0 0.017820573973071352 -0.035416496713089662 0 0.017744446058712584 -0.035756657200559379 0 0.017820573973071352 -0.035416496713089662 0 0.017744446058712584 -0.035756657200559379 0 0.017429573494313958 -0.03558660252183371 0 0.017744446058712584 -0.035756657200559379 0 0.017706763498172989 -0.036176768536780438 0 0.01731329699233888 -0.035929723227586245 0 0.018076463318970355 -0.035641682987251892 0 0.017744446058712584 -0.035756657200559379 0 0.01812668804497572 -0.035948246985105292 0 0.017744446058712584 -0.035756657200559379 0 0.017706763498172989 -0.036176768536780438 0 0.01812668804497572 -0.035948246985105292 0 0.024210949981912144 -0.021434116558723067 0 0.017936585317013795 -0.022378059414888549 0 0.017706763498172989 -0.036176768536780438 0 0.018224724935541226 -0.036504626523193674 0 0.017557132455842481 -0.036629475882683893 0 0.017706763498172989 -0.036176768536780438 0 0.018224724935541226 -0.036504626523193674 0 0.01812668804497572 -0.035948246985105292 0 0.024210949981912144 -0.021434116558723067 0 0.0275077430767929 -0.02753620491332931 0 0.034961364346009251 -0.011944837743716305 0 0.035611947173157778 -0.011716045151282098 0 0.036133896004487596 -0.011140815557957751 0 0.034961364346009251 -0.011944837743716305 0 0.035368360251613412 -0.011920003796447852 0 0.035611947173157778 -0.011716045151282098 0 0.034785799485735444 -0.011980246314990011 0 0.035368360251613412 -0.011920003796447852 0 0.034957014659122994 -0.012835979615084791 0 0.024210949981912144 -0.021434116558723067 0 0.024951913126371204 -0.021160628979027259 0 0.018224724935541226 -0.036504626523193674 0 0.01812668804497572 -0.035948246985105292 0 0.018637885046991962 -0.035970560745546817 0 0.018392395530307151 -0.035676712858038827 0 0.01812668804497572 -0.035948246985105292 0 0.018637885046991962 -0.035970560745546817 0 0.018392395530307151 -0.035676712858038827 0 0.018076463318970355 -0.035641682987251892 0 0.01812668804497572 -0.035948246985105292 0 0.035718754751540412 -0.012172954933332661 0 0.036133896004487596 -0.011140815557957751 0 0.036093819853666477 -0.0111138002976477 0 0.036093819853666477 -0.0111138002976477 0 0.036259608132602747 -0.011492335431271447 0 0.036672218324581674 -0.011279064396588091 0 0.036093819853666477 -0.0111138002976477 0 0.03606588492676252 -0.011357797887301959 0 0.036259608132602747 -0.011492335431271447 0 0.036133896004487596 -0.011140815557957751 0 0.03606588492676252 -0.011357797887301959 0 0.035915575481010723 -0.011521810702170147 0 0.035611947173157778 -0.011716045151282098 0 0.036133896004487596 -0.011140815557957751 0 0.035915575481010723 -0.011521810702170147 0 0.036133896004487596 -0.011140815557957751 0 0.036093819853666477 -0.0111138002976477 0 0.03606588492676252 -0.011357797887301959 0 0.03606588492676252 -0.011357797887301959 0 0.035915575481010723 -0.011521810702170147 0 0.036058860203724626 -0.011689457635303385 0 0.036058860203724626 -0.011689457635303385 0 0.035863138242977106 -0.011899496551195148 0 0.036347148687073484 -0.011896816848150587 0 0.035915575481010723 -0.011521810702170147 0 0.036058860203724626 -0.011689457635303385 0 0.035863138242977106 -0.011899496551195148 0 0.035611947173157778 -0.011716045151282098 0 0.035915575481010723 -0.011521810702170147 0 0.035863138242977106 -0.011899496551195148 0 0.035368360251613412 -0.011920003796447852 0 0.035611947173157778 -0.011716045151282098 0 0.035863138242977106 -0.011899496551195148 0 0.035863138242977106 -0.011899496551195148 0 0.036197326913821069 -0.012375172448471276 0 0.035679252235347993 -0.012411977270000539 0 0.035368360251613412 -0.011920003796447852 0 0.035863138242977106 -0.011899496551195148 0 0.035679252235347993 -0.012411977270000539 0 0.036706759439421713 -0.012312273367542049 0 0.036347148687073484 -0.011896816848150587 0 0.036197326913821069 -0.012375172448471276 0 0.035863138242977106 -0.011899496551195148 0 0.036347148687073484 -0.011896816848150587 0 0.036197326913821069 -0.012375172448471276 0 0.036347148687073484 -0.011896816848150587 0 0.036259608132602747 -0.011492335431271447 0 0.036660583933044957 -0.011644154698347177 0 0.036058860203724626 -0.011689457635303385 0 0.036347148687073484 -0.011896816848150587 0 0.036259608132602747 -0.011492335431271447 0 0.03606588492676252 -0.011357797887301959 0 0.036058860203724626 -0.011689457635303385 0 0.036259608132602747 -0.011492335431271447 0 0.036259608132602747 -0.011492335431271447 0 0.036660583933044957 -0.011644154698347177 0 0.036672218324581674 -0.011279064396588091 0 0.036660583933044957 -0.011644154698347177 0 0.037281565305847468 -0.011388788612761125 0 0.036672218324581674 -0.011279064396588091 0 0.036347148687073484 -0.011896816848150587 0 0.036660583933044957 -0.011644154698347177 0 0.037027192446412699 -0.011953113461261555 0 0.036660583933044957 -0.011644154698347177 0 0.037027192446412699 -0.011953113461261555 0 0.037281565305847468 -0.011388788612761125 0 0.036706759439421713 -0.012312273367542049 0 0.037027192446412699 -0.011953113461261555 0 0.037308321066399107 -0.012586131431041649 0 0.036706759439421713 -0.012312273367542049 0 0.036347148687073484 -0.011896816848150587 0 0.037027192446412699 -0.011953113461261555 0 0.037027192446412699 -0.011953113461261555 0 0.03802506456977825 -0.011977318262661915 0 0.037308321066399107 -0.012586131431041649 0 0.037027192446412699 -0.011953113461261555 0 0.037281565305847468 -0.011388788612761125 0 0.03802506456977825 -0.011977318262661915 0 0.037281565305847468 -0.011388788612761125 0 0.037942655416898452 -0.010970352159374246 0 0.03802506456977825 -0.011977318262661915 0 0.037281565305847468 -0.011388788612761125 0 0.037213084477604179 -0.010402063009346275 0 0.037942655416898452 -0.010970352159374246 0 0.037213084477604179 -0.010402063009346275 0 0.03815367667230208 -0.0098407353688423817 0 0.037942655416898452 -0.010970352159374246 0 0.037281565305847468 -0.011388788612761125 0 0.036672218324581674 -0.011279064396588091 0 0.037213084477604179 -0.010402063009346275 0 0.036093819853666477 -0.0111138002976477 0 0.036672218324581674 -0.011279064396588091 0 0.037213084477604179 -0.010402063009346275 0 0.040382313532423553 -0.023562527908972009 0 0.039700165310615453 -0.025748008340203431 0 0.0010005657274387678 -0.019382767832255388 0 -0.0020739798427019487 -0.018297113982709032 0 -0.00040302481339836942 -0.016062340776126643 0 0.0010005657274387678 -0.019382767832255388 0 -0.0014632238048423584 -0.02152503546434345 0 -0.0020739798427019487 -0.018297113982709032 0 0.0067610975304169731 -0.049970618374728715 0 0.0022996007220297586 -0.050298483342299929 0 0.0010005657274387678 -0.019382767832255388 0 -0.0014632238048423584 -0.02152503546434345 0 0.0026617169251635046 -0.022298121857963718 0 0.0067610975304169731 -0.049970618374728715 0 0.0071624139169584418 -0.032738402656265493 0 0.0067610975304169731 -0.049970618374728715 0 0.01309186881667593 -0.052642673713823009 0 0.0062605878433586335 -0.083320344230353824 0 0.0045745257587734064 -0.084633218263132956 0 0.0082455481291283366 -0.085222099410391772 0 0.016476280600876581 -0.03505253944447749 0 0.017232136710396456 -0.035148811204732712 0 0.016627682801185133 -0.035617513080118512 0 0.009478975116739825 -0.083334962411930752 0 0.0062605878433586335 -0.083320344230353824 0 0.0082455481291283366 -0.085222099410391772 0 0.017232136710396456 -0.035148811204732712 0 0.017429573494313958 -0.03558660252183371 0 0.017064503156920742 -0.035688341275788765 0 0.017820573973071352 -0.035416496713089662 0 0.017232136710396456 -0.035148811204732712 0 0.017429573494313958 -0.03558660252183371 0 0.017429573494313958 -0.03558660252183371 0 0.017064503156920742 -0.035688341275788765 0 0.01731329699233888 -0.035929723227586245 0 0.017232136710396456 -0.035148811204732712 0 0.016627682801185133 -0.035617513080118512 0 0.017064503156920742 -0.035688341275788765 0 0.016627682801185133 -0.035617513080118512 0 0.017064503156920742 -0.035688341275788765 0 0.016779597977697971 -0.036175906654878645 0 0.017064503156920742 -0.035688341275788765 0 0.01731329699233888 -0.035929723227586245 0 0.016779597977697971 -0.036175906654878645 0 0.0071624139169584418 -0.032738402656265493 0 0.0093160824307722215 -0.026125810730952669 0 0.01731329699233888 -0.035929723227586245 0 0.017224349346936351 -0.036311109703054512 0 0.016779597977697971 -0.036175906654878645 0 0.017706763498172989 -0.036176768536780438 0 0.01731329699233888 -0.035929723227586245 0 0.017224349346936351 -0.036311109703054512 0 0.017744446058712584 -0.035756657200559379 0 0.017429573494313958 -0.03558660252183371 0 0.01731329699233888 -0.035929723227586245 0 0.017706763498172989 -0.036176768536780438 0 0.017224349346936351 -0.036311109703054512 0 0.017557132455842481 -0.036629475882683893 0 0.017224349346936351 -0.036311109703054512 0 0.016911397815774495 -0.036739063478457581 0 0.017557132455842481 -0.036629475882683893 0 0.0093160824307722215 -0.026125810730952669 0 0.012496628852482761 -0.020619790706062138 0 -0.0023757420436904915 -0.015266922755866944 0 -0.0010137182080785505 -0.013886699583404057 0 -0.002437361939832558 -0.012979177916100941 0 0.017224349346936351 -0.036311109703054512 0 0.016779597977697971 -0.036175906654878645 0 0.016911397815774495 -0.036739063478457581 0 -0.0023757420436904915 -0.015266922755866944 0 -0.0010137182080785505 -0.013886699583404057 0 -0.00040302481339836942 -0.016062340776126643 0 -0.0010137182080785505 -0.013886699583404057 0 -0.00040302481339836942 -0.016062340776126643 0 0.00023934242755481745 -0.013704779820519966 0 -0.0020739798427019487 -0.018297113982709032 0 -0.0023757420436904915 -0.015266922755866944 0 -0.00040302481339836942 -0.016062340776126643 0 0.0010005657274387678 -0.019382767832255388 0 -0.00040302481339836942 -0.016062340776126643 0 0.0026122816228322278 -0.016693987723511893 0 -0.00040302481339836942 -0.016062340776126643 0 0.00023934242755481745 -0.013704779820519966 0 0.0026122816228322278 -0.016693987723511893 0 -0.0026855234334496581 -0.017467217692378384 0 -0.002924732618503316 -0.019358291368653382 0 0.00023934242755481745 -0.013704779820519966 0 9.6920641659315132e-05 -0.012980573384681292 0 0.0002917548421667327 -0.013384005517005582 0 -0.00013989626637606517 -0.013106027572052682 0 9.6920641659315132e-05 -0.012980573384681292 0 0.0002917548421667327 -0.013384005517005582 0 -0.00013989626637606517 -0.013106027572052682 0 -0.00066739589974066206 -0.012999560399689136 0 -0.00057114458644716361 -0.013358047716110289 0 -0.00013989626637606517 -0.013106027572052682 0 -0.00058955565715783115 -0.012852014502476684 0 -0.00066739589974066206 -0.012999560399689136 0 -0.00013989626637606517 -0.013106027572052682 0 -0.00027673760943316327 -0.012867901391947382 0 -0.00058955565715783115 -0.012852014502476684 0 -0.00027673760943316327 -0.012867901391947382 0 -0.0005753102535459183 -0.012799024640539272 0 -0.00058955565715783115 -0.012852014502476684 0 -0.00027673760943316327 -0.012867901391947382 0 -0.00048755104022424323 -0.012762770068281824 0 -0.0005753102535459183 -0.012799024640539272 0 -0.00013989626637606517 -0.013106027572052682 0 -0.00027673760943316327 -0.012867901391947382 0 9.6920641659315132e-05 -0.012980573384681292 0 -0.002924732618503316 -0.019358291368653382 0 -0.0036827363030752956 -0.026316406404067096 0 0.0010005657274387678 -0.019382767832255388 0 0.0026122816228322278 -0.016693987723511893 0 0.0047572187620571393 -0.019876044343939567 0 -0.00027673760943316327 -0.012867901391947382 0 9.6920641659315132e-05 -0.012980573384681292 0 -0.00033541603740050912 -0.012696104766096982 0 -0.00027673760943316327 -0.012867901391947382 0 -0.00033541603740050912 -0.012696104766096982 0 -0.00048755104022424323 -0.012762770068281824 0 -0.00033541603740050912 -0.012696104766096982 0 -0.00048755104022424323 -0.012762770068281824 0 -0.00057132626993822318 -0.012759304904386114 0 -0.00033541603740050912 -0.012696104766096982 0 -0.00057132626993822318 -0.012759304904386114 0 -0.00054853585142520817 -0.012742938189126207 0 -0.0036827363030752956 -0.026316406404067096 0 -0.00092600014889397534 -0.048682476395096631 0 0.0047572187620571393 -0.019876044343939567 0 0.0026617169251635046 -0.022298121857963718 0 0.0068597626432384817 -0.023109946080123987 0 0.0010005657274387678 -0.019382767832255388 0 0.0047572187620571393 -0.019876044343939567 0 0.0026617169251635046 -0.022298121857963718 0 -0.00064472616313061739 -0.012807651664529362 0 -0.00069301418878008384 -0.012858244964335642 0 -0.00068215051873772451 -0.012866923812837768 0 -0.00064472616313061739 -0.012807651664529362 0 -0.00068562050798823412 -0.012813969149651718 0 -0.00069301418878008384 -0.012858244964335642 0 -0.00064472616313061739 -0.012807651664529362 0 -0.00057132626993822318 -0.012759304904386114 0 -0.00068562050798823412 -0.012813969149651718 0 -0.00064472616313061739 -0.012807651664529362 0 -0.00057132626993822318 -0.012759304904386114 0 -0.00054853585142520817 -0.012742938189126207 0 -0.00057132626993822318 -0.012759304904386114 0 -0.00065148086069294852 -0.012786408631554037 0 -0.00068562050798823412 -0.012813969149651718 0 -0.00048755104022424323 -0.012762770068281824 0 -0.00057132626993822318 -0.012759304904386114 0 -0.00065148086069294852 -0.012786408631554037 0 -0.00048755104022424323 -0.012762770068281824 0 -0.00065148086069294852 -0.012786408631554037 0 -0.0005753102535459183 -0.012799024640539272 0 -0.00065148086069294852 -0.012786408631554037 0 -0.00068562050798823412 -0.012813969149651718 0 -0.00072070104008668324 -0.012803323203648844 0 -0.00068562050798823412 -0.012813969149651718 0 -0.00069255719089230229 -0.012827439159654242 0 -0.00069301418878008384 -0.012858244964335642 0 -0.00068562050798823412 -0.012813969149651718 0 -0.00069255719089230229 -0.012827439159654242 0 -0.00069997101858112912 -0.012813896487287412 0 -0.00068562050798823412 -0.012813969149651718 0 -0.00069997101858112912 -0.012813896487287412 0 -0.00072070104008668324 -0.012803323203648844 0 -0.00069997101858112912 -0.012813896487287412 0 -0.00072353026030148491 -0.012801916215529827 0 -0.00069793866769939615 -0.012778754016103363 0 -0.0019277257314270326 -0.012141881461991539 0 -0.0017810319879742475 -0.011964560152826747 0 -0.0010765660301873489 -0.012725743763994825 0 -0.00069997101858112912 -0.012813896487287412 0 -0.00072353026030148491 -0.012801916215529827 0 -0.00072070104008668324 -0.012803323203648844 0 -0.00072353026030148491 -0.012801916215529827 0 -0.00078904527136754534 -0.012789165412774493 0 -0.00069793866769939615 -0.012778754016103363 0 -0.00072353026030148491 -0.012801916215529827 0 -0.00072070104008668324 -0.012803323203648844 0 -0.00078904527136754534 -0.012789165412774493 0 -0.00072070104008668324 -0.012803323203648844 0 -0.00078904527136754534 -0.012789165412774493 0 -0.00075079110066755871 -0.012787618049927261 0 -0.00078904527136754534 -0.012789165412774493 0 -0.00069793866769939615 -0.012778754016103363 0 -0.0010765660301873489 -0.012725743763994825 0 -0.00065148086069294852 -0.012786408631554037 0 -0.0005753102535459183 -0.012799024640539272 0 -0.00075079110066755871 -0.012787618049927261 0 -0.00065148086069294852 -0.012786408631554037 0 -0.00072070104008668324 -0.012803323203648844 0 -0.00075079110066755871 -0.012787618049927261 0 -0.00078904527136754534 -0.012789165412774493 0 -0.00075079110066755871 -0.012787618049927261 0 -0.0010765660301873489 -0.012725743763994825 0 -0.0005753102535459183 -0.012799024640539272 0 -0.00075079110066755871 -0.012787618049927261 0 -0.00058955565715783115 -0.012852014502476684 0 -0.00058955565715783115 -0.012852014502476684 0 -0.0010765660301873489 -0.012725743763994825 0 -0.00066739589974066206 -0.012999560399689136 0 -0.00075079110066755871 -0.012787618049927261 0 -0.00058955565715783115 -0.012852014502476684 0 -0.0010765660301873489 -0.012725743763994825 0 -0.0010765660301873489 -0.012725743763994825 0 -0.0015648491690349675 -0.012914497557755564 0 -0.0010705910453329482 -0.013093246837739594 0 -0.0010765660301873489 -0.012725743763994825 0 -0.00066739589974066206 -0.012999560399689136 0 -0.0010705910453329482 -0.013093246837739594 0 -0.0019277257314270326 -0.012141881461991539 0 -0.0010765660301873489 -0.012725743763994825 0 -0.0015648491690349675 -0.012914497557755564 0 -0.0028475786274068768 -0.01077662457297684 0 -0.0015648491690349675 -0.012914497557755564 0 -0.0029641863335903261 -0.012194863297035577 0 -0.0036809297087992687 -0.012670851485061125 0 -0.0032852701205526337 -0.012840154188547242 0 -0.0029958807001569652 -0.013475903698482217 0 -0.0026010868888632988 -0.013513984792541353 0 -0.0015648491690349675 -0.012914497557755564 0 -0.0029641863335903261 -0.012194863297035577 0 -0.0025229873027254966 -0.012992295722493143 0 -0.0040951497983559779 -0.011535415493117826 0 -0.0037578535852831672 -0.012650946592279503 0 -0.0058858234493663472 -0.011724458322153297 0 -0.0029641863335903261 -0.012194863297035577 0 -0.0040951497983559779 -0.011535415493117826 0 -0.0037578535852831672 -0.012650946592279503 0 -0.0029641863335903261 -0.012194863297035577 0 -0.0037578535852831672 -0.012650946592279503 0 -0.0025229873027254966 -0.012992295722493143 0 -0.0028475786274068768 -0.01077662457297684 0 -0.0029641863335903261 -0.012194863297035577 0 -0.0040951497983559779 -0.011535415493117826 0 -0.0037578535852831672 -0.012650946592279503 0 -0.0058858234493663472 -0.011724458322153297 0 -0.0041017829304748699 -0.013612785710207638 0 -0.0040951497983559779 -0.011535415493117826 0 -0.0058858234493663472 -0.011724458322153297 0 -0.0049504488815233904 -0.010206265750690403 0 -0.0079067263564247207 -0.011259640407398104 0 -0.0075732068527773035 -0.0095705503844340529 0 -0.0096069986327238111 -0.012292293583356872 0 -0.0097923019690912463 -0.0089782264728274531 0 -0.0072829900911477695 -0.0081686599970577315 0 -0.0058858234493663472 -0.011724458322153297 0 -0.0049504488815233904 -0.010206265750690403 0 -0.0072829900911477695 -0.0081686599970577315 0 -0.0019277257314270326 -0.012141881461991539 0 -0.0017810319879742475 -0.011964560152826747 0 -0.0024668784799254922 -0.011226415702041111 0 -0.0036809297087992687 -0.012670851485061125 0 -0.0042388751613092997 -0.013450210654646095 0 -0.0028475786274068768 -0.01077662457297684 0 -0.0049504488815233904 -0.010206265750690403 0 -0.0046604070926101211 -0.0081975420061702713 0 -0.0029958807001569652 -0.013475903698482217 0 -0.0042388751613092997 -0.013450210654646095 0 -0.00069997101858112912 -0.012813896487287412 0 -0.00069793866769939615 -0.012778754016103363 0 -0.00067825363146974463 -0.012824532502792595 0 -0.0028475786274068768 -0.01077662457297684 0 -0.0040951497983559779 -0.011535415493117826 0 -0.0049504488815233904 -0.010206265750690403 0 -0.013508382999057721 -0.012049028480126052 0 -0.012255240878031263 -0.013834036695489318 0 -0.014395143546475832 -0.014060421680727835 0 -0.015448628889049828 -0.012223697443372462 0 -0.013508382999057721 -0.012049028480126052 0 -0.014395143546475832 -0.014060421680727835 0 -0.015448628889049828 -0.012223697443372462 0 -0.015031189004560401 -0.010151747562452774 0 -0.013508382999057721 -0.012049028480126052 0 -0.0096069986327238111 -0.012292293583356872 0 -0.013508382999057721 -0.012049028480126052 0 -0.012255240878031263 -0.013834036695489318 0 -0.0096069986327238111 -0.012292293583356872 0 -0.013508382999057721 -0.012049028480126052 0 -0.01214264371522536 -0.0098628433490499899 0 -0.0096069986327238111 -0.012292293583356872 0 -0.01214264371522536 -0.0098628433490499899 0 -0.0097923019690912463 -0.0089782264728274531 0 -0.015031189004560401 -0.010151747562452774 0 -0.013508382999057721 -0.012049028480126052 0 -0.01214264371522536 -0.0098628433490499899 0 -0.015031189004560401 -0.010151747562452774 0 -0.01214264371522536 -0.0098628433490499899 0 -0.013673650383579749 -0.007972286740135762 0 -0.013673650383579749 -0.007972286740135762 0 -0.011209498411916475 -0.0074872419504386518 0 -0.012993329584163146 -0.0061013654906691122 0 -0.01214264371522536 -0.0098628433490499899 0 -0.011209498411916475 -0.0074872419504386518 0 -0.0097923019690912463 -0.0089782264728274531 0 -0.01214264371522536 -0.0098628433490499899 0 -0.013673650383579749 -0.007972286740135762 0 -0.011209498411916475 -0.0074872419504386518 0 -0.011209498411916475 -0.0074872419504386518 0 -0.0097923019690912463 -0.0089782264728274531 0 -0.0087438522390420499 -0.0067053566151848987 0 -0.011209498411916475 -0.0074872419504386518 0 -0.011291313541772034 -0.0050323954829143164 0 -0.0087438522390420499 -0.0067053566151848987 0 -0.011291313541772034 -0.0050323954829143164 0 -0.0087438522390420499 -0.0067053566151848987 0 -0.0091067775345478608 -0.0044538441429161982 0 -0.011209498411916475 -0.0074872419504386518 0 -0.011291313541772034 -0.0050323954829143164 0 -0.012993329584163146 -0.0061013654906691122 0 -0.015316917044213544 -0.0057501432197684952 0 -0.015067290065484474 -0.0029939519132992478 0 -0.013358774027661441 -0.0043077817734499856 0 -0.011291313541772034 -0.0050323954829143164 0 -0.012993329584163146 -0.0061013654906691122 0 -0.013358774027661441 -0.0043077817734499856 0 -0.015316917044213544 -0.0057501432197684952 0 -0.012993329584163146 -0.0061013654906691122 0 -0.013358774027661441 -0.0043077817734499856 0 -0.015316917044213544 -0.0057501432197684952 0 -0.013673650383579749 -0.007972286740135762 0 -0.012993329584163146 -0.0061013654906691122 0 -0.0042388751613092997 -0.013450210654646095 0 -0.0028714824136111183 -0.01368395727895934 0 -0.00069255719089230229 -0.012827439159654242 0 -0.00067825363146974463 -0.012824532502792595 0 -0.00069301418878008384 -0.012858244964335642 0 -0.00069255719089230229 -0.012827439159654242 0 -0.00069997101858112912 -0.012813896487287412 0 -0.00067825363146974463 -0.012824532502792595 0 -0.0049504488815233904 -0.010206265750690403 0 -0.0046604070926101211 -0.0081975420061702713 0 -0.0072829900911477695 -0.0081686599970577315 0 -0.0046604070926101211 -0.0081975420061702713 0 -0.0087438522390420499 -0.0067053566151848987 0 -0.0091067775345478608 -0.0044538441429161982 0 -0.0046604070926101211 -0.0081975420061702713 0 -0.0072829900911477695 -0.0081686599970577315 0 -0.0087438522390420499 -0.0067053566151848987 0 -0.0097923019690912463 -0.0089782264728274531 0 -0.0072829900911477695 -0.0081686599970577315 0 -0.0087438522390420499 -0.0067053566151848987 0 -0.0042388751613092997 -0.013450210654646095 0 -0.010350612848473851 -0.018538811711698407 0 -0.00080546084958010866 -0.013067950729470633 0 -0.00077110653346611061 -0.013078871690793132 0 -0.00075165780515384841 -0.013077375805338898 0 -0.00077110653346611061 -0.013078871690793132 0 -0.00075165780515384841 -0.013077375805338898 0 -0.00073385731927425079 -0.013054316418285901 0 -0.00067121883533364992 -0.012892431611588174 0 -0.00069846853609445501 -0.012927261196640089 0 -0.00070145658838469582 -0.012971767699284877 0 -0.00067825363146974463 -0.012824532502792595 0 -0.00067121883533364992 -0.012892431611588174 0 -0.00069301418878008384 -0.012858244964335642 0 -0.00069301418878008384 -0.012858244964335642 0 -0.00069846853609445501 -0.012927261196640089 0 -0.00068215051873772451 -0.012866923812837768 0 -0.00067121883533364992 -0.012892431611588174 0 -0.00069301418878008384 -0.012858244964335642 0 -0.00069846853609445501 -0.012927261196640089 0 -0.00069846853609445501 -0.012927261196640089 0 -0.00071191160218776837 -0.013023141152660869 0 -0.00068215051873772451 -0.012866923812837768 0 -0.0062048827986267542 -0.045980832641510844 0 -0.0038483833972828411 -0.047476417350930229 0 -0.00069846853609445501 -0.012927261196640089 0 -0.00070145658838469582 -0.012971767699284877 0 -0.00071191160218776837 -0.013023141152660869 0 -0.00067121883533364992 -0.012892431611588174 0 -0.00070145658838469582 -0.012971767699284877 0 -0.00073385731927425079 -0.013054316418285901 0 -0.0028714824136111183 -0.01368395727895934 0 -0.0024980487161875729 -0.013695289612749972 0 -0.00070145658838469582 -0.012971767699284877 0 -0.00073385731927425079 -0.013054316418285901 0 -0.00071191160218776837 -0.013023141152660869 0 -0.011225190695965953 -0.082657352155299985 0 -0.012655119415556255 -0.080366105613486283 0 -0.010587795558069865 -0.079239138696388572 0 -0.011225190695965953 -0.082657352155299985 0 -0.0085951930609747991 -0.080935933248741709 0 -0.0074394417899369758 -0.083133740128436967 0 -0.011225190695965953 -0.082657352155299985 0 -0.0085951930609747991 -0.080935933248741709 0 -0.010587795558069865 -0.079239138696388572 0 -0.015067290065484474 -0.0029939519132992478 0 -0.013358774027661441 -0.0043077817734499856 0 -0.012578415740953341 -0.0012927349449588345 0 -0.011291313541772034 -0.0050323954829143164 0 -0.013358774027661441 -0.0043077817734499856 0 -0.012578415740953341 -0.0012927349449588345 0 -0.010350612848473851 -0.018538811711698407 0 -0.010555185101777088 -0.042903505791617273 0 -0.011291313541772034 -0.0050323954829143164 0 -0.0091067775345478608 -0.0044538441429161982 0 -0.012578415740953341 -0.0012927349449588345 0 -0.00073385731927425079 -0.013054316418285901 0 -0.00071191160218776837 -0.013023141152660869 0 -0.00080769515924723908 -0.013123133815621297 0 -0.00075165780515384841 -0.013077375805338898 0 -0.00073385731927425079 -0.013054316418285901 0 -0.00080769515924723908 -0.013123133815621297 0 -0.0062048827986267542 -0.045980832641510844 0 -0.010555185101777088 -0.042903505791617273 0 -0.014961017645194511 -0.082195308818603194 0 -0.012655119415556255 -0.080366105613486283 0 -0.014396977138859724 -0.079128497643373139 0 -0.011225190695965953 -0.082657352155299985 0 -0.014961017645194511 -0.082195308818603194 0 -0.012655119415556255 -0.080366105613486283 0 -0.016969245066924498 -0.043733708548735317 0 -0.010555185101777088 -0.042903505791617273 0 -0.005724241027403573 -0.060471805101420778 0 -0.010555185101777088 -0.042903505791617273 0 -0.01785846774126645 -0.0795631750639859 0 -0.018190548299842419 -0.079960205454605762 0 -0.017238093176844764 -0.080488301910154714 0 -0.01785846774126645 -0.0795631750639859 0 -0.014961017645194511 -0.082195308818603194 0 -0.016032881270013601 -0.079799033466619748 0 -0.014961017645194511 -0.082195308818603194 0 -0.016032881270013601 -0.079799033466619748 0 -0.014396977138859724 -0.079128497643373139 0 -0.016740140558487562 -0.078527826231671538 0 -0.016032881270013601 -0.079799033466619748 0 -0.015638073297057905 -0.07857256654729125 0 -0.017130142442933621 -0.07908965173066218 0 -0.016740140558487562 -0.078527826231671538 0 -0.016032881270013601 -0.079799033466619748 0 -0.017130142442933621 -0.07908965173066218 0 -0.01785846774126645 -0.0795631750639859 0 -0.016032881270013601 -0.079799033466619748 0 -0.016032881270013601 -0.079799033466619748 0 -0.015638073297057905 -0.07857256654729125 0 -0.014396977138859724 -0.079128497643373139 0 -0.012655119415556255 -0.080366105613486283 0 -0.014396977138859724 -0.079128497643373139 0 -0.013042990931696873 -0.077518041598298434 0 -0.012627477204985827 -0.075721483251558225 0 -0.013042990931696873 -0.077518041598298434 0 -0.013825754964125418 -0.076343869694981026 0 -0.013042990931696873 -0.077518041598298434 0 -0.013825754964125418 -0.076343869694981026 0 -0.014842125830839921 -0.077347240998648426 0 -0.014877303645997835 -0.075974872397682344 0 -0.013825754964125418 -0.076343869694981026 0 -0.014842125830839921 -0.077347240998648426 0 -0.014396977138859724 -0.079128497643373139 0 -0.013042990931696873 -0.077518041598298434 0 -0.014842125830839921 -0.077347240998648426 0 -0.015638073297057905 -0.07857256654729125 0 -0.014842125830839921 -0.077347240998648426 0 -0.016260188907272488 -0.07755731089137434 0 -0.015638073297057905 -0.07857256654729125 0 -0.014396977138859724 -0.079128497643373139 0 -0.014842125830839921 -0.077347240998648426 0 -0.014842125830839921 -0.077347240998648426 0 -0.016009365415120644 -0.076410987791273935 0 -0.016260188907272488 -0.07755731089137434 0 -0.014877303645997835 -0.075974872397682344 0 -0.014842125830839921 -0.077347240998648426 0 -0.016009365415120644 -0.076410987791273935 0 -0.017063036349211958 -0.076877126723464015 0 -0.017091021949556248 -0.076019354580865117 0 -0.016009365415120644 -0.076410987791273935 0 -0.017063036349211958 -0.076877126723464015 0 -0.016009365415120644 -0.076410987791273935 0 -0.016260188907272488 -0.07755731089137434 0 -0.017063036349211958 -0.076877126723464015 0 -0.017166929398828679 -0.077730756043518409 0 -0.016260188907272488 -0.07755731089137434 0 -0.017166929398828679 -0.077730756043518409 0 -0.016740140558487562 -0.078527826231671538 0 -0.016260188907272488 -0.07755731089137434 0 -0.016740140558487562 -0.078527826231671538 0 -0.015638073297057905 -0.07857256654729125 0 -0.016260188907272488 -0.07755731089137434 0 -0.010587795558069865 -0.079239138696388572 0 -0.0086832726847576019 -0.076902285901419634 0 -0.0082596613730085162 -0.078928172496937968 0 -0.0085951930609747991 -0.080935933248741709 0 -0.010587795558069865 -0.079239138696388572 0 -0.0082596613730085162 -0.078928172496937968 0 -0.012655119415556255 -0.080366105613486283 0 -0.013042990931696873 -0.077518041598298434 0 -0.010587795558069865 -0.079239138696388572 0 -0.013042990931696873 -0.077518041598298434 0 -0.010587795558069865 -0.079239138696388572 0 -0.011050695405445394 -0.076513362402594293 0 -0.012627477204985827 -0.075721483251558225 0 -0.013042990931696873 -0.077518041598298434 0 -0.011050695405445394 -0.076513362402594293 0 -0.010587795558069865 -0.079239138696388572 0 -0.011050695405445394 -0.076513362402594293 0 -0.0086832726847576019 -0.076902285901419634 0 -0.010014676822651997 -0.07524413295131914 0 -0.011050695405445394 -0.076513362402594293 0 -0.0086832726847576019 -0.076902285901419634 0 -0.006020078467066029 -0.074798319857778434 0 -0.006268511944949302 -0.076153754238863419 0 -0.0063407703602121048 -0.075550268266131496 0 -0.0086832726847576019 -0.076902285901419634 0 -0.0067467406863959429 -0.078283366751379341 0 -0.0086832726847576019 -0.076902285901419634 0 -0.0082596613730085162 -0.078928172496937968 0 -0.0067467406863959429 -0.078283366751379341 0 -0.0082596613730085162 -0.078928172496937968 0 -0.0067467406863959429 -0.078283366751379341 0 -0.0066366145075307699 -0.079348923802806073 0 -0.0067467406863959429 -0.078283366751379341 0 -0.0066366145075307699 -0.079348923802806073 0 -0.0049332679386458467 -0.078584377160780136 0 -0.0085951930609747991 -0.080935933248741709 0 -0.0082596613730085162 -0.078928172496937968 0 -0.0066366145075307699 -0.079348923802806073 0 -0.0066366145075307699 -0.079348923802806073 0 -0.0049332679386458467 -0.078584377160780136 0 -0.0049572905213985758 -0.081362307688820593 0 -0.0067467406863959429 -0.078283366751379341 0 -0.0049332679386458467 -0.078584377160780136 0 -0.0049096386135507823 -0.077077008565128322 0 -0.0049332679386458467 -0.078584377160780136 0 -0.0049096386135507823 -0.077077008565128322 0 -0.00309419722734907 -0.078199470947313332 0 -0.0059808650267578383 -0.07493654676596799 0 -0.0067467406863959429 -0.078283366751379341 0 -0.0049096386135507823 -0.077077008565128322 0 -0.0059808650267578383 -0.07493654676596799 0 -0.0049096386135507823 -0.077077008565128322 0 -0.0030963821310524301 -0.076096107749746275 0 -0.0030963821310524301 -0.076096107749746275 0 -0.00042637095927450187 -0.07625555087488585 0 -0.00309419722734907 -0.078199470947313332 0 -0.0049096386135507823 -0.077077008565128322 0 -0.0030963821310524301 -0.076096107749746275 0 -0.00309419722734907 -0.078199470947313332 0 0.0021944988994105439 -0.077627189660362431 0 -0.00042637095927450187 -0.07625555087488585 0 -0.0004948256020724139 -0.078667245420374662 0 -0.00042637095927450187 -0.07625555087488585 0 -0.0004948256020724139 -0.078667245420374662 0 -0.00309419722734907 -0.078199470947313332 0 -0.0004948256020724139 -0.078667245420374662 0 -0.00309419722734907 -0.078199470947313332 0 -0.002987610753567801 -0.080290844488114896 0 -0.0049332679386458467 -0.078584377160780136 0 -0.00309419722734907 -0.078199470947313332 0 -0.002987610753567801 -0.080290844488114896 0 -0.002987610753567801 -0.080290844488114896 0 -0.00046090903793742118 -0.081324123627685388 0 -0.0034249073698517799 -0.083495528725976112 0 0.0018154311340129669 -0.079557913238392272 0 -0.0004948256020724139 -0.078667245420374662 0 -0.00046090903793742118 -0.081324123627685388 0 -0.0004948256020724139 -0.078667245420374662 0 -0.002987610753567801 -0.080290844488114896 0 -0.00046090903793742118 -0.081324123627685388 0 0.0022996007220297586 -0.050298483342299929 0 -0.00092600014889397534 -0.048682476395096631 0 0.00052577819941229231 -0.084090850199433534 0 -0.00046090903793742118 -0.081324123627685388 0 -0.0034249073698517799 -0.083495528725976112 0 -0.00064472616313061739 -0.012807651664529362 0 -0.00054853585142520817 -0.012742938189126207 0 -0.00068215051873772451 -0.012866923812837768 0 -0.0037642760664209855 -0.083610984165872579 0 -0.0074394417899369758 -0.083133740128436967 0 -0.005213235887239636 -0.081552775790132828 0 -0.00092600014889397534 -0.048682476395096631 0 -0.0038483833972828411 -0.047476417350930229 0 -0.00092600014889397534 -0.048682476395096631 0 0.002419019849066653 -0.065893288269308251 0 -0.0085951930609747991 -0.080935933248741709 0 -0.0074394417899369758 -0.083133740128436967 0 -0.006938134747718404 -0.081215106116583752 0 -0.0074394417899369758 -0.083133740128436967 0 -0.006938134747718404 -0.081215106116583752 0 -0.005213235887239636 -0.081552775790132828 0 -0.0066366145075307699 -0.079348923802806073 0 -0.006938134747718404 -0.081215106116583752 0 -0.005213235887239636 -0.081552775790132828 0 -0.0085951930609747991 -0.080935933248741709 0 -0.0066366145075307699 -0.079348923802806073 0 -0.006938134747718404 -0.081215106116583752 0 -0.0049332679386458467 -0.078584377160780136 0 -0.002987610753567801 -0.080290844488114896 0 -0.0049572905213985758 -0.081362307688820593 0 0.0023646085654032648 -0.069511131940276513 0 0.002419019849066653 -0.065893288269308251 0 -0.002987610753567801 -0.080290844488114896 0 -0.0034249073698517799 -0.083495528725976112 0 -0.0049572905213985758 -0.081362307688820593 0 0.087425293134184012 -0.067794338064201737 0 0.085820301722145761 -0.073560133898775068 0 0.085796621409751112 -0.071027522874709134 0 0.085776658191653629 -0.068100273071002415 0 0.08655970398559576 -0.069995829195602363 0 0.085820301722145761 -0.073560133898775068 0 0.086635617411065069 -0.067094569436646698 0 0.087033883600568782 -0.069100019107228169 0 0.085776658191653629 -0.068100273071002415 0 0.08655970398559576 -0.069995829195602363 0 0.088239294083027581 -0.067028780337991298 0 0.087425293134184012 -0.067794338064201737 0 0.085806484484525103 -0.067724748573713786 0 0.085796621409751112 -0.071027522874709134 0 0.084998504734503433 -0.06888842547954295 0 0.085806484484525103 -0.067724748573713786 0 0.084999515367640763 -0.064242495278659412 0 0.084998504734503433 -0.06888842547954295 0 0.085806484484525103 -0.067724748573713786 0 0.085796621409751112 -0.071027522874709134 0 0.087425293134184012 -0.067794338064201737 0 0.085806484484525103 -0.067724748573713786 0 0.086179802111642445 -0.065838735939820939 0 0.086635617411065069 -0.067094569436646698 0 0.085877410185648567 -0.063499043535466329 0 0.085806484484525103 -0.067724748573713786 0 0.086179802111642445 -0.065838735939820939 0 0.084999515367640763 -0.064242495278659412 0 0.087425293134184012 -0.067794338064201737 0 0.086179802111642445 -0.065838735939820939 0 0.086591236211275568 -0.063330031547370352 0 0.086179802111642445 -0.065838735939820939 0 0.084999515367640763 -0.064242495278659412 0 0.086591236211275568 -0.063330031547370352 0 0.085776658191653629 -0.068100273071002415 0 0.086587352103289508 -0.064580910253805579 0 0.087151326855055486 -0.065941680151081233 0 0.085776658191653629 -0.068100273071002415 0 0.086587352103289508 -0.064580910253805579 0 0.085027201197089022 -0.063200421253462064 0 0.087151326855055486 -0.065941680151081233 0 0.088287975254148998 -0.064452058305383295 0 0.088239294083027581 -0.067028780337991298 0 0.085776658191653629 -0.068100273071002415 0 0.087151326855055486 -0.065941680151081233 0 0.088239294083027581 -0.067028780337991298 0 0.086587352103289508 -0.064580910253805579 0 0.087151326855055486 -0.065941680151081233 0 0.088287975254148998 -0.064452058305383295 0 0.088287975254148998 -0.064452058305383295 0 0.090228899021719031 -0.06650749454153064 0 0.091176072037874367 -0.06392884376221683 0 0.088287975254148998 -0.064452058305383295 0 0.090228899021719031 -0.06650749454153064 0 0.088239294083027581 -0.067028780337991298 0 0.092785220684370187 -0.066148390756634826 0 0.094824336062176551 -0.062905933942035322 0 0.091176072037874367 -0.06392884376221683 0 0.090228899021719031 -0.06650749454153064 0 0.092785220684370187 -0.066148390756634826 0 0.091176072037874367 -0.06392884376221683 0 0.090228899021719031 -0.06650749454153064 0 0.092785220684370187 -0.066148390756634826 0 0.091144127216380655 -0.068919340214896957 0 0.091144127216380655 -0.068919340214896957 0 0.092488815746951947 -0.070552690904270618 0 0.094039467452018369 -0.068877441189757402 0 0.092785220684370187 -0.066148390756634826 0 0.091144127216380655 -0.068919340214896957 0 0.094039467452018369 -0.068877441189757402 0 0.091144127216380655 -0.068919340214896957 0 0.089276593846120203 -0.069031008045534845 0 0.090779332470516436 -0.072458881005417697 0 0.08655970398559576 -0.069995829195602363 0 0.089276593846120203 -0.069031008045534845 0 0.090779332470516436 -0.072458881005417697 0 0.090228899021719031 -0.06650749454153064 0 0.088239294083027581 -0.067028780337991298 0 0.089276593846120203 -0.069031008045534845 0 0.08655970398559576 -0.069995829195602363 0 0.088239294083027581 -0.067028780337991298 0 0.089276593846120203 -0.069031008045534845 0 0.090228899021719031 -0.06650749454153064 0 0.091144127216380655 -0.068919340214896957 0 0.089276593846120203 -0.069031008045534845 0 0.08655970398559576 -0.069995829195602363 0 0.085379574379925049 -0.075699740852538402 0 0.085820301722145761 -0.073560133898775068 0 0.08461548802497583 -0.073405721599325721 0 0.085145448812447511 -0.074952585710654107 0 0.085379574379925049 -0.075699740852538402 0 0.084872588503223254 -0.075964070442074982 0 0.085820301722145761 -0.073560133898775068 0 0.090779332470516436 -0.072458881005417697 0 0.094141491426656648 -0.075005510116100349 0 0.093979893796433567 -0.071938211723287904 0 0.091144127216380655 -0.068919340214896957 0 0.090779332470516436 -0.072458881005417697 0 0.092488815746951947 -0.070552690904270618 0 0.092488815746951947 -0.070552690904270618 0 0.093979893796433567 -0.071938211723287904 0 0.094039467452018369 -0.068877441189757402 0 0.090779332470516436 -0.072458881005417697 0 0.092488815746951947 -0.070552690904270618 0 0.093979893796433567 -0.071938211723287904 0 0.085379574379925049 -0.075699740852538402 0 0.083699846706518699 -0.077712641978017458 0 0.081834440032560726 -0.079695142208560624 0 0.085145448812447511 -0.074952585710654107 0 0.085016374320127985 -0.077674019121460616 0 0.083699846706518699 -0.077712641978017458 0 0.082087080810034851 -0.079112357993418425 0 0.081834440032560726 -0.079695142208560624 0 0.083699846706518699 -0.077712641978017458 0 0.084872588503223254 -0.075964070442074982 0 0.083722912916925102 -0.07776577549975322 0 0.084872588503223254 -0.075964070442074982 0 0.085115124249473637 -0.074978708046340659 0 0.083722912916925102 -0.07776577549975322 0 0.085379574379925049 -0.075699740852538402 0 0.083699846706518699 -0.077712641978017458 0 0.084872588503223254 -0.075964070442074982 0 0.084872588503223254 -0.075964070442074982 0 0.085115124249473637 -0.074978708046340659 0 0.085820301722145761 -0.073560133898775068 0 0.085115124249473637 -0.074978708046340659 0 0.085820301722145761 -0.073560133898775068 0 0.085796621409751112 -0.071027522874709134 0 0.084998504734503433 -0.06888842547954295 0 0.085796621409751112 -0.071027522874709134 0 0.084998012892475508 -0.073535183783543193 0 0.085115124249473637 -0.074978708046340659 0 0.085796621409751112 -0.071027522874709134 0 0.084998012892475508 -0.073535183783543193 0 0.085115124249473637 -0.074978708046340659 0 0.084998012892475508 -0.073535183783543193 0 0.084432720166204359 -0.077406717854862195 0 0.084998012892475508 -0.073535183783543193 0 0.084432720166204359 -0.077406717854862195 0 0.084997288802265925 -0.078170056869941357 0 0.085115124249473637 -0.074978708046340659 0 0.084432720166204359 -0.077406717854862195 0 0.083722912916925102 -0.07776577549975322 0 0.084432720166204359 -0.077406717854862195 0 0.082771821798655512 -0.078172474824334481 0 0.082646507845564821 -0.078498186362989372 0 0.084996434388881159 -0.078177580331951407 0 0.08305655557793741 -0.07952621240039523 0 0.084432720166204359 -0.077406717854862195 0 0.084997288802265925 -0.078170056869941357 0 0.082771821798655512 -0.078172474824334481 0 0.08499339280656297 -0.08499553806298038 0 0.082531340479624474 -0.083349606845543683 0 0.075949056951402028 -0.084990624156000685 0 0.084997974331327802 -0.078187013231096697 0 0.08499339280656297 -0.08499553806298038 0 0.082531340479624474 -0.083349606845543683 0 0.078415860347265026 -0.08276988886319453 0 0.075949056951402028 -0.084990624156000685 0 0.080818018109364342 -0.080271980534317527 0 0.075930126564068195 -0.084997176013535167 0 0.07648688935306161 -0.083456652221852098 0 0.082531340479624474 -0.083349606845543683 0 0.078415860347265026 -0.08276988886319453 0 0.075949056951402028 -0.084990624156000685 0 0.08305655557793741 -0.07952621240039523 0 0.082135986260815586 -0.080231942105475212 0 0.082771821798655512 -0.078172474824334481 0 0.078415860347265026 -0.08276988886319453 0 0.080587271934204285 -0.079654248773550984 0 0.080587271934204285 -0.079654248773550984 0 0.080208112100610185 -0.080028331183887719 0 0.080818018109364342 -0.080271980534317527 0 0.078415860347265026 -0.08276988886319453 0 0.080587271934204285 -0.079654248773550984 0 0.080818018109364342 -0.080271980534317527 0 0.080587271934204285 -0.079654248773550984 0 0.081317637721554911 -0.079328690063351512 0 0.080208112100610185 -0.080028331183887719 0 0.080587271934204285 -0.079654248773550984 0 0.081317637721554911 -0.079328690063351512 0 0.082646507845564821 -0.078498186362989372 0 0.081317637721554911 -0.079328690063351512 0 0.079885856799607594 -0.08023074201193714 0 0.080208112100610185 -0.080028331183887719 0 0.082771821798655512 -0.078172474824334481 0 0.080587271934204285 -0.079654248773550984 0 0.082646507845564821 -0.078498186362989372 0 0.081317637721554911 -0.079328690063351512 0 0.082646507845564821 -0.078498186362989372 0 0.083722912916925102 -0.07776577549975322 0 0.084432720166204359 -0.077406717854862195 0 0.082646507845564821 -0.078498186362989372 0 0.083722912916925102 -0.07776577549975322 0 0.083699846706518699 -0.077712641978017458 0 0.083722912916925102 -0.07776577549975322 0 0.082087080810034851 -0.079112357993418425 0 0.081317637721554911 -0.079328690063351512 0 0.083722912916925102 -0.07776577549975322 0 0.082087080810034851 -0.079112357993418425 0 0.082087080810034851 -0.079112357993418425 0 0.079885856799607594 -0.08023074201193714 0 0.081834440032560726 -0.079695142208560624 0 0.081317637721554911 -0.079328690063351512 0 0.082087080810034851 -0.079112357993418425 0 0.079885856799607594 -0.08023074201193714 0 0.083127490299726395 -0.080424186157271732 0 0.085016374320127985 -0.077674019121460616 0 0.079885856799607594 -0.08023074201193714 0 0.076454792847067812 -0.081521775050610534 0 0.081834440032560726 -0.079695142208560624 0 0.079885856799607594 -0.08023074201193714 0 0.076454792847067812 -0.081521775050610534 0 0.076273887464317097 -0.081195159357697694 0 0.097189604146781738 -0.07750161449532883 0 0.098132024441155624 -0.075486509856969475 0 0.094141491426656648 -0.075005510116100349 0 0.097189604146781738 -0.07750161449532883 0 0.09882930336566316 -0.077509679306978399 0 0.098132024441155624 -0.075486509856969475 0 0.076454792847067812 -0.081521775050610534 0 0.075011249182948297 -0.082486619503097519 0 0.074048866289843057 -0.083386634049745029 0 0.083127490299726395 -0.080424186157271732 0 0.077075824077712116 -0.081880118031286878 0 0.097189604146781738 -0.07750161449532883 0 0.09882930336566316 -0.077509679306978399 0 0.1000641213808509 -0.079964179440141808 0 0.076454792847067812 -0.081521775050610534 0 0.076273887464317097 -0.081195159357697694 0 0.075011249182948297 -0.082486619503097519 0 0.076273887464317097 -0.081195159357697694 0 0.075011249182948297 -0.082486619503097519 0 0.074426999935481797 -0.083309839261330162 0 0.075011249182948297 -0.082486619503097519 0 0.07336751393576478 -0.084267663573461174 0 0.074048866289843057 -0.083386634049745029 0 0.076273887464317097 -0.081195159357697694 0 0.072636053682953117 -0.085409335504490133 0 0.074426999935481797 -0.083309839261330162 0 0.076273887464317097 -0.081195159357697694 0 0.080208112100610185 -0.080028331183887719 0 0.080818018109364342 -0.080271980534317527 0 0.076427290155585539 -0.083166076764125366 0 0.07648688935306161 -0.083456652221852098 0 0.079885856799607594 -0.08023074201193714 0 0.076273887464317097 -0.081195159357697694 0 0.080208112100610185 -0.080028331183887719 0 0.072636053682953117 -0.085409335504490133 0 0.07336751393576478 -0.084267663573461174 0 0.072264974965919049 -0.085471574695262398 0 0.072636053682953117 -0.085409335504490133 0 0.074426999935481797 -0.083309839261330162 0 0.07336751393576478 -0.084267663573461174 0 0.075011249182948297 -0.082486619503097519 0 0.074426999935481797 -0.083309839261330162 0 0.07336751393576478 -0.084267663573461174 0 0.07336751393576478 -0.084267663573461174 0 0.07135981204743648 -0.085311843793638042 0 0.07180573772187368 -0.084895787019056271 0 0.07336751393576478 -0.084267663573461174 0 0.07135981204743648 -0.085311843793638042 0 0.072264974965919049 -0.085471574695262398 0 0.07135981204743648 -0.085311843793638042 0 0.071639922056226893 -0.084998169065778728 0 0.06735668886931892 -0.084999045801337589 0 0.07135981204743648 -0.085311843793638042 0 0.071639922056226893 -0.084998169065778728 0 0.072264974965919049 -0.085471574695262398 0 0.075925475061582232 -0.085000140704533184 0 0.072636053682953117 -0.085409335504490133 0 0.072264974965919049 -0.085471574695262398 0 0.075925475061582232 -0.085000140704533184 0 0.071639922056226893 -0.084998169065778728 0 0.072264974965919049 -0.085471574695262398 0 0.064835744748369645 -0.0864752022836075 0 0.067347320871351923 -0.084999424236898991 0 0.062655000120108148 -0.085000359494560265 0 0.064835744748369645 -0.0864752022836075 0 0.065497587712797956 -0.088707090711150904 0 0.06340045490657463 -0.086741945886180394 0 0.067361062146204909 -0.084997503201317118 0 0.071916545256560632 -0.083954858887145725 0 0.07135981204743648 -0.085311843793638042 0 0.06735668886931892 -0.084999045801337589 0 0.07180573772187368 -0.084895787019056271 0 0.064835744748369645 -0.0864752022836075 0 0.067347320871351923 -0.084999424236898991 0 0.067423079929894048 -0.087691336437123263 0 0.071916545256560632 -0.083954858887145725 0 0.077075824077712116 -0.081880118031286878 0 0.07336751393576478 -0.084267663573461174 0 0.07180573772187368 -0.084895787019056271 0 0.074048866289843057 -0.083386634049745029 0 0.067423079929894048 -0.087691336437123263 0 0.065497587712797956 -0.088707090711150904 0 0.067601984040422058 -0.090466773456945676 0 0.0723602753267579 -0.082153688383638984 0 0.077075824077712116 -0.081880118031286878 0 0.064835744748369645 -0.0864752022836075 0 0.067423079929894048 -0.087691336437123263 0 0.065497587712797956 -0.088707090711150904 0 0.063900183699218238 -0.087355710745644896 0 0.063529807252017706 -0.087436223241293437 0 0.06340045490657463 -0.086741945886180394 0 0.0723602753267579 -0.082153688383638984 0 0.070839423721531833 -0.082175289383882882 0 0.063676163479124345 -0.087563627224069393 0 0.063483607498603184 -0.087706944227212452 0 0.063529807252017706 -0.087436223241293437 0 0.063900183699218238 -0.087355710745644896 0 0.063676163479124345 -0.087563627224069393 0 0.063529807252017706 -0.087436223241293437 0 0.063676163479124345 -0.087563627224069393 0 0.063805881113247073 -0.087733526266612641 0 0.063483607498603184 -0.087706944227212452 0 0.063900183699218238 -0.087355710745644896 0 0.063676163479124345 -0.087563627224069393 0 0.063805881113247073 -0.087733526266612641 0 0.063900183699218238 -0.087355710745644896 0 0.063805881113247073 -0.087733526266612641 0 0.064155879418695078 -0.087630395113560494 0 0.063805881113247073 -0.087733526266612641 0 0.063975902282473684 -0.087862273901295862 0 0.063826848680518328 -0.0879174225741194 0 0.063805881113247073 -0.087733526266612641 0 0.063826848680518328 -0.0879174225741194 0 0.063583272476253241 -0.087979753885643511 0 0.063805881113247073 -0.087733526266612641 0 0.063583272476253241 -0.087979753885643511 0 0.063483607498603184 -0.087706944227212452 0 0.09882930336566316 -0.077509679306978399 0 0.1000641213808509 -0.079964179440141808 0 0.099932284324146928 -0.077055274162059553 0 0.064155879418695078 -0.087630395113560494 0 0.063975902282473684 -0.087862273901295862 0 0.064140153282937207 -0.088000220718668865 0 0.077075824077712116 -0.081880118031286878 0 0.080053816536666239 -0.082224860158788646 0 0.063805881113247073 -0.087733526266612641 0 0.064155879418695078 -0.087630395113560494 0 0.063975902282473684 -0.087862273901295862 0 0.063975902282473684 -0.087862273901295862 0 0.064140153282937207 -0.088000220718668865 0 0.063935483971548565 -0.088023233803148818 0 0.064140153282937207 -0.088000220718668865 0 0.063935483971548565 -0.088023233803148818 0 0.064050085864732445 -0.088122415408508639 0 0.09882930336566316 -0.077509679306978399 0 0.099932284324146928 -0.077055274162059553 0 0.098132024441155624 -0.075486509856969475 0 0.063826848680518328 -0.0879174225741194 0 0.063788748955889263 -0.088028854596524153 0 0.063583272476253241 -0.087979753885643511 0 0.063975902282473684 -0.087862273901295862 0 0.063826848680518328 -0.0879174225741194 0 0.063935483971548565 -0.088023233803148818 0 0.063826848680518328 -0.0879174225741194 0 0.063935483971548565 -0.088023233803148818 0 0.063788748955889263 -0.088028854596524153 0 0.063935483971548565 -0.088023233803148818 0 0.06386823308709591 -0.088108636405937177 0 0.063890137905762048 -0.088204743201693692 0 0.073964410561056057 -0.082712421775970241 0 0.075197939785922541 -0.080056283403129008 0 0.063935483971548565 -0.088023233803148818 0 0.06386823308709591 -0.088108636405937177 0 0.063788748955889263 -0.088028854596524153 0 0.063788748955889263 -0.088028854596524153 0 0.0637012773403689 -0.088124457770270254 0 0.063583272476253241 -0.087979753885643511 0 0.06386823308709591 -0.088108636405937177 0 0.063788748955889263 -0.088028854596524153 0 0.0637012773403689 -0.088124457770270254 0 0.066777898139768227 -0.082070241662914448 0 0.067673376810772165 -0.081096880371596999 0 0.06386823308709591 -0.088108636405937177 0 0.063803667987058527 -0.088168621385620066 0 0.063890137905762048 -0.088204743201693692 0 0.06386823308709591 -0.088108636405937177 0 0.0637012773403689 -0.088124457770270254 0 0.063686385653692404 -0.088264637491778292 0 0.0637012773403689 -0.088124457770270254 0 0.063686385653692404 -0.088264637491778292 0 0.06360357160065698 -0.08824430343537823 0 0.067673376810772165 -0.081096880371596999 0 0.075197939785922541 -0.080056283403129008 0 0.063935483971548565 -0.088023233803148818 0 0.063972007847560811 -0.088205690922344759 0 0.064050085864732445 -0.088122415408508639 0 0.10248572129488767 -0.074292963656740776 0 0.10283177072931715 -0.071732913457354844 0 0.10150639964405854 -0.072817386957972616 0 0.075197939785922541 -0.080056283403129008 0 0.076022888509258563 -0.075473670844506111 0 0.070480857795210267 -0.081315882739854323 0 0.071924837722480386 -0.079755333014306498 0 0.070924143367533762 -0.077772752010330876 0 0.072760397255639223 -0.081710979522470945 0 0.070480857795210267 -0.081315882739854323 0 0.071924837722480386 -0.079755333014306498 0 0.072760397255639223 -0.081710979522470945 0 0.071924837722480386 -0.079755333014306498 0 0.074008406573031801 -0.080590236238572463 0 0.069832258255866878 -0.07524335861270974 0 0.066590181829044554 -0.079731926559520647 0 0.071924837722480386 -0.079755333014306498 0 0.072162379885145761 -0.076404707213172718 0 0.074008406573031801 -0.080590236238572463 0 0.071924837722480386 -0.079755333014306498 0 0.070924143367533762 -0.077772752010330876 0 0.072162379885145761 -0.076404707213172718 0 0.10283177072931715 -0.071732913457354844 0 0.10124834423750757 -0.070472538291322648 0 0.10150639964405854 -0.072817386957972616 0 0.070924143367533762 -0.077772752010330876 0 0.071585593537907763 -0.076275887595262562 0 0.071370753126332731 -0.074228690808454983 0 0.10283177072931715 -0.071732913457354844 0 0.10124834423750757 -0.070472538291322648 0 0.10314468591332598 -0.069176764873940408 0 0.076022888509258563 -0.075473670844506111 0 0.074543207959041569 -0.072415797639033594 0 0.062782265406103377 -0.070065785384155102 0 0.06309758468009237 -0.07091493334950158 0 0.061882333780789646 -0.069869186323174778 0 0.069853602134981943 -0.075249763028639421 0 0.069832258255866878 -0.07524335861270974 0 0.070924143367533762 -0.077772752010330876 0 0.071585593537907763 -0.076275887595262562 0 0.072162379885145761 -0.076404707213172718 0 0.10124834423750757 -0.070472538291322648 0 0.10010305351505787 -0.071933229501595822 0 0.099200049863203951 -0.069478905523006632 0 0.10150639964405854 -0.072817386957972616 0 0.10010305351505787 -0.071933229501595822 0 0.10017662102648862 -0.073883822748411765 0 0.10124834423750757 -0.070472538291322648 0 0.10150639964405854 -0.072817386957972616 0 0.10010305351505787 -0.071933229501595822 0 0.083306127570881641 -0.080378070348526912 0 0.08241874161173475 -0.082064286258283436 0 0.080053816536666239 -0.082224860158788646 0 0.08241874161173475 -0.082064286258283436 0 0.064140153282937207 -0.088000220718668865 0 0.064157973624617684 -0.088240146373892034 0 0.064050085864732445 -0.088122415408508639 0 0.099932284324146928 -0.077055274162059553 0 0.09979038489067113 -0.074111539046409838 0 0.098132024441155624 -0.075486509856969475 0 0.10248572129488767 -0.074292963656740776 0 0.10150639964405854 -0.072817386957972616 0 0.10017662102648862 -0.073883822748411765 0 0.075197939785922541 -0.080056283403129008 0 0.08241874161173475 -0.082064286258283436 0 0.063972007847560811 -0.088205690922344759 0 0.064157973624617684 -0.088240146373892034 0 0.064050085864732445 -0.088122415408508639 0 0.098132024441155624 -0.075486509856969475 0 0.097051691814878646 -0.073544706124295714 0 0.094141491426656648 -0.075005510116100349 0 0.09979038489067113 -0.074111539046409838 0 0.098132024441155624 -0.075486509856969475 0 0.097051691814878646 -0.073544706124295714 0 0.10010305351505787 -0.071933229501595822 0 0.10022021657938004 -0.074072480764277707 0 0.097051691814878646 -0.073544706124295714 0 0.08241874161173475 -0.082064286258283436 0 0.088000713526141944 -0.081691311576294751 0 0.097051691814878646 -0.073544706124295714 0 0.094141491426656648 -0.075005510116100349 0 0.093979893796433567 -0.071938211723287904 0 0.097051691814878646 -0.073544706124295714 0 0.093979893796433567 -0.071938211723287904 0 0.09652059308092506 -0.070513611976457974 0 0.093979893796433567 -0.071938211723287904 0 0.09652059308092506 -0.070513611976457974 0 0.094039467452018369 -0.068877441189757402 0 0.097051691814878646 -0.073544706124295714 0 0.09652059308092506 -0.070513611976457974 0 0.098222885892347053 -0.071361437614654452 0 0.10010305351505787 -0.071933229501595822 0 0.097051691814878646 -0.073544706124295714 0 0.098222885892347053 -0.071361437614654452 0 0.10010305351505787 -0.071933229501595822 0 0.098222885892347053 -0.071361437614654452 0 0.099200049863203951 -0.069478905523006632 0 0.09652059308092506 -0.070513611976457974 0 0.098222885892347053 -0.071361437614654452 0 0.099200049863203951 -0.069478905523006632 0 0.09652059308092506 -0.070513611976457974 0 0.099200049863203951 -0.069478905523006632 0 0.096779304019639384 -0.067818226123062181 0 0.09652059308092506 -0.070513611976457974 0 0.096779304019639384 -0.067818226123062181 0 0.094039467452018369 -0.068877441189757402 0 0.096779304019639384 -0.067818226123062181 0 0.094039467452018369 -0.068877441189757402 0 0.095137951001863355 -0.066008747729293937 0 0.095137951001863355 -0.066008747729293937 0 0.098580677976956396 -0.064684138307179229 0 0.094824336062176551 -0.062905933942035322 0 0.092785220684370187 -0.066148390756634826 0 0.095137951001863355 -0.066008747729293937 0 0.094824336062176551 -0.062905933942035322 0 0.092785220684370187 -0.066148390756634826 0 0.094039467452018369 -0.068877441189757402 0 0.095137951001863355 -0.066008747729293937 0 0.099200049863203951 -0.069478905523006632 0 0.096779304019639384 -0.067818226123062181 0 0.098580677976956396 -0.064684138307179229 0 0.096779304019639384 -0.067818226123062181 0 0.095137951001863355 -0.066008747729293937 0 0.098580677976956396 -0.064684138307179229 0 0.097031687375472936 -0.06686298492548208 0 0.09614240861561836 -0.064811746538241385 0 0.098292042064144325 -0.065412721423745782 0 0.10186856140709792 -0.065701209761643758 0 0.10068639081710271 -0.067732169217454091 0 0.099200049863203951 -0.069478905523006632 0 0.098292042064144325 -0.065412721423745782 0 0.10068639081710271 -0.067732169217454091 0 0.073504518043713718 -0.068401489602769552 0 0.074543207959041569 -0.072415797639033594 0 0.082432016177910114 -0.067724563618209194 0 0.074543207959041569 -0.072415797639033594 0 0.079800122602018908 -0.066227637230270739 0 0.078097744855381721 -0.06571451622351715 0 0.07939673142487183 -0.069340575397776702 0 0.10186856140709792 -0.065701209761643758 0 0.10314468591332598 -0.069176764873940408 0 0.10068639081710271 -0.067732169217454091 0 0.062891781198771868 -0.072573003011918741 0 0.06309758468009237 -0.07091493334950158 0 0.061654848566420312 -0.071656662883651884 0 0.071585593537907763 -0.076275887595262562 0 0.072164096555202464 -0.076403671826105052 0 0.071370753126332731 -0.074228690808454983 0 0.069832258255866878 -0.07524335861270974 0 0.074543207959041569 -0.072415797639033594 0 0.10124834423750757 -0.070472538291322648 0 0.099200049863203951 -0.069478905523006632 0 0.10068639081710271 -0.067732169217454091 0 0.10124834423750757 -0.070472538291322648 0 0.10314468591332598 -0.069176764873940408 0 0.10068639081710271 -0.067732169217454091 0 0.059793509582625831 -0.071607956941592665 0 0.060438347196918991 -0.07095584925927019 0 0.060483202760129237 -0.071865534818963211 0 0.059793509582625831 -0.071607956941592665 0 0.060438347196918991 -0.07095584925927019 0 0.059151856016491471 -0.070904721672242377 0 0.060438347196918991 -0.07095584925927019 0 0.059151856016491471 -0.070904721672242377 0 0.060528046774322178 -0.06971125833447045 0 0.060438347196918991 -0.07095584925927019 0 0.06104162978744461 -0.070616823805713325 0 0.060541273348335228 -0.06977917192548759 0 0.064477221792534692 -0.073537265068009033 0 0.065662830443813436 -0.076123326871338132 0 0.06104162978744461 -0.070616823805713325 0 0.06148140404441689 -0.071718045495547014 0 0.061647881618167373 -0.070017152804327631 0 0.06309758468009237 -0.07091493334950158 0 0.061654848566420312 -0.071656662883651884 0 0.061882333780789646 -0.069869186323174778 0 0.060438347196918991 -0.07095584925927019 0 0.06148140404441689 -0.071718045495547014 0 0.060483202760129237 -0.071865534818963211 0 0.060438347196918991 -0.07095584925927019 0 0.06104162978744461 -0.070616823805713325 0 0.06148140404441689 -0.071718045495547014 0 0.06148140404441689 -0.071718045495547014 0 0.060820480397739844 -0.072676091385833377 0 0.060483202760129237 -0.071865534818963211 0 0.06148140404441689 -0.071718045495547014 0 0.060820480397739844 -0.072676091385833377 0 0.061376741072806544 -0.073517313633281206 0 0.064477221792534692 -0.073537265068009033 0 0.064052406252974467 -0.073384222673364446 0 0.062891781198771868 -0.072573003011918741 0 0.061654848566420312 -0.071656662883651884 0 0.061376741072806544 -0.073517313633281206 0 0.060820480397739844 -0.072676091385833377 0 0.059888083486440646 -0.072498592543853949 0 0.060618568477519626 -0.073714033737443271 0 0.059888083486440646 -0.072498592543853949 0 0.058614809633384543 -0.073088338566476743 0 0.060618568477519626 -0.073714033737443271 0 0.060820480397739844 -0.072676091385833377 0 0.060483202760129237 -0.071865534818963211 0 0.059888083486440646 -0.072498592543853949 0 0.059793509582625831 -0.071607956941592665 0 0.060483202760129237 -0.071865534818963211 0 0.059888083486440646 -0.072498592543853949 0 0.059793509582625831 -0.071607956941592665 0 0.059888083486440646 -0.072498592543853949 0 0.059039455935759634 -0.072028088038974106 0 0.059888083486440646 -0.072498592543853949 0 0.058614809633384543 -0.073088338566476743 0 0.059039455935759634 -0.072028088038974106 0 0.058614809633384543 -0.073088338566476743 0 0.059039455935759634 -0.072028088038974106 0 0.057808963378855258 -0.072134093742740366 0 0.05905803726045486 -0.067795329610801591 0 0.058536281225928154 -0.068482909244712065 0 0.05707983309504247 -0.072150153768737763 0 0.05734411369953317 -0.0722821343543502 0 0.056429223839293864 -0.07019996970712139 0 0.058614809633384543 -0.073088338566476743 0 0.05707983309504247 -0.072150153768737763 0 0.057808963378855258 -0.072134093742740366 0 0.05707983309504247 -0.072150153768737763 0 0.05729423722960468 -0.0719322285253505 0 0.05734411369953317 -0.0722821343543502 0 0.05707983309504247 -0.072150153768737763 0 0.057808963378855258 -0.072134093742740366 0 0.05729423722960468 -0.0719322285253505 0 0.057808963378855258 -0.072134093742740366 0 0.05729423722960468 -0.0719322285253505 0 0.05792800941333049 -0.071664125156581673 0 0.05729423722960468 -0.0719322285253505 0 0.05792800941333049 -0.071664125156581673 0 0.057293507978242585 -0.07142102587624842 0 0.05792800941333049 -0.071664125156581673 0 0.057293507978242585 -0.07142102587624842 0 0.058599567820116105 -0.070971250619840567 0 0.059039455935759634 -0.072028088038974106 0 0.057808963378855258 -0.072134093742740366 0 0.059151856016491471 -0.070904721672242377 0 0.059793509582625831 -0.071607956941592665 0 0.059039455935759634 -0.072028088038974106 0 0.059151856016491471 -0.070904721672242377 0 0.057808963378855258 -0.072134093742740366 0 0.05792800941333049 -0.071664125156581673 0 0.059067091130704075 -0.071608007132786922 0 0.061291020089370381 -0.074957422884760511 0 0.061811799585391618 -0.075481191368268294 0 0.05792800941333049 -0.071664125156581673 0 0.059067091130704075 -0.071608007132786922 0 0.058599567820116105 -0.070971250619840567 0 0.058599567820116105 -0.070971250619840567 0 0.058324132051963837 -0.069849814919227426 0 0.060398454312544883 -0.070522233530714587 0 0.057722132402246662 -0.080770146698232181 0 0.062337866335799422 -0.078262793498869374 0 0.057293507978242585 -0.07142102587624842 0 0.058599567820116105 -0.070971250619840567 0 0.058324132051963837 -0.069849814919227426 0 0.057293507978242585 -0.07142102587624842 0 0.058324132051963837 -0.069849814919227426 0 0.05489154725862061 -0.068638703422273184 0 0.057722132402246662 -0.080770146698232181 0 0.053288603093269105 -0.081382407342823898 0 0.056365881566004007 -0.097751692313156807 0 0.05381189845975573 -0.094243502519814157 0 0.051767910310564859 -0.096828473647195198 0 0.056365881566004007 -0.097751692313156807 0 0.059488242476407951 -0.096907440780666071 0 0.057641666615091507 -0.094469629626226251 0 0.056365881566004007 -0.097751692313156807 0 0.057641666615091507 -0.094469629626226251 0 0.05381189845975573 -0.094243502519814157 0 0.059488242476407951 -0.096907440780666071 0 0.06149291149357837 -0.095099264950139345 0 0.057641666615091507 -0.094469629626226251 0 0.059488242476407951 -0.096907440780666071 0 0.060885569351898886 -0.098681133388625816 0 0.06149291149357837 -0.095099264950139345 0 0.062337866335799422 -0.078262793498869374 0 0.063465573540221309 -0.084805443985418658 0 0.063465573540221309 -0.084805443985418658 0 0.06169938202384042 -0.086407432495409914 0 0.059067091130704075 -0.071608007132786922 0 0.058599567820116105 -0.070971250619840567 0 0.060398454312544883 -0.070522233530714587 0 0.056365881566004007 -0.097751692313156807 0 0.059488242476407951 -0.096907440780666071 0 0.060885569351898886 -0.098681133388625816 0 0.062296985281206835 -0.076330481184168963 0 0.062337866335799422 -0.078262793498869374 0 0.061811799585391618 -0.075481191368268294 0 0.062337866335799422 -0.078262793498869374 0 0.066562700769425345 -0.078070982840225137 0 0.066374374879616324 -0.078028152088027963 0 0.06635089951700289 -0.078271080716236729 0 0.065662830443813436 -0.076123326871338132 0 0.066590181829044554 -0.079731926559520647 0 0.066594844985824728 -0.074333589222386615 0 0.068381648040245921 -0.074730403043283058 0 0.068053880877273515 -0.077642837382145613 0 0.069832258255866878 -0.07524335861270974 0 0.065662830443813436 -0.076123326871338132 0 0.06104162978744461 -0.070616823805713325 0 0.060541273348335228 -0.06977917192548759 0 0.061647881618167373 -0.070017152804327631 0 0.062337866335799422 -0.078262793498869374 0 0.065662830443813436 -0.076123326871338132 0 0.062337866335799422 -0.078262793498869374 0 0.066590181829044554 -0.079731926559520647 0 0.062809868041440092 -0.080721578411973596 0 0.062827063005556252 -0.080710508272925585 0 0.062820282792718909 -0.080706005270745007 0 0.062837469289912878 -0.080713049070283038 0 0.062827063005556252 -0.080710508272925585 0 0.062838895988460167 -0.080710093263989369 0 0.067673376810772165 -0.081096880371596999 0 0.066590181829044554 -0.079731926559520647 0 0.064952887204932655 -0.081442370357672753 0 0.064192162399267158 -0.082118425131966544 0 0.064237952959263753 -0.081711949466820213 0 0.066590181829044554 -0.079731926559520647 0 0.0662930716654479 -0.081024081401731438 0 0.062809868041440092 -0.080721578411973596 0 0.062837469289912878 -0.080713049070283038 0 0.062827063005556252 -0.080710508272925585 0 0.063465573540221309 -0.084805443985418658 0 0.066029632067458821 -0.08223955424694411 0 0.062827063005556252 -0.080710508272925585 0 0.062820282792718909 -0.080706005270745007 0 0.062839633017920962 -0.080707032240628251 0 0.067673376810772165 -0.081096880371596999 0 0.066029632067458821 -0.08223955424694411 0 0.064952887204932655 -0.081442370357672753 0 0.064281390408255618 -0.081325995651956334 0 0.064237952959263753 -0.081711949466820213 0 0.066029632067458821 -0.08223955424694411 0 0.0662930716654479 -0.081024081401731438 0 0.062827063005556252 -0.080710508272925585 0 0.062839633017920962 -0.080707032240628251 0 0.062838895988460167 -0.080710093263989369 0 0.0637012773403689 -0.088124457770270254 0 0.06360357160065698 -0.08824430343537823 0 0.063583272476253241 -0.087979753885643511 0 0.066029632067458821 -0.08223955424694411 0 0.065657252312625425 -0.084093401836610779 0 0.063560519654318165 -0.088271370103569141 0 0.063583272476253241 -0.087979753885643511 0 0.063338703422389647 -0.08787921906360377 0 0.063465573540221309 -0.084805443985418658 0 0.064137250002303275 -0.086653934893614629 0 0.065737547007127722 -0.083123932564023714 0 0.064505838060977691 -0.082908612903793075 0 0.065471612599152587 -0.08517488810035985 0 0.066029632067458821 -0.08223955424694411 0 0.064137250002303275 -0.086653934893614629 0 0.06152043460819337 -0.095113272686837294 0 0.060285626022122445 -0.093225814663045345 0 0.061955922494219835 -0.091733184712022298 0 0.060285626022122445 -0.093225814663045345 0 0.059345800824114385 -0.091443007012125571 0 0.057641666615091507 -0.094469629626226251 0 0.06152043460819337 -0.095113272686837294 0 0.060285626022122445 -0.093225814663045345 0 0.057641666615091507 -0.094469629626226251 0 0.060285626022122445 -0.093225814663045345 0 0.059345800824114385 -0.091443007012125571 0 0.061955922494219835 -0.091733184712022298 0 0.059345800824114385 -0.091443007012125571 0 0.061139840819848794 -0.089520854427298346 0 0.061955922494219835 -0.091733184712022298 0 0.059345800824114385 -0.091443007012125571 0 0.061139840819848794 -0.089520854427298346 0 0.05900315985198077 -0.089080735293272248 0 0.064137250002303275 -0.086653934893614629 0 0.06316081780712883 -0.0868317519883164 0 0.061139840819848794 -0.089520854427298346 0 0.061942311873829835 -0.091694308595567445 0 0.062397035807407956 -0.088198384425879711 0 0.063338703422389647 -0.08787921906360377 0 0.063483607498603184 -0.087706944227212452 0 0.063167190170752868 -0.087524363616812317 0 0.063583272476253241 -0.087979753885643511 0 0.063338703422389647 -0.08787921906360377 0 0.063483607498603184 -0.087706944227212452 0 0.06409402493246362 -0.087305734469115229 0 0.064137250002303275 -0.086653934893614629 0 0.063483607498603184 -0.087706944227212452 0 0.063529807252017706 -0.087436223241293437 0 0.063167190170752868 -0.087524363616812317 0 0.062397035807407956 -0.088198384425879711 0 0.060050758298647026 -0.087128466699753257 0 0.062854024016264567 -0.084671932320055543 0 0.063529807252017706 -0.087436223241293437 0 0.063167190170752868 -0.087524363616812317 0 0.06340045490657463 -0.086741945886180394 0 0.061139840819848794 -0.089520854427298346 0 0.062397035807407956 -0.088198384425879711 0 0.060050758298647026 -0.087128466699753257 0 0.061139840819848794 -0.089520854427298346 0 0.05900315985198077 -0.089080735293272248 0 0.060050758298647026 -0.087128466699753257 0 0.05900315985198077 -0.089080735293272248 0 0.060050758298647026 -0.087128466699753257 0 0.057487718708061471 -0.087019315212349679 0 0.060050758298647026 -0.087128466699753257 0 0.059342227586141126 -0.084277450707674936 0 0.057487718708061471 -0.087019315212349679 0 0.05909227799346508 -0.08550000034172317 0 0.059181481565860013 -0.084999949027033006 0 0.062538321139858896 -0.085886648647435671 0 0.060050758298647026 -0.087128466699753257 0 0.059342227586141126 -0.084277450707674936 0 0.062854024016264567 -0.084671932320055543 0 0.060610440967374848 -0.08607441201079595 0 0.062469788754749081 -0.085594320918193856 0 0.059181481565860013 -0.084999949027033006 0 0.062653797395698541 -0.085000021709636317 0 0.062538321139858896 -0.085886648647435671 0 0.063167190170752868 -0.087524363616812317 0 0.062681026737313641 -0.085896548511444987 0 0.06340045490657463 -0.086741945886180394 0 0.06316081780712883 -0.0868317519883164 0 0.062469788754749081 -0.085594320918193856 0 0.064835744748369645 -0.0864752022836075 0 0.062655000120108148 -0.085000359494560265 0 0.062681026737313641 -0.085896548511444987 0 0.062652452308441506 -0.08500272812210255 0 0.062469788754749081 -0.085594320918193856 0 0.064835744748369645 -0.0864752022836075 0 0.062681026737313641 -0.085896548511444987 0 0.06340045490657463 -0.086741945886180394 0 0.061234481276142567 -0.087201112583504367 0 0.056833248660085836 -0.089283737638572891 0 0.055823245794801073 -0.083882556656010659 0 0.057487718708061471 -0.087019315212349679 0 0.053899325171960888 -0.087419332963747792 0 0.054559226782970038 -0.084999940945472738 0 0.053647899116221781 -0.088441165221139789 0 0.052282703983483482 -0.086763298922409179 0 0.054559226782970038 -0.084999940945472738 0 0.055617282732072337 -0.085120090424531017 0 0.053647899116221781 -0.088441165221139789 0 0.054563773810090692 -0.085014055281122589 0 0.061234481276142567 -0.087201112583504367 0 0.060610440967374848 -0.08607441201079595 0 0.061234481276142567 -0.087201112583504367 0 0.059342227586141126 -0.084277450707674936 0 0.055823245794801073 -0.083882556656010659 0 0.057487718708061471 -0.087019315212349679 0 0.05909227799346508 -0.08550000034172317 0 0.059181481565860013 -0.084999949027033006 0 0.055644260313215656 -0.084879379931094026 0 0.05900315985198077 -0.089080735293272248 0 0.057487718708061471 -0.087019315212349679 0 0.056985558584908474 -0.090299080075410473 0 0.057487718708061471 -0.087019315212349679 0 0.053899325171960888 -0.087419332963747792 0 0.056985558584908474 -0.090299080075410473 0 0.053899325171960888 -0.087419332963747792 0 0.054568944279366059 -0.091360235905065035 0 0.051950314270514497 -0.090989206681375293 0 0.053899325171960888 -0.087419332963747792 0 0.054568944279366059 -0.091360235905065035 0 0.056985558584908474 -0.090299080075410473 0 0.059345800824114385 -0.091443007012125571 0 0.05900315985198077 -0.089080735293272248 0 0.056985558584908474 -0.090299080075410473 0 0.059345800824114385 -0.091443007012125571 0 0.056985558584908474 -0.090299080075410473 0 0.057641666615091507 -0.094469629626226251 0 0.054568944279366059 -0.091360235905065035 0 0.056985558584908474 -0.090299080075410473 0 0.057641666615091507 -0.094469629626226251 0 0.054568944279366059 -0.091360235905065035 0 0.057641666615091507 -0.094469629626226251 0 0.05381189845975573 -0.094243502519814157 0 0.054568944279366059 -0.091360235905065035 0 0.05381189845975573 -0.094243502519814157 0 0.051950314270514497 -0.090989206681375293 0 0.052835303603767925 -0.093035841740837802 0 0.054024298332723236 -0.091656051079365364 0 0.05381189845975573 -0.094243502519814157 0 0.050001849143045868 -0.094684715405267406 0 0.051950314270514497 -0.090989206681375293 0 0.050001849143045868 -0.094684715405267406 0 0.04721007599621832 -0.093694954164460442 0 0.047399369783323625 -0.095888008248480261 0 0.050001849143045868 -0.094684715405267406 0 0.048174023681582634 -0.091794052908848164 0 0.04721007599621832 -0.093694954164460442 0 0.050001849143045868 -0.094684715405267406 0 0.048174023681582634 -0.091794052908848164 0 0.05173073771954962 -0.091626702651555425 0 0.048174023681582634 -0.091794052908848164 0 0.05173073771954962 -0.091626702651555425 0 0.050618503981034325 -0.088583327860106253 0 0.056833248660085836 -0.089283737638572891 0 0.054024298332723236 -0.091656051079365364 0 0.053647899116221781 -0.088441165221139789 0 0.050618503981034325 -0.088583327860106253 0 0.052282703983483482 -0.086763298922409179 0 0.053647899116221781 -0.088441165221139789 0 0.05173073771954962 -0.091626702651555425 0 0.050618503981034325 -0.088583327860106253 0 0.048174023681582634 -0.091794052908848164 0 0.050618503981034325 -0.088583327860106253 0 0.047496930988063811 -0.088081526974923982 0 0.050320715572403626 -0.084999939946325057 0 0.046081909923523227 -0.08499991960661403 0 0.047496930988063811 -0.088081526974923982 0 0.050618503981034325 -0.088583327860106253 0 0.050320715572403626 -0.084999939946325057 0 0.047496930988063811 -0.088081526974923982 0 0.050618503981034325 -0.088583327860106253 0 0.050320715572403626 -0.084999939946325057 0 0.052282703983483482 -0.086763298922409179 0 0.054559226782970038 -0.084999940945472738 0 0.050320715572403626 -0.084999939946325057 0 0.052282703983483482 -0.086763298922409179 0 0.041961327037835908 -0.087951228299493756 0 0.041843584274954014 -0.084999901242050646 0 0.044383050774194299 -0.087185727029314986 0 0.041843584274954014 -0.084999901242050646 0 0.044383050774194299 -0.087185727029314986 0 0.046081909923523227 -0.08499991960661403 0 0.044383050774194299 -0.087185727029314986 0 0.046081909923523227 -0.08499991960661403 0 0.047496930988063811 -0.088081526974923982 0 0.044383050774194299 -0.087185727029314986 0 0.047496930988063811 -0.088081526974923982 0 0.044495267572864976 -0.089856205392472507 0 0.048174023681582634 -0.091794052908848164 0 0.047496930988063811 -0.088081526974923982 0 0.044495267572864976 -0.089856205392472507 0 0.041961327037835908 -0.087951228299493756 0 0.044383050774194299 -0.087185727029314986 0 0.044495267572864976 -0.089856205392472507 0 0.04086637567146003 -0.091788776758554097 0 0.044495267572864976 -0.089856205392472507 0 0.044998298489534995 -0.093313737417037287 0 0.048174023681582634 -0.091794052908848164 0 0.044495267572864976 -0.089856205392472507 0 0.044998298489534995 -0.093313737417037287 0 0.048174023681582634 -0.091794052908848164 0 0.04721007599621832 -0.093694954164460442 0 0.044998298489534995 -0.093313737417037287 0 0.04721007599621832 -0.093694954164460442 0 0.044998298489534995 -0.093313737417037287 0 0.047399369783323625 -0.095888008248480261 0 0.040449800464485035 -0.090843045318141497 0 0.042710362426882788 -0.091888348389107644 0 0.044998298489534995 -0.093313737417037287 0 0.043169149755467325 -0.094969670858901969 0 0.047399369783323625 -0.095888008248480261 0 0.040495097950806837 -0.091462617031368654 0 0.044998298489534995 -0.093313737417037287 0 0.043169149755467325 -0.094969670858901969 0 0.044116899324085634 -0.065941224109219695 0 0.044625322561952521 -0.071446567039486333 0 0.047680182625179618 -0.069839580040672686 0 0.044625322561952521 -0.071446567039486333 0 0.047680182625179618 -0.069839580040672686 0 0.048919824232102088 -0.074544835199349027 0 0.047680182625179618 -0.069839580040672686 0 0.050700727774798754 -0.070106488239969719 0 0.048919824232102088 -0.074544835199349027 0 0.047680182625179618 -0.069839580040672686 0 0.049941661966552572 -0.067272726668739555 0 0.050700727774798754 -0.070106488239969719 0 0.043615242596162659 -0.080433374323273771 0 0.048582480767682339 -0.081089699113213426 0 0.044116899324085634 -0.065941224109219695 0 0.047680182625179618 -0.069839580040672686 0 0.049941661966552572 -0.067272726668739555 0 0.050001849143045868 -0.094684715405267406 0 0.047399369783323625 -0.095888008248480261 0 0.051767910310564859 -0.096828473647195198 0 0.049941661966552572 -0.067272726668739555 0 0.05489154725862061 -0.068638703422273184 0 0.050700727774798754 -0.070106488239969719 0 0.048582480767682339 -0.081089699113213426 0 0.053288603093269105 -0.081382407342823898 0 0.05381189845975573 -0.094243502519814157 0 0.050001849143045868 -0.094684715405267406 0 0.051767910310564859 -0.096828473647195198 0 0.057293507978242585 -0.07142102587624842 0 0.05489154725862061 -0.068638703422273184 0 0.053139763969863439 -0.072597386849406864 0 0.0501136144381229 -0.070410877302789318 0 0.049280549138691641 -0.069585501876834557 0 0.05489154725862061 -0.068638703422273184 0 0.050700727774798754 -0.070106488239969719 0 0.053139763969863439 -0.072597386849406864 0 0.050700727774798754 -0.070106488239969719 0 0.053611928251544219 -0.073663328851642618 0 0.048919824232102088 -0.074544835199349027 0 0.041542121678438668 -0.065482526816456679 0 0.041473384100909033 -0.065814087681472289 0 0.041135358015517064 -0.065567423426360821 0 0.049280549138691641 -0.069585501876834557 0 0.045294626291954687 -0.069824753655006525 0 0.05729423722960468 -0.0719322285253505 0 0.057293507978242585 -0.07142102587624842 0 0.056656203349304164 -0.071690130919492862 0 0.049280549138691641 -0.069585501876834557 0 0.049584656714454327 -0.06845422166406874 0 0.053454079457458177 -0.069579392763202075 0 0.049280549138691641 -0.069585501876834557 0 0.05729423722960468 -0.0719322285253505 0 0.056656203349304164 -0.071690130919492862 0 0.05734411369953317 -0.0722821343543502 0 0.041841180046174847 -0.065788112028325879 0 0.041473384100909033 -0.065814087681472289 0 0.041772431548014417 -0.066200143824309998 0 0.041542121678438668 -0.065482526816456679 0 0.041841180046174847 -0.065788112028325879 0 0.041473384100909033 -0.065814087681472289 0 0.041473384100909033 -0.065814087681472289 0 0.041216706970483241 -0.065826162152280751 0 0.041135358015517064 -0.065567423426360821 0 0.041473384100909033 -0.065814087681472289 0 0.041216706970483241 -0.065826162152280751 0 0.041245249841964156 -0.06609012261063632 0 0.041216706970483241 -0.065826162152280751 0 0.041012828893395824 -0.065836939117549315 0 0.041245249841964156 -0.06609012261063632 0 0.041012828893395824 -0.065836939117549315 0 0.040714674343751013 -0.066018693775921566 0 0.041245249841964156 -0.06609012261063632 0 0.041216706970483241 -0.065826162152280751 0 0.041012828893395824 -0.065836939117549315 0 0.041135358015517064 -0.065567423426360821 0 0.041012828893395824 -0.065836939117549315 0 0.040725006983892732 -0.065652897975092259 0 0.040714674343751013 -0.066018693775921566 0 0.041857961872174831 -0.069894127464468353 0 0.045294626291954687 -0.069824753655006525 0 0.044625322561952521 -0.071446567039486333 0 0.044285095967153382 -0.075430918303084862 0 0.048919824232102088 -0.074544835199349027 0 0.041012828893395824 -0.065836939117549315 0 0.040725006983892732 -0.065652897975092259 0 0.041135358015517064 -0.065567423426360821 0 0.040078754854668726 -0.066485901787796675 0 0.040295823072573879 -0.067147911940169738 0 0.040686388717100126 -0.06688029325890027 0 0.040078754854668726 -0.066485901787796675 0 0.040295823072573879 -0.067147911940169738 0 0.039634242024425281 -0.067036365678079038 0 0.039634242024425281 -0.067036365678079038 0 0.039041390564590675 -0.066672497346881104 0 0.039212920463181672 -0.067331280678458505 0 0.038370211613589063 -0.067497830270770789 0 0.039041390564590675 -0.066672497346881104 0 0.039212920463181672 -0.067331280678458505 0 0.040078754854668726 -0.066485901787796675 0 0.039634242024425281 -0.067036365678079038 0 0.039041390564590675 -0.066672497346881104 0 0.039071440480384245 -0.066925343483092814 0 0.038751516334267606 -0.067078720258543501 0 0.040078754854668726 -0.066485901787796675 0 0.039041390564590675 -0.066672497346881104 0 0.038932640855765192 -0.065653336507700402 0 0.038751516334267606 -0.067078720258543501 0 0.040449242437269571 -0.066670550279324212 0 0.040078754854668726 -0.066485901787796675 0 0.038994033622546782 -0.065676250901648733 0 0.040364184155146796 -0.065887671078967161 0 0.040449242437269571 -0.066670550279324212 0 0.041071825137728273 -0.066590823173596686 0 0.041473384100909033 -0.065814087681472289 0 0.041245249841964156 -0.06609012261063632 0 0.041772431548014417 -0.066200143824309998 0 0.040078754854668726 -0.066485901787796675 0 0.040364184155146796 -0.065887671078967161 0 0.040895996557267222 -0.066463306130376376 0 0.040364184155146796 -0.065887671078967161 0 0.041772431548014417 -0.066200143824309998 0 0.040895996557267222 -0.066463306130376376 0 0.041772431548014417 -0.066200143824309998 0 0.041430664671415443 -0.066609764028420393 0 0.040895996557267222 -0.066463306130376376 0 0.041772431548014417 -0.066200143824309998 0 0.041430664671415443 -0.066609764028420393 0 0.041986872369681287 -0.066548558722128406 0 0.041430664671415443 -0.066609764028420393 0 0.041828879969310465 -0.066889014673023495 0 0.041986872369681287 -0.066548558722128406 0 0.041430664671415443 -0.066609764028420393 0 0.041472987614385178 -0.066998930511417393 0 0.041075317886391335 -0.066769982222782479 0 0.041472987614385178 -0.066998930511417393 0 0.041031941962724972 -0.067077093566407772 0 0.041192345236029645 -0.067394587163810457 0 0.041472987614385178 -0.066998930511417393 0 0.041075317886391335 -0.066769982222782479 0 0.041031941962724972 -0.067077093566407772 0 0.041472987614385178 -0.066998930511417393 0 0.041686783497194152 -0.067116137490898869 0 0.0415491781878344 -0.067355655618113797 0 0.041430664671415443 -0.066609764028420393 0 0.041472987614385178 -0.066998930511417393 0 0.041828879969310465 -0.066889014673023495 0 0.041472987614385178 -0.066998930511417393 0 0.041686783497194152 -0.067116137490898869 0 0.041828879969310465 -0.066889014673023495 0 0.041686783497194152 -0.067116137490898869 0 0.041828879969310465 -0.066889014673023495 0 0.041894614949151372 -0.067223101339994901 0 0.040078754854668726 -0.066485901787796675 0 0.040895996557267222 -0.066463306130376376 0 0.040686388717100126 -0.06688029325890027 0 0.041430664671415443 -0.066609764028420393 0 0.040895996557267222 -0.066463306130376376 0 0.041075317886391335 -0.066769982222782479 0 0.040895996557267222 -0.066463306130376376 0 0.041075317886391335 -0.066769982222782479 0 0.040686388717100126 -0.06688029325890027 0 0.041075317886391335 -0.066769982222782479 0 0.041031941962724972 -0.067077093566407772 0 0.040686388717100126 -0.06688029325890027 0 0.041031941962724972 -0.067077093566407772 0 0.040686388717100126 -0.06688029325890027 0 0.040734354683950764 -0.06733113181209148 0 0.040295823072573879 -0.067147911940169738 0 0.040686388717100126 -0.06688029325890027 0 0.040734354683950764 -0.06733113181209148 0 0.040295823072573879 -0.067147911940169738 0 0.040734354683950764 -0.06733113181209148 0 0.040249920288039143 -0.06772944475218122 0 0.040734354683950764 -0.06733113181209148 0 0.040957698673058665 -0.067729378612551891 0 0.041192345236029645 -0.067394587163810457 0 0.041031941962724972 -0.067077093566407772 0 0.040734354683950764 -0.06733113181209148 0 0.041192345236029645 -0.067394587163810457 0 0.040957698673058665 -0.067729378612551891 0 0.040591337359939958 -0.068126396911763434 0 0.040249920288039143 -0.06772944475218122 0 0.040734354683950764 -0.06733113181209148 0 0.040957698673058665 -0.067729378612551891 0 0.040249920288039143 -0.06772944475218122 0 0.041738182858556766 -0.067478493672340545 0 0.041894614949151372 -0.067223101339994901 0 0.042038390471171458 -0.067578230336347758 0 0.041738182858556766 -0.067478493672340545 0 0.041894614949151372 -0.067223101339994901 0 0.0415491781878344 -0.067355655618113797 0 0.041686783497194152 -0.067116137490898869 0 0.041894614949151372 -0.067223101339994901 0 0.0415491781878344 -0.067355655618113797 0 0.041738182858556766 -0.067478493672340545 0 0.0415491781878344 -0.067355655618113797 0 0.041582774077101092 -0.067633449109555335 0 0.0415491781878344 -0.067355655618113797 0 0.041192345236029645 -0.067394587163810457 0 0.041582774077101092 -0.067633449109555335 0 0.041472987614385178 -0.066998930511417393 0 0.0415491781878344 -0.067355655618113797 0 0.041192345236029645 -0.067394587163810457 0 0.040957698673058665 -0.067729378612551891 0 0.041582774077101092 -0.067633449109555335 0 0.041465731193691034 -0.068177926626212859 0 0.040957698673058665 -0.067729378612551891 0 0.041192345236029645 -0.067394587163810457 0 0.041582774077101092 -0.067633449109555335 0 0.041738182858556766 -0.067478493672340545 0 0.041582774077101092 -0.067633449109555335 0 0.042038390471171458 -0.067578230336347758 0 0.041582774077101092 -0.067633449109555335 0 0.041465731193691034 -0.068177926626212859 0 0.042137172207221643 -0.067698811345653476 0 0.04361884079227981 -0.036614491638513914 0 0.044816513568106939 -0.037300854807082062 0 0.044897059561886693 -0.0357652578859406 0 0.04361884079227981 -0.036614491638513914 0 0.042367851571207538 -0.037473148127214875 0 0.043766442645746743 -0.038214972262397687 0 0.04361884079227981 -0.036614491638513914 0 0.043766442645746743 -0.038214972262397687 0 0.044816513568106939 -0.037300854807082062 0 0.042423658500797712 -0.053384349700765867 0 0.045888129727370761 -0.057447377734794892 0 0.040957698673058665 -0.067729378612551891 0 0.041465731193691034 -0.068177926626212859 0 0.040591337359939958 -0.068126396911763434 0 0.041465731193691034 -0.068177926626212859 0 0.040591337359939958 -0.068126396911763434 0 0.040771367424101167 -0.06864640472018825 0 0.042423658500797712 -0.053384349700765867 0 0.038462787006863459 -0.04988289129815654 0 0.038462787006863459 -0.04988289129815654 0 0.036041087106399756 -0.057035438398812109 0 0.040591337359939958 -0.068126396911763434 0 0.040771367424101167 -0.06864640472018825 0 0.040072911624199604 -0.068290240841800964 0 0.032891397659656166 -0.04879859554477959 0 0.03226043231725105 -0.048473229655953499 0 0.032446220894313385 -0.049171180258721858 0 0.040072911624199604 -0.068290240841800964 0 0.040249920288039143 -0.06772944475218122 0 0.039370536951159253 -0.067929116424554722 0 0.033533195107117907 -0.049137792482074574 0 0.032891397659656166 -0.04879859554477959 0 0.032956609930373297 -0.049517963909919159 0 0.036041087106399756 -0.057035438398812109 0 0.032771597280794179 -0.06344479594979005 0 0.040591337359939958 -0.068126396911763434 0 0.040072911624199604 -0.068290240841800964 0 0.040249920288039143 -0.06772944475218122 0 0.040249920288039143 -0.06772944475218122 0 0.039703008011028509 -0.067458831564498598 0 0.039370536951159253 -0.067929116424554722 0 0.040295823072573879 -0.067147911940169738 0 0.039634242024425281 -0.067036365678079038 0 0.039703008011028509 -0.067458831564498598 0 0.040295823072573879 -0.067147911940169738 0 0.040249920288039143 -0.06772944475218122 0 0.039703008011028509 -0.067458831564498598 0 0.038370211613589063 -0.067497830270770789 0 0.039212920463181672 -0.067331280678458505 0 0.039320877735642974 -0.068004489081869013 0 0.02903699669097529 -0.069051281051556682 0 0.032771597280794179 -0.06344479594979005 0 0.039634242024425281 -0.067036365678079038 0 0.039703008011028509 -0.067458831564498598 0 0.039212920463181672 -0.067331280678458505 0 0.039703008011028509 -0.067458831564498598 0 0.039212920463181672 -0.067331280678458505 0 0.039320877735642974 -0.068004489081869013 0 0.033207122544627023 -0.063641836227526297 0 0.032771597280794179 -0.06344479594979005 0 0.027103091055731207 -0.05808640910898815 0 0.032771597280794179 -0.06344479594979005 0 0.031744858583615081 -0.049185490388090197 0 0.03226043231725105 -0.048473229655953499 0 0.032446220894313385 -0.049171180258721858 0 0.020235591072559993 -0.078348712525395048 0 0.021739055664581296 -0.082144978024862148 0 0.025165405860670981 -0.077179000801336897 0 0.031744858583615081 -0.049185490388090197 0 0.032446220894313385 -0.049171180258721858 0 0.03238455361671997 -0.049887838369152906 0 0.040814497446837968 -0.038169532197738526 0 0.039474632008133045 -0.039079304961087392 0 0.041909469344813842 -0.039005842719591705 0 0.032446220894313385 -0.049171180258721858 0 0.032956609930373297 -0.049517963909919159 0 0.03238455361671997 -0.049887838369152906 0 0.032891397659656166 -0.04879859554477959 0 0.032446220894313385 -0.049171180258721858 0 0.032956609930373297 -0.049517963909919159 0 0.036982379169538247 -0.044475882765785971 0 0.035365567126396179 -0.039302053549241787 0 0.03815367667230208 -0.0098407353688423817 0 0.03899869331667484 -0.01124070041125293 0 0.039907562761734607 -0.010193743652260718 0 0.035365567126396179 -0.039302053549241787 0 0.03853994325611957 -0.039202942797246738 0 0.039493904786356782 -0.039004179383320244 0 0.041909469344813842 -0.039005842719591705 0 0.041428587658988623 -0.040033861334858312 0 0.038677341988990185 -0.039550409586380342 0 0.039493904786356782 -0.039004179383320244 0 0.041428587658988623 -0.040033861334858312 0 0.036208120726853497 -0.033670267459618618 0 0.040026261376174231 -0.028590616841174699 0 0.026539175420841617 -0.042776353324627259 0 0.035365567126396179 -0.039302053549241787 0 0.027486026642730157 -0.039734808292334778 0 0.034463495679032813 -0.04159826289780004 0 0.037489953735586591 -0.039538997890313093 0 0.036208120726853497 -0.033670267459618618 0 0.035365567126396179 -0.039302053549241787 0 0.03815367667230208 -0.0098407353688423817 0 0.037942655416898452 -0.010970352159374246 0 0.03899869331667484 -0.01124070041125293 0 0.037942655416898452 -0.010970352159374246 0 0.03899869331667484 -0.01124070041125293 0 0.03802506456977825 -0.011977318262661915 0 0.03899869331667484 -0.01124070041125293 0 0.040434237439410624 -0.011634842567380605 0 0.039907562761734607 -0.010193743652260718 0 0.044165394010516529 -0.01644242520374025 0 0.042138771509864496 -0.014717985873255778 0 0.03899869331667484 -0.01124070041125293 0 0.040434237439410624 -0.011634842567380605 0 0.039273545008120796 -0.01275844109390461 0 0.03899869331667484 -0.01124070041125293 0 0.03802506456977825 -0.011977318262661915 0 0.039273545008120796 -0.01275844109390461 0 0.042853373421630897 -0.0096654109263952896 0 0.04593093060663047 -0.010291815018331037 0 0.043975683102776525 -0.012543071017878681 0 0.040434237439410624 -0.011634842567380605 0 0.041606356364896083 -0.010526182986032907 0 0.039907562761734607 -0.010193743652260718 0 0.044165394010516529 -0.01644242520374025 0 0.043377664121416068 -0.025748674287953757 0 0.042853373421630897 -0.0096654109263952896 0 0.044899404404280675 -0.0077640478156339445 0 0.04593093060663047 -0.010291815018331037 0 0.044085990438486662 -0.040432071472572897 0 0.041909469344813842 -0.039005842719591705 0 0.043766442645746743 -0.038214972262397687 0 0.044085990438486662 -0.040432071472572897 0 0.041909469344813842 -0.039005842719591705 0 0.041428587658988623 -0.040033861334858312 0 0.043377664121416068 -0.025748674287953757 0 0.040026261376174231 -0.028590616841174699 0 0.042130432397800267 -0.037301923878941289 0 0.041909469344813842 -0.039005842719591705 0 0.043766442645746743 -0.038214972262397687 0 0.042130432397800267 -0.037301923878941289 0 0.040814497446837968 -0.038169532197738526 0 0.041909469344813842 -0.039005842719591705 0 0.038462787006863459 -0.04988289129815654 0 0.036982379169538247 -0.044475882765785971 0 0.038462787006863459 -0.04988289129815654 0 0.038689150476336864 -0.04820337616552247 0 0.043766442645746743 -0.038214972262397687 0 0.045852850528013862 -0.038619991988095285 0 0.044816513568106939 -0.037300854807082062 0 0.045852850528013862 -0.038619991988095285 0 0.046213906539072556 -0.037366595640772979 0 0.044816513568106939 -0.037300854807082062 0 0.053594571556406449 -0.05735326778901309 0 0.053345590488639606 -0.060662595415137389 0 0.056208932465641563 -0.060745690840988541 0 0.053697028587879676 -0.044950185762970774 0 0.049876701813702705 -0.050562784728164868 0 0.045852850528013862 -0.038619991988095285 0 0.047426730496394343 -0.03888482816490578 0 0.046213906539072556 -0.037366595640772979 0 0.045852850528013862 -0.038619991988095285 0 0.046326229494311588 -0.040401399854210103 0 0.047426730496394343 -0.03888482816490578 0 0.046326229494311588 -0.040401399854210103 0 0.047426730496394343 -0.03888482816490578 0 0.047625412762839305 -0.039995024941614103 0 0.044085990438486662 -0.040432071472572897 0 0.043766442645746743 -0.038214972262397687 0 0.045852850528013862 -0.038619991988095285 0 0.043377664121416068 -0.025748674287953757 0 0.041513369056351057 -0.031176309027788025 0 0.044390850441224268 -0.040037604126744716 0 0.045852850528013862 -0.038619991988095285 0 0.046326229494311588 -0.040401399854210103 0 0.044899404404280675 -0.0077640478156339445 0 0.047578987733800204 -0.0082583422775061883 0 0.04593093060663047 -0.010291815018331037 0 0.043377664121416068 -0.025748674287953757 0 0.048050693891441065 -0.027744224530423262 0 0.047578987733800204 -0.0082583422775061883 0 0.04593093060663047 -0.010291815018331037 0 0.048812003097062462 -0.010753930864641758 0 0.053827789866645569 -0.0076332660504135064 0 0.055851591445436034 -0.0086745824591895719 0 0.055022287529952217 -0.006775117298029462 0 0.053827789866645569 -0.0076332660504135064 0 0.055851591445436034 -0.0086745824591895719 0 0.053860710976800744 -0.0096638339549135286 0 0.055594401180464562 -0.018771509742893711 0 0.057157339472934901 -0.032205738529331424 0 0.053827789866645569 -0.0076332660504135064 0 0.051103819890687713 -0.008817789938988697 0 0.053860710976800744 -0.0096638339549135286 0 0.053827789866645569 -0.0076332660504135064 0 0.051103819890687713 -0.008817789938988697 0 0.05313260633311355 -0.0059244194392113455 0 0.048050693891441065 -0.027744224530423262 0 0.057157339472934901 -0.032205738529331424 0 0.046326229494311588 -0.040401399854210103 0 0.048343360185612638 -0.040744904030456518 0 0.047625412762839305 -0.039995024941614103 0 0.047578987733800204 -0.0082583422775061883 0 0.048812003097062462 -0.010753930864641758 0 0.050234310516205159 -0.0087574559897068693 0 0.048343360185612638 -0.040744904030456518 0 0.048628328052501966 -0.040330076406935464 0 0.047625412762839305 -0.039995024941614103 0 0.057157339472934901 -0.032205738529331424 0 0.058430031106506332 -0.037145148875606639 0 0.065311669527901614 -0.038597152537127366 0 0.064180419674505954 -0.037172569209359026 0 0.063542148378124857 -0.041169252298645889 0 0.06186320553914277 -0.035912309921519787 0 0.063417961849688856 -0.043655394346369926 0 0.09290447901619539 -0.051847288643505497 0 0.092813156069908573 -0.052323210898530599 0 0.092686438026896217 -0.052110995939615413 0 0.057001689610649151 -0.030972109701673068 0 0.057720909084516998 -0.02993424995438608 0 0.058797038006527323 -0.031278192856671543 0 0.058430031106506332 -0.037145148875606639 0 0.06186320553914277 -0.035912309921519787 0 0.053827789866645569 -0.0076332660504135064 0 0.05313260633311355 -0.0059244194392113455 0 0.054492127122780523 -0.0061388750477051352 0 0.053827789866645569 -0.0076332660504135064 0 0.054492127122780523 -0.0061388750477051352 0 0.055022287529952217 -0.006775117298029462 0 0.057157339472934901 -0.032205738529331424 0 0.06186320553914277 -0.035912309921519787 0 0.06186320553914277 -0.035912309921519787 0 0.061212262746221546 -0.034858740162440366 0 0.09290447901619539 -0.051847288643505497 0 0.092686438026896217 -0.052110995939615413 0 0.092590662658409567 -0.051993268894837262 0 0.092813156069908573 -0.052323210898530599 0 0.092674016271779139 -0.052273353451565176 0 0.092686438026896217 -0.052110995939615413 0 0.058430031106506332 -0.037145148875606639 0 0.063417961849688856 -0.043655394346369926 0 0.092679157397304382 -0.052460197704241658 0 0.092813156069908573 -0.052323210898530599 0 0.092674016271779139 -0.052273353451565176 0 0.064375317259220355 -0.043370080836745678 0 0.063417961849688856 -0.043655394346369926 0 0.058430031106506332 -0.037145148875606639 0 0.053697028587879676 -0.044950185762970774 0 0.048628328052501966 -0.040330076406935464 0 0.047426730496394343 -0.03888482816490578 0 0.047625412762839305 -0.039995024941614103 0 0.049410893462469276 -0.056139460956623692 0 0.053594571556406449 -0.05735326778901309 0 0.050960711884191524 -0.058692232874011631 0 0.050929687265238742 -0.053920971578642882 0 0.049410893462469276 -0.056139460956623692 0 0.053594571556406449 -0.05735326778901309 0 0.053594571556406449 -0.05735326778901309 0 0.050960711884191524 -0.058692232874011631 0 0.053345590488639606 -0.060662595415137389 0 0.063417961849688856 -0.043655394346369926 0 0.067479638271597087 -0.05413920089814913 0 0.049410893462469276 -0.056139460956623692 0 0.050960711884191524 -0.058692232874011631 0 0.048856089737507109 -0.060766222828913093 0 0.092679157397304382 -0.052460197704241658 0 0.092658913102132104 -0.052482513701799537 0 0.092609260397666066 -0.05238745182054505 0 0.050960711884191524 -0.058692232874011631 0 0.048856089737507109 -0.060766222828913093 0 0.051436408292135166 -0.062749860226185949 0 0.048856089737507109 -0.060766222828913093 0 0.051436408292135166 -0.062749860226185949 0 0.048367874753453728 -0.065337868470213695 0 0.067479638271597087 -0.05413920089814913 0 0.070373348500028909 -0.058612838292043494 0 0.050892803158696862 -0.065465799208711317 0 0.051436408292135166 -0.062749860226185949 0 0.048367874753453728 -0.065337868470213695 0 0.050892803158696862 -0.065465799208711317 0 0.05013281971374757 -0.067317769668777158 0 0.048367874753453728 -0.065337868470213695 0 0.052677469775813744 -0.065239640041898375 0 0.051436408292135166 -0.062749860226185949 0 0.054512222891394881 -0.063747932814182201 0 0.052677469775813744 -0.065239640041898375 0 0.054512222891394881 -0.063747932814182201 0 0.054057348251538087 -0.066045162491128948 0 0.052677469775813744 -0.065239640041898375 0 0.051916603564750599 -0.066698027726024678 0 0.053074311234436025 -0.066627912587316096 0 0.052677469775813744 -0.065239640041898375 0 0.054057348251538087 -0.066045162491128948 0 0.053074311234436025 -0.066627912587316096 0 0.050892803158696862 -0.065465799208711317 0 0.052677469775813744 -0.065239640041898375 0 0.051916603564750599 -0.066698027726024678 0 0.050892803158696862 -0.065465799208711317 0 0.052677469775813744 -0.065239640041898375 0 0.051436408292135166 -0.062749860226185949 0 0.053345590488639606 -0.060662595415137389 0 0.051436408292135166 -0.062749860226185949 0 0.054512222891394881 -0.063747932814182201 0 0.050960711884191524 -0.058692232874011631 0 0.053345590488639606 -0.060662595415137389 0 0.051436408292135166 -0.062749860226185949 0 0.056208932465641563 -0.060745690840988541 0 0.058851442248872329 -0.064104945554600487 0 0.054512222891394881 -0.063747932814182201 0 0.053345590488639606 -0.060662595415137389 0 0.056208932465641563 -0.060745690840988541 0 0.054512222891394881 -0.063747932814182201 0 0.049876701813702705 -0.050562784728164868 0 0.045888129727370761 -0.057447377734794892 0 0.046213906539072556 -0.037366595640772979 0 0.044816513568106939 -0.037300854807082062 0 0.044897059561886693 -0.0357652578859406 0 0.042038390471171458 -0.067578230336347758 0 0.042130395979224085 -0.067690348917641349 0 0.042280805985230839 -0.066979830159774253 0 0.042130395979224085 -0.067690348917641349 0 0.043101381505658475 -0.067005805741441382 0 0.042280805985230839 -0.066979830159774253 0 0.041582774077101092 -0.067633449109555335 0 0.042038390471171458 -0.067578230336347758 0 0.042137172207221643 -0.067698811345653476 0 0.045916259449851671 -0.057547598641441787 0 0.045888129727370761 -0.057447377734794892 0 0.041894614949151372 -0.067223101339994901 0 0.042038390471171458 -0.067578230336347758 0 0.042280805985230839 -0.066979830159774253 0 0.045888129727370761 -0.057447377734794892 0 0.049556002823501435 -0.064129028078844449 0 0.058851442248872329 -0.064104945554600487 0 0.054512222891394881 -0.063747932814182201 0 0.054781952368760552 -0.066917848625612161 0 0.054512222891394881 -0.063747932814182201 0 0.054057348251538087 -0.066045162491128948 0 0.054781952368760552 -0.066917848625612161 0 0.043101381505658475 -0.067005805741441382 0 0.042280805985230839 -0.066979830159774253 0 0.042392393989550949 -0.066233649569887837 0 0.054057348251538087 -0.066045162491128948 0 0.053928170978992232 -0.067518871589252169 0 0.054758158051343396 -0.0669736451705049 0 0.05454180682987058 -0.067135577811702554 0 0.054505881779822477 -0.068945571823232979 0 0.056429223839293864 -0.07019996970712139 0 0.049556002823501435 -0.064129028078844449 0 0.049783506698458636 -0.066960658733983325 0 0.049752502464009467 -0.064315878844490443 0 0.049556002823501435 -0.064129028078844449 0 0.049645740092401587 -0.064128989700268577 0 0.049556002823501435 -0.064129028078844449 0 0.053928170978992232 -0.067518871589252169 0 0.054505881779822477 -0.068945571823232979 0 0.05321909755143963 -0.068676654201251131 0 0.053928170978992232 -0.067518871589252169 0 0.05454180682987058 -0.067135577811702554 0 0.054505881779822477 -0.068945571823232979 0 0.042280805985230839 -0.066979830159774253 0 0.041986872369681287 -0.066548558722128406 0 0.042392393989550949 -0.066233649569887837 0 0.041828879969310465 -0.066889014673023495 0 0.041894614949151372 -0.067223101339994901 0 0.042280805985230839 -0.066979830159774253 0 0.041828879969310465 -0.066889014673023495 0 0.042280805985230839 -0.066979830159774253 0 0.041986872369681287 -0.066548558722128406 0 0.041841180046174847 -0.065788112028325879 0 0.041772431548014417 -0.066200143824309998 0 0.042392393989550949 -0.066233649569887837 0 0.041772431548014417 -0.066200143824309998 0 0.041986872369681287 -0.066548558722128406 0 0.042392393989550949 -0.066233649569887837 0 0.054910992218244373 -0.0714904919603193 0 0.05707983309504247 -0.072150153768737763 0 0.056429223839293864 -0.07019996970712139 0 0.049584656714454327 -0.06845422166406874 0 0.049783506698458636 -0.066960658733983325 0 0.054505881779822477 -0.068945571823232979 0 0.05506215401530213 -0.070188666402931255 0 0.053655320963880343 -0.069934887938654391 0 0.054505881779822477 -0.068945571823232979 0 0.053655320963880343 -0.069934887938654391 0 0.05321909755143963 -0.068676654201251131 0 0.054505881779822477 -0.068945571823232979 0 0.056429223839293864 -0.07019996970712139 0 0.05506215401530213 -0.070188666402931255 0 0.054910992218244373 -0.0714904919603193 0 0.056429223839293864 -0.07019996970712139 0 0.05506215401530213 -0.070188666402931255 0 0.054910992218244373 -0.0714904919603193 0 0.05506215401530213 -0.070188666402931255 0 0.053655320963880343 -0.069934887938654391 0 0.054910992218244373 -0.0714904919603193 0 0.053655320963880343 -0.069934887938654391 0 0.051600464082295669 -0.070732856892339976 0 0.05905803726045486 -0.067795329610801591 0 0.061969407850857632 -0.065737732937974649 0 0.053655320963880343 -0.069934887938654391 0 0.05230000121836572 -0.069474884148820928 0 0.05321909755143963 -0.068676654201251131 0 0.053655320963880343 -0.069934887938654391 0 0.05230000121836572 -0.069474884148820928 0 0.051600464082295669 -0.070732856892339976 0 0.051389273494157874 -0.069512792870208368 0 0.05230000121836572 -0.069474884148820928 0 0.051746548957499465 -0.068406745045711329 0 0.051389273494157874 -0.069512792870208368 0 0.05230000121836572 -0.069474884148820928 0 0.051600464082295669 -0.070732856892339976 0 0.061969407850857632 -0.065737732937974649 0 0.073219270645705659 -0.062850451961569992 0 0.060618568477519626 -0.073714033737443271 0 0.061376741072806544 -0.073517313633281206 0 0.06267846673492429 -0.074302224319004614 0 0.051600464082295669 -0.070732856892339976 0 0.050152428962716454 -0.069300941350309855 0 0.047941893659106012 -0.069717657620271295 0 0.062891781198771868 -0.072573003011918741 0 0.061376741072806544 -0.073517313633281206 0 0.06267846673492429 -0.074302224319004614 0 0.060820480397739844 -0.072676091385833377 0 0.060618568477519626 -0.073714033737443271 0 0.061376741072806544 -0.073517313633281206 0 0.051389273494157874 -0.069512792870208368 0 0.050152428962716454 -0.069300941350309855 0 0.051746548957499465 -0.068406745045711329 0 0.051389273494157874 -0.069512792870208368 0 0.051600464082295669 -0.070732856892339976 0 0.050152428962716454 -0.069300941350309855 0 0.050152428962716454 -0.069300941350309855 0 0.05013281971374757 -0.067317769668777158 0 0.051746548957499465 -0.068406745045711329 0 0.05013281971374757 -0.067317769668777158 0 0.047941893659106012 -0.069717657620271295 0 0.048367874753453728 -0.065337868470213695 0 0.050152428962716454 -0.069300941350309855 0 0.05013281971374757 -0.067317769668777158 0 0.047941893659106012 -0.069717657620271295 0 0.050892803158696862 -0.065465799208711317 0 0.05013281971374757 -0.067317769668777158 0 0.051916603564750599 -0.066698027726024678 0 0.05013281971374757 -0.067317769668777158 0 0.051916603564750599 -0.066698027726024678 0 0.051746548957499465 -0.068406745045711329 0 0.051916603564750599 -0.066698027726024678 0 0.052824795647907444 -0.067619433841539969 0 0.051746548957499465 -0.068406745045711329 0 0.051916603564750599 -0.066698027726024678 0 0.053074311234436025 -0.066627912587316096 0 0.052824795647907444 -0.067619433841539969 0 0.054057348251538087 -0.066045162491128948 0 0.053928170978992232 -0.067518871589252169 0 0.053074311234436025 -0.066627912587316096 0 0.053928170978992232 -0.067518871589252169 0 0.053074311234436025 -0.066627912587316096 0 0.052824795647907444 -0.067619433841539969 0 0.052824795647907444 -0.067619433841539969 0 0.05321909755143963 -0.068676654201251131 0 0.051746548957499465 -0.068406745045711329 0 0.053928170978992232 -0.067518871589252169 0 0.052824795647907444 -0.067619433841539969 0 0.05321909755143963 -0.068676654201251131 0 0.05230000121836572 -0.069474884148820928 0 0.05321909755143963 -0.068676654201251131 0 0.051746548957499465 -0.068406745045711329 0 0.086651077775419236 -0.062708781674452915 0 0.089244198446185294 -0.057261321147847294 0 0.092832230086167977 -0.052010003605795788 0 0.092628884091134608 -0.051977364597214228 0 0.092627606112499247 -0.052160278578879442 0 0.073219270645705659 -0.062850451961569992 0 0.070373348500028909 -0.058612838292043494 0 0.079800122602018908 -0.066227637230270739 0 0.078097744855381721 -0.06571451622351715 0 0.080189096190571768 -0.063128597915849322 0 0.078097744855381721 -0.06571451622351715 0 0.076804075245916648 -0.062111150123601279 0 0.080189096190571768 -0.063128597915849322 0 0.086651077775419236 -0.062708781674452915 0 0.073219270645705659 -0.062850451961569992 0 0.073504518043713718 -0.068401489602769552 0 0.073219270645705659 -0.062850451961569992 0 0.098292042064144325 -0.065412721423745782 0 0.10186856140709792 -0.065701209761643758 0 0.100584746457375 -0.062223193704453748 0 0.082432016177910114 -0.067724563618209194 0 0.086651077775419236 -0.062708781674452915 0 0.098580677976956396 -0.064684138307179229 0 0.094824336062176551 -0.062905933942035322 0 0.097683815002122434 -0.0598495651035202 0 0.098292042064144325 -0.065412721423745782 0 0.100584746457375 -0.062223193704453748 0 0.097432707706810742 -0.061277598098224625 0 0.09614240861561836 -0.064811746538241385 0 0.09366562775691939 -0.061129169275250056 0 0.094824336062176551 -0.062905933942035322 0 0.097683815002122434 -0.0598495651035202 0 0.092290503883254604 -0.058240383449011467 0 0.09366562775691939 -0.061129169275250056 0 0.09335913756206056 -0.060354882081572872 0 0.095637206352344323 -0.05751892062121864 0 0.0941810392584395 -0.057067983149642981 0 0.095076747248733315 -0.055914127821747032 0 0.086651077775419236 -0.062708781674452915 0 0.09366562775691939 -0.061129169275250056 0 0.0941810392584395 -0.057067983149642981 0 0.093886032997070781 -0.055433082999461612 0 0.095076747248733315 -0.055914127821747032 0 0.09366562775691939 -0.061129169275250056 0 0.093506362450010108 -0.057479166692768077 0 0.093886032997070781 -0.055433082999461612 0 0.094516391370235403 -0.05434090607270925 0 0.095076747248733315 -0.055914127821747032 0 0.095296393382406974 -0.058948016137022156 0 0.094783829224644747 -0.056504366929055125 0 0.092290503883254604 -0.058240383449011467 0 0.094783829224644747 -0.056504366929055125 0 0.0928094225604148 -0.055455270364549857 0 0.092290503883254604 -0.058240383449011467 0 0.094783829224644747 -0.056504366929055125 0 0.093663819019973324 -0.053874996770562365 0 0.0928094225604148 -0.055455270364549857 0 0.093506362450010108 -0.057479166692768077 0 0.093407512395174877 -0.056213885522621951 0 0.093663819019973324 -0.053874996770562365 0 0.092536645311093152 -0.053509980920416131 0 0.0928094225604148 -0.055455270364549857 0 0.093165357387298073 -0.052323214713797722 0 0.09293936011923333 -0.052287064253472799 0 0.092949823600435189 -0.052154649556778877 0 0.093886032997070781 -0.055433082999461612 0 0.094516391370235403 -0.05434090607270925 0 0.093663819019973324 -0.053874996770562365 0 0.090658030348191296 -0.055182698863999895 0 0.089244198446185294 -0.057261321147847294 0 0.093165357387298073 -0.052323214713797722 0 0.09293936011923333 -0.052287064253472799 0 0.092987635311596706 -0.052465796121545206 0 0.09280691776268335 -0.052356798156153364 0 0.09293936011923333 -0.052287064253472799 0 0.092987635311596706 -0.052465796121545206 0 0.09280691776268335 -0.052356798156153364 0 0.09293936011923333 -0.052287064253472799 0 0.092799779101151947 -0.052211664600966837 0 0.092832230086167977 -0.052010003605795788 0 0.092799779101151947 -0.052211664600966837 0 0.092949823600435189 -0.052154649556778877 0 0.09293936011923333 -0.052287064253472799 0 0.092799779101151947 -0.052211664600966837 0 0.092949823600435189 -0.052154649556778877 0 0.092832230086167977 -0.052010003605795788 0 0.092799779101151947 -0.052211664600966837 0 0.092627606112499247 -0.052160278578879442 0 0.092609260397666066 -0.05238745182054505 0 0.092799779101151947 -0.052211664600966837 0 0.092627606112499247 -0.052160278578879442 0 0.092609260397666066 -0.05238745182054505 0 0.09280691776268335 -0.052356798156153364 0 0.092799779101151947 -0.052211664600966837 0 0.092679157397304382 -0.052460197704241658 0 0.092609260397666066 -0.05238745182054505 0 0.092691953725168141 -0.052450214553647664 0 0.092609260397666066 -0.05238745182054505 0 0.09280691776268335 -0.052356798156153364 0 0.092691953725168141 -0.052450214553647664 0 0.09280691776268335 -0.052356798156153364 0 0.092691953725168141 -0.052450214553647664 0 0.092820752240901291 -0.052456076317747485 0 0.092691953725168141 -0.052450214553647664 0 0.092691644777957688 -0.052517387045118359 0 0.092820752240901291 -0.052456076317747485 0 0.092679157397304382 -0.052460197704241658 0 0.092691953725168141 -0.052450214553647664 0 0.092691644777957688 -0.052517387045118359 0 0.09280691776268335 -0.052356798156153364 0 0.092987635311596706 -0.052465796121545206 0 0.092820752240901291 -0.052456076317747485 0 0.092987635311596706 -0.052465796121545206 0 0.092820752240901291 -0.052456076317747485 0 0.093022636600679665 -0.052630843805032967 0 0.092691644777957688 -0.052517387045118359 0 0.092820752240901291 -0.052456076317747485 0 0.093022636600679665 -0.052630843805032967 0 0.092987635311596706 -0.052465796121545206 0 0.093022636600679665 -0.052630843805032967 0 0.093171488942058525 -0.052689877782925235 0 0.093022636600679665 -0.052630843805032967 0 0.093124908842953991 -0.05268945289929889 0 0.093040145152516171 -0.052678039297785632 0 0.093022636600679665 -0.052630843805032967 0 0.093124908842953991 -0.05268945289929889 0 0.093171488942058525 -0.052689877782925235 0 0.093022636600679665 -0.052630843805032967 0 0.092957253239091014 -0.052652594513670249 0 0.093040145152516171 -0.052678039297785632 0 0.092691644777957688 -0.052517387045118359 0 0.093022636600679665 -0.052630843805032967 0 0.092957253239091014 -0.052652594513670249 0 0.092957253239091014 -0.052652594513670249 0 0.093017125505738221 -0.052734682093790661 0 0.093040145152516171 -0.052678039297785632 0 0.093124908842953991 -0.05268945289929889 0 0.093040145152516171 -0.052678039297785632 0 0.09314410936396024 -0.052631877092702867 0 0.092691644777957688 -0.052517387045118359 0 0.092957253239091014 -0.052652594513670249 0 0.093017125505738221 -0.052734682093790661 0 0.092691644777957688 -0.052517387045118359 0 0.092317003068935685 -0.052135176095757213 0 0.092607414180307809 -0.052315297414937345 0 0.083393236566036311 -0.048054871593465429 0 0.081677191485911155 -0.045142194980698498 0 0.092679157397304382 -0.052460197704241658 0 0.092691644777957688 -0.052517387045118359 0 0.092607414180307809 -0.052315297414937345 0 0.092679157397304382 -0.052460197704241658 0 0.092607414180307809 -0.052315297414937345 0 0.092674016271779139 -0.052273353451565176 0 0.092317003068935685 -0.052135176095757213 0 0.092540270941484731 -0.052132762659804634 0 0.092607414180307809 -0.052315297414937345 0 0.092540270941484731 -0.052132762659804634 0 0.092607414180307809 -0.052315297414937345 0 0.092674016271779139 -0.052273353451565176 0 0.092540270941484731 -0.052132762659804634 0 0.092674016271779139 -0.052273353451565176 0 0.092686438026896217 -0.052110995939615413 0 0.06186320553914277 -0.035912309921519787 0 0.075470736805508934 -0.033392311006332449 0 0.09290447901619539 -0.051847288643505497 0 0.092590662658409567 -0.051993268894837262 0 0.092454864983481169 -0.051861006056306821 0 0.09290447901619539 -0.051847288643505497 0 0.092454864983481169 -0.051861006056306821 0 0.092168315016846192 -0.051669368188442318 0 0.054486927381523761 -0.0061261214911799144 0 0.055022287529952217 -0.006775117298029462 0 0.059197876170935103 -0.0068262452760782834 0 0.092540270941484731 -0.052132762659804634 0 0.092686438026896217 -0.052110995939615413 0 0.092590662658409567 -0.051993268894837262 0 0.092454864983481169 -0.051861006056306821 0 0.092401539604725955 -0.051977012346576298 0 0.092168315016846192 -0.051669368188442318 0 0.092317003068935685 -0.052135176095757213 0 0.092540270941484731 -0.052132762659804634 0 0.092401539604725955 -0.051977012346576298 0 0.092590662658409567 -0.051993268894837262 0 0.092454864983481169 -0.051861006056306821 0 0.092401539604725955 -0.051977012346576298 0 0.092540270941484731 -0.052132762659804634 0 0.092590662658409567 -0.051993268894837262 0 0.092401539604725955 -0.051977012346576298 0 0.092317003068935685 -0.052135176095757213 0 0.092401539604725955 -0.051977012346576298 0 0.092168315016846192 -0.051669368188442318 0 0.093017125505738221 -0.052734682093790661 0 0.09298658831218877 -0.052600335841333522 0 0.092970655503732999 -0.052253394978576215 0 0.093017125505738221 -0.052734682093790661 0 0.093040145152516171 -0.052678039297785632 0 0.09298658831218877 -0.052600335841333522 0 0.081677191485911155 -0.045142194980698498 0 0.075470736805508934 -0.033392311006332449 0 0.093040145152516171 -0.052678039297785632 0 0.09298658831218877 -0.052600335841333522 0 0.093083663007879638 -0.052604549462885827 0 0.093040145152516171 -0.052678039297785632 0 0.093083663007879638 -0.052604549462885827 0 0.09314410936396024 -0.052631877092702867 0 0.093083663007879638 -0.052604549462885827 0 0.093169369131441179 -0.052522857572070952 0 0.09314410936396024 -0.052631877092702867 0 0.09298658831218877 -0.052600335841333522 0 0.093083663007879638 -0.052604549462885827 0 0.093169369131441179 -0.052522857572070952 0 0.09298658831218877 -0.052600335841333522 0 0.092970655503732999 -0.052253394978576215 0 0.092530777580086571 -0.052146262690644998 0 0.084955359451720364 -0.041422601164100403 0 0.07968083232695812 -0.03566882589279731 0 0.059197876170935103 -0.0068262452760782834 0 0.057698382859290777 -0.0097112037692235337 0 0.060319024365908087 -0.010313360635961484 0 0.059647858702221439 -0.0055978832428770046 0 0.062130284659772966 -0.0081994366410352692 0 0.060726564351223374 -0.0096030586436259713 0 0.075470736805508934 -0.033392311006332449 0 0.06712524909750496 -0.015623789802607778 0 0.075470736805508934 -0.033392311006332449 0 0.07968083232695812 -0.03566882589279731 0 0.059647858702221439 -0.0055978832428770046 0 0.062130284659772966 -0.0081994366410352692 0 0.061755046700614248 -0.0059312224615770291 0 0.055851591445436034 -0.0086745824591895719 0 0.059197876170935103 -0.0068262452760782834 0 0.057698382859290777 -0.0097112037692235337 0 0.055851591445436034 -0.0086745824591895719 0 0.055022287529952217 -0.006775117298029462 0 0.059197876170935103 -0.0068262452760782834 0 0.085349530151909631 -0.038318815078799931 0 0.087055150520271837 -0.038628251301926424 0 0.093030343390556672 -0.052277289062811476 0 0.09285254897423359 -0.052425654815805404 0 0.092597798355138677 -0.052062388370624095 0 0.082270537893127049 -0.036815231573070442 0 0.083702515545315395 -0.037055850698726141 0 0.082497264595317824 -0.038253454128424916 0 0.087055150520271837 -0.038628251301926424 0 0.080318117214338805 -0.031627380130143025 0 0.085349530151909631 -0.038318815078799931 0 0.07968083232695812 -0.03566882589279731 0 0.082270537893127049 -0.036815231573070442 0 0.080839031346034804 -0.036577270570687138 0 0.082497264595317824 -0.038253454128424916 0 0.07968083232695812 -0.03566882589279731 0 0.080318117214338805 -0.031627380130143025 0 0.062130284659772966 -0.0081994366410352692 0 0.061755046700614248 -0.0059312224615770291 0 0.065810852195469297 -0.0097797418562361287 0 0.093030343390556672 -0.052277289062811476 0 0.093169369131441179 -0.052522857572070952 0 0.093133758815500955 -0.052542054905955995 0 0.093169369131441179 -0.052522857572070952 0 0.09314410936396024 -0.052631877092702867 0 0.093133758815500955 -0.052542054905955995 0 0.09314410936396024 -0.052631877092702867 0 0.093133758815500955 -0.052542054905955995 0 0.093250095704866878 -0.052737496247587022 0 0.093133758815500955 -0.052542054905955995 0 0.09285254897423359 -0.052425654815805404 0 0.093099116974796559 -0.052670523837597204 0 0.093030343390556672 -0.052277289062811476 0 0.093133758815500955 -0.052542054905955995 0 0.09285254897423359 -0.052425654815805404 0 0.09285254897423359 -0.052425654815805404 0 0.093099116974796559 -0.052670523837597204 0 0.092717375487009243 -0.052713247411972246 0 0.093099116974796559 -0.052670523837597204 0 0.092931594665482981 -0.052987063345188656 0 0.092717375487009243 -0.052713247411972246 0 0.093099116974796559 -0.052670523837597204 0 0.092931594665482981 -0.052987063345188656 0 0.093486272081060737 -0.052878320909727092 0 0.093124908842953991 -0.05268945289929889 0 0.09314410936396024 -0.052631877092702867 0 0.093250095704866878 -0.052737496247587022 0 0.093133758815500955 -0.052542054905955995 0 0.093099116974796559 -0.052670523837597204 0 0.093250095704866878 -0.052737496247587022 0 0.093099116974796559 -0.052670523837597204 0 0.093250095704866878 -0.052737496247587022 0 0.093486272081060737 -0.052878320909727092 0 0.093250095704866878 -0.052737496247587022 0 0.093486272081060737 -0.052878320909727092 0 0.093171488942058525 -0.052689877782925235 0 0.093124908842953991 -0.05268945289929889 0 0.093250095704866878 -0.052737496247587022 0 0.093171488942058525 -0.052689877782925235 0 0.093165357387298073 -0.052323214713797722 0 0.093486272081060737 -0.052878320909727092 0 0.093171488942058525 -0.052689877782925235 0 0.094516391370235403 -0.05434090607270925 0 0.093486272081060737 -0.052878320909727092 0 0.093663819019973324 -0.053874996770562365 0 0.090658030348191296 -0.055182698863999895 0 0.091066808897289533 -0.054580740044805308 0 0.093165357387298073 -0.052323214713797722 0 0.092987635311596706 -0.052465796121545206 0 0.093171488942058525 -0.052689877782925235 0 0.092931594665482981 -0.052987063345188656 0 0.093663819019973324 -0.053874996770562365 0 0.092536645311093152 -0.053509980920416131 0 0.092931594665482981 -0.052987063345188656 0 0.093486272081060737 -0.052878320909727092 0 0.093663819019973324 -0.053874996770562365 0 0.092931594665482981 -0.052987063345188656 0 0.092536645311093152 -0.053509980920416131 0 0.09224400258125573 -0.053055635811358567 0 0.091017708828450589 -0.052750856209450338 0 0.089846344019638799 -0.052536609893258854 0 0.092536645311093152 -0.053509980920416131 0 0.091859592698701573 -0.053377282853054507 0 0.09224400258125573 -0.053055635811358567 0 0.092536645311093152 -0.053509980920416131 0 0.089508273431360599 -0.053028488892443153 0 0.090606606355622246 -0.055534902170683048 0 0.091859592698701573 -0.053377282853054507 0 0.09224400258125573 -0.053055635811358567 0 0.091599894751722227 -0.052875372969670618 0 0.09224400258125573 -0.053055635811358567 0 0.092113586383119464 -0.052418136003134608 0 0.091599894751722227 -0.052875372969670618 0 0.09224400258125573 -0.053055635811358567 0 0.092717375487009243 -0.052713247411972246 0 0.092113586383119464 -0.052418136003134608 0 0.092931594665482981 -0.052987063345188656 0 0.09224400258125573 -0.053055635811358567 0 0.092717375487009243 -0.052713247411972246 0 0.09285254897423359 -0.052425654815805404 0 0.092717375487009243 -0.052713247411972246 0 0.092113586383119464 -0.052418136003134608 0 0.09285254897423359 -0.052425654815805404 0 0.092113586383119464 -0.052418136003134608 0 0.092597798355138677 -0.052062388370624095 0 0.088026737920768747 -0.044830369696048714 0 0.087055150520271837 -0.038628251301926424 0 0.088026737920768747 -0.044830369696048714 0 0.087916943541667972 -0.048693414578000291 0 0.091971679173381254 -0.04640686777137016 0 0.09092962401513266 -0.04318235341661178 0 0.094536658465043805 -0.043789986772355967 0 0.091971679173381254 -0.04640686777137016 0 0.09092962401513266 -0.04318235341661178 0 0.088165419860351021 -0.045631937115215924 0 0.089784240077002739 -0.039736947734314625 0 0.087055150520271837 -0.038628251301926424 0 0.09092962401513266 -0.04318235341661178 0 0.094422250318954612 -0.043711253515485458 0 0.093627793233617071 -0.041339060888058991 0 0.084999922994608915 -0.042636198027563729 0 0.088165419860351021 -0.045631937115215924 0 0.0881106078878824 -0.041922584484272059 0 0.084999922994608915 -0.042636198027563729 0 0.088165419860351021 -0.045631937115215924 0 0.084999988683828007 -0.047099915567441156 0 0.09092962401513266 -0.04318235341661178 0 0.088165419860351021 -0.045631937115215924 0 0.0881106078878824 -0.041922584484272059 0 0.091971679173381254 -0.04640686777137016 0 0.088165419860351021 -0.045631937115215924 0 0.089418688376555228 -0.049028364180518633 0 0.088165419860351021 -0.045631937115215924 0 0.084999988683828007 -0.047099915567441156 0 0.086863015224410547 -0.048997011830893465 0 0.084999988683828007 -0.047099915567441156 0 0.086863015224410547 -0.048997011830893465 0 0.084999977334908397 -0.051563596562857139 0 0.088165419860351021 -0.045631937115215924 0 0.086863015224410547 -0.048997011830893465 0 0.089418688376555228 -0.049028364180518633 0 0.086863015224410547 -0.048997011830893465 0 0.089418688376555228 -0.049028364180518633 0 0.086856749438720862 -0.051644290317327257 0 0.087916943541667972 -0.048693414578000291 0 0.08654496407436077 -0.051892231750327221 0 0.089846344019638799 -0.052536609893258854 0 0.08654496407436077 -0.051892231750327221 0 0.089508273431360599 -0.053028488892443153 0 0.086416448737378221 -0.052594196437555668 0 0.08676901275335111 -0.054220714788719933 0 0.091859592698701573 -0.053377282853054507 0 0.091599894751722227 -0.052875372969670618 0 0.091122519703128069 -0.053336705032626816 0 0.085003508230537983 -0.051564937397037096 0 0.08654496407436077 -0.051892231750327221 0 0.086863015224410547 -0.048997011830893465 0 0.084999977334908397 -0.051563596562857139 0 0.086856749438720862 -0.051644290317327257 0 0.086416448737378221 -0.052594196437555668 0 0.084999517643528658 -0.053542079327124445 0 0.08676901275335111 -0.054220714788719933 0 0.084999997469103389 -0.051563661998363958 0 0.086867229389030798 -0.051660149191267636 0 0.084999998528941884 -0.053540232295675512 0 0.08654496407436077 -0.051892231750327221 0 0.085002336802762826 -0.053537624380856831 0 0.08676901275335111 -0.054220714788719933 0 0.085000110894234163 -0.056568837056026493 0 0.087872698875119934 -0.055720120552870282 0 0.084999517643528658 -0.053542079327124445 0 0.08676901275335111 -0.054220714788719933 0 0.085000110894234163 -0.056568837056026493 0 0.085000110894234163 -0.056568837056026493 0 0.086921864233258789 -0.058206889814895961 0 0.087872698875119934 -0.055720120552870282 0 0.085000110894234163 -0.056568837056026493 0 0.086921864233258789 -0.058206889814895961 0 0.084997806177903507 -0.059597070746611538 0 0.086921864233258789 -0.058206889814895961 0 0.087872698875119934 -0.055720120552870282 0 0.089079615833127554 -0.05725108819854955 0 0.086921864233258789 -0.058206889814895961 0 0.089079615833127554 -0.05725108819854955 0 0.088875329408985557 -0.059826880083279292 0 0.089508273431360599 -0.053028488892443153 0 0.08676901275335111 -0.054220714788719933 0 0.087872698875119934 -0.055720120552870282 0 0.089508273431360599 -0.053028488892443153 0 0.087872698875119934 -0.055720120552870282 0 0.090606606355622246 -0.055534902170683048 0 0.092536645311093152 -0.053509980920416131 0 0.090606606355622246 -0.055534902170683048 0 0.0928094225604148 -0.055455270364549857 0 0.090606606355622246 -0.055534902170683048 0 0.0928094225604148 -0.055455270364549857 0 0.092290503883254604 -0.058240383449011467 0 0.090606606355622246 -0.055534902170683048 0 0.092290503883254604 -0.058240383449011467 0 0.089079615833127554 -0.05725108819854955 0 0.087872698875119934 -0.055720120552870282 0 0.090606606355622246 -0.055534902170683048 0 0.089079615833127554 -0.05725108819854955 0 0.088875329408985557 -0.059826880083279292 0 0.091674577975731267 -0.061354840976066922 0 0.089525409719477089 -0.062299326210236247 0 0.092290503883254604 -0.058240383449011467 0 0.088875329408985557 -0.059826880083279292 0 0.091674577975731267 -0.061354840976066922 0 0.092290503883254604 -0.058240383449011467 0 0.089079615833127554 -0.05725108819854955 0 0.088875329408985557 -0.059826880083279292 0 0.094824336062176551 -0.062905933942035322 0 0.092290503883254604 -0.058240383449011467 0 0.091674577975731267 -0.061354840976066922 0 0.094824336062176551 -0.062905933942035322 0 0.091674577975731267 -0.061354840976066922 0 0.091176072037874367 -0.06392884376221683 0 0.088287975254148998 -0.064452058305383295 0 0.091176072037874367 -0.06392884376221683 0 0.089525409719477089 -0.062299326210236247 0 0.091674577975731267 -0.061354840976066922 0 0.091176072037874367 -0.06392884376221683 0 0.089525409719477089 -0.062299326210236247 0 0.087255913724573364 -0.062162252495793581 0 0.085027201197089022 -0.063200421253462064 0 0.086423182576564381 -0.06047368158825446 0 0.088287975254148998 -0.064452058305383295 0 0.089525409719477089 -0.062299326210236247 0 0.087255913724573364 -0.062162252495793581 0 0.086587352103289508 -0.064580910253805579 0 0.088287975254148998 -0.064452058305383295 0 0.087255913724573364 -0.062162252495793581 0 0.088875329408985557 -0.059826880083279292 0 0.089525409719477089 -0.062299326210236247 0 0.087255913724573364 -0.062162252495793581 0 0.086587352103289508 -0.064580910253805579 0 0.087255913724573364 -0.062162252495793581 0 0.085027201197089022 -0.063200421253462064 0 0.085027201197089022 -0.063200421253462064 0 0.084997806177903507 -0.059597070746611538 0 0.086423182576564381 -0.06047368158825446 0 0.084999515367640763 -0.064242495278659412 0 0.086591236211275568 -0.063330031547370352 0 0.085000190008234749 -0.059597261289999481 0 0.085877410185648567 -0.063499043535466329 0 0.085000237130813686 -0.059602138530655914 0 0.086921864233258789 -0.058206889814895961 0 0.084997806177903507 -0.059597070746611538 0 0.086423182576564381 -0.06047368158825446 0 0.086921864233258789 -0.058206889814895961 0 0.088875329408985557 -0.059826880083279292 0 0.086423182576564381 -0.06047368158825446 0 0.088875329408985557 -0.059826880083279292 0 0.087255913724573364 -0.062162252495793581 0 0.086423182576564381 -0.06047368158825446 0 0.087914622527801176 -0.024076598308443463 0 0.089029371552307515 -0.024937860106793181 0 0.089470547883372498 -0.023367560572652771 0 0.087914622527801176 -0.024076598308443463 0 0.089029371552307515 -0.024937860106793181 0 0.087234104248670882 -0.025959116762950374 0 0.089029371552307515 -0.024937860106793181 0 0.089470547883372498 -0.023367560572652771 0 0.090747197023246712 -0.024405308058477709 0 0.089029371552307515 -0.024937860106793181 0 0.090747197023246712 -0.024405308058477709 0 0.089364275187431341 -0.026736065836815821 0 0.089029371552307515 -0.024937860106793181 0 0.087234104248670882 -0.025959116762950374 0 0.089364275187431341 -0.026736065836815821 0 0.087914622527801176 -0.024076598308443463 0 0.087234104248670882 -0.025959116762950374 0 0.08499993593766636 -0.02346645124454616 0 0.087234104248670882 -0.025959116762950374 0 0.08499993593766636 -0.02346645124454616 0 0.084999914170417398 -0.028272665110285429 0 0.087914622527801176 -0.024076598308443463 0 0.08499993593766636 -0.02346645124454616 0 0.088657512847065773 -0.021895808366738191 0 0.08499993593766636 -0.02346645124454616 0 0.088657512847065773 -0.021895808366738191 0 0.087453446608030144 -0.019728170478187951 0 0.087914622527801176 -0.024076598308443463 0 0.088657512847065773 -0.021895808366738191 0 0.089470547883372498 -0.023367560572652771 0 0.088657512847065773 -0.021895808366738191 0 0.089470547883372498 -0.023367560572652771 0 0.09071130780681716 -0.022178713229089736 0 0.088657512847065773 -0.021895808366738191 0 0.09071130780681716 -0.022178713229089736 0 0.090059923228503536 -0.020002471021241041 0 0.09071130780681716 -0.022178713229089736 0 0.092491889626222651 -0.022824723662556612 0 0.092173744581577163 -0.020463393385346657 0 0.09071130780681716 -0.022178713229089736 0 0.092491889626222651 -0.022824723662556612 0 0.090747197023246712 -0.024405308058477709 0 0.089470547883372498 -0.023367560572652771 0 0.09071130780681716 -0.022178713229089736 0 0.090747197023246712 -0.024405308058477709 0 0.092491889626222651 -0.022824723662556612 0 0.095075069073233556 -0.023335022744681327 0 0.094501764923911519 -0.021078248624942727 0 0.092491889626222651 -0.022824723662556612 0 0.094501764923911519 -0.021078248624942727 0 0.092173744581577163 -0.020463393385346657 0 0.080542748273052966 -0.026247159661683481 0 0.080965653898437059 -0.023716395391232256 0 0.092491889626222651 -0.022824723662556612 0 0.091765290473640709 -0.025198519033746373 0 0.095075069073233556 -0.023335022744681327 0 0.074595511014461074 -0.024877287992415995 0 0.07433392287977833 -0.0249983723237719 0 0.074400525084737851 -0.02529309464306741 0 0.074849661538156212 -0.025077459986188478 0 0.074595511014461074 -0.024877287992415995 0 0.074400525084737851 -0.02529309464306741 0 0.080542748273052966 -0.026247159661683481 0 0.075149083659021607 -0.025418644217326876 0 0.081317494838658327 -0.026574652077931596 0 0.080542748273052966 -0.026247159661683481 0 0.092491889626222651 -0.022824723662556612 0 0.090747197023246712 -0.024405308058477709 0 0.091765290473640709 -0.025198519033746373 0 0.090747197023246712 -0.024405308058477709 0 0.091881014802090197 -0.025333876642603777 0 0.089364275187431341 -0.026736065836815821 0 0.073822543822802053 -0.036732199538468874 0 0.076523890727801122 -0.033687086963684228 0 0.079355404324050541 -0.03387335680135295 0 0.080542748273052966 -0.026247159661683481 0 0.082513937387815622 -0.027758925879748753 0 0.074783711501675107 -0.033020565569984478 0 0.071372151742963658 -0.031241294727473029 0 0.078137541540369698 -0.031112920657212807 0 0.071372151742963658 -0.031241294727473029 0 0.074875726741881032 -0.026660584414908272 0 0.077836389824334995 -0.031144576567541223 0 0.076967153588390541 -0.029779780733646947 0 0.079339299990460105 -0.029539747731531479 0 0.076523890727801122 -0.033687086963684228 0 0.074783711501675107 -0.033020565569984478 0 0.078137541540369698 -0.031112920657212807 0 0.073822543822802053 -0.036732199538468874 0 0.076523890727801122 -0.033687086963684228 0 0.074783711501675107 -0.033020565569984478 0 0.073822543822802053 -0.036732199538468874 0 0.074783711501675107 -0.033020565569984478 0 0.069490818165367174 -0.033242022221157505 0 0.069490818165367174 -0.033242022221157505 0 0.071372151742963658 -0.031241294727473029 0 0.0651648459396615 -0.029734136656629821 0 0.074783711501675107 -0.033020565569984478 0 0.069490818165367174 -0.033242022221157505 0 0.071372151742963658 -0.031241294727473029 0 0.075149083659021607 -0.025418644217326876 0 0.070438108853840192 -0.023917833349221259 0 0.071372151742963658 -0.031241294727473029 0 0.071554581847390261 -0.021471870441174972 0 0.0651648459396615 -0.029734136656629821 0 0.07026378266777332 -0.023832399695072788 0 0.070438108853840192 -0.023917833349221259 0 0.071554581847390261 -0.021471870441174972 0 0.067665656968176099 -0.022305729776842954 0 0.067338992510151796 -0.026095446485674443 0 0.071372151742963658 -0.031241294727473029 0 0.074875726741881032 -0.026660584414908272 0 0.071554581847390261 -0.021471870441174972 0 0.074875726741881032 -0.026660584414908272 0 0.078126105119349989 -0.026822565145862013 0 0.077836389824334995 -0.031144576567541223 0 0.074875726741881032 -0.026660584414908272 0 0.075944820099970001 -0.022790285641728785 0 0.071554581847390261 -0.021471870441174972 0 0.074875726741881032 -0.026660584414908272 0 0.078126105119349989 -0.026822565145862013 0 0.075944820099970001 -0.022790285641728785 0 0.078126105119349989 -0.026822565145862013 0 0.080588461388041918 -0.022530362507116024 0 0.075944820099970001 -0.022790285641728785 0 0.081413322854203718 -0.028068146021940375 0 0.078126105119349989 -0.026822565145862013 0 0.080588461388041918 -0.022530362507116024 0 0.081413322854203718 -0.028068146021940375 0 0.078126105119349989 -0.026822565145862013 0 0.077836389824334995 -0.031144576567541223 0 0.079339299990460105 -0.029539747731531479 0 0.083683406310490968 -0.028805482128069274 0 0.078137541540369698 -0.031112920657212807 0 0.079355404324050541 -0.03387335680135295 0 0.084889521414734964 -0.031008229750445971 0 0.081413322854203718 -0.028068146021940375 0 0.077836389824334995 -0.031144576567541223 0 0.083961129924297995 -0.030951709468563696 0 0.087234104248670882 -0.025959116762950374 0 0.089364275187431341 -0.026736065836815821 0 0.086864036321720808 -0.028162011203591224 0 0.082513937387815622 -0.027758925879748753 0 0.083683406310490968 -0.028805482128069274 0 0.076523890727801122 -0.033687086963684228 0 0.078137541540369698 -0.031112920657212807 0 0.079355404324050541 -0.03387335680135295 0 0.087234104248670882 -0.025959116762950374 0 0.086864036321720808 -0.028162011203591224 0 0.084999914170417398 -0.028272665110285429 0 0.083683406310490968 -0.028805482128069274 0 0.084996559811764544 -0.0292427080891467 0 0.086920710758225231 -0.028244340922771841 0 0.084999991116535362 -0.028272961234077177 0 0.085000003687531536 -0.029245119918825023 0 0.083683406310490968 -0.028805482128069274 0 0.084997598700337962 -0.028275177972193196 0 0.083961129924297995 -0.030951709468563696 0 0.085383995562046386 -0.029386393024251372 0 0.085001099695788659 -0.02924419699542595 0 0.085383995562046386 -0.029386393024251372 0 0.085001099695788659 -0.02924419699542595 0 0.084999267269141809 -0.033708806597094694 0 0.081413322854203718 -0.028068146021940375 0 0.085383995562046386 -0.029386393024251372 0 0.080588461388041918 -0.022530362507116024 0 0.084141738447263872 -0.028518136500071518 0 0.083549623013751809 -0.02810194631607927 0 0.081413322854203718 -0.028068146021940375 0 0.083961129924297995 -0.030951709468563696 0 0.085383995562046386 -0.029386393024251372 0 0.085383995562046386 -0.029386393024251372 0 0.084999267269141809 -0.033708806597094694 0 0.088630603750807863 -0.032507276239346253 0 0.084999267269141809 -0.033708806597094694 0 0.088630603750807863 -0.032507276239346253 0 0.088296447352846669 -0.036065893278538527 0 0.083549623013751809 -0.02810194631607927 0 0.082277201517355597 -0.027704605256572718 0 0.088630603750807863 -0.032507276239346253 0 0.088296447352846669 -0.036065893278538527 0 0.091442413975575718 -0.035442175235181797 0 0.084999267269141809 -0.033708806597094694 0 0.088296447352846669 -0.036065893278538527 0 0.085000160952317147 -0.038172540313570542 0 0.085000160952317147 -0.038172540313570542 0 0.088895254703110729 -0.038898444060652841 0 0.0881106078878824 -0.041922584484272059 0 0.088296447352846669 -0.036065893278538527 0 0.085000160952317147 -0.038172540313570542 0 0.088895254703110729 -0.038898444060652841 0 0.088296447352846669 -0.036065893278538527 0 0.088895254703110729 -0.038898444060652841 0 0.091349574665725075 -0.037943260041160748 0 0.09092962401513266 -0.04318235341661178 0 0.0881106078878824 -0.041922584484272059 0 0.091642407988569707 -0.040302819916742415 0 0.088895254703110729 -0.038898444060652841 0 0.0881106078878824 -0.041922584484272059 0 0.091642407988569707 -0.040302819916742415 0 0.084999922994608915 -0.042636198027563729 0 0.085000160952317147 -0.038172540313570542 0 0.0881106078878824 -0.041922584484272059 0 0.093627793233617071 -0.041339060888058991 0 0.094195443658063385 -0.038337334586088012 0 0.096919031679075396 -0.041167014199123539 0 0.093627793233617071 -0.041339060888058991 0 0.091642407988569707 -0.040302819916742415 0 0.094195443658063385 -0.038337334586088012 0 0.094422250318954612 -0.043711253515485458 0 0.093627793233617071 -0.041339060888058991 0 0.096919031679075396 -0.041167014199123539 0 0.09092962401513266 -0.04318235341661178 0 0.093627793233617071 -0.041339060888058991 0 0.091642407988569707 -0.040302819916742415 0 0.088895254703110729 -0.038898444060652841 0 0.091642407988569707 -0.040302819916742415 0 0.091349574665725075 -0.037943260041160748 0 0.091642407988569707 -0.040302819916742415 0 0.091349574665725075 -0.037943260041160748 0 0.094195443658063385 -0.038337334586088012 0 0.091349574665725075 -0.037943260041160748 0 0.094195443658063385 -0.038337334586088012 0 0.091442413975575718 -0.035442175235181797 0 0.069869659970100001 -0.013028998284537661 0 0.070087636177273496 -0.017288133650126318 0 0.067817779509070503 -0.015676654878585061 0 0.069869659970100001 -0.013028998284537661 0 0.070087636177273496 -0.017288133650126318 0 0.074650594461801237 -0.016961720167696436 0 0.080924594112988191 -0.028339372557554036 0 0.082277201517355597 -0.027704605256572718 0 0.088296447352846669 -0.036065893278538527 0 0.091349574665725075 -0.037943260041160748 0 0.091442413975575718 -0.035442175235181797 0 0.080588461388041918 -0.022530362507116024 0 0.074650594461801237 -0.016961720167696436 0 0.075944820099970001 -0.022790285641728785 0 0.074650594461801237 -0.016961720167696436 0 0.075944820099970001 -0.022790285641728785 0 0.071554581847390261 -0.021471870441174972 0 0.070087636177273496 -0.017288133650126318 0 0.071554581847390261 -0.021471870441174972 0 0.067665656968176099 -0.022305729776842954 0 0.070087636177273496 -0.017288133650126318 0 0.074650594461801237 -0.016961720167696436 0 0.071554581847390261 -0.021471870441174972 0 0.065316135405724174 -0.020861020354724483 0 0.06611012415944699 -0.017916508264230056 0 0.067665656968176099 -0.022305729776842954 0 0.070087636177273496 -0.017288133650126318 0 0.06611012415944699 -0.017916508264230056 0 0.067665656968176099 -0.022305729776842954 0 0.065316135405724174 -0.020861020354724483 0 0.063561579726342285 -0.019416991565064001 0 0.06611012415944699 -0.017916508264230056 0 0.063561579726342285 -0.019416991565064001 0 0.060327434867123275 -0.019275157572600333 0 0.063796535253247744 -0.023130215193293953 0 0.064274609604098615 -0.020527967115585216 0 0.065914478327000536 -0.021507274831879825 0 0.065316135405724174 -0.020861020354724483 0 0.063561579726342285 -0.019416991565064001 0 0.063796535253247744 -0.023130215193293953 0 0.063561579726342285 -0.019416991565064001 0 0.063332202636144433 -0.017033414082243632 0 0.06611012415944699 -0.017916508264230056 0 0.063561579726342285 -0.019416991565064001 0 0.063332202636144433 -0.017033414082243632 0 0.060327434867123275 -0.019275157572600333 0 0.063332202636144433 -0.017033414082243632 0 0.065289537557040353 -0.014447376866342287 0 0.061633138037560549 -0.014096309479633685 0 0.063332202636144433 -0.017033414082243632 0 0.061633138037560549 -0.014096309479633685 0 0.060327434867123275 -0.019275157572600333 0 0.070087636177273496 -0.017288133650126318 0 0.06611012415944699 -0.017916508264230056 0 0.067817779509070503 -0.015676654878585061 0 0.063332202636144433 -0.017033414082243632 0 0.06611012415944699 -0.017916508264230056 0 0.065289537557040353 -0.014447376866342287 0 0.06611012415944699 -0.017916508264230056 0 0.067817779509070503 -0.015676654878585061 0 0.065289537557040353 -0.014447376866342287 0 0.080924594112988191 -0.028339372557554036 0 0.080318117214338805 -0.031627380130143025 0 0.069869659970100001 -0.013028998284537661 0 0.065967892344109408 -0.011966351217159785 0 0.065939926509932398 -0.0096211986977381963 0 0.069869659970100001 -0.013028998284537661 0 0.067817779509070503 -0.015676654878585061 0 0.065289537557040353 -0.014447376866342287 0 0.069869659970100001 -0.013028998284537661 0 0.065967892344109408 -0.011966351217159785 0 0.065289537557040353 -0.014447376866342287 0 0.065967892344109408 -0.011966351217159785 0 0.065289537557040353 -0.014447376866342287 0 0.063759421734283422 -0.012285904264733744 0 0.065967892344109408 -0.011966351217159785 0 0.063759421734283422 -0.012285904264733744 0 0.065108699685804669 -0.010476062330452658 0 0.065289537557040353 -0.014447376866342287 0 0.061633138037560549 -0.014096309479633685 0 0.063759421734283422 -0.012285904264733744 0 0.061633138037560549 -0.014096309479633685 0 0.063759421734283422 -0.012285904264733744 0 0.062866937255532732 -0.010128200523800738 0 0.062130284659772966 -0.0081994366410352692 0 0.062866937255532732 -0.010128200523800738 0 0.065810852195469297 -0.0097797418562361287 0 0.062866937255532732 -0.010128200523800738 0 0.065810852195469297 -0.0097797418562361287 0 0.065108699685804669 -0.010476062330452658 0 0.061633138037560549 -0.014096309479633685 0 0.062866937255532732 -0.010128200523800738 0 0.060726564351223374 -0.0096030586436259713 0 0.063759421734283422 -0.012285904264733744 0 0.062866937255532732 -0.010128200523800738 0 0.065108699685804669 -0.010476062330452658 0 0.062130284659772966 -0.0081994366410352692 0 0.062866937255532732 -0.010128200523800738 0 0.060726564351223374 -0.0096030586436259713 0 0.065967892344109408 -0.011966351217159785 0 0.065939926509932398 -0.0096211986977381963 0 0.065108699685804669 -0.010476062330452658 0 0.080318117214338805 -0.031627380130143025 0 0.080256247194401956 -0.031271269385596816 0 0.055851591445436034 -0.0086745824591895719 0 0.057698382859290777 -0.0097112037692235337 0 0.055601125318476496 -0.011375023996398958 0 0.05805938353327228 -0.011515818974374372 0 0.057698382859290777 -0.0097112037692235337 0 0.055601125318476496 -0.011375023996398958 0 0.05805938353327228 -0.011515818974374372 0 0.057698382859290777 -0.0097112037692235337 0 0.060319024365908087 -0.010313360635961484 0 0.065613752760136312 -0.013643315477897306 0 0.06712524909750496 -0.015623789802607778 0 0.061633138037560549 -0.014096309479633685 0 0.05805938353327228 -0.011515818974374372 0 0.056658186681263795 -0.013844501960499486 0 0.061633138037560549 -0.014096309479633685 0 0.05805938353327228 -0.011515818974374372 0 0.060319024365908087 -0.010313360635961484 0 0.05805938353327228 -0.011515818974374372 0 0.056658186681263795 -0.013844501960499486 0 0.055601125318476496 -0.011375023996398958 0 0.056658186681263795 -0.013844501960499486 0 0.05792815549973377 -0.017070056100730108 0 0.054723684448796689 -0.017988443589709364 0 0.061633138037560549 -0.014096309479633685 0 0.056658186681263795 -0.013844501960499486 0 0.05792815549973377 -0.017070056100730108 0 0.061633138037560549 -0.014096309479633685 0 0.05792815549973377 -0.017070056100730108 0 0.060327434867123275 -0.019275157572600333 0 0.05792815549973377 -0.017070056100730108 0 0.060327434867123275 -0.019275157572600333 0 0.057308817307419872 -0.019805601956358526 0 0.05792815549973377 -0.017070056100730108 0 0.057308817307419872 -0.019805601956358526 0 0.054723684448796689 -0.017988443589709364 0 0.057308817307419872 -0.019805601956358526 0 0.057557384009951723 -0.023019308885948345 0 0.05935596694764448 -0.021305064022853291 0 0.057308817307419872 -0.019805601956358526 0 0.057557384009951723 -0.023019308885948345 0 0.055492407068938043 -0.021418002646805438 0 0.057557384009951723 -0.023019308885948345 0 0.060136970906523465 -0.022975359792940846 0 0.058921929907183146 -0.025474767637958359 0 0.057557384009951723 -0.023019308885948345 0 0.060136970906523465 -0.022975359792940846 0 0.05935596694764448 -0.021305064022853291 0 0.060327434867123275 -0.019275157572600333 0 0.05935596694764448 -0.021305064022853291 0 0.060750873637149538 -0.021160866762296934 0 0.060327434867123275 -0.019275157572600333 0 0.057308817307419872 -0.019805601956358526 0 0.05935596694764448 -0.021305064022853291 0 0.060136970906523465 -0.022975359792940846 0 0.05935596694764448 -0.021305064022853291 0 0.060750873637149538 -0.021160866762296934 0 0.060327434867123275 -0.019275157572600333 0 0.061968500135899357 -0.020652267739911891 0 0.060750873637149538 -0.021160866762296934 0 0.061968500135899357 -0.020652267739911891 0 0.061994628827126939 -0.021825248060930932 0 0.060750873637149538 -0.021160866762296934 0 0.065316135405724174 -0.020861020354724483 0 0.063796535253247744 -0.023130215193293953 0 0.067665656968176099 -0.022305729776842954 0 0.063796535253247744 -0.023130215193293953 0 0.067665656968176099 -0.022305729776842954 0 0.067338992510151796 -0.026095446485674443 0 0.065914478327000536 -0.021507274831879825 0 0.070438108853840192 -0.023917833349221259 0 0.061968500135899357 -0.020652267739911891 0 0.061994628827126939 -0.021825248060930932 0 0.063864787336524162 -0.022148030378601514 0 0.074595511014461074 -0.024877287992415995 0 0.074347152598884164 -0.024681918566145183 0 0.07433392287977833 -0.0249983723237719 0 0.074347152598884164 -0.024681918566145183 0 0.073993374499242523 -0.025140604856005614 0 0.07433392287977833 -0.0249983723237719 0 0.070438108853840192 -0.023917833349221259 0 0.067895711546048204 -0.024945401430262144 0 0.061994628827126939 -0.021825248060930932 0 0.063864787336524162 -0.022148030378601514 0 0.061732333428056653 -0.024957133642483753 0 0.066579591931867146 -0.023896606138479683 0 0.067895711546048204 -0.024945401430262144 0 0.060136970906523465 -0.022975359792940846 0 0.061994628827126939 -0.021825248060930932 0 0.06176023638495122 -0.025186511741217416 0 0.060136970906523465 -0.022975359792940846 0 0.061994628827126939 -0.021825248060930932 0 0.060750873637149538 -0.021160866762296934 0 0.073993374499242523 -0.025140604856005614 0 0.07433392287977833 -0.0249983723237719 0 0.074400525084737851 -0.02529309464306741 0 0.080965653898437059 -0.023716395391232256 0 0.073171723490477597 -0.024100482081863498 0 0.073993374499242523 -0.025140604856005614 0 0.074400525084737851 -0.02529309464306741 0 0.07395850602063378 -0.025507530702381424 0 0.095075069073233556 -0.023335022744681327 0 0.098306584904269259 -0.021552281525437315 0 0.094501764923911519 -0.021078248624942727 0 0.061965557434330909 -0.0250974077846139 0 0.061697997574990858 -0.027764877983715928 0 0.059787525798847614 -0.027949094152679363 0 0.067895711546048204 -0.024945401430262144 0 0.064816170252830332 -0.027309765090911799 0 0.067895711546048204 -0.024945401430262144 0 0.073171723490477597 -0.024100482081863498 0 0.06176023638495122 -0.025186511741217416 0 0.059787525798847614 -0.027949094152679363 0 0.058921929907183146 -0.025474767637958359 0 0.059787525798847614 -0.027949094152679363 0 0.057776641559309228 -0.027707646838957246 0 0.058921929907183146 -0.025474767637958359 0 0.056320882519766025 -0.026038415924394112 0 0.057776641559309228 -0.027707646838957246 0 0.05546372324936661 -0.028945039423019882 0 0.056320882519766025 -0.026038415924394112 0 0.057776641559309228 -0.027707646838957246 0 0.058921929907183146 -0.025474767637958359 0 0.057557384009951723 -0.023019308885948345 0 0.056320882519766025 -0.026038415924394112 0 0.054452696821067889 -0.023558860343357621 0 0.057557384009951723 -0.023019308885948345 0 0.056320882519766025 -0.026038415924394112 0 0.058921929907183146 -0.025474767637958359 0 0.060136970906523465 -0.022975359792940846 0 0.06176023638495122 -0.025186511741217416 0 0.058921929907183146 -0.025474767637958359 0 0.053611778747910677 -0.02643135962786659 0 0.050599662153529547 -0.026816287090934577 0 0.050632555469341159 -0.023764643447911141 0 0.053611778747910677 -0.02643135962786659 0 0.050632555469341159 -0.023764643447911141 0 0.054452696821067889 -0.023558860343357621 0 0.056320882519766025 -0.026038415924394112 0 0.053611778747910677 -0.02643135962786659 0 0.054452696821067889 -0.023558860343357621 0 0.056320882519766025 -0.026038415924394112 0 0.053611778747910677 -0.02643135962786659 0 0.05546372324936661 -0.028945039423019882 0 0.053611778747910677 -0.02643135962786659 0 0.050599662153529547 -0.026816287090934577 0 0.052443494137898755 -0.029346675602653766 0 0.050599662153529547 -0.026816287090934577 0 0.047660091795411703 -0.027923262110009027 0 0.049900181792591342 -0.029300047333409768 0 0.050599662153529547 -0.026816287090934577 0 0.047660091795411703 -0.027923262110009027 0 0.046728431947602303 -0.024056973294526295 0 0.047660091795411703 -0.027923262110009027 0 0.046728431947602303 -0.024056973294526295 0 0.045061309615573024 -0.027006702412167658 0 0.050599662153529547 -0.026816287090934577 0 0.046728431947602303 -0.024056973294526295 0 0.050632555469341159 -0.023764643447911141 0 0.050632555469341159 -0.023764643447911141 0 0.048100353779082304 -0.020757630148195816 0 0.052491137529168085 -0.02004795999709973 0 0.046728431947602303 -0.024056973294526295 0 0.048100353779082304 -0.020757630148195816 0 0.043827320904124049 -0.020851262907483823 0 0.046728431947602303 -0.024056973294526295 0 0.050632555469341159 -0.023764643447911141 0 0.048100353779082304 -0.020757630148195816 0 0.048100353779082304 -0.020757630148195816 0 0.049134282461895211 -0.017644438395028966 0 0.044785945401861489 -0.016906088703317251 0 0.048100353779082304 -0.020757630148195816 0 0.052491137529168085 -0.02004795999709973 0 0.049134282461895211 -0.017644438395028966 0 0.050632555469341159 -0.023764643447911141 0 0.052943152762790539 -0.020985474518582379 0 0.054452696821067889 -0.023558860343357621 0 0.051800682408270252 -0.021986462681648826 0 0.052807681864685478 -0.020320125526703006 0 0.052943152762790539 -0.020985474518582379 0 0.054452696821067889 -0.023558860343357621 0 0.055492407068938043 -0.021418002646805438 0 0.057557384009951723 -0.023019308885948345 0 0.054452696821067889 -0.023558860343357621 0 0.055492407068938043 -0.021418002646805438 0 0.057308817307419872 -0.019805601956358526 0 0.055492407068938043 -0.021418002646805438 0 0.054723684448796689 -0.017988443589709364 0 0.052943152762790539 -0.020985474518582379 0 0.055492407068938043 -0.021418002646805438 0 0.054723684448796689 -0.017988443589709364 0 0.052807681864685478 -0.020320125526703006 0 0.054482084070818546 -0.017523767764024815 0 0.052491137529168085 -0.02004795999709973 0 0.051760178685207874 -0.016483231395510049 0 0.049134282461895211 -0.017644438395028966 0 0.052491137529168085 -0.02004795999709973 0 0.054442259599063722 -0.016834743752890815 0 0.051760178685207874 -0.016483231395510049 0 0.054442259599063722 -0.016834743752890815 0 0.051760178685207874 -0.016483231395510049 0 0.052726620501287763 -0.013191713276178419 0 0.051760178685207874 -0.016483231395510049 0 0.052726620501287763 -0.013191713276178419 0 0.049975557153592247 -0.01472902473865855 0 0.0555107622111458 -0.015791518003588505 0 0.054482084070818546 -0.017523767764024815 0 0.056658186681263795 -0.013844501960499486 0 0.054442259599063722 -0.016834743752890815 0 0.052726620501287763 -0.013191713276178419 0 0.056658186681263795 -0.013844501960499486 0 0.052726620501287763 -0.013191713276178419 0 0.055601125318476496 -0.011375023996398958 0 0.051103819890687713 -0.008817789938988697 0 0.052726620501287763 -0.013191713276178419 0 0.053860710976800744 -0.0096638339549135286 0 0.052726620501287763 -0.013191713276178419 0 0.053860710976800744 -0.0096638339549135286 0 0.055601125318476496 -0.011375023996398958 0 0.055851591445436034 -0.0086745824591895719 0 0.053860710976800744 -0.0096638339549135286 0 0.055601125318476496 -0.011375023996398958 0 0.04593093060663047 -0.010291815018331037 0 0.047403163681330636 -0.012774783026397995 0 0.043975683102776525 -0.012543071017878681 0 0.051103819890687713 -0.008817789938988697 0 0.052726620501287763 -0.013191713276178419 0 0.049119033510750247 -0.011605505831478503 0 0.055594401180464562 -0.018771509742893711 0 0.052071540823496791 -0.01595792595338906 0 0.04593093060663047 -0.010291815018331037 0 0.048812003097062462 -0.010753930864641758 0 0.047403163681330636 -0.012774783026397995 0 0.049119033510750247 -0.011605505831478503 0 0.047074489340081759 -0.014213377186229413 0 0.049975557153592247 -0.01472902473865855 0 0.052726620501287763 -0.013191713276178419 0 0.049119033510750247 -0.011605505831478503 0 0.049975557153592247 -0.01472902473865855 0 0.047403163681330636 -0.012774783026397995 0 0.046015576412093952 -0.014829037034793066 0 0.043975683102776525 -0.012543071017878681 0 0.052071540823496791 -0.01595792595338906 0 0.049312382641553458 -0.016260799048114952 0 0.047074489340081759 -0.014213377186229413 0 0.049975557153592247 -0.01472902473865855 0 0.049134282461895211 -0.017644438395028966 0 0.051760178685207874 -0.016483231395510049 0 0.049975557153592247 -0.01472902473865855 0 0.049134282461895211 -0.017644438395028966 0 0.047074489340081759 -0.014213377186229413 0 0.049134282461895211 -0.017644438395028966 0 0.044785945401861489 -0.016906088703317251 0 0.044785945401861489 -0.016906088703317251 0 0.040952345963205489 -0.016063957506220618 0 0.0420326476514419 -0.018321050006706547 0 0.044785945401861489 -0.016906088703317251 0 0.043356309131680489 -0.01476898935700199 0 0.040952345963205489 -0.016063957506220618 0 0.046015576412093952 -0.014829037034793066 0 0.044785945401861489 -0.016906088703317251 0 0.043356309131680489 -0.01476898935700199 0 0.049312382641553458 -0.016260799048114952 0 0.048112940152373218 -0.016914473244302407 0 0.046015576412093952 -0.014829037034793066 0 0.043356309131680489 -0.01476898935700199 0 0.043975683102776525 -0.012543071017878681 0 0.043356309131680489 -0.01476898935700199 0 0.043975683102776525 -0.012543071017878681 0 0.0408824969686859 -0.014056786633616579 0 0.042853373421630897 -0.0096654109263952896 0 0.043975683102776525 -0.012543071017878681 0 0.040678186646305091 -0.011620039884431329 0 0.043975683102776525 -0.012543071017878681 0 0.040678186646305091 -0.011620039884431329 0 0.0408824969686859 -0.014056786633616579 0 0.03802506456977825 -0.011977318262661915 0 0.038066875559132164 -0.012934830976826199 0 0.039273545008120796 -0.01275844109390461 0 0.038066875559132164 -0.012934830976826199 0 0.039273545008120796 -0.01275844109390461 0 0.038368688394920143 -0.013877984806222109 0 0.042138771509864496 -0.014717985873255778 0 0.041019288239785262 -0.014787281155148399 0 0.040678186646305091 -0.011620039884431329 0 0.0408824969686859 -0.014056786633616579 0 0.038368688394920143 -0.013877984806222109 0 0.0408824969686859 -0.014056786633616579 0 0.038368688394920143 -0.013877984806222109 0 0.037996325847061509 -0.015314756696056458 0 0.040952345963205489 -0.016063957506220618 0 0.038958797726549262 -0.017176029082237719 0 0.038014946287785817 -0.015005089294251373 0 0.039180785329194161 -0.015560677150484266 0 0.037912942224186265 -0.015183757740657961 0 0.0408824969686859 -0.014056786633616579 0 0.040952345963205489 -0.016063957506220618 0 0.037996325847061509 -0.015314756696056458 0 0.043356309131680489 -0.01476898935700199 0 0.0408824969686859 -0.014056786633616579 0 0.040952345963205489 -0.016063957506220618 0 0.040952345963205489 -0.016063957506220618 0 0.038958797726549262 -0.017176029082237719 0 0.0420326476514419 -0.018321050006706547 0 0.038958797726549262 -0.017176029082237719 0 0.039754515850418996 -0.020316695741551268 0 0.036499074760903562 -0.017537875678984297 0 0.038958797726549262 -0.017176029082237719 0 0.039754515850418996 -0.020316695741551268 0 0.0420326476514419 -0.018321050006706547 0 0.039754515850418996 -0.020316695741551268 0 0.043827320904124049 -0.020851262907483823 0 0.041831735511854727 -0.022792589789589261 0 0.039754515850418996 -0.020316695741551268 0 0.0420326476514419 -0.018321050006706547 0 0.043827320904124049 -0.020851262907483823 0 0.044785945401861489 -0.016906088703317251 0 0.0420326476514419 -0.018321050006706547 0 0.043827320904124049 -0.020851262907483823 0 0.048100353779082304 -0.020757630148195816 0 0.044785945401861489 -0.016906088703317251 0 0.043827320904124049 -0.020851262907483823 0 0.043856585937107617 -0.022475967380213378 0 0.043718397528828994 -0.023464185420514604 0 0.046728431947602303 -0.024056973294526295 0 0.043827320904124049 -0.020851262907483823 0 0.041672690097461232 -0.025406120542364487 0 0.046728431947602303 -0.024056973294526295 0 0.041672690097461232 -0.025406120542364487 0 0.045061309615573024 -0.027006702412167658 0 0.047660091795411703 -0.027923262110009027 0 0.045061309615573024 -0.027006702412167658 0 0.045713644917823364 -0.029317594179017126 0 0.041672690097461232 -0.025406120542364487 0 0.045061309615573024 -0.027006702412167658 0 0.043314617706367319 -0.02883497362524769 0 0.041672690097461232 -0.025406120542364487 0 0.04147289263108038 -0.028919761361876958 0 0.043314617706367319 -0.02883497362524769 0 0.041672690097461232 -0.025406120542364487 0 0.039554152910057129 -0.029575453032614045 0 0.04147289263108038 -0.028919761361876958 0 0.043718397528828994 -0.023464185420514604 0 0.047647134550313927 -0.019168575391981857 0 0.038923628059513576 -0.023657552460944409 0 0.039920499481151651 -0.022600585396409925 0 0.04017412895142506 -0.025080995414887917 0 0.041831735511854727 -0.022792589789589261 0 0.039920499481151651 -0.022600585396409925 0 0.04017412895142506 -0.025080995414887917 0 0.038923628059513576 -0.023657552460944409 0 0.038258863974346309 -0.022204352892777359 0 0.039920499481151651 -0.022600585396409925 0 0.038923628059513576 -0.023657552460944409 0 0.038258863974346309 -0.022204352892777359 0 0.037664650034224742 -0.023726190298608597 0 0.039754515850418996 -0.020316695741551268 0 0.038258863974346309 -0.022204352892777359 0 0.039920499481151651 -0.022600585396409925 0 0.039754515850418996 -0.020316695741551268 0 0.041831735511854727 -0.022792589789589261 0 0.039920499481151651 -0.022600585396409925 0 0.041061658487099154 -0.022174747792387265 0 0.040684904791919212 -0.022545021883185978 0 0.041035086465110636 -0.023824951373834839 0 0.040366150648630056 -0.023049214034869068 0 0.040588101308046833 -0.022024765006320741 0 0.039155753071135245 -0.02380023669281487 0 0.040442751543399678 -0.02143555429764489 0 0.040588101308046833 -0.022024765006320741 0 0.039155753071135245 -0.02380023669281487 0 0.040366150648630056 -0.023049214034869068 0 0.041035086465110636 -0.023824951373834839 0 0.039155753071135245 -0.02380023669281487 0 0.040684904791919212 -0.022545021883185978 0 0.040366150648630056 -0.023049214034869068 0 0.040588101308046833 -0.022024765006320741 0 0.052943935744705815 -0.014191805680700529 0 0.052569033191323035 -0.014190869422056935 0 0.041061658487099154 -0.022174747792387265 0 0.040684904791919212 -0.022545021883185978 0 0.040588101308046833 -0.022024765006320741 0 0.040684904791919212 -0.022545021883185978 0 0.040366150648630056 -0.023049214034869068 0 0.041035086465110636 -0.023824951373834839 0 0.047647134550313927 -0.019168575391981857 0 0.041654380040611658 -0.024777228998818245 0 0.038138471034360737 -0.024568259307829597 0 0.039380750905357996 -0.024296376058598756 0 0.038518288497789668 -0.025761640361731928 0 0.038138471034360737 -0.024568259307829597 0 0.038581434834133919 -0.024083879228519286 0 0.039380750905357996 -0.024296376058598756 0 0.038923628059513576 -0.023657552460944409 0 0.038581434834133919 -0.024083879228519286 0 0.037664650034224742 -0.023726190298608597 0 0.038138471034360737 -0.024568259307829597 0 0.038581434834133919 -0.024083879228519286 0 0.037664650034224742 -0.023726190298608597 0 0.038923628059513576 -0.023657552460944409 0 0.038581434834133919 -0.024083879228519286 0 0.039380750905357996 -0.024296376058598756 0 0.046389556811334859 -0.019344777582798497 0 0.047647134550313927 -0.019168575391981857 0 0.040547779478049696 -0.030734894075959668 0 0.039554152910057129 -0.029575453032614045 0 0.04147289263108038 -0.028919761361876958 0 0.041083038652523475 -0.022167955944876354 0 0.040442751543399678 -0.02143555429764489 0 0.040588101308046833 -0.022024765006320741 0 0.052943935744705815 -0.014191805680700529 0 0.047647134550313927 -0.019168575391981857 0 0.040547779478049696 -0.030734894075959668 0 0.043314617706367319 -0.02883497362524769 0 0.044889603096237837 -0.032043130864416569 0 0.040547779478049696 -0.030734894075959668 0 0.04147289263108038 -0.028919761361876958 0 0.043314617706367319 -0.02883497362524769 0 0.043314617706367319 -0.02883497362524769 0 0.045713644917823364 -0.029317594179017126 0 0.044889603096237837 -0.032043130864416569 0 0.045061309615573024 -0.027006702412167658 0 0.043314617706367319 -0.02883497362524769 0 0.045713644917823364 -0.029317594179017126 0 0.045713644917823364 -0.029317594179017126 0 0.044889603096237837 -0.032043130864416569 0 0.047617878942328287 -0.030775676896046301 0 0.041061658487099154 -0.022174747792387265 0 0.042757536606337215 -0.024195707155415115 0 0.041035086465110636 -0.023824951373834839 0 0.078859521857036347 0.0068106177949133631 0 0.080306718408151095 0.0064641157574217758 0 0.079858141068896618 0.0058811676796561314 0 0.052943935744705815 -0.014191805680700529 0 0.061269688239376278 -0.013723128056488641 0 0.052943935744705815 -0.014191805680700529 0 0.060814426457630993 -0.0099235366434766107 0 0.042757536606337215 -0.024195707155415115 0 0.041786183185512867 -0.025100111386660021 0 0.041035086465110636 -0.023824951373834839 0 0.042757536606337215 -0.024195707155415115 0 0.043185472643246965 -0.025761233995303306 0 0.042635654910948111 -0.025259280678857365 0 0.042757536606337215 -0.024195707155415115 0 0.041786183185512867 -0.025100111386660021 0 0.042635654910948111 -0.025259280678857365 0 0.079858141068896618 0.0058811676796561314 0 0.080717275259809027 0.0059117325750929961 0 0.080634371060112814 0.0056526715004664111 0 0.060814426457630993 -0.0099235366434766107 0 0.069043352217131579 -0.006904850891622522 0 0.080306718408151095 0.0064641157574217758 0 0.079858141068896618 0.0058811676796561314 0 0.080717275259809027 0.0059117325750929961 0 0.079858141068896618 0.0058811676796561314 0 0.080634371060112814 0.0056526715004664111 0 0.080784097838612359 0.0052240636590840375 0 0.079858141068896618 0.0058811676796561314 0 0.08078533712081408 0.0051621131843621187 0 0.080784097838612359 0.0052240636590840375 0 0.042757536606337215 -0.024195707155415115 0 0.043185472643246965 -0.025761233995303306 0 0.044431546063387076 -0.026154171939663309 0 0.043185472643246965 -0.025761233995303306 0 0.042997988522671032 -0.026578793551851866 0 0.043616652524491359 -0.026589951345431843 0 0.043185472643246965 -0.025761233995303306 0 0.043616652524491359 -0.026589951345431843 0 0.044431546063387076 -0.026154171939663309 0 0.069043352217131579 -0.006904850891622522 0 0.06905672868429269 -0.0068573681253105302 0 0.041786183185512867 -0.025100111386660021 0 0.042484053565457709 -0.025966304818573635 0 0.041367996669560612 -0.026291567908337456 0 0.041786183185512867 -0.025100111386660021 0 0.042635654910948111 -0.025259280678857365 0 0.042484053565457709 -0.025966304818573635 0 0.043185472643246965 -0.025761233995303306 0 0.042635654910948111 -0.025259280678857365 0 0.042484053565457709 -0.025966304818573635 0 0.042997988522671032 -0.026578793551851866 0 0.042484053565457709 -0.025966304818573635 0 0.042310160239392464 -0.027021905949098212 0 0.043185472643246965 -0.025761233995303306 0 0.042997988522671032 -0.026578793551851866 0 0.042484053565457709 -0.025966304818573635 0 0.042484053565457709 -0.025966304818573635 0 0.041367996669560612 -0.026291567908337456 0 0.042310160239392464 -0.027021905949098212 0 0.041786183185512867 -0.025100111386660021 0 0.040215095068776789 -0.025350103922662841 0 0.041367996669560612 -0.026291567908337456 0 0.040215095068776789 -0.025350103922662841 0 0.041367996669560612 -0.026291567908337456 0 0.039968808731524148 -0.027059962077954008 0 0.041786183185512867 -0.025100111386660021 0 0.040215095068776789 -0.025350103922662841 0 0.041035086465110636 -0.023824951373834839 0 0.040215095068776789 -0.025350103922662841 0 0.041035086465110636 -0.023824951373834839 0 0.039155753071135245 -0.02380023669281487 0 0.041654380040611658 -0.024777228998818245 0 0.03920673966089009 -0.026962400511060032 0 0.040215095068776789 -0.025350103922662841 0 0.039155753071135245 -0.02380023669281487 0 0.037893938908682097 -0.026202538931213593 0 0.040215095068776789 -0.025350103922662841 0 0.039968808731524148 -0.027059962077954008 0 0.037893938908682097 -0.026202538931213593 0 0.038724418700694964 -0.028366712613002391 0 0.039968808731524148 -0.027059962077954008 0 0.037893938908682097 -0.026202538931213593 0 0.038724418700694964 -0.028366712613002391 0 0.039968808731524148 -0.027059962077954008 0 0.040388892247738492 -0.028817119248938042 0 0.041220960500293856 -0.027481636977170144 0 0.039968808731524148 -0.027059962077954008 0 0.040388892247738492 -0.028817119248938042 0 0.041220960500293856 -0.027481636977170144 0 0.040388892247738492 -0.028817119248938042 0 0.042251297917595153 -0.028518584332143312 0 0.041367996669560612 -0.026291567908337456 0 0.041220960500293856 -0.027481636977170144 0 0.039968808731524148 -0.027059962077954008 0 0.040388892247738492 -0.028817119248938042 0 0.038960925761466959 -0.030057409191469271 0 0.040374570021667527 -0.030342241227870166 0 0.040388892247738492 -0.028817119248938042 0 0.040374570021667527 -0.030342241227870166 0 0.041467865304824963 -0.029809357266151269 0 0.038724418700694964 -0.028366712613002391 0 0.040388892247738492 -0.028817119248938042 0 0.038960925761466959 -0.030057409191469271 0 0.038724418700694964 -0.028366712613002391 0 0.038960925761466959 -0.030057409191469271 0 0.037736072489537108 -0.029710321979143889 0 0.038960925761466959 -0.030057409191469271 0 0.039258817800041833 -0.030838010387337324 0 0.037773306985138179 -0.030506171327619271 0 0.042200626351529796 -0.016641942511751714 0 0.040822395637731636 -0.018806034732810541 0 0.038960925761466959 -0.030057409191469271 0 0.040374570021667527 -0.030342241227870166 0 0.039503919167232032 -0.031385895011102949 0 0.042737255909209168 -0.019666722993378932 0 0.042200626351529796 -0.016641942511751714 0 0.040374570021667527 -0.030342241227870166 0 0.041787146665526409 -0.031637179152464286 0 0.041467865304824963 -0.029809357266151269 0 0.040374570021667527 -0.030342241227870166 0 0.039503919167232032 -0.031385895011102949 0 0.041787146665526409 -0.031637179152464286 0 0.033947901855650525 0.0061750149546327768 0 0.028613359767343874 0.011343296184835643 0 0.037113811917717364 0.010334700653080802 0 0.042200626351529796 -0.016641942511751714 0 0.044177559052008923 -0.011278573728329709 0 0.037852622432552607 -0.02854515066080909 0 0.037556518221638371 -0.029956944459684276 0 0.037130449262997689 -0.027019230052202612 0 0.033947901855650525 0.0061750149546327768 0 0.028613359767343874 0.011343296184835643 0 0.032100106752388689 0.0015708649023593096 0 0.042200626351529796 -0.016641942511751714 0 0.038174138974908269 -0.014022004950594013 0 0.037932239394354632 -0.029733614534303881 0 0.037556518221638371 -0.029956944459684276 0 0.037773306985138179 -0.030506171327619271 0 0.037852622432552607 -0.02854515066080909 0 0.037932239394354632 -0.029733614534303881 0 0.038280491554194787 -0.028255294578705705 0 0.037852622432552607 -0.02854515066080909 0 0.037932239394354632 -0.029733614534303881 0 0.037556518221638371 -0.029956944459684276 0 0.045906147880122046 0.0092110024861358688 0 0.037113811917717364 0.010334700653080802 0 0.041511719179714433 0.0041481629461640034 0 0.05671916140778311 -0.007286298492008716 0 0.044177559052008923 -0.011278573728329709 0 0.037113811917717364 0.010334700653080802 0 0.037244243564002882 0.0047333013061048703 0 0.041511719179714433 0.0041481629461640034 0 0.033947901855650525 0.0061750149546327768 0 0.037113811917717364 0.010334700653080802 0 0.037244243564002882 0.0047333013061048703 0 0.044011510382616283 -0.031869317182151816 0 0.041787146665526409 -0.031637179152464286 0 0.042746053377862539 -0.030170859062098401 0 0.041787146665526409 -0.031637179152464286 0 0.041467865304824963 -0.029809357266151269 0 0.042746053377862539 -0.030170859062098401 0 0.044011510382616283 -0.031869317182151816 0 0.042746053377862539 -0.030170859062098401 0 0.044201764800570878 -0.029024770794232171 0 0.05671916140778311 -0.007286298492008716 0 0.062372412559657246 -0.010871146300144538 0 0.042746053377862539 -0.030170859062098401 0 0.044201764800570878 -0.029024770794232171 0 0.042251297917595153 -0.028518584332143312 0 0.044201764800570878 -0.029024770794232171 0 0.042251297917595153 -0.028518584332143312 0 0.043391570027512517 -0.02754670075875483 0 0.041467865304824963 -0.029809357266151269 0 0.042746053377862539 -0.030170859062098401 0 0.042251297917595153 -0.028518584332143312 0 0.040388892247738492 -0.028817119248938042 0 0.041467865304824963 -0.029809357266151269 0 0.042251297917595153 -0.028518584332143312 0 0.041220960500293856 -0.027481636977170144 0 0.042251297917595153 -0.028518584332143312 0 0.042310160239392464 -0.027021905949098212 0 0.042251297917595153 -0.028518584332143312 0 0.042310160239392464 -0.027021905949098212 0 0.043391570027512517 -0.02754670075875483 0 0.042997988522671032 -0.026578793551851866 0 0.042310160239392464 -0.027021905949098212 0 0.043391570027512517 -0.02754670075875483 0 0.041367996669560612 -0.026291567908337456 0 0.041220960500293856 -0.027481636977170144 0 0.042310160239392464 -0.027021905949098212 0 0.069043352217131579 -0.006904850891622522 0 0.062372412559657246 -0.010871146300144538 0 0.044431546063387076 -0.026154171939663309 0 0.044201764800570878 -0.029024770794232171 0 0.043391570027512517 -0.02754670075875483 0 0.042997988522671032 -0.026578793551851866 0 0.043616652524491359 -0.026589951345431843 0 0.043391570027512517 -0.02754670075875483 0 0.043616652524491359 -0.026589951345431843 0 0.044431546063387076 -0.026154171939663309 0 0.043391570027512517 -0.02754670075875483 0 0.079226243121867823 0.0072302093354760536 0 0.079040713454404971 0.0044900512427479842 0 0.080407614154740736 0.0059161899163463431 0 0.069043352217131579 -0.006904850891622522 0 0.072365969583683312 -0.0028260365557108542 0 0.081854755325476244 0.0050258944880274391 0 0.082136039141669573 0.0050614168704603479 0 0.082071556163402823 0.0052366648546558212 0 0.081361290398315356 0.0048368128668331992 0 0.081854755325476244 0.0050258944880274391 0 0.08137315892811374 0.0052351485399636339 0 0.081361290398315356 0.0048368128668331992 0 0.081854755325476244 0.0050258944880274391 0 0.081901938501685118 0.0048312242972845445 0 0.081361290398315356 0.0048368128668331992 0 0.081901938501685118 0.0048312242972845445 0 0.081716638377232698 0.0045308749919228397 0 0.081854755325476244 0.0050258944880274391 0 0.081901938501685118 0.0048312242972845445 0 0.082234832149413808 0.0049260609819157912 0 0.081901938501685118 0.0048312242972845445 0 0.081716638377232698 0.0045308749919228397 0 0.08241358893820222 0.004808446899405302 0 0.080407614154740736 0.0059161899163463431 0 0.081716638377232698 0.0045308749919228397 0 0.080408316845516151 0.0045479126657490005 0 0.072365969583683312 -0.0028260365557108542 0 0.073596325158473141 -0.001845019464109348 0 0.081716638377232698 0.0045308749919228397 0 0.080408316845516151 0.0045479126657490005 0 0.081735907499317959 0.0034040686691000415 0 0.081716638377232698 0.0045308749919228397 0 0.081735907499317959 0.0034040686691000415 0 0.082487533709999297 0.0041795623034954132 0 0.079040713454404971 0.0044900512427479842 0 0.080407614154740736 0.0059161899163463431 0 0.080408316845516151 0.0045479126657490005 0 0.079040713454404971 0.0044900512427479842 0 0.080408316845516151 0.0045479126657490005 0 0.080185452821439573 0.0031569832102764199 0 0.078775058599040299 0.001756065141104502 0 0.079040713454404971 0.0044900512427479842 0 0.080185452821439573 0.0031569832102764199 0 0.080185452821439573 0.0031569832102764199 0 0.081735907499317959 0.0034040686691000415 0 0.081183290243797446 0.0013500300959084829 0 0.080408316845516151 0.0045479126657490005 0 0.080185452821439573 0.0031569832102764199 0 0.081735907499317959 0.0034040686691000415 0 0.081183290243797446 0.0013500300959084829 0 0.083159242447430032 0.0016305756408725 0 0.082683615219505791 -0.0013992271469990478 0 0.081735907499317959 0.0034040686691000415 0 0.081183290243797446 0.0013500300959084829 0 0.083159242447430032 0.0016305756408725 0 0.074991399804838488 0.0021930127276764701 0 0.081183290243797446 0.0013500300959084829 0 0.078440715345223538 -0.0018827266524693181 0 0.05671916140778311 -0.007286298492008716 0 0.07134947072709874 -0.0062538435680018116 0 0.078775058599040299 0.001756065141104502 0 0.080185452821439573 0.0031569832102764199 0 0.081183290243797446 0.0013500300959084829 0 0.088236977523301952 0.0023583025340130838 0 0.091227311236484102 0.003431704249910749 0 0.087850942149908517 -0.00075778470846168814 0 0.088236977523301952 0.0023583025340130838 0 0.085619555349898055 0.006326672973567515 0 0.091227311236484102 0.003431704249910749 0 0.091833309872222268 0.0013920608358199695 0 0.090741937923361757 0.00046049746518234043 0 0.083159242447430032 0.0016305756408725 0 0.083740768418862008 0.0030194932608089498 0 0.085478283432275523 -2.383270029906015e-05 0 0.085321172180962038 0.0038886594224394936 0 0.085331773226787408 0.0022985350154131941 0 0.088236977523301952 0.0023583025340130838 0 0.085619555349898055 0.006326672973567515 0 0.085478283432275523 -2.383270029906015e-05 0 0.081735907499317959 0.0034040686691000415 0 0.083740768418862008 0.0030194932608089498 0 0.082487533709999297 0.0041795623034954132 0 0.081735907499317959 0.0034040686691000415 0 0.083159242447430032 0.0016305756408725 0 0.083740768418862008 0.0030194932608089498 0 0.085619555349898055 0.006326672973567515 0 0.090132929121425329 0.010007782657989409 0 0.091227311236484102 0.003431704249910749 0 0.085619555349898055 0.006326672973567515 0 0.090132929121425329 0.010007782657989409 0 0.085476620577602969 0.012284153693839657 0 0.084120251525623316 0.0013492935653190254 0 0.083629856375677991 0.0026363073480153119 0 0.085028066153464352 0.0033526937910199608 0 0.087814401317744331 0.003619739120307444 0 0.085601160883920765 0.0047746200180953198 0 0.084120251525623316 0.0013492935653190254 0 0.082314351884878734 0.0022445505465490214 0 0.083629856375677991 0.0026363073480153119 0 0.085321172180962038 0.0038886594224394936 0 0.085601160883920765 0.0047746200180953198 0 0.083740768418862008 0.0030194932608089498 0 0.082487533709999297 0.0041795623034954132 0 0.082908591777003313 0.0047250226040972017 0 0.085601160883920765 0.0047746200180953198 0 0.085458089196549278 0.0048227512707327237 0 0.081716638377232698 0.0045308749919228397 0 0.082487533709999297 0.0041795623034954132 0 0.08241358893820222 0.004808446899405302 0 0.082487533709999297 0.0041795623034954132 0 0.082908591777003313 0.0047250226040972017 0 0.08241358893820222 0.004808446899405302 0 0.082503132411451879 0.0047441160298546843 0 0.082234832149413808 0.0049260609819157912 0 0.08233195272128277 0.0050569305753055196 0 0.082314351884878734 0.0022445505465490214 0 0.082292647415140266 0.0039088338505194782 0 0.082865636940892384 0.0031114701541016675 0 0.085601160883920765 0.0047746200180953198 0 0.084771754987453929 0.0046907321633783382 0 0.082503132411451879 0.0047441160298546843 0 0.08241358893820222 0.004808446899405302 0 0.082234832149413808 0.0049260609819157912 0 0.081901938501685118 0.0048312242972845445 0 0.08241358893820222 0.004808446899405302 0 0.082234832149413808 0.0049260609819157912 0 0.082292647415140266 0.0039088338505194782 0 0.082865636940892384 0.0031114701541016675 0 0.082838556763685678 0.0037894374701795226 0 0.081854755325476244 0.0050258944880274391 0 0.082234832149413808 0.0049260609819157912 0 0.082136039141669573 0.0050614168704603479 0 0.082234832149413808 0.0049260609819157912 0 0.08233195272128277 0.0050569305753055196 0 0.082136039141669573 0.0050614168704603479 0 0.083629856375677991 0.0026363073480153119 0 0.083363851112660439 0.0033290402980047868 0 0.083998109865959542 0.0037140076472374282 0 0.083629856375677991 0.0026363073480153119 0 0.083998109865959542 0.0037140076472374282 0 0.085028066153464352 0.0033526937910199608 0 0.082314351884878734 0.0022445505465490214 0 0.083629856375677991 0.0026363073480153119 0 0.082865636940892384 0.0031114701541016675 0 0.083629856375677991 0.0026363073480153119 0 0.082865636940892384 0.0031114701541016675 0 0.083363851112660439 0.0033290402980047868 0 0.083363851112660439 0.0033290402980047868 0 0.082838556763685678 0.0037894374701795226 0 0.083998109865959542 0.0037140076472374282 0 0.082865636940892384 0.0031114701541016675 0 0.083363851112660439 0.0033290402980047868 0 0.082838556763685678 0.0037894374701795226 0 0.082838556763685678 0.0037894374701795226 0 0.083998109865959542 0.0037140076472374282 0 0.08512395857549937 0.0054463137354480579 0 0.082838556763685678 0.0037894374701795226 0 0.08292596993148213 0.004874736252533607 0 0.084612686238584062 0.0052554960950434619 0 0.08292596993148213 0.004874736252533607 0 0.082509211766607096 0.0058257402962632 0 0.084612686238584062 0.0052554960950434619 0 0.08462291577288894 -0.0028217773298006964 0 0.079420672731848108 -0.0098357533457277598 0 0.05336242098212754 -0.034406454353439253 0 0.056550133770244447 -0.033604256767430916 0 0.057488097865833074 -0.035626552001755775 0 0.069969396994604319 -0.011712756187991035 0 0.079420672731848108 -0.0098357533457277598 0 0.054647538333824894 -0.032984949161008123 0 0.05336242098212754 -0.034406454353439253 0 0.056550133770244447 -0.033604256767430916 0 0.082509211766607096 0.0058257402962632 0 0.082340683066869272 0.0053954408546846586 0 0.081841215053556196 0.0056453785380101637 0 0.05336242098212754 -0.034406454353439253 0 0.049199899863840255 -0.033253758010566764 0 0.052433350928486354 -0.032757628493336417 0 0.054647538333824894 -0.032984949161008123 0 0.05336242098212754 -0.034406454353439253 0 0.052433350928486354 -0.032757628493336417 0 0.082292647415140266 0.0039088338505194782 0 0.08292596993148213 0.004874736252533607 0 0.082340683066869272 0.0053954408546846586 0 0.082340683066869272 0.0053954408546846586 0 0.082071556163402823 0.0052366648546558212 0 0.081841215053556196 0.0056453785380101637 0 0.08233195272128277 0.0050569305753055196 0 0.082340683066869272 0.0053954408546846586 0 0.082071556163402823 0.0052366648546558212 0 0.084771754987453929 0.0046907321633783382 0 0.084511760390637722 0.0048372406013130181 0 0.08292596993148213 0.004874736252533607 0 0.082509211766607096 0.0058257402962632 0 0.082340683066869272 0.0053954408546846586 0 0.082292647415140266 0.0039088338505194782 0 0.082838556763685678 0.0037894374701795226 0 0.08292596993148213 0.004874736252533607 0 0.08233195272128277 0.0050569305753055196 0 0.082136039141669573 0.0050614168704603479 0 0.082071556163402823 0.0052366648546558212 0 0.08137315892811374 0.0052351485399636339 0 0.081135413369783763 0.0055919893147971644 0 0.081841215053556196 0.0056453785380101637 0 0.082071556163402823 0.0052366648546558212 0 0.08137315892811374 0.0052351485399636339 0 0.081841215053556196 0.0056453785380101637 0 0.081854755325476244 0.0050258944880274391 0 0.082071556163402823 0.0052366648546558212 0 0.08137315892811374 0.0052351485399636339 0 0.0807909502720911 0.0051772055239336819 0 0.080784097838612359 0.0052240636590840375 0 0.08137315892811374 0.0052351485399636339 0 0.0807909502720911 0.0051772055239336819 0 0.081361290398315356 0.0048368128668331992 0 0.08137315892811374 0.0052351485399636339 0 0.080634371060112814 0.0056526715004664111 0 0.080784097838612359 0.0052240636590840375 0 0.081135413369783763 0.0055919893147971644 0 0.080784097838612359 0.0052240636590840375 0 0.08137315892811374 0.0052351485399636339 0 0.081135413369783763 0.0055919893147971644 0 0.080717275259809027 0.0059117325750929961 0 0.081135413369783763 0.0055919893147971644 0 0.081468053644160335 0.0060898052414781467 0 0.080306718408151095 0.0064641157574217758 0 0.080717275259809027 0.0059117325750929961 0 0.081468053644160335 0.0060898052414781467 0 0.080717275259809027 0.0059117325750929961 0 0.080634371060112814 0.0056526715004664111 0 0.081135413369783763 0.0055919893147971644 0 0.069969396994604319 -0.011712756187991035 0 0.06550975238878054 -0.012924295019571359 0 0.081135413369783763 0.0055919893147971644 0 0.081468053644160335 0.0060898052414781467 0 0.081841215053556196 0.0056453785380101637 0 0.082509211766607096 0.0058257402962632 0 0.081468053644160335 0.0060898052414781467 0 0.081841215053556196 0.0056453785380101637 0 0.049199899863840255 -0.033253758010566764 0 0.050975979768674413 -0.031297777776372437 0 0.052433350928486354 -0.032757628493336417 0 0.049199899863840255 -0.033253758010566764 0 0.050975979768674413 -0.031297777776372437 0 0.047617878942328287 -0.030775676896046301 0 0.061269688239376278 -0.013723128056488641 0 0.06550975238878054 -0.012924295019571359 0 0.044889603096237837 -0.032043130864416569 0 0.049199899863840255 -0.033253758010566764 0 0.047617878942328287 -0.030775676896046301 0 0.047660091795411703 -0.027923262110009027 0 0.045713644917823364 -0.029317594179017126 0 0.047617878942328287 -0.030775676896046301 0 0.047660091795411703 -0.027923262110009027 0 0.047617878942328287 -0.030775676896046301 0 0.049900181792591342 -0.029300047333409768 0 0.050599662153529547 -0.026816287090934577 0 0.049900181792591342 -0.029300047333409768 0 0.052443494137898755 -0.029346675602653766 0 0.050975979768674413 -0.031297777776372437 0 0.047617878942328287 -0.030775676896046301 0 0.049900181792591342 -0.029300047333409768 0 0.050975979768674413 -0.031297777776372437 0 0.049900181792591342 -0.029300047333409768 0 0.052443494137898755 -0.029346675602653766 0 0.052443494137898755 -0.029346675602653766 0 0.05546372324936661 -0.028945039423019882 0 0.053799163222756512 -0.031522630571053062 0 0.053611778747910677 -0.02643135962786659 0 0.052443494137898755 -0.029346675602653766 0 0.05546372324936661 -0.028945039423019882 0 0.05546372324936661 -0.028945039423019882 0 0.053799163222756512 -0.031522630571053062 0 0.056088450048187258 -0.031922282813319339 0 0.054647538333824894 -0.032984949161008123 0 0.056088450048187258 -0.031922282813319339 0 0.056550133770244447 -0.033604256767430916 0 0.054647538333824894 -0.032984949161008123 0 0.053799163222756512 -0.031522630571053062 0 0.056088450048187258 -0.031922282813319339 0 0.050975979768674413 -0.031297777776372437 0 0.053799163222756512 -0.031522630571053062 0 0.052433350928486354 -0.032757628493336417 0 0.054647538333824894 -0.032984949161008123 0 0.053799163222756512 -0.031522630571053062 0 0.052433350928486354 -0.032757628493336417 0 0.050975979768674413 -0.031297777776372437 0 0.052443494137898755 -0.029346675602653766 0 0.053799163222756512 -0.031522630571053062 0 0.059738274135797784 -0.031781824021996155 0 0.058007116274326795 -0.029782372452145267 0 0.060779071632852309 -0.029920296444105571 0 0.059738274135797784 -0.031781824021996155 0 0.058076774436305233 -0.032705113935753018 0 0.058007116274326795 -0.029782372452145267 0 0.059738274135797784 -0.031781824021996155 0 0.060779071632852309 -0.029920296444105571 0 0.061980353583065667 -0.03232141387440346 0 0.059738274135797784 -0.031781824021996155 0 0.061980353583065667 -0.03232141387440346 0 0.059685174434274735 -0.033988981258574719 0 0.059738274135797784 -0.031781824021996155 0 0.058076774436305233 -0.032705113935753018 0 0.059685174434274735 -0.033988981258574719 0 0.056088450048187258 -0.031922282813319339 0 0.058076774436305233 -0.032705113935753018 0 0.058007116274326795 -0.029782372452145267 0 0.056088450048187258 -0.031922282813319339 0 0.058076774436305233 -0.032705113935753018 0 0.056550133770244447 -0.033604256767430916 0 0.05546372324936661 -0.028945039423019882 0 0.056088450048187258 -0.031922282813319339 0 0.058007116274326795 -0.029782372452145267 0 0.057776641559309228 -0.027707646838957246 0 0.05546372324936661 -0.028945039423019882 0 0.058007116274326795 -0.029782372452145267 0 0.059787525798847614 -0.027949094152679363 0 0.057776641559309228 -0.027707646838957246 0 0.058007116274326795 -0.029782372452145267 0 0.073171723490477597 -0.024100482081863498 0 0.063390232150687106 -0.028523968770880426 0 0.061697997574990858 -0.027764877983715928 0 0.059787525798847614 -0.027949094152679363 0 0.058007116274326795 -0.029782372452145267 0 0.062480052708801935 -0.02742597378149126 0 0.058007116274326795 -0.029782372452145267 0 0.060779071632852309 -0.029920296444105571 0 0.062480052708801935 -0.02742597378149126 0 0.060779071632852309 -0.029920296444105571 0 0.061980353583065667 -0.03232141387440346 0 0.098306584904269259 -0.021552281525437315 0 0.095853275140823896 -0.019287408462859007 0 0.098646828184328336 -0.017135166621617216 0 0.073171723490477597 -0.024100482081863498 0 0.082867999851086435 -0.021348844700322379 0 0.098306584904269259 -0.021552281525437315 0 0.095853275140823896 -0.019287408462859007 0 0.094501764923911519 -0.021078248624942727 0 0.095853275140823896 -0.019287408462859007 0 0.097096150497046299 -0.016650117828732987 0 0.095103462337290917 -0.0167696971269694 0 0.095853275140823896 -0.019287408462859007 0 0.095103462337290917 -0.0167696971269694 0 0.094289231232400822 -0.017781116784179683 0 0.089571373479126762 -0.017835183317954844 0 0.082867999851086435 -0.021348844700322379 0 0.095853275140823896 -0.019287408462859007 0 0.097096150497046299 -0.016650117828732987 0 0.098998557030640949 -0.01683384352202745 0 0.097096150497046299 -0.016650117828732987 0 0.098998557030640949 -0.01683384352202745 0 0.099106012745055705 -0.015608180786199268 0 0.082867999851086435 -0.021348844700322379 0 0.083236829506771207 -0.020845517424298573 0 0.097096150497046299 -0.016650117828732987 0 0.099106012745055705 -0.015608180786199268 0 0.096479015705638715 -0.014727657615383449 0 0.099106012745055705 -0.015608180786199268 0 0.099341240245840831 -0.014528508555269088 0 0.096479015705638715 -0.014727657615383449 0 0.096379295531406631 -0.014672790123241566 0 0.098211027886014782 -0.013893618870604803 0 0.099341240245840831 -0.014528508555269088 0 0.096479015705638715 -0.014727657615383449 0 0.10045537798349014 -0.012858681698855276 0 0.098987111604298059 -0.016836319459511768 0 0.099106012745055705 -0.015608180786199268 0 0.10133724802025511 -0.01493286638039102 0 0.097096150497046299 -0.016650117828732987 0 0.095103462337290917 -0.0167696971269694 0 0.096479015705638715 -0.014727657615383449 0 0.096977855693559198 -0.014213653374204509 0 0.095274244231757871 -0.013118243371489313 0 0.096439192788035047 -0.012501016841201392 0 0.096977855693559198 -0.014213653374204509 0 0.095274244231757871 -0.013118243371489313 0 0.094642401624362715 -0.014428005517955532 0 0.095274244231757871 -0.013118243371489313 0 0.096439192788035047 -0.012501016841201392 0 0.095361022336320364 -0.011745727764832754 0 0.096977855693559198 -0.014213653374204509 0 0.096439192788035047 -0.012501016841201392 0 0.097418515934131505 -0.012721928627423735 0 0.096977855693559198 -0.014213653374204509 0 0.097418515934131505 -0.012721928627423735 0 0.098563356159786994 -0.01265503993027829 0 0.096439192788035047 -0.012501016841201392 0 0.097207630583978605 -0.012144569382045372 0 0.096986096729851576 -0.01143368988167015 0 0.096439192788035047 -0.012501016841201392 0 0.097418515934131505 -0.012721928627423735 0 0.097207630583978605 -0.012144569382045372 0 0.097418515934131505 -0.012721928627423735 0 0.097207630583978605 -0.012144569382045372 0 0.09791162831230725 -0.011960705655562925 0 0.097366204493175262 -0.011636180790995815 0 0.097352283356752417 -0.011033339865968907 0 0.09791162831230725 -0.011960705655562925 0 0.097207630583978605 -0.012144569382045372 0 0.097366204493175262 -0.011636180790995815 0 0.096986096729851576 -0.01143368988167015 0 0.097207630583978605 -0.012144569382045372 0 0.097366204493175262 -0.011636180790995815 0 0.09791162831230725 -0.011960705655562925 0 0.097366204493175262 -0.011636180790995815 0 0.097352283356752417 -0.011033339865968907 0 0.096986096729851576 -0.01143368988167015 0 0.092097809700561833 -0.0037404237449237192 0 0.092099771199090019 -0.0038296309876373474 0 0.096986096729851576 -0.01143368988167015 0 0.096165910812575611 -0.011304145833268699 0 0.096645794731989268 -0.01056182967136173 0 0.097489302997161159 -0.010854214932090756 0 0.096986096729851576 -0.01143368988167015 0 0.096645794731989268 -0.01056182967136173 0 0.092097809700561833 -0.0037404237449237192 0 0.092346247421209574 -0.0038740889199580701 0 0.096439192788035047 -0.012501016841201392 0 0.096986096729851576 -0.01143368988167015 0 0.096165910812575611 -0.011304145833268699 0 0.096439192788035047 -0.012501016841201392 0 0.096165910812575611 -0.011304145833268699 0 0.095361022336320364 -0.011745727764832754 0 0.096165910812575611 -0.011304145833268699 0 0.095561199180215495 -0.010608343506756079 0 0.096645794731989268 -0.01056182967136173 0 0.096165910812575611 -0.011304145833268699 0 0.095561199180215495 -0.010608343506756079 0 0.095361022336320364 -0.011745727764832754 0 0.097352283356752417 -0.011033339865968907 0 0.09791162831230725 -0.011960705655562925 0 0.10030322732708088 -0.012086680423696336 0 0.098563356159786994 -0.01265503993027829 0 0.09791162831230725 -0.011960705655562925 0 0.10030322732708088 -0.012086680423696336 0 0.089133808388031352 0.0042136290793614905 0 0.087133806805065925 0.0048300361438565311 0 0.087552284651442672 0.0037429581226636807 0 0.092097809700561833 -0.0037404237449237192 0 0.08916485700185782 -0.0069100576379025275 0 0.096977855693559198 -0.014213653374204509 0 0.098563356159786994 -0.01265503993027829 0 0.10045537798349014 -0.012858681698855276 0 0.098563356159786994 -0.01265503993027829 0 0.10030322732708088 -0.012086680423696336 0 0.10045537798349014 -0.012858681698855276 0 0.097418515934131505 -0.012721928627423735 0 0.098563356159786994 -0.01265503993027829 0 0.09791162831230725 -0.011960705655562925 0 0.087133806805065925 0.0048300361438565311 0 0.085926245551705152 0.0043017802744191001 0 0.08512395857549937 0.0054463137354480579 0 0.10030322732708088 -0.012086680423696336 0 0.10045537798349014 -0.012858681698855276 0 0.10358985711985283 -0.013099808094428898 0 0.08916485700185782 -0.0069100576379025275 0 0.079420672731848108 -0.0098357533457277598 0 0.087133806805065925 0.0048300361438565311 0 0.085926245551705152 0.0043017802744191001 0 0.086420565583387995 0.0035782379648305451 0 0.10045537798349014 -0.012858681698855276 0 0.10133724802025511 -0.01493286638039102 0 0.10358985711985283 -0.013099808094428898 0 0.099341240245840831 -0.014528508555269088 0 0.10045537798349014 -0.012858681698855276 0 0.10133724802025511 -0.01493286638039102 0 0.082867999851086435 -0.021348844700322379 0 0.079848209791748295 -0.017555932605041569 0 0.099106012745055705 -0.015608180786199268 0 0.099341240245840831 -0.014528508555269088 0 0.10133724802025511 -0.01493286638039102 0 0.059685174434274735 -0.033988981258574719 0 0.056550133770244447 -0.033604256767430916 0 0.057488097865833074 -0.035626552001755775 0 0.058076774436305233 -0.032705113935753018 0 0.059685174434274735 -0.033988981258574719 0 0.056550133770244447 -0.033604256767430916 0 0.079848209791748295 -0.017555932605041569 0 0.079420672731848108 -0.0098357533457277598 0 0.085926245551705152 0.0043017802744191001 0 0.08512395857549937 0.0054463137354480579 0 0.085028066153464352 0.0033526937910199608 0 0.083998109865959542 0.0037140076472374282 0 0.08512395857549937 0.0054463137354480579 0 0.085028066153464352 0.0033526937910199608 0 0.085926245551705152 0.0043017802744191001 0 0.085028066153464352 0.0033526937910199608 0 0.086420565583387995 0.0035782379648305451 0 0.085028066153464352 0.0033526937910199608 0 0.086420565583387995 0.0035782379648305451 0 0.085886161371969236 0.0021520469379374256 0 0.086420565583387995 0.0035782379648305451 0 0.085886161371969236 0.0021520469379374256 0 0.087520263707071791 0.0023491953399536495 0 0.087133806805065925 0.0048300361438565311 0 0.086420565583387995 0.0035782379648305451 0 0.087552284651442672 0.0037429581226636807 0 0.086420565583387995 0.0035782379648305451 0 0.087520263707071791 0.0023491953399536495 0 0.087552284651442672 0.0037429581226636807 0 0.092090072053399474 0.00085150249020030338 0 0.092654869795996742 -0.0015255621473935453 0 0.085886161371969236 0.0021520469379374256 0 0.085912238112153344 0.00046950146945133299 0 0.087520263707071791 0.0023491953399536495 0 0.084120251525623316 0.0013492935653190254 0 0.085028066153464352 0.0033526937910199608 0 0.085886161371969236 0.0021520469379374256 0 0.084120251525623316 0.0013492935653190254 0 0.085886161371969236 0.0021520469379374256 0 0.085912238112153344 0.00046950146945133299 0 0.087814401317744331 0.003619739120307444 0 0.092090072053399474 0.00085150249020030338 0 0.090132929121425329 0.010007782657989409 0 0.094843983636915583 0.0076754707583942695 0 0.091227311236484102 0.003431704249910749 0 0.092090072053399474 0.00085150249020030338 0 0.091833309872222268 0.0013920608358199695 0 0.092090072053399474 0.00085150249020030338 0 0.095845018198420229 -0.00019959072975075454 0 0.10366292564966419 -0.0037029017981384991 0 0.09980051483459107 -0.0017804651387699683 0 0.10059251155780083 -0.0073222426040144041 0 0.096579785445347635 0.0020896645055575036 0 0.097053662354296147 0.0016951824178254476 0 0.097022998249763709 0.0014158157740650967 0 0.09612563686140875 0.0038028883088345464 0 0.096579785445347635 0.0020896645055575036 0 0.097053662354296147 0.0016951824178254476 0 0.09612563686140875 0.0038028883088345464 0 0.096579785445347635 0.0020896645055575036 0 0.093372683448802937 0.0028820449096157584 0 0.096579785445347635 0.0020896645055575036 0 0.093372683448802937 0.0028820449096157584 0 0.092795440792215106 0.00012938882315215614 0 0.095878431602775108 -7.5555678629263032e-05 0 0.095845018198420229 -0.00019959072975075454 0 0.095615428859069471 0.00030218095244926847 0 0.09980051483459107 -0.0017804651387699683 0 0.09745251489614272 -0.0039414734950533386 0 0.095615428859069471 0.00030218095244926847 0 0.097053662354296147 0.0016951824178254476 0 0.097022998249763709 0.0014158157740650967 0 0.09980051483459107 -0.0017804651387699683 0 0.09745251489614272 -0.0039414734950533386 0 0.10059251155780083 -0.0073222426040144041 0 0.095615428859069471 0.00030218095244926847 0 0.09745251489614272 -0.0039414734950533386 0 0.09447263424647874 -0.0040039833667813345 0 0.09745251489614272 -0.0039414734950533386 0 0.096676288814727701 -0.006608165258280895 0 0.09447263424647874 -0.0040039833667813345 0 0.096676288814727701 -0.006608165258280895 0 0.09501595458221096 -0.0080177684856242108 0 0.094148184050604322 -0.0063603295491255103 0 0.09745251489614272 -0.0039414734950533386 0 0.096676288814727701 -0.006608165258280895 0 0.10059251155780083 -0.0073222426040144041 0 0.096676288814727701 -0.006608165258280895 0 0.10059251155780083 -0.0073222426040144041 0 0.09770286751621661 -0.0086632132556482971 0 0.089133808388031352 0.0042136290793614905 0 0.087520263707071791 0.0023491953399536495 0 0.087552284651442672 0.0037429581226636807 0 0.09755561825211348 -0.010836445470894013 0 0.10059251155780083 -0.0073222426040144041 0 0.09770286751621661 -0.0086632132556482971 0 0.092097809700561833 -0.0037404237449237192 0 0.092654869795996742 -0.0015255621473935453 0 0.096249409073167716 -0.0090349928795733676 0 0.094654706572831829 -0.0096849539253824942 0 0.09501595458221096 -0.0080177684856242108 0 0.096676288814727701 -0.006608165258280895 0 0.096249409073167716 -0.0090349928795733676 0 0.09501595458221096 -0.0080177684856242108 0 0.096676288814727701 -0.006608165258280895 0 0.096249409073167716 -0.0090349928795733676 0 0.09770286751621661 -0.0086632132556482971 0 0.096249409073167716 -0.0090349928795733676 0 0.09770286751621661 -0.0086632132556482971 0 0.096645794731989268 -0.01056182967136173 0 0.09755561825211348 -0.010836445470894013 0 0.09770286751621661 -0.0086632132556482971 0 0.096645794731989268 -0.01056182967136173 0 0.095561199180215495 -0.010608343506756079 0 0.096249409073167716 -0.0090349928795733676 0 0.096645794731989268 -0.01056182967136173 0 0.095561199180215495 -0.010608343506756079 0 0.096249409073167716 -0.0090349928795733676 0 0.094654706572831829 -0.0096849539253824942 0 0.095561199180215495 -0.010608343506756079 0 0.094654706572831829 -0.0096849539253824942 0 0.094479625877807505 -0.011055527705628565 0 0.094654706572831829 -0.0096849539253824942 0 0.093141163512852967 -0.010499328090109211 0 0.094479625877807505 -0.011055527705628565 0 0.094654706572831829 -0.0096849539253824942 0 0.093141163512852967 -0.010499328090109211 0 0.093390725116841586 -0.0083672143888017594 0 0.094654706572831829 -0.0096849539253824942 0 0.093390725116841586 -0.0083672143888017594 0 0.09501595458221096 -0.0080177684856242108 0 0.093141163512852967 -0.010499328090109211 0 0.09101577536077296 -0.0083835556567454228 0 0.090583724789605011 -0.010855108230141157 0 0.093141163512852967 -0.010499328090109211 0 0.093390725116841586 -0.0083672143888017594 0 0.09101577536077296 -0.0083835556567454228 0 0.09101577536077296 -0.0083835556567454228 0 0.091626177874088652 -0.005812614556976744 0 0.088446419468650367 -0.0077099315320519985 0 0.093390725116841586 -0.0083672143888017594 0 0.09101577536077296 -0.0083835556567454228 0 0.091626177874088652 -0.005812614556976744 0 0.091626177874088652 -0.005812614556976744 0 0.094148184050604322 -0.0063603295491255103 0 0.09447263424647874 -0.0040039833667813345 0 0.093390725116841586 -0.0083672143888017594 0 0.09501595458221096 -0.0080177684856242108 0 0.094148184050604322 -0.0063603295491255103 0 0.093390725116841586 -0.0083672143888017594 0 0.091626177874088652 -0.005812614556976744 0 0.094148184050604322 -0.0063603295491255103 0 0.096676288814727701 -0.006608165258280895 0 0.094148184050604322 -0.0063603295491255103 0 0.09447263424647874 -0.0040039833667813345 0 0.091626177874088652 -0.005812614556976744 0 0.09447263424647874 -0.0040039833667813345 0 0.092052976451630464 -0.0024935844718558036 0 0.095615428859069471 0.00030218095244926847 0 0.09447263424647874 -0.0040039833667813345 0 0.092052976451630464 -0.0024935844718558036 0 0.091626177874088652 -0.005812614556976744 0 0.092052976451630464 -0.0024935844718558036 0 0.08856889933025347 -0.0036847161307064225 0 0.092052976451630464 -0.0024935844718558036 0 0.090520240884051056 -0.00075941011887093292 0 0.092681144819577385 0.0014738997133806738 0 0.092052976451630464 -0.0024935844718558036 0 0.090520240884051056 -0.00075941011887093292 0 0.08856889933025347 -0.0036847161307064225 0 0.095615428859069471 0.00030218095244926847 0 0.092052976451630464 -0.0024935844718558036 0 0.092681144819577385 0.0014738997133806738 0 0.090520240884051056 -0.00075941011887093292 0 0.08856889933025347 -0.0036847161307064225 0 0.088525373344442007 0.0017396357959425543 0 0.08856889933025347 -0.0036847161307064225 0 0.084999836575410451 -0.0036424745321847751 0 0.088525373344442007 0.0017396357959425543 0 0.084999836575410451 -0.0036424745321847751 0 0.088525373344442007 0.0017396357959425543 0 0.084999851522321007 0.0014629568069200198 0 0.08856889933025347 -0.0036847161307064225 0 0.084999836575410451 -0.0036424745321847751 0 0.088446419468650367 -0.0077099315320519985 0 0.084999836575410451 -0.0036424745321847751 0 0.088446419468650367 -0.0077099315320519985 0 0.084999838061347324 -0.0087481792183113621 0 0.091626177874088652 -0.005812614556976744 0 0.08856889933025347 -0.0036847161307064225 0 0.088446419468650367 -0.0077099315320519985 0 0.088446419468650367 -0.0077099315320519985 0 0.087746395233577246 -0.011484633512390614 0 0.090583724789605011 -0.010855108230141157 0 0.09101577536077296 -0.0083835556567454228 0 0.088446419468650367 -0.0077099315320519985 0 0.090583724789605011 -0.010855108230141157 0 0.088446419468650367 -0.0077099315320519985 0 0.084999838061347324 -0.0087481792183113621 0 0.087746395233577246 -0.011484633512390614 0 0.084999838061347324 -0.0087481792183113621 0 0.084999878194640818 -0.013853352867337706 0 0.087746395233577246 -0.011484633512390614 0 0.084999878194640818 -0.013853352867337706 0 0.088732627184974003 -0.014451209490614637 0 0.087746395233577246 -0.011484633512390614 0 0.084999934923543422 -0.013853911815416224 0 0.088811278981944686 -0.01465740439736858 0 0.08705753179913632 -0.016920093209937495 0 0.085003524412271977 -0.013854377648147386 0 0.088217187290051804 -0.014454369783845081 0 0.088732627184974003 -0.014451209490614637 0 0.089954138550024029 -0.012714303932086649 0 0.087746395233577246 -0.011484633512390614 0 0.089954138550024029 -0.012714303932086649 0 0.087746395233577246 -0.011484633512390614 0 0.090583724789605011 -0.010855108230141157 0 0.090583724789605011 -0.010855108230141157 0 0.09164785985329256 -0.012678871999763579 0 0.092597924302128279 -0.011852138553426469 0 0.093141163512852967 -0.010499328090109211 0 0.090583724789605011 -0.010855108230141157 0 0.092597924302128279 -0.011852138553426469 0 0.09164785985329256 -0.012678871999763579 0 0.092597924302128279 -0.011852138553426469 0 0.093217514018765754 -0.013739263052051896 0 0.089954138550024029 -0.012714303932086649 0 0.090583724789605011 -0.010855108230141157 0 0.09164785985329256 -0.012678871999763579 0 0.089954138550024029 -0.012714303932086649 0 0.09164785985329256 -0.012678871999763579 0 0.091502659596257238 -0.013916529356682009 0 0.095361022336320364 -0.011745727764832754 0 0.094479625877807505 -0.011055527705628565 0 0.093978881449307702 -0.012331742465210417 0 0.095561199180215495 -0.010608343506756079 0 0.095361022336320364 -0.011745727764832754 0 0.094479625877807505 -0.011055527705628565 0 0.093141163512852967 -0.010499328090109211 0 0.094479625877807505 -0.011055527705628565 0 0.093978881449307702 -0.012331742465210417 0 0.093141163512852967 -0.010499328090109211 0 0.092597924302128279 -0.011852138553426469 0 0.093978881449307702 -0.012331742465210417 0 0.092597924302128279 -0.011852138553426469 0 0.093978881449307702 -0.012331742465210417 0 0.093217514018765754 -0.013739263052051896 0 0.093978881449307702 -0.012331742465210417 0 0.094262080267515647 -0.013400981984697281 0 0.093217514018765754 -0.013739263052051896 0 0.095274244231757871 -0.013118243371489313 0 0.095361022336320364 -0.011745727764832754 0 0.093978881449307702 -0.012331742465210417 0 0.095274244231757871 -0.013118243371489313 0 0.093978881449307702 -0.012331742465210417 0 0.094262080267515647 -0.013400981984697281 0 0.095103462337290917 -0.0167696971269694 0 0.096479015705638715 -0.014727657615383449 0 0.092784677102521099 -0.016429459032392683 0 0.096379295531406631 -0.014672790123241566 0 0.093261348333173066 -0.016006374630486334 0 0.096977855693559198 -0.014213653374204509 0 0.094642401624362715 -0.014428005517955532 0 0.093078837101940676 -0.015987601249905063 0 0.094642401624362715 -0.014428005517955532 0 0.094262080267515647 -0.013400981984697281 0 0.093217514018765754 -0.013739263052051896 0 0.095274244231757871 -0.013118243371489313 0 0.094642401624362715 -0.014428005517955532 0 0.094262080267515647 -0.013400981984697281 0 0.094642401624362715 -0.014428005517955532 0 0.093217514018765754 -0.013739263052051896 0 0.09343438684809828 -0.01486567325069813 0 0.093217514018765754 -0.013739263052051896 0 0.092967795004071152 -0.014526098236824112 0 0.09343438684809828 -0.01486567325069813 0 0.094642401624362715 -0.014428005517955532 0 0.09343438684809828 -0.01486567325069813 0 0.093078837101940676 -0.015987601249905063 0 0.092967795004071152 -0.014526098236824112 0 0.09343438684809828 -0.01486567325069813 0 0.092611437755983614 -0.015258914378441485 0 0.09343438684809828 -0.01486567325069813 0 0.092611437755983614 -0.015258914378441485 0 0.093078837101940676 -0.015987601249905063 0 0.088732627184974003 -0.014451209490614637 0 0.089954138550024029 -0.012714303932086649 0 0.091502659596257238 -0.013916529356682009 0 0.088217187290051804 -0.014454369783845081 0 0.089989110194958505 -0.01478526674919196 0 0.088811278981944686 -0.01465740439736858 0 0.092611437755983614 -0.015258914378441485 0 0.090795505904806825 -0.015952420447417494 0 0.088732627184974003 -0.014451209490614637 0 0.091502659596257238 -0.013916529356682009 0 0.092611437755983614 -0.015258914378441485 0 0.093217514018765754 -0.013739263052051896 0 0.092967795004071152 -0.014526098236824112 0 0.091502659596257238 -0.013916529356682009 0 0.09164785985329256 -0.012678871999763579 0 0.093217514018765754 -0.013739263052051896 0 0.091502659596257238 -0.013916529356682009 0 0.092611437755983614 -0.015258914378441485 0 0.090795505904806825 -0.015952420447417494 0 0.093078837101940676 -0.015987601249905063 0 0.092967795004071152 -0.014526098236824112 0 0.091502659596257238 -0.013916529356682009 0 0.092611437755983614 -0.015258914378441485 0 0.090795505904806825 -0.015952420447417494 0 0.093078837101940676 -0.015987601249905063 0 0.089124723487294236 -0.017827096308047199 0 0.093261348333173066 -0.016006374630486334 0 0.091408171459269799 -0.016792200900727562 0 0.091579569207471165 -0.018592697305963662 0 0.092784677102521099 -0.016429459032392683 0 0.089124723487294236 -0.017827096308047199 0 0.095853275140823896 -0.019287408462859007 0 0.09343463490717116 -0.018674747538016557 0 0.094289231232400822 -0.017781116784179683 0 0.095103462337290917 -0.0167696971269694 0 0.092784677102521099 -0.016429459032392683 0 0.094289231232400822 -0.017781116784179683 0 0.091579569207471165 -0.018592697305963662 0 0.092784677102521099 -0.016429459032392683 0 0.09343463490717116 -0.018674747538016557 0 0.092784677102521099 -0.016429459032392683 0 0.09343463490717116 -0.018674747538016557 0 0.094289231232400822 -0.017781116784179683 0 0.095853275140823896 -0.019287408462859007 0 0.09343463490717116 -0.018674747538016557 0 0.094501764923911519 -0.021078248624942727 0 0.09343463490717116 -0.018674747538016557 0 0.094501764923911519 -0.021078248624942727 0 0.092173744581577163 -0.020463393385346657 0 0.091579569207471165 -0.018592697305963662 0 0.090059923228503536 -0.020002471021241041 0 0.089124723487294236 -0.017827096308047199 0 0.091579569207471165 -0.018592697305963662 0 0.092173744581577163 -0.020463393385346657 0 0.090059923228503536 -0.020002471021241041 0 0.091579569207471165 -0.018592697305963662 0 0.09343463490717116 -0.018674747538016557 0 0.092173744581577163 -0.020463393385346657 0 0.09071130780681716 -0.022178713229089736 0 0.092173744581577163 -0.020463393385346657 0 0.090059923228503536 -0.020002471021241041 0 0.088657512847065773 -0.021895808366738191 0 0.090059923228503536 -0.020002471021241041 0 0.087453446608030144 -0.019728170478187951 0 0.090059923228503536 -0.020002471021241041 0 0.087453446608030144 -0.019728170478187951 0 0.089124723487294236 -0.017827096308047199 0 0.08499993593766636 -0.02346645124454616 0 0.08499991444989323 -0.018660151355800701 0 0.087453446608030144 -0.019728170478187951 0 0.08499991444989323 -0.018660151355800701 0 0.087453446608030144 -0.019728170478187951 0 0.08705753179913632 -0.016920093209937495 0 0.084999934923543422 -0.013853911815416224 0 0.08499991444989323 -0.018660151355800701 0 0.08705753179913632 -0.016920093209937495 0 0.088811278981944686 -0.01465740439736858 0 0.090795505904806825 -0.015952420447417494 0 0.089124723487294236 -0.017827096308047199 0 0.088811278981944686 -0.01465740439736858 0 0.08705753179913632 -0.016920093209937495 0 0.089124723487294236 -0.017827096308047199 0 0.087453446608030144 -0.019728170478187951 0 0.08705753179913632 -0.016920093209937495 0 0.089124723487294236 -0.017827096308047199 0 -0.0013765368072549415 -0.018353465725491298 0 -0.0015135327461497203 -0.016357339535497867 0 0.00058541132916987298 -0.01869911579692567 0 0.0010964297854049842 -0.019195834974721437 0 -0.00069118987151622143 -0.018286482019099579 0 0.0010614895302087772 -0.021048462195874539 0 -0.00038101822954813923 -0.017915326434369504 0 0.00089425682127237764 -0.020105109005049943 0 -0.0013765368072549415 -0.018353465725491298 0 -0.0021390622474297639 -0.017056711312187906 0 -0.0015135327461497203 -0.016357339535497867 0 -0.0013765368072549415 -0.018353465725491298 0 -0.0034126848486116792 -0.018511453004163642 0 -0.0021390622474297639 -0.017056711312187906 0 -0.0021390622474297639 -0.017056711312187906 0 -0.0021892618978605811 -0.016479559113796213 0 -0.0015135327461497203 -0.016357339535497867 0 -0.0021390622474297639 -0.017056711312187906 0 -0.0021892618978605811 -0.016479559113796213 0 -0.0029918179409705844 -0.016634196347342922 0 -0.0021892618978605811 -0.016479559113796213 0 -0.0015135327461497203 -0.016357339535497867 0 -0.0021078170143256337 -0.015998416252189982 0 -0.0021892618978605811 -0.016479559113796213 0 -0.0029918179409705844 -0.016634196347342922 0 -0.0025608043674462291 -0.016352998575299069 0 0.0010964297854049842 -0.019195834974721437 0 -0.00071790333084605757 -0.01759712892723686 0 0.0030307446266798614 -0.018646756856588873 0 0.0010964297854049842 -0.019195834974721437 0 -0.00071790333084605757 -0.01759712892723686 0 -0.00069118987151622143 -0.018286482019099579 0 -0.00071790333084605757 -0.01759712892723686 0 0.0030307446266798614 -0.018646756856588873 0 0.0030848604013622625 -0.015954617952951281 0 0.0030307446266798614 -0.018646756856588873 0 0.0051694348471288277 -0.02003715045733466 0 0.005594318475708379 -0.018303475910808796 0 0.0030307446266798614 -0.018646756856588873 0 0.0030848604013622625 -0.015954617952951281 0 0.005594318475708379 -0.018303475910808796 0 0.0051694348471288277 -0.02003715045733466 0 0.0027348202069082681 -0.020376680520429166 0 0.0042813377474563812 -0.021264703850097474 0 0.0030307446266798614 -0.018646756856588873 0 0.0051694348471288277 -0.02003715045733466 0 0.0027348202069082681 -0.020376680520429166 0 0.0010964297854049842 -0.019195834974721437 0 0.0030307446266798614 -0.018646756856588873 0 0.0027348202069082681 -0.020376680520429166 0 0.0010964297854049842 -0.019195834974721437 0 0.0027348202069082681 -0.020376680520429166 0 0.0010614895302087772 -0.021048462195874539 0 0.0027348202069082681 -0.020376680520429166 0 0.0026790091892055358 -0.023499334690964945 0 0.0010614895302087772 -0.021048462195874539 0 0.0027348202069082681 -0.020376680520429166 0 0.0042813377474563812 -0.021264703850097474 0 0.0026790091892055358 -0.023499334690964945 0 0.0022753819174647629 -0.022536150960577619 0 0.00089425682127237764 -0.020105109005049943 0 0.0042813377474563812 -0.021264703850097474 0 0.0044246372951422374 -0.02278679640726327 0 0.0068899474252741965 -0.02109598124788906 0 0.0042813377474563812 -0.021264703850097474 0 0.0044246372951422374 -0.02278679640726327 0 0.0026790091892055358 -0.023499334690964945 0 0.0044246372951422374 -0.02278679640726327 0 0.0046101773570326292 -0.024273598414989328 0 0.0055660788088591571 -0.023822116549097529 0 0.0044246372951422374 -0.02278679640726327 0 0.0046101773570326292 -0.024273598414989328 0 0.0026790091892055358 -0.023499334690964945 0 0.0027743047168009597 -0.022289487524755777 0 0.00087623377795055567 -0.023392800792121287 0 -0.00022845440400541263 -0.021150523654784748 0 0.00087623377795055567 -0.023392800792121287 0 -0.00022845440400541263 -0.021150523654784748 0 -0.0010441578268842158 -0.023595680957817784 0 -0.0013765368072549415 -0.018353465725491298 0 -0.00022845440400541263 -0.021150523654784748 0 0.00058541132916987298 -0.01869911579692567 0 0.0027743047168009597 -0.022289487524755777 0 -0.00022845440400541263 -0.021150523654784748 0 0.00058541132916987298 -0.01869911579692567 0 -0.0013765368072549415 -0.018353465725491298 0 -0.00022845440400541263 -0.021150523654784748 0 -0.0022135856434503326 -0.020089221069545488 0 -0.0034126848486116792 -0.018511453004163642 0 -0.0022135856434503326 -0.020089221069545488 0 -0.0044616251228745104 -0.020186622515975163 0 -0.0013765368072549415 -0.018353465725491298 0 -0.0034126848486116792 -0.018511453004163642 0 -0.0022135856434503326 -0.020089221069545488 0 -0.00022845440400541263 -0.021150523654784748 0 -0.0022135856434503326 -0.020089221069545488 0 -0.0025300355774657401 -0.021985104525534219 0 -0.0022135856434503326 -0.020089221069545488 0 -0.0025300355774657401 -0.021985104525534219 0 -0.0044616251228745104 -0.020186622515975163 0 -0.00022845440400541263 -0.021150523654784748 0 -0.0025300355774657401 -0.021985104525534219 0 -0.0010441578268842158 -0.023595680957817784 0 -0.0025300355774657401 -0.021985104525534219 0 -0.0010441578268842158 -0.023595680957817784 0 -0.0033237460901793556 -0.024273661340809761 0 -0.0025300355774657401 -0.021985104525534219 0 -0.0033237460901793556 -0.024273661340809761 0 -0.004945878495160979 -0.022955863544369032 0 -0.004945878495160979 -0.022955863544369032 0 -0.004969516174046929 -0.025513059692624851 0 -0.0064724467876532089 -0.024612719121354723 0 -0.0033237460901793556 -0.024273661340809761 0 -0.004945878495160979 -0.022955863544369032 0 -0.004969516174046929 -0.025513059692624851 0 -0.0025300355774657401 -0.021985104525534219 0 -0.004945878495160979 -0.022955863544369032 0 -0.0044616251228745104 -0.020186622515975163 0 -0.004945878495160979 -0.022955863544369032 0 -0.0079206994218055573 -0.023303317741936606 0 -0.0069271303955449103 -0.020869800459695179 0 -0.004945878495160979 -0.022955863544369032 0 -0.0079206994218055573 -0.023303317741936606 0 -0.0064724467876532089 -0.024612719121354723 0 -0.0079206994218055573 -0.023303317741936606 0 -0.0095905030230757134 -0.021183322836337146 0 -0.011380821642669238 -0.024839239687664237 0 -0.0079206994218055573 -0.023303317741936606 0 -0.011380821642669238 -0.024839239687664237 0 -0.0083994528783358172 -0.025445843114796224 0 -0.0079206994218055573 -0.023303317741936606 0 -0.0083994528783358172 -0.025445843114796224 0 -0.0064724467876532089 -0.024612719121354723 0 -0.0079206994218055573 -0.023303317741936606 0 -0.0095905030230757134 -0.021183322836337146 0 -0.0069271303955449103 -0.020869800459695179 0 -0.0095905030230757134 -0.021183322836337146 0 -0.011835609149037895 -0.019242497618724239 0 -0.0072843466688302105 -0.016882259568982903 0 -0.0095905030230757134 -0.021183322836337146 0 -0.0069271303955449103 -0.020869800459695179 0 -0.0072843466688302105 -0.016882259568982903 0 -0.0034126848486116792 -0.018511453004163642 0 -0.0044616251228745104 -0.020186622515975163 0 -0.0072843466688302105 -0.016882259568982903 0 -0.0044616251228745104 -0.020186622515975163 0 -0.0069271303955449103 -0.020869800459695179 0 -0.0072843466688302105 -0.016882259568982903 0 -0.004945878495160979 -0.022955863544369032 0 -0.0044616251228745104 -0.020186622515975163 0 -0.0069271303955449103 -0.020869800459695179 0 -0.017549095351013993 -0.024930756607211207 0 -0.013695502843298899 -0.02345579530901061 0 -0.011380821642669238 -0.024839239687664237 0 -0.017549095351013993 -0.024930756607211207 0 -0.015830280169081726 -0.023058356589405166 0 -0.013695502843298899 -0.02345579530901061 0 -0.017518043443783455 -0.021966651845037197 0 -0.015830280169081726 -0.023058356589405166 0 -0.014588693554092281 -0.021893006718635991 0 -0.017549095351013993 -0.024930756607211207 0 -0.017518043443783455 -0.021966651845037197 0 -0.015830280169081726 -0.023058356589405166 0 -0.015830280169081726 -0.023058356589405166 0 -0.014588693554092281 -0.021893006718635991 0 -0.013695502843298899 -0.02345579530901061 0 -0.0095905030230757134 -0.021183322836337146 0 -0.012206163703566537 -0.021692792840375917 0 -0.011380821642669238 -0.024839239687664237 0 -0.014588693554092281 -0.021893006718635991 0 -0.012206163703566537 -0.021692792840375917 0 -0.013695502843298899 -0.02345579530901061 0 -0.012206163703566537 -0.021692792840375917 0 -0.013695502843298899 -0.02345579530901061 0 -0.011380821642669238 -0.024839239687664237 0 -0.0095905030230757134 -0.021183322836337146 0 -0.012206163703566537 -0.021692792840375917 0 -0.011835609149037895 -0.019242497618724239 0 -0.011835609149037895 -0.019242497618724239 0 -0.013442582742177573 -0.019093025108697832 0 -0.013697793007255666 -0.020233448405927584 0 -0.011835609149037895 -0.019242497618724239 0 -0.013363783926757303 -0.017630841033307997 0 -0.013441541271012441 -0.017984842048134806 0 -0.011835609149037895 -0.019242497618724239 0 -0.013442582742177573 -0.019093025108697832 0 -0.013441541271012441 -0.017984842048134806 0 -0.013948014931575192 -0.018553836928712431 0 -0.013442582742177573 -0.019093025108697832 0 -0.013441541271012441 -0.017984842048134806 0 -0.014588693554092281 -0.021893006718635991 0 -0.012206163703566537 -0.021692792840375917 0 -0.013697793007255666 -0.020233448405927584 0 -0.012206163703566537 -0.021692792840375917 0 -0.011835609149037895 -0.019242497618724239 0 -0.013697793007255666 -0.020233448405927584 0 -0.018598774576275307 -0.018998026643860431 0 -0.017518043443783455 -0.021966651845037197 0 -0.015820629803518178 -0.020388082826978342 0 -0.016797037324416147 -0.020230206027010294 0 -0.01142492996421747 -0.01946541980394087 0 -0.018598774576275307 -0.018998026643860431 0 -0.014830172661374107 -0.019140717109641298 0 -0.013394789847832947 -0.017601386097006389 0 -0.018598774576275307 -0.018998026643860431 0 -0.014830172661374107 -0.019140717109641298 0 -0.015820629803518178 -0.020388082826978342 0 -0.014588693554092281 -0.021893006718635991 0 -0.013697793007255666 -0.020233448405927584 0 -0.015820629803518178 -0.020388082826978342 0 -0.013697793007255666 -0.020233448405927584 0 -0.014830172661374107 -0.019140717109641298 0 -0.015820629803518178 -0.020388082826978342 0 -0.013442582742177573 -0.019093025108697832 0 -0.013697793007255666 -0.020233448405927584 0 -0.014830172661374107 -0.019140717109641298 0 -0.013948014931575192 -0.018553836928712431 0 -0.014830172661374107 -0.019140717109641298 0 -0.013394789847832947 -0.017601386097006389 0 -0.013948014931575192 -0.018553836928712431 0 -0.013442582742177573 -0.019093025108697832 0 -0.014830172661374107 -0.019140717109641298 0 -0.017518043443783455 -0.021966651845037197 0 -0.014588693554092281 -0.021893006718635991 0 -0.015820629803518178 -0.020388082826978342 0 -0.018906760782529133 -0.021467642597423901 0 -0.016681842311583629 -0.019308645297103778 0 -0.014696017126023916 -0.020970831211314253 0 -0.016681842311583629 -0.019308645297103778 0 -0.014696017126023916 -0.020970831211314253 0 -0.014791948475040242 -0.018704853901359147 0 -0.0051444393142635577 -0.017956848057419515 0 -0.0044760389958332187 -0.017283241093679996 0 -0.0048842881872171824 -0.016599610449649554 0 -0.0051444393142635577 -0.017956848057419515 0 -0.0044760389958332187 -0.017283241093679996 0 -0.0036547795836241658 -0.017645473649335532 0 -0.011835609149037895 -0.019242497618724239 0 -0.013363783926757303 -0.017630841033307997 0 -0.0072843466688302105 -0.016882259568982903 0 -0.01142492996421747 -0.01946541980394087 0 -0.010052479703701132 -0.017123775273346329 0 -0.013948014931575192 -0.018553836928712431 0 -0.013394789847832947 -0.017601386097006389 0 -0.013441541271012441 -0.017984842048134806 0 -0.01142492996421747 -0.01946541980394087 0 -0.011426442769626318 -0.019460528764873756 0 -0.014696017126023916 -0.020970831211314253 0 -0.013949922473128627 -0.017074656359614374 0 -0.014791948475040242 -0.018704853901359147 0 -0.0044760389958332187 -0.017283241093679996 0 -0.0048842881872171824 -0.016599610449649554 0 -0.0040941468366459451 -0.016723128853969607 0 -0.013949922473128627 -0.017074656359614374 0 -0.014544963749215023 -0.017807494401304965 0 -0.014505209669411347 -0.017009729808087931 0 -0.013949922473128627 -0.017074656359614374 0 -0.014791948475040242 -0.018704853901359147 0 -0.014544963749215023 -0.017807494401304965 0 -0.019168911984570602 -0.017918746615448115 0 -0.016681842311583629 -0.019308645297103778 0 -0.018257240235630669 -0.015958243083898139 0 -0.017323734555492389 -0.018061994165536097 0 -0.017588179790772242 -0.017342779617807832 0 -0.016681842311583629 -0.019308645297103778 0 -0.014505209669411347 -0.017009729808087931 0 -0.016929127734975472 -0.015725298490784603 0 -0.016681842311583629 -0.019308645297103778 0 -0.014544963749215023 -0.017807494401304965 0 -0.014505209669411347 -0.017009729808087931 0 -0.016681842311583629 -0.019308645297103778 0 -0.014791948475040242 -0.018704853901359147 0 -0.014544963749215023 -0.017807494401304965 0 -0.0021390622474297639 -0.017056711312187906 0 -0.0036547795836241658 -0.017645473649335532 0 -0.0029918179409705844 -0.016634196347342922 0 -0.0034126848486116792 -0.018511453004163642 0 -0.0021390622474297639 -0.017056711312187906 0 -0.0072843466688302105 -0.016882259568982903 0 -0.0044995468356926333 -0.017583865501170224 0 -0.0064320713545670781 -0.018038166229712081 0 -0.01142492996421747 -0.01946541980394087 0 -0.0064320713545670781 -0.018038166229712081 0 -0.0044760389958332187 -0.017283241093679996 0 -0.0036547795836241658 -0.017645473649335532 0 -0.0040941468366459451 -0.016723128853969607 0 -0.0040941468366459451 -0.016723128853969607 0 -0.0029918179409705844 -0.016634196347342922 0 -0.003670988191226722 -0.016096968339010916 0 -0.0036547795836241658 -0.017645473649335532 0 -0.0040941468366459451 -0.016723128853969607 0 -0.0029918179409705844 -0.016634196347342922 0 -0.0048842881872171824 -0.016599610449649554 0 -0.0040941468366459451 -0.016723128853969607 0 -0.0043168430589564828 -0.016068957899066087 0 -0.0028674444850571358 -0.016066966809825309 0 -0.0031908059855873185 -0.015461895075703329 0 -0.0021078170143256337 -0.015998416252189982 0 -0.0029918179409705844 -0.016634196347342922 0 -0.0028674444850571358 -0.016066966809825309 0 -0.0025608043674462291 -0.016352998575299069 0 -0.0028674444850571358 -0.016066966809825309 0 -0.003670988191226722 -0.016096968339010916 0 -0.0031908059855873185 -0.015461895075703329 0 -0.0029918179409705844 -0.016634196347342922 0 -0.0028674444850571358 -0.016066966809825309 0 -0.003670988191226722 -0.016096968339010916 0 -0.0040941468366459451 -0.016723128853969607 0 -0.003670988191226722 -0.016096968339010916 0 -0.0043168430589564828 -0.016068957899066087 0 -0.003670988191226722 -0.016096968339010916 0 -0.0043168430589564828 -0.016068957899066087 0 -0.0040566636612332837 -0.015537955589813445 0 -0.0040566636612332837 -0.015537955589813445 0 -0.0048517823277046592 -0.015365564806700883 0 -0.0040742812599105695 -0.014778210080227073 0 -0.0043168430589564828 -0.016068957899066087 0 -0.0040566636612332837 -0.015537955589813445 0 -0.0048517823277046592 -0.015365564806700883 0 -0.0040566636612332837 -0.015537955589813445 0 -0.0031908059855873185 -0.015461895075703329 0 -0.0040742812599105695 -0.014778210080227073 0 -0.0031908059855873185 -0.015461895075703329 0 -0.0030186001158856541 -0.014438260567457306 0 -0.0019970401737491698 -0.014959521130267286 0 -0.003670988191226722 -0.016096968339010916 0 -0.0040566636612332837 -0.015537955589813445 0 -0.0031908059855873185 -0.015461895075703329 0 -0.014261690984714375 -0.016571765332402452 0 -0.013865598850499695 -0.016821274065589711 0 -0.014200615856984542 -0.016948290936727509 0 -0.014505209669411347 -0.017009729808087931 0 -0.013865598850499695 -0.016821274065589711 0 -0.014200615856984542 -0.016948290936727509 0 -0.016823002964473567 -0.017539634687017195 0 -0.017588179790772242 -0.017342779617807832 0 -0.010052479703701132 -0.017123775273346329 0 -0.0091878342922576441 -0.015479361181287662 0 -0.013949922473128627 -0.017074656359614374 0 -0.014505209669411347 -0.017009729808087931 0 -0.013865598850499695 -0.016821274065589711 0 -0.013949922473128627 -0.017074656359614374 0 -0.013865598850499695 -0.016821274065589711 0 -0.013000037374931184 -0.016693951754603618 0 -0.0048842881872171824 -0.016599610449649554 0 -0.0043168430589564828 -0.016068957899066087 0 -0.0048517823277046592 -0.015365564806700883 0 -0.013865598850499695 -0.016821274065589711 0 -0.013000037374931184 -0.016693951754603618 0 -0.013835678214884205 -0.016378496757701363 0 -0.014261690984714375 -0.016571765332402452 0 -0.013865598850499695 -0.016821274065589711 0 -0.013835678214884205 -0.016378496757701363 0 -0.014458587075930915 -0.015902297034432532 0 -0.013835678214884205 -0.016378496757701363 0 -0.013533598097302193 -0.015696459111319394 0 -0.017417411258023308 -0.015607570901838414 0 -0.016063180643064268 -0.015450543561487291 0 -0.013000037374931184 -0.016693951754603618 0 -0.013835678214884205 -0.016378496757701363 0 -0.013533598097302193 -0.015696459111319394 0 -0.0091878342922576441 -0.015479361181287662 0 -0.0085077565779536762 -0.013660097697603898 0 -0.013000037374931184 -0.016693951754603618 0 -0.013533598097302193 -0.015696459111319394 0 -0.011488789708081811 -0.015218556219261336 0 -0.013533598097302193 -0.015696459111319394 0 -0.012255240878031263 -0.013834036695489318 0 -0.011488789708081811 -0.015218556219261336 0 -0.0096069986327238111 -0.012292293583356872 0 -0.012255240878031263 -0.013834036695489318 0 -0.011488789708081811 -0.015218556219261336 0 -0.013533598097302193 -0.015696459111319394 0 -0.012255240878031263 -0.013834036695489318 0 -0.014395143546475832 -0.014060421680727835 0 -0.015814541836995575 -0.016325736887295664 0 -0.013533598097302193 -0.015696459111319394 0 -0.014395143546475832 -0.014060421680727835 0 -0.0031908059855873185 -0.015461895075703329 0 -0.0030186001158856541 -0.014438260567457306 0 -0.0040742812599105695 -0.014778210080227073 0 -0.0030186001158856541 -0.014438260567457306 0 -0.0040742812599105695 -0.014778210080227073 0 -0.0041017829304748699 -0.013612785710207638 0 -0.0040742812599105695 -0.014778210080227073 0 -0.0051702771038730413 -0.013864155093170433 0 -0.0041017829304748699 -0.013612785710207638 0 -0.0048517823277046592 -0.015365564806700883 0 -0.0040742812599105695 -0.014778210080227073 0 -0.0051702771038730413 -0.013864155093170433 0 -0.0079067263564247207 -0.011259640407398104 0 -0.0085077565779536762 -0.013660097697603898 0 -0.0058858234493663472 -0.011724458322153297 0 -0.0051702771038730413 -0.013864155093170433 0 -0.0041017829304748699 -0.013612785710207638 0 -0.0037578535852831672 -0.012650946592279503 0 -0.0041017829304748699 -0.013612785710207638 0 -0.0029391327019453769 -0.013546121474215422 0 -0.0030186001158856541 -0.014438260567457306 0 -0.0041017829304748699 -0.013612785710207638 0 -0.0029391327019453769 -0.013546121474215422 0 -0.0037578535852831672 -0.012650946592279503 0 -0.0029391327019453769 -0.013546121474215422 0 -0.0025229873027254966 -0.012992295722493143 0 -0.0030186001158856541 -0.014438260567457306 0 -0.0029391327019453769 -0.013546121474215422 0 -0.0016467915760589259 -0.013699342866648975 0 -0.0029391327019453769 -0.013546121474215422 0 -0.0025229873027254966 -0.012992295722493143 0 -0.0016467915760589259 -0.013699342866648975 0 -0.0015648491690349675 -0.012914497557755564 0 -0.0016467915760589259 -0.013699342866648975 0 -0.0010705910453329482 -0.013093246837739594 0 -0.0015648491690349675 -0.012914497557755564 0 -0.0025229873027254966 -0.012992295722493143 0 -0.0016467915760589259 -0.013699342866648975 0 -0.0016467915760589259 -0.013699342866648975 0 -0.00057114458644716361 -0.013358047716110289 0 -0.00098327862978836444 -0.014335593264665691 0 -0.00066739589974066206 -0.012999560399689136 0 -0.00057114458644716361 -0.013358047716110289 0 -0.0010705910453329482 -0.013093246837739594 0 -0.0016467915760589259 -0.013699342866648975 0 -0.00057114458644716361 -0.013358047716110289 0 -0.0010705910453329482 -0.013093246837739594 0 -0.0030186001158856541 -0.014438260567457306 0 -0.0016467915760589259 -0.013699342866648975 0 -0.0019970401737491698 -0.014959521130267286 0 -0.0016467915760589259 -0.013699342866648975 0 -0.00098327862978836444 -0.014335593264665691 0 -0.0019970401737491698 -0.014959521130267286 0 -0.0031908059855873185 -0.015461895075703329 0 -0.0019970401737491698 -0.014959521130267286 0 -0.0021078170143256337 -0.015998416252189982 0 -0.0019970401737491698 -0.014959521130267286 0 -0.00079164273260220585 -0.015861967919488896 0 -0.0021078170143256337 -0.015998416252189982 0 -0.00098327862978836444 -0.014335593264665691 0 -0.0019970401737491698 -0.014959521130267286 0 -0.00079164273260220585 -0.015861967919488896 0 -0.00098327862978836444 -0.014335593264665691 0 -0.00079164273260220585 -0.015861967919488896 0 5.9371215420752347e-05 -0.015076173704187975 0 -0.00071790333084605757 -0.01759712892723686 0 -0.00079164273260220585 -0.015861967919488896 0 -0.0021078170143256337 -0.015998416252189982 0 -0.00071790333084605757 -0.01759712892723686 0 -0.00079164273260220585 -0.015861967919488896 0 0.00074841838576470039 -0.016552337608622736 0 -0.00038101822954813923 -0.017915326434369504 0 -0.00093720531730489653 -0.016957388423015606 0 -0.00071790333084605757 -0.01759712892723686 0 -0.00069118987151622143 -0.018286482019099579 0 -0.0021078170143256337 -0.015998416252189982 0 -0.0021892618978605811 -0.016479559113796213 0 -0.0025608043674462291 -0.016352998575299069 0 -0.0021078170143256337 -0.015998416252189982 0 -0.0028674444850571358 -0.016066966809825309 0 -0.0025608043674462291 -0.016352998575299069 0 -0.0021078170143256337 -0.015998416252189982 0 0.00074841838576470039 -0.016552337608622736 0 5.9371215420752347e-05 -0.015076173704187975 0 0.0036374167828499217 -0.015562183061738734 0 0.0030848604013622625 -0.015954617952951281 0 0.0053082586716879081 -0.016390604807234255 0 0.005594318475708379 -0.018303475910808796 0 0.00065538508878317111 -0.017075682504340675 0 0.0021431408364772867 -0.016310152203587776 0 -0.00079164273260220585 -0.015861967919488896 0 0.00074841838576470039 -0.016552337608622736 0 5.9371215420752347e-05 -0.015076173704187975 0 0.0021431408364772867 -0.016310152203587776 0 0.0046817712036106357 -0.015042265428716695 0 0.0030848604013622625 -0.015954617952951281 0 0.0053082586716879081 -0.016390604807234255 0 0.0058830373294318844 -0.014804020833501901 0 5.9371215420752347e-05 -0.015076173704187975 0 0.00049120113059857311 -0.013558989129257385 0 0.0036374167828499217 -0.015562183061738734 0 -0.00057114458644716361 -0.013358047716110289 0 -0.00098327862978836444 -0.014335593264665691 0 0.00049120113059857311 -0.013558989129257385 0 -0.00098327862978836444 -0.014335593264665691 0 5.9371215420752347e-05 -0.015076173704187975 0 0.00049120113059857311 -0.013558989129257385 0 -0.00013989626637606517 -0.013106027572052682 0 -0.00057114458644716361 -0.013358047716110289 0 0.00049120113059857311 -0.013558989129257385 0 -0.00013989626637606517 -0.013106027572052682 0 0.00049120113059857311 -0.013558989129257385 0 0.0002917548421667327 -0.013384005517005582 0 0.00049120113059857311 -0.013558989129257385 0 0.0002917548421667327 -0.013384005517005582 0 0.00017686597267184455 -0.012970925373871199 0 0.0024054770672302336 -0.016356984262170048 0 0.0042462583951930278 -0.017258474273744228 0 0.00023934242755481745 -0.013704779820519966 0 0.0002917548421667327 -0.013384005517005582 0 0.00017686597267184455 -0.012970925373871199 0 0.00049120113059857311 -0.013558989129257385 0 0.0043827044107834232 -0.012185572912348662 0 0.0036374167828499217 -0.015562183061738734 0 0.0043827044107834232 -0.012185572912348662 0 0.0080044408994646467 -0.013492412831094499 0 0.0036374167828499217 -0.015562183061738734 0 0.0063350612990683321 -0.014182183446196397 0 0.0046817712036106357 -0.015042265428716695 0 -0.0010137182080785505 -0.013886699583404057 0 0.00017686597267184455 -0.012970925373871199 0 -0.002437361939832558 -0.012979177916100941 0 0.0043827044107834232 -0.012185572912348662 0 0.0088991868858818504 -0.011281098147644516 0 0.0080044408994646467 -0.013492412831094499 0 -0.0010137182080785505 -0.013886699583404057 0 0.00023934242755481745 -0.013704779820519966 0 0.00017686597267184455 -0.012970925373871199 0 0.0042462583951930278 -0.017258474273744228 0 0.012496628852482761 -0.020619790706062138 0 0.019455370617026787 -0.019379711690671198 0 0.019469851304947293 -0.019379532988147239 0 0.019468306515406285 -0.019373817999568801 0 0.019455370617026787 -0.019379711690671198 0 0.019476457851211434 -0.019376361692952766 0 0.019469851304947293 -0.019379532988147239 0 0.012496628852482761 -0.020619790706062138 0 0.017936585317013795 -0.022378059414888549 0 0.019469851304947293 -0.019379532988147239 0 0.019467215596063552 -0.019371436692038092 0 0.019468306515406285 -0.019373817999568801 0 0.0088991868858818504 -0.011281098147644516 0 0.0092617938793044616 -0.014086011094770172 0 0.0080044408994646467 -0.013492412831094499 0 0.0092617938793044616 -0.014086011094770172 0 0.0080044408994646467 -0.013492412831094499 0 0.0079561257902374723 -0.015304494087526205 0 0.012496628852482761 -0.020619790706062138 0 0.015111874547099105 -0.017610515860663228 0 0.0092617938793044616 -0.014086011094770172 0 0.0097380659232129945 -0.015985319621274263 0 0.0079561257902374723 -0.015304494087526205 0 0.0097380659232129945 -0.015985319621274263 0 0.0079561257902374723 -0.015304494087526205 0 0.0083374290530922584 -0.018374856661516937 0 0.015111874547099105 -0.017610515860663228 0 0.018380016151757876 -0.016669070183527139 0 0.019467215596063552 -0.019371436692038092 0 0.019468306515406285 -0.019373817999568801 0 0.019466565419447954 -0.019349283590396497 0 0.022700061994709711 -0.016359993554794568 0 0.018380016151757876 -0.016669070183527139 0 0.032732021274754858 -0.014616137770038276 0 0.031989762377137881 -0.015735957426843011 0 0.033174818801775245 -0.015581638210292542 0 0.018380016151757876 -0.016669070183527139 0 0.025014680998679376 -0.017071671297503803 0 0.031989762377137881 -0.015735957426843011 0 0.033356519998843696 -0.016568798148853089 0 0.032387460913123875 -0.017513448354274867 0 0.031989762377137881 -0.015735957426843011 0 0.033174818801775245 -0.015581638210292542 0 0.033356519998843696 -0.016568798148853089 0 0.018380016151757876 -0.016669070183527139 0 0.011870041553251253 -0.01928106485718727 0 0.0066063788557420948 -0.01659652102042496 0 0.0079561257902374723 -0.015304494087526205 0 0.0083374290530922584 -0.018374856661516937 0 0.0053082586716879081 -0.016390604807234255 0 0.0066063788557420948 -0.01659652102042496 0 0.005594318475708379 -0.018303475910808796 0 0.0053082586716879081 -0.016390604807234255 0 0.0066063788557420948 -0.01659652102042496 0 0.0058830373294318844 -0.014804020833501901 0 0.0080044408994646467 -0.013492412831094499 0 0.0058830373294318844 -0.014804020833501901 0 0.0079561257902374723 -0.015304494087526205 0 0.0066063788557420948 -0.01659652102042496 0 0.0058830373294318844 -0.014804020833501901 0 0.0079561257902374723 -0.015304494087526205 0 0.037105217896924288 -0.01354947695168938 0 0.035913348194840503 -0.014679395368095172 0 0.037996325847061509 -0.015314756696056458 0 0.038368688394920143 -0.013877984806222109 0 0.037105217896924288 -0.01354947695168938 0 0.037996325847061509 -0.015314756696056458 0 0.038066875559132164 -0.012934830976826199 0 0.038368688394920143 -0.013877984806222109 0 0.037105217896924288 -0.01354947695168938 0 0.038066875559132164 -0.012934830976826199 0 0.037105217896924288 -0.01354947695168938 0 0.037308321066399107 -0.012586131431041649 0 0.03802506456977825 -0.011977318262661915 0 0.038066875559132164 -0.012934830976826199 0 0.037308321066399107 -0.012586131431041649 0 0.036706759439421713 -0.012312273367542049 0 0.037308321066399107 -0.012586131431041649 0 0.036653777746287239 -0.012768478910305428 0 0.037105217896924288 -0.01354947695168938 0 0.037308321066399107 -0.012586131431041649 0 0.036653777746287239 -0.012768478910305428 0 0.037105217896924288 -0.01354947695168938 0 0.036653777746287239 -0.012768478910305428 0 0.03596233862620736 -0.013093015425269066 0 0.036653777746287239 -0.012768478910305428 0 0.036197326913821069 -0.012375172448471276 0 0.03596233862620736 -0.013093015425269066 0 0.036706759439421713 -0.012312273367542049 0 0.036653777746287239 -0.012768478910305428 0 0.036197326913821069 -0.012375172448471276 0 0.036197326913821069 -0.012375172448471276 0 0.035679252235347993 -0.012411977270000539 0 0.03596233862620736 -0.013093015425269066 0 0.035679252235347993 -0.012411977270000539 0 0.03596233862620736 -0.013093015425269066 0 0.034957014659122994 -0.012835979615084791 0 0.03596233862620736 -0.013093015425269066 0 0.035913348194840503 -0.014679395368095172 0 0.034999038208064555 -0.013628464159110438 0 0.037105217896924288 -0.01354947695168938 0 0.03596233862620736 -0.013093015425269066 0 0.035913348194840503 -0.014679395368095172 0 0.035447043515799463 -0.014421631902477718 0 0.033706473585840488 -0.014056305484566531 0 0.034034413642833758 -0.015233184068971116 0 0.035913348194840503 -0.014679395368095172 0 0.034999038208064555 -0.013628464159110438 0 0.033706473585840488 -0.014056305484566531 0 0.036019033080023875 -0.014636122114912092 0 0.034985747456918737 -0.014340699390043477 0 0.034999038208064555 -0.013628464159110438 0 0.034292338545925595 -0.013507961159258548 0 0.033706473585840488 -0.014056305484566531 0 0.024210949981912144 -0.021434116558723067 0 0.024627730366887014 -0.017497654369349851 0 0.03596233862620736 -0.013093015425269066 0 0.034999038208064555 -0.013628464159110438 0 0.034957014659122994 -0.012835979615084791 0 0.034785799485735444 -0.011980246314990011 0 0.034957014659122994 -0.012835979615084791 0 0.033651472604265813 -0.013319598341395629 0 0.035368360251613412 -0.011920003796447852 0 0.035679252235347993 -0.012411977270000539 0 0.034957014659122994 -0.012835979615084791 0 0.034957014659122994 -0.012835979615084791 0 0.034292338545925595 -0.013507961159258548 0 0.033651472604265813 -0.013319598341395629 0 0.034999038208064555 -0.013628464159110438 0 0.034957014659122994 -0.012835979615084791 0 0.034292338545925595 -0.013507961159258548 0 0.019518913272997037 -0.019377794459937182 0 0.019476457851211434 -0.019376361692952766 0 0.019489304334966637 -0.019383706725433804 0 0.019476457851211434 -0.019376361692952766 0 0.019469851304947293 -0.019379532988147239 0 0.019489304334966637 -0.019383706725433804 0 0.022700061994709711 -0.016359993554794568 0 0.024627730366887014 -0.017497654369349851 0 0.032732021274754858 -0.014616137770038276 0 0.033651472604265813 -0.013319598341395629 0 0.033706473585840488 -0.014056305484566531 0 0.019469851304947293 -0.019379532988147239 0 0.019467215596063552 -0.019371436692038092 0 0.019489304334966637 -0.019383706725433804 0 0.034292338545925595 -0.013507961159258548 0 0.033651472604265813 -0.013319598341395629 0 0.033706473585840488 -0.014056305484566531 0 0.032732021274754858 -0.014616137770038276 0 0.033706473585840488 -0.014056305484566531 0 0.033417296818083642 -0.014878108827451501 0 0.033706473585840488 -0.014056305484566531 0 0.033417296818083642 -0.014878108827451501 0 0.034034413642833758 -0.015233184068971116 0 0.032732021274754858 -0.014616137770038276 0 0.033417296818083642 -0.014878108827451501 0 0.033174818801775245 -0.015581638210292542 0 0.033417296818083642 -0.014878108827451501 0 0.033174818801775245 -0.015581638210292542 0 0.034034413642833758 -0.015233184068971116 0 0.033174818801775245 -0.015581638210292542 0 0.033753231753084006 -0.016125327007590153 0 0.034034413642833758 -0.015233184068971116 0 0.033174818801775245 -0.015581638210292542 0 0.033356519998843696 -0.016568798148853089 0 0.033753231753084006 -0.016125327007590153 0 0.033356519998843696 -0.016568798148853089 0 0.033753231753084006 -0.016125327007590153 0 0.033595452634748599 -0.016802484545911957 0 0.033753231753084006 -0.016125327007590153 0 0.034926587825072998 -0.016199187218576175 0 0.034034413642833758 -0.015233184068971116 0 0.033753231753084006 -0.016125327007590153 0 0.034926587825072998 -0.016199187218576175 0 0.033595452634748599 -0.016802484545911957 0 0.034926587825072998 -0.016199187218576175 0 0.035079491395863575 -0.017558113278165772 0 0.033595452634748599 -0.016802484545911957 0 0.035447043515799463 -0.014421631902477718 0 0.034926587825072998 -0.016199187218576175 0 0.034034413642833758 -0.015233184068971116 0 0.035447043515799463 -0.014421631902477718 0 0.034926587825072998 -0.016199187218576175 0 0.036550468515888494 -0.015892258817738425 0 0.034926587825072998 -0.016199187218576175 0 0.036499074760903562 -0.017537875678984297 0 0.035079491395863575 -0.017558113278165772 0 0.034926587825072998 -0.016199187218576175 0 0.036550468515888494 -0.015892258817738425 0 0.036499074760903562 -0.017537875678984297 0 0.038958797726549262 -0.017176029082237719 0 0.036550468515888494 -0.015892258817738425 0 0.036499074760903562 -0.017537875678984297 0 0.038958797726549262 -0.017176029082237719 0 0.036550468515888494 -0.015892258817738425 0 0.038014946287785817 -0.015005089294251373 0 0.036019033080023875 -0.014636122114912092 0 0.037912942224186265 -0.015183757740657961 0 0.035447043515799463 -0.014421631902477718 0 0.036550468515888494 -0.015892258817738425 0 0.038014946287785817 -0.015005089294251373 0 0.039754515850418996 -0.020316695741551268 0 0.036499074760903562 -0.017537875678984297 0 0.03640274863168131 -0.020670745664945995 0 0.039754515850418996 -0.020316695741551268 0 0.038258863974346309 -0.022204352892777359 0 0.03640274863168131 -0.020670745664945995 0 0.036509036230867112 -0.019087144577471522 0 0.036447082382652311 -0.020255629315380299 0 0.036499074760903562 -0.017537875678984297 0 0.035079491395863575 -0.017558113278165772 0 0.036396725654280843 -0.019537065830078252 0 0.036396725654280843 -0.019537065830078252 0 0.034698646083261148 -0.018940812762124306 0 0.03466097532113939 -0.020982017189846106 0 0.035079491395863575 -0.017558113278165772 0 0.036396725654280843 -0.019537065830078252 0 0.034698646083261148 -0.018940812762124306 0 0.034698646083261148 -0.018940812762124306 0 0.033204666863725946 -0.019908012742519396 0 0.03466097532113939 -0.020982017189846106 0 0.034698646083261148 -0.018940812762124306 0 0.033595452634748599 -0.016802484545911957 0 0.033204666863725946 -0.019908012742519396 0 0.035079491395863575 -0.017558113278165772 0 0.034698646083261148 -0.018940812762124306 0 0.033595452634748599 -0.016802484545911957 0 0.033595452634748599 -0.016802484545911957 0 0.033364153326576954 -0.015941377753014151 0 0.033343165562472084 -0.015104321658403823 0 0.033356519998843696 -0.016568798148853089 0 0.033595452634748599 -0.016802484545911957 0 0.033364153326576954 -0.015941377753014151 0 0.033356519998843696 -0.016568798148853089 0 0.033364153326576954 -0.015941377753014151 0 0.033732539770046741 -0.01585838656676224 0 0.033364153326576954 -0.015941377753014151 0 0.033138002783683868 -0.015360322228098702 0 0.033732539770046741 -0.01585838656676224 0 0.033521284324230828 -0.017212335351557067 0 0.033323006968939459 -0.018182592868129593 0 0.033364153326576954 -0.015941377753014151 0 0.033138002783683868 -0.015360322228098702 0 0.033343165562472084 -0.015104321658403823 0 0.033138002783683868 -0.015360322228098702 0 0.033343165562472084 -0.015104321658403823 0 0.032481408927420963 -0.014936070079883838 0 0.033343165562472084 -0.015104321658403823 0 0.03330234598192313 -0.018522961228363322 0 0.032481408927420963 -0.014936070079883838 0 0.033204666863725946 -0.019908012742519396 0 0.032753494826940094 -0.02252439027512141 0 0.03466097532113939 -0.020982017189846106 0 0.033323006968939459 -0.018182592868129593 0 0.032814421230837068 -0.020832033892393503 0 0.032753494826940094 -0.02252439027512141 0 0.03466097532113939 -0.020982017189846106 0 0.034857077651811327 -0.02292625068071678 0 0.036396725654280843 -0.019537065830078252 0 0.03466097532113939 -0.020982017189846106 0 0.036320339444682 -0.021915882277645252 0 0.036447082382652311 -0.020255629315380299 0 0.036354239247959476 -0.022143783913524381 0 0.03466097532113939 -0.020982017189846106 0 0.036320339444682 -0.021915882277645252 0 0.034857077651811327 -0.02292625068071678 0 0.038258863974346309 -0.022204352892777359 0 0.036515868121476239 -0.022990372692217237 0 0.037664650034224742 -0.023726190298608597 0 0.038258863974346309 -0.022204352892777359 0 0.03640274863168131 -0.020670745664945995 0 0.036515868121476239 -0.022990372692217237 0 0.010049253612708638 -0.017297125144171355 0 0.010432163686178405 -0.02041317395248432 0 0.0076682246457944166 -0.020743515080677653 0 0.005594318475708379 -0.018303475910808796 0 0.0083374290530922584 -0.018374856661516937 0 0.0068899474252741965 -0.02109598124788906 0 0.011870041553251253 -0.01928106485718727 0 0.0085886790593672838 -0.021472016055987451 0 0.0051694348471288277 -0.02003715045733466 0 0.0042813377474563812 -0.021264703850097474 0 0.0068899474252741965 -0.02109598124788906 0 0.0051694348471288277 -0.02003715045733466 0 0.005594318475708379 -0.018303475910808796 0 0.0068899474252741965 -0.02109598124788906 0 0.0066063788557420948 -0.01659652102042496 0 0.005594318475708379 -0.018303475910808796 0 0.0083374290530922584 -0.018374856661516937 0 0.012463482337294069 -0.013822218802005116 0 0.010049253612708638 -0.017297125144171355 0 0.013279179412705622 -0.017666732387090281 0 0.02750806086662318 -0.015711442262309926 0 0.025014680998679376 -0.017071671297503803 0 0.033138002783683868 -0.015360322228098702 0 0.033732539770046741 -0.01585838656676224 0 0.032481408927420963 -0.014936070079883838 0 0.025014680998679376 -0.017071671297503803 0 0.026066328154906022 -0.016582913669573967 0 0.031747389377071833 -0.011528181533267418 0 0.032481408927420963 -0.014936070079883838 0 0.028355455102017812 -0.014344408674223687 0 0.010049253612708638 -0.017297125144171355 0 0.013279179412705622 -0.017666732387090281 0 0.010432163686178405 -0.02041317395248432 0 0.025014680998679376 -0.017071671297503803 0 0.020145532453247135 -0.018446325407679216 0 0.028355455102017812 -0.014344408674223687 0 0.030325862828356469 -0.016674902551935183 0 0.027822370375902364 -0.016972911847020222 0 0.032481408927420963 -0.014936070079883838 0 0.028355455102017812 -0.014344408674223687 0 0.030325862828356469 -0.016674902551935183 0 0.03330234598192313 -0.018522961228363322 0 0.032481408927420963 -0.014936070079883838 0 0.030325862828356469 -0.016674902551935183 0 0.03330234598192313 -0.018522961228363322 0 0.030325862828356469 -0.016674902551935183 0 0.029604301466054726 -0.019209314761746484 0 0.030325862828356469 -0.016674902551935183 0 0.027822370375902364 -0.016972911847020222 0 0.029604301466054726 -0.019209314761746484 0 0.027822370375902364 -0.016972911847020222 0 0.026873865153577418 -0.019198772503787438 0 0.029604301466054726 -0.019209314761746484 0 0.027822370375902364 -0.016972911847020222 0 0.024205715461511613 -0.016300380523349201 0 0.026873865153577418 -0.019198772503787438 0 0.020145532453247135 -0.018446325407679216 0 0.015819639890323672 -0.020635938203403446 0 0.010432163686178405 -0.02041317395248432 0 0.0076250898952320793 -0.022960487905710609 0 0.0076682246457944166 -0.020743515080677653 0 0.028355455102017812 -0.014344408674223687 0 0.027822370375902364 -0.016972911847020222 0 0.024205715461511613 -0.016300380523349201 0 0.0072151192690757841 -0.022847114984389769 0 0.0085886790593672838 -0.021472016055987451 0 0.0044246372951422374 -0.02278679640726327 0 0.0055660788088591571 -0.023822116549097529 0 0.0068899474252741965 -0.02109598124788906 0 0.015819639890323672 -0.020635938203403446 0 0.011421897440817549 -0.023630608280947665 0 0.0055660788088591571 -0.023822116549097529 0 0.0076250898952320793 -0.022960487905710609 0 0.0052661443190767654 -0.02504136439186223 0 0.0055660788088591571 -0.023822116549097529 0 0.0076250898952320793 -0.022960487905710609 0 0.0076682246457944166 -0.020743515080677653 0 0.024205715461511613 -0.016300380523349201 0 0.020885129566758677 -0.020615710396466334 0 0.02443259082773392 -0.021263707864637733 0 0.024205715461511613 -0.016300380523349201 0 0.020885129566758677 -0.020615710396466334 0 0.017159241487564585 -0.019314321270304718 0 0.020885129566758677 -0.020615710396466334 0 0.020334979088813234 -0.024002299579578411 0 0.02443259082773392 -0.021263707864637733 0 0.020885129566758677 -0.020615710396466334 0 0.020334979088813234 -0.024002299579578411 0 0.016983677178385368 -0.023642541360757413 0 0.020334979088813234 -0.024002299579578411 0 0.025142821255696286 -0.026104622664835663 0 0.014504488879104658 -0.029320209102819791 0 0.020334979088813234 -0.024002299579578411 0 0.02443259082773392 -0.021263707864637733 0 0.025142821255696286 -0.026104622664835663 0 0.027916331906401713 -0.022460057331565239 0 0.028480440283647043 -0.025489901183210272 0 0.025142821255696286 -0.026104622664835663 0 0.02443259082773392 -0.021263707864637733 0 0.027916331906401713 -0.022460057331565239 0 0.025142821255696286 -0.026104622664835663 0 0.024205715461511613 -0.016300380523349201 0 0.02443259082773392 -0.021263707864637733 0 0.026873865153577418 -0.019198772503787438 0 0.02443259082773392 -0.021263707864637733 0 0.026873865153577418 -0.019198772503787438 0 0.027916331906401713 -0.022460057331565239 0 0.029604301466054726 -0.019209314761746484 0 0.032212934527605874 -0.023800112524805284 0 0.027916331906401713 -0.022460057331565239 0 0.026873865153577418 -0.019198772503787438 0 0.029604301466054726 -0.019209314761746484 0 0.027916331906401713 -0.022460057331565239 0 0.03330234598192313 -0.018522961228363322 0 0.029604301466054726 -0.019209314761746484 0 0.032212934527605874 -0.023800112524805284 0 0.032212934527605874 -0.023800112524805284 0 0.027916331906401713 -0.022460057331565239 0 0.028480440283647043 -0.025489901183210272 0 0.028480440283647043 -0.025489901183210272 0 0.031132063430141816 -0.027561566051692511 0 0.028041595414884855 -0.02720863939689408 0 0.032212934527605874 -0.023800112524805284 0 0.028480440283647043 -0.025489901183210272 0 0.031132063430141816 -0.027561566051692511 0 0.032114103055623983 -0.024042598666862855 0 0.031667201475095115 -0.025876768257627972 0 0.031132063430141816 -0.027561566051692511 0 0.028041595414884855 -0.02720863939689408 0 0.029084469659513994 -0.028832158457483426 0 0.028041595414884855 -0.02720863939689408 0 0.027115687694549237 -0.028003293374392162 0 0.029084469659513994 -0.028832158457483426 0 0.028041595414884855 -0.02720863939689408 0 0.027115687694549237 -0.028003293374392162 0 0.026531873674601969 -0.027213583586968897 0 0.028041595414884855 -0.02720863939689408 0 0.026531873674601969 -0.027213583586968897 0 0.026646123209877078 -0.026549373666057134 0 0.026531873674601969 -0.027213583586968897 0 0.025589511509704021 -0.027835834279322506 0 0.025618109420511879 -0.026650149822798071 0 0.027115687694549237 -0.028003293374392162 0 0.026531873674601969 -0.027213583586968897 0 0.025589511509704021 -0.027835834279322506 0 0.027115687694549237 -0.028003293374392162 0 0.025589511509704021 -0.027835834279322506 0 0.027724309444678893 -0.029225130754826949 0 0.034388030583978518 -0.01703903318945783 0 0.033154900232543999 -0.020233292871569535 0 0.024212356559605429 -0.025287865056535727 0 0.024775742443178678 -0.026056552941195639 0 0.024681798449993929 -0.025612129592374567 0 0.024212356559605429 -0.025287865056535727 0 0.024612047029222078 -0.025026752622997302 0 0.024681798449993929 -0.025612129592374567 0 0.024775742443178678 -0.026056552941195639 0 0.025142821255696286 -0.026104622664835663 0 0.024702778076262134 -0.025940894666246037 0 0.025589511509704021 -0.027835834279322506 0 0.025618109420511879 -0.026650149822798071 0 0.024775742443178678 -0.026056552941195639 0 0.019784377545928374 -0.020421233115968249 0 0.015894606575550693 -0.018719528522801468 0 0.025618109420511879 -0.026650149822798071 0 0.024775742443178678 -0.026056552941195639 0 0.025142821255696286 -0.026104622664835663 0 0.028480440283647043 -0.025489901183210272 0 0.025142821255696286 -0.026104622664835663 0 0.026646123209877078 -0.026549373666057134 0 0.028480440283647043 -0.025489901183210272 0 0.028041595414884855 -0.02720863939689408 0 0.026646123209877078 -0.026549373666057134 0 0.026531873674601969 -0.027213583586968897 0 0.025618109420511879 -0.026650149822798071 0 0.026646123209877078 -0.026549373666057134 0 0.025618109420511879 -0.026650149822798071 0 0.025142821255696286 -0.026104622664835663 0 0.026646123209877078 -0.026549373666057134 0 0.038138471034360737 -0.024568259307829597 0 0.036270716704400775 -0.024427968267358522 0 0.036761151806522611 -0.025799631819116233 0 0.038138471034360737 -0.024568259307829597 0 0.038518288497789668 -0.025761640361731928 0 0.036761151806522611 -0.025799631819116233 0 0.036515868121476239 -0.022990372692217237 0 0.037664650034224742 -0.023726190298608597 0 0.036270716704400775 -0.024427968267358522 0 0.038138471034360737 -0.024568259307829597 0 0.037664650034224742 -0.023726190298608597 0 0.036270716704400775 -0.024427968267358522 0 0.036354239247959476 -0.022143783913524381 0 0.036293793825333945 -0.023193939375948686 0 0.036320339444682 -0.021915882277645252 0 0.036270716704400775 -0.024427968267358522 0 0.034857077651811327 -0.02292625068071678 0 0.036270716704400775 -0.024427968267358522 0 0.034427502040550909 -0.024765860294218806 0 0.036761151806522611 -0.025799631819116233 0 0.036270716704400775 -0.024427968267358522 0 0.034427502040550909 -0.024765860294218806 0 0.034857077651811327 -0.02292625068071678 0 0.032753494826940094 -0.02252439027512141 0 0.034427502040550909 -0.024765860294218806 0 0.034857077651811327 -0.02292625068071678 0 0.032814421230837068 -0.020832033892393503 0 0.032114103055623983 -0.024042598666862855 0 0.032753494826940094 -0.02252439027512141 0 0.032147424482569416 -0.024979705437139229 0 0.034427502040550909 -0.024765860294218806 0 0.032147424482569416 -0.024979705437139229 0 0.031132063430141816 -0.027561566051692511 0 0.034606363919445604 -0.026749176080412211 0 0.031132063430141816 -0.027561566051692511 0 0.034606363919445604 -0.026749176080412211 0 0.032782996388272485 -0.028582324837537539 0 0.032147424482569416 -0.024979705437139229 0 0.034427502040550909 -0.024765860294218806 0 0.034606363919445604 -0.026749176080412211 0 0.034606363919445604 -0.026749176080412211 0 0.035299373427947228 -0.028386092296911636 0 0.032782996388272485 -0.028582324837537539 0 0.034427502040550909 -0.024765860294218806 0 0.034606363919445604 -0.026749176080412211 0 0.036761151806522611 -0.025799631819116233 0 0.034606363919445604 -0.026749176080412211 0 0.037579893376180604 -0.027425738461775089 0 0.036761151806522611 -0.025799631819116233 0 0.034606363919445604 -0.026749176080412211 0 0.037579893376180604 -0.027425738461775089 0 0.035299373427947228 -0.028386092296911636 0 0.038518288497789668 -0.025761640361731928 0 0.037579893376180604 -0.027425738461775089 0 0.036761151806522611 -0.025799631819116233 0 0.037736072489537108 -0.029710321979143889 0 0.036743361464985448 -0.028866381111187295 0 0.036667816818779717 -0.030341887524696083 0 0.038724418700694964 -0.028366712613002391 0 0.037736072489537108 -0.029710321979143889 0 0.036743361464985448 -0.028866381111187295 0 0.038724418700694964 -0.028366712613002391 0 0.037893938908682097 -0.026202538931213593 0 0.036743361464985448 -0.028866381111187295 0 0.03920673966089009 -0.026962400511060032 0 0.03833411678265309 -0.027946837196043815 0 0.037579893376180604 -0.027425738461775089 0 0.036743361464985448 -0.028866381111187295 0 0.035299373427947228 -0.028386092296911636 0 0.036743361464985448 -0.028866381111187295 0 0.035195605913051049 -0.029835867210794086 0 0.036667816818779717 -0.030341887524696083 0 0.036743361464985448 -0.028866381111187295 0 0.035195605913051049 -0.029835867210794086 0 0.035299373427947228 -0.028386092296911636 0 0.035195605913051049 -0.029835867210794086 0 0.035299373427947228 -0.028386092296911636 0 0.033836789640072529 -0.029504936435651746 0 0.035195605913051049 -0.029835867210794086 0 0.033836789640072529 -0.029504936435651746 0 0.033568954650841046 -0.030551405067519789 0 0.035299373427947228 -0.028386092296911636 0 0.032782996388272485 -0.028582324837537539 0 0.033836789640072529 -0.029504936435651746 0 0.032782996388272485 -0.028582324837537539 0 0.032305440434540381 -0.030079099940403267 0 0.033836789640072529 -0.029504936435651746 0 0.032305440434540381 -0.030079099940403267 0 0.033568954650841046 -0.030551405067519789 0 0.0317489169509661 -0.031492456165591626 0 0.032305440434540381 -0.030079099940403267 0 0.033836789640072529 -0.029504936435651746 0 0.033568954650841046 -0.030551405067519789 0 0.040811481740190184 -0.024707932565424629 0 0.042243149905912387 -0.018679870297828517 0 0.033568954650841046 -0.030551405067519789 0 0.034690707080418069 -0.031549649186309703 0 0.0317489169509661 -0.031492456165591626 0 0.045616659694047094 -0.028853798327440568 0 0.044221192930775741 -0.02925548872067597 0 0.046515128599703741 -0.029682625239390772 0 0.045616659694047094 -0.028853798327440568 0 0.0456396634222547 -0.027773720478534658 0 0.046811010752824796 -0.029232187292720129 0 0.045616659694047094 -0.028853798327440568 0 0.0456396634222547 -0.027773720478534658 0 0.044488571347254091 -0.028201727970328393 0 0.0456396634222547 -0.027773720478534658 0 0.044488571347254091 -0.028201727970328393 0 0.044051811077058231 -0.026689083248506919 0 0.045616659694047094 -0.028853798327440568 0 0.044488571347254091 -0.028201727970328393 0 0.044221192930775741 -0.02925548872067597 0 0.043231134321445742 -0.027950492834869306 0 0.044221192930775741 -0.02925548872067597 0 0.041255959225583526 -0.028431221023204608 0 0.044488571347254091 -0.028201727970328393 0 0.043231134321445742 -0.027950492834869306 0 0.044221192930775741 -0.02925548872067597 0 0.044488571347254091 -0.028201727970328393 0 0.043231134321445742 -0.027950492834869306 0 0.044051811077058231 -0.026689083248506919 0 0.035195605913051049 -0.029835867210794086 0 0.034690707080418069 -0.031549649186309703 0 0.036667816818779717 -0.030341887524696083 0 0.035195605913051049 -0.029835867210794086 0 0.033568954650841046 -0.030551405067519789 0 0.034690707080418069 -0.031549649186309703 0 0.034690707080418069 -0.031549649186309703 0 0.036667816818779717 -0.030341887524696083 0 0.03740765013161762 -0.031055784240131799 0 0.040811481740190184 -0.024707932565424629 0 0.039536302031916111 -0.026753045625440838 0 0.043231134321445742 -0.027950492834869306 0 0.041255959225583526 -0.028431221023204608 0 0.04225044814700351 -0.027109878770870972 0 0.041255959225583526 -0.028431221023204608 0 0.039569857894193441 -0.027959753547171357 0 0.038280491554194787 -0.028255294578705705 0 0.039536302031916111 -0.026753045625440838 0 0.038722236211752838 -0.027016838407236499 0 0.037932239394354632 -0.029733614534303881 0 0.03740765013161762 -0.031055784240131799 0 0.037773306985138179 -0.030506171327619271 0 0.037932239394354632 -0.029733614534303881 0 0.03740765013161762 -0.031055784240131799 0 0.038280491554194787 -0.028255294578705705 0 0.036667816818779717 -0.030341887524696083 0 0.03740765013161762 -0.031055784240131799 0 0.037773306985138179 -0.030506171327619271 0 0.038960925761466959 -0.030057409191469271 0 0.037736072489537108 -0.029710321979143889 0 0.037773306985138179 -0.030506171327619271 0 0.037736072489537108 -0.029710321979143889 0 0.036667816818779717 -0.030341887524696083 0 0.037773306985138179 -0.030506171327619271 0 0.065139110501390818 0.040490803531491273 0 0.06508822879936603 0.042882702879803045 0 0.066660580668605626 0.04434326898334303 0 0.065139110501390818 0.040490803531491273 0 0.06508822879936603 0.042882702879803045 0 0.063757383874541579 0.043394845651419989 0 0.06570390594374248 0.039400765151593006 0 0.064533783051216403 0.040839461198629565 0 0.064093158514801948 0.04319505426203777 0 0.0045679860567479922 0.0063332965662449671 0 0.0054038555517671285 0.0066531945757568383 0 0.0056303738011052509 0.0088155394068042715 0 0.035976908126194106 0.0018730955775012122 0 0.040291706950943772 0.022269053008777701 0 0.035976908126194106 0.0018730955775012122 0 0.023799741778224765 0.025342460824145721 0 0.035976908126194106 0.0018730955775012122 0 0.042859285224496564 -0.0037489240188523882 0 0.027468759639694924 -0.030128674767312326 0 0.028590798274537487 -0.029866992978912509 0 0.028582129862571568 -0.030932945341336775 0 0.06570390594374248 0.039400765151593006 0 0.064533783051216403 0.040839461198629565 0 0.063682586983280207 0.041184582638691528 0 0.064533783051216403 0.040839461198629565 0 0.063713346650275601 0.041234995395937328 0 0.064093158514801948 0.04319505426203777 0 0.043086762742394986 -0.0034607068543636467 0 0.042859285224496564 -0.0037489240188523882 0 0.0063120459734134059 0.0070858108966470558 0 0.0054038555517671285 0.0066531945757568383 0 0.0056303738011052509 0.0088155394068042715 0 0.0063120459734134059 0.0070858108966470558 0 0.0065941580662804301 0.0080445377726797544 0 0.0070367173513479183 0.0074013724013488203 0 0.0063120459734134059 0.0070858108966470558 0 0.0061263642837048847 0.0059822942408182733 0 0.0074401120754367389 0.006054339813137583 0 0.0063120459734134059 0.0070858108966470558 0 0.0054038555517671285 0.0066531945757568383 0 0.0061263642837048847 0.0059822942408182733 0 0.0045679860567479922 0.0063332965662449671 0 0.0054038555517671285 0.0066531945757568383 0 0.0061263642837048847 0.0059822942408182733 0 0.024212356559605429 -0.025287865056535727 0 0.023656777633770526 -0.023822782146739694 0 0.024612047029222078 -0.025026752622997302 0 0.035976908126194106 0.0018730955775012122 0 0.021999024705624079 -0.0048724702032417388 0 0.0045679860567479922 0.0063332965662449671 0 0.0061263642837048847 0.0059822942408182733 0 0.0064968764162922155 0.0044069597277691585 0 0.0061263642837048847 0.0059822942408182733 0 0.0064968764162922155 0.0044069597277691585 0 0.0074401120754367389 0.006054339813137583 0 0.025589511509704021 -0.027835834279322506 0 0.027223841195159727 -0.030396426608550364 0 0.027724309444678893 -0.029225130754826949 0 0.034388030583978518 -0.01703903318945783 0 0.035976908126194106 0.0018730955775012122 0 0.035976908126194106 0.0018730955775012122 0 0.03403394327099029 -0.0031400287693677058 0 0.027468759639694924 -0.030128674767312326 0 0.027724309444678893 -0.029225130754826949 0 0.028590798274537487 -0.029866992978912509 0 0.027115687694549237 -0.028003293374392162 0 0.027724309444678893 -0.029225130754826949 0 0.029084469659513994 -0.028832158457483426 0 0.029084469659513994 -0.028832158457483426 0 0.031077639323926449 -0.029339483635835478 0 0.029683810610973218 -0.029916614676544766 0 0.027724309444678893 -0.029225130754826949 0 0.029084469659513994 -0.028832158457483426 0 0.028590798274537487 -0.029866992978912509 0 0.029084469659513994 -0.028832158457483426 0 0.028590798274537487 -0.029866992978912509 0 0.029683810610973218 -0.029916614676544766 0 0.031132063430141816 -0.027561566051692511 0 0.032782996388272485 -0.028582324837537539 0 0.031077639323926449 -0.029339483635835478 0 0.031132063430141816 -0.027561566051692511 0 0.029084469659513994 -0.028832158457483426 0 0.031077639323926449 -0.029339483635835478 0 0.032782996388272485 -0.028582324837537539 0 0.032305440434540381 -0.030079099940403267 0 0.031077639323926449 -0.029339483635835478 0 0.032305440434540381 -0.030079099940403267 0 0.031077639323926449 -0.029339483635835478 0 0.030685882148986793 -0.03034790109232097 0 0.031077639323926449 -0.029339483635835478 0 0.030685882148986793 -0.03034790109232097 0 0.029683810610973218 -0.029916614676544766 0 0.032305440434540381 -0.030079099940403267 0 0.030685882148986793 -0.03034790109232097 0 0.0317489169509661 -0.031492456165591626 0 0.030685882148986793 -0.03034790109232097 0 0.028582129862571568 -0.030932945341336775 0 0.0317489169509661 -0.031492456165591626 0 0.042859285224496564 -0.0037489240188523882 0 0.042243149905912387 -0.018679870297828517 0 0.030685882148986793 -0.03034790109232097 0 0.029683810610973218 -0.029916614676544766 0 0.028582129862571568 -0.030932945341336775 0 0.028590798274537487 -0.029866992978912509 0 0.029683810610973218 -0.029916614676544766 0 0.028582129862571568 -0.030932945341336775 0 0.060001522588531912 0.045220064808526521 0 0.062512124284184623 0.046753691515306492 0 0.064093158514801948 0.04319505426203777 0 0.041819048220343998 0.028038391264276374 0 0.040291706950943772 0.022269053008777701 0 0.042859285224496564 -0.0037489240188523882 0 0.04820765689184018 0.0032229164500140487 0 0.063713346650275601 0.041234995395937328 0 0.060001522588531912 0.045220064808526521 0 0.064093158514801948 0.04319505426203777 0 0.045616659694047094 -0.028853798327440568 0 0.046811010752824796 -0.029232187292720129 0 0.046515128599703741 -0.029682625239390772 0 0.047639600873558757 -0.029918854213333526 0 0.046811010752824796 -0.029232187292720129 0 0.046515128599703741 -0.029682625239390772 0 0.060001522588531912 0.045220064808526521 0 0.062512124284184623 0.046753691515306492 0 0.05998590323312894 0.049098163415778308 0 0.056769373605779452 0.048907851983685642 0 0.060001522588531912 0.045220064808526521 0 0.05998590323312894 0.049098163415778308 0 0.048740252481547647 0.0087182140476066983 0 0.04820765689184018 0.0032229164500140487 0 0.062512124284184623 0.046753691515306492 0 0.063876653639894948 0.049129658067840976 0 0.05998590323312894 0.049098163415778308 0 0.064912031147768903 0.045798524823557049 0 0.067567000800703964 0.045669228886286856 0 0.063876653639894948 0.049129658067840976 0 0.0012742053026818831 0.037729959193853808 0 0.0046824851522145232 0.034902579957607857 0 0.0022721933511241827 0.033213489636261008 0 0.062512124284184623 0.046753691515306492 0 0.064912031147768903 0.045798524823557049 0 0.063876653639894948 0.049129658067840976 0 0.018255423186445723 0.024491752699656946 0 0.02734043272554083 0.034156360722121519 0 0.064912031147768903 0.045798524823557049 0 0.065054121870579532 0.044275226899050148 0 0.063757383874541579 0.043394845651419989 0 0.062512124284184623 0.046753691515306492 0 0.064912031147768903 0.045798524823557049 0 0.063757383874541579 0.043394845651419989 0 0.064912031147768903 0.045798524823557049 0 0.065054121870579532 0.044275226899050148 0 0.06712343278282705 0.044618300579897296 0 0.064912031147768903 0.045798524823557049 0 0.06712343278282705 0.044618300579897296 0 0.067567000800703964 0.045669228886286856 0 0.032598272696380076 0.031675948197601347 0 0.023799741778224765 0.025342460824145721 0 0.065054121870579532 0.044275226899050148 0 0.06508822879936603 0.042882702879803045 0 0.06712343278282705 0.044618300579897296 0 0.065054121870579532 0.044275226899050148 0 0.06508822879936603 0.042882702879803045 0 0.063757383874541579 0.043394845651419989 0 0.0065941580662804301 0.0080445377726797544 0 0.0061018384560252298 0.0092211596359945587 0 0.0078840169592711111 0.0076932841402305354 0 0.0063120459734134059 0.0070858108966470558 0 0.0065941580662804301 0.0080445377726797544 0 0.0056303738011052509 0.0088155394068042715 0 0.020683530058005141 0.018369693152405459 0 0.022773741911212647 0.023175496497233869 0 0.024523012112923757 0.021698288529283995 0 0.023799741778224765 0.025342460824145721 0 0.018255423186445723 0.024491752699656946 0 0.023799741778224765 0.025342460824145721 0 0.01752463056606688 0.023301342878869175 0 0.018255423186445723 0.024491752699656946 0 0.01752463056606688 0.023301342878869175 0 0.0065941580662804301 0.0080445377726797544 0 0.0056303738011052509 0.0088155394068042715 0 0.0061018384560252298 0.0092211596359945587 0 0.010065682670292748 0.019535640424915849 0 0.0099820681461813224 0.019605783416314707 0 0.0093700732988137355 0.019095733048282482 0 0.010065682670292748 0.019535640424915849 0 0.0093700732988137355 0.019095733048282482 0 0.0095962754575084856 0.018551965962823991 0 0.01752463056606688 0.023301342878869175 0 -8.6929491327334226e-05 0.015709033602631248 0 0.018255423186445723 0.024491752699656946 0 0.0044140997077088242 0.0243876045309552 0 -0.042907719258546459 0.0025635721031069675 0 -0.04232642812805941 0.0026106397332502245 0 -0.042383579119073506 0.001605620133157731 0 0.0054558298900007412 0.009697470071898192 0 0.0074088391576177396 0.011387952466750334 0 0.0072860078717718853 0.0094282881230319075 0 -0.04232642812805941 0.0026106397332502245 0 -0.042027617582903166 0.0020161814055617167 0 -0.040911210286544701 0.0031622389063675409 0 -0.042907719258546459 0.0025635721031069675 0 -0.04232642812805941 0.0026106397332502245 0 -0.042151206977527042 0.0033829324726501321 0 -0.04232642812805941 0.0026106397332502245 0 -0.042027617582903166 0.0020161814055617167 0 -0.042383579119073506 0.001605620133157731 0 -0.042027617582903166 0.0020161814055617167 0 -0.042068568789055218 0.0016277744159130881 0 -0.042383579119073506 0.001605620133157731 0 0.0074088391576177396 0.011387952466750334 0 0.008669607008173659 0.0082586130059326846 0 0.0072860078717718853 0.0094282881230319075 0 0.0054558298900007412 0.009697470071898192 0 0.0072860078717718853 0.0094282881230319075 0 0.0078840169592711111 0.0076932841402305354 0 0.008669607008173659 0.0082586130059326846 0 0.0072860078717718853 0.0094282881230319075 0 0.0078840169592711111 0.0076932841402305354 0 -8.6929491327334226e-05 0.015709033602631248 0 -0.0081960759916619857 0.0091488995766226839 0 0.01752463056606688 0.023301342878869175 0 0.016125150784096914 0.020182454658491087 0 -0.041630962931306199 0.0024329019667218262 0 -0.041953821372925942 0.002068858893048287 0 -0.041707843147640755 0.0018808959588196158 0 -0.041630962931306199 0.0024329019667218262 0 -0.041953821372925942 0.002068858893048287 0 -0.041963358515435527 0.0025424801149666492 0 -0.042027617582903166 0.0020161814055617167 0 -0.041953821372925942 0.002068858893048287 0 -0.041932907284876274 0.0021831512664549973 0 -0.037937673719353582 0.0034060439005627837 0 -0.033588524721999163 0.0075840413125035384 0 -0.034511616732173976 0.0056758517034577764 0 -0.033588524721999163 0.0075840413125035384 0 -0.042068568789055218 0.0016277744159130881 0 -0.041953821372925942 0.002068858893048287 0 -0.041974175757144606 0.0014662972867839547 0 -0.042027617582903166 0.0020161814055617167 0 -0.042068568789055218 0.0016277744159130881 0 -0.041953821372925942 0.002068858893048287 0 -0.041707843147640755 0.0018808959588196158 0 -0.041821311284571949 0.0014790010009716459 0 -0.041325159844697347 0.0016012809900319935 0 -0.041707843147640755 0.0018808959588196158 0 -0.041821311284571949 0.0014790010009716459 0 -0.041974175757144606 0.0014662972867839547 0 -0.041953821372925942 0.002068858893048287 0 -0.041707843147640755 0.0018808959588196158 0 -0.041974175757144606 0.0014662972867839547 0 -0.041965513600874416 0.00099945491581146192 0 -0.041974175757144606 0.0014662972867839547 0 -0.041906492998748865 0.0012522137490950239 0 -0.041965513600874416 0.00099945491581146192 0 -0.041821311284571949 0.0014790010009716459 0 -0.041325159844697347 0.0016012809900319935 0 -0.041965513600874416 0.00099945491581146192 0 -0.041821311284571949 0.0014790010009716459 0 -0.041974175757144606 0.0014662972867839547 0 -0.042068568789055218 0.0016277744159130881 0 -0.041974175757144606 0.0014662972867839547 0 -0.041984768439179102 0.0012671256344556226 0 -0.041974175757144606 0.0014662972867839547 0 -0.041906492998748865 0.0012522137490950239 0 -0.041984768439179102 0.0012671256344556226 0 -0.041906492998748865 0.0012522137490950239 0 -0.041984768439179102 0.0012671256344556226 0 -0.041757962839280162 0.0015144830529731945 0 -0.041965513600874416 0.00099945491581146192 0 -0.041906492998748865 0.0012522137490950239 0 -0.042158175579684674 0.0014145759044231134 0 0.0078840169592711111 0.0076932841402305354 0 0.0096348654464838875 0.0056839733138874917 0 0.0074401120754367389 0.006054339813137583 0 0.0063120459734134059 0.0070858108966470558 0 0.0070367173513479183 0.0074013724013488203 0 0.0074401120754367389 0.006054339813137583 0 0.0065941580662804301 0.0080445377726797544 0 0.0070367173513479183 0.0074013724013488203 0 0.0078840169592711111 0.0076932841402305354 0 0.0070367173513479183 0.0074013724013488203 0 0.0078840169592711111 0.0076932841402305354 0 0.0074401120754367389 0.006054339813137583 0 -0.042068568789055218 0.0016277744159130881 0 -0.042383579119073506 0.001605620133157731 0 -0.041984768439179102 0.0012671256344556226 0 -0.0081960759916619857 0.0091488995766226839 0 -0.012022555905188114 0.0052166487142843243 0 0.008669607008173659 0.0082586130059326846 0 0.0078840169592711111 0.0076932841402305354 0 0.0096348654464838875 0.0056839733138874917 0 -0.012022555905188114 0.0052166487142843243 0 -0.013483327875807982 0.0016684312325382336 0 0.0096348654464838875 0.0056839733138874917 0 0.008477469582613523 0.0043733406755184605 0 0.010593698450601026 0.003240625217893681 0 0.0064968764162922155 0.0044069597277691585 0 0.008477469582613523 0.0043733406755184605 0 0.0074401120754367389 0.006054339813137583 0 0.0096348654464838875 0.0056839733138874917 0 0.008477469582613523 0.0043733406755184605 0 0.0074401120754367389 0.006054339813137583 0 0.0064968764162922155 0.0044069597277691585 0 0.008477469582613523 0.0043733406755184605 0 0.008372901656814884 0.0026213358616689157 0 0.021999024705624079 -0.0048724702032417388 0 0.014587615323029591 -0.010460027131363906 0 0.024612047029222078 -0.025026752622997302 0 0.024681798449993929 -0.025612129592374567 0 0.024887348980209445 -0.025770860297448191 0 0.024775742443178678 -0.026056552941195639 0 0.024681798449993929 -0.025612129592374567 0 0.024779723135229501 -0.025869279059728606 0 0.024779723135229501 -0.025869279059728606 0 0.024887348980209445 -0.025770860297448191 0 0.024702778076262134 -0.025940894666246037 0 0.024681798449993929 -0.025612129592374567 0 0.024779723135229501 -0.025869279059728606 0 0.024887348980209445 -0.025770860297448191 0 0.024775742443178678 -0.026056552941195639 0 0.024779723135229501 -0.025869279059728606 0 0.024702778076262134 -0.025940894666246037 0 0.008372901656814884 0.0026213358616689157 0 0.010593698450601026 0.003240625217893681 0 0.010216735544512487 0.00086450108880166496 0 0.024887348980209445 -0.025770860297448191 0 0.024907626098203031 -0.025888027276177561 0 0.024702778076262134 -0.025940894666246037 0 0.014587615323029591 -0.010460027131363906 0 0.0025920056337734834 -0.012291948525754491 0 0.008477469582613523 0.0043733406755184605 0 0.008372901656814884 0.0026213358616689157 0 0.010593698450601026 0.003240625217893681 0 -0.041906492998748865 0.0012522137490950239 0 -0.041757962839280162 0.0015144830529731945 0 -0.042158175579684674 0.0014145759044231134 0 -0.041757962839280162 0.0015144830529731945 0 -0.042158175579684674 0.0014145759044231134 0 -0.042111718037187051 0.0017528768517442869 0 -0.042158175579684674 0.0014145759044231134 0 -0.042111718037187051 0.0017528768517442869 0 -0.04262638816556226 0.001691970954283255 0 -0.042111718037187051 0.0017528768517442869 0 -0.041875695879467358 0.0020547077843718889 0 -0.042254394055516356 0.0020878508390886805 0 -0.041757962839280162 0.0015144830529731945 0 -0.042111718037187051 0.0017528768517442869 0 -0.041875695879467358 0.0020547077843718889 0 0.010593698450601026 0.003240625217893681 0 0.010216735544512487 0.00086450108880166496 0 0.011556622727272571 0.00082429563180666954 0 -0.013483327875807982 0.0016684312325382336 0 -0.01238856506809111 -0.0056223820592652667 0 -0.0095081004088889264 -0.008389038188285269 0 -0.011514112574535671 -0.0070386402797671232 0 -0.011906383501834136 -0.006288132793579199 0 -0.0095081004088889264 -0.008389038188285269 0 -0.010915795852297039 -0.0083627332624392741 0 -0.011514112574535671 -0.0070386402797671232 0 0.0025920056337734834 -0.012291948525754491 0 -0.01238856506809111 -0.0056223820592652667 0 0.0017386884895510761 -0.029027243810877675 0 -0.0018325137571554113 -0.025317312491017381 0 0.0019138706404583262 -0.02570118584315273 0 0.0025920056337734834 -0.012291948525754491 0 -0.01097719128259466 -0.015548666472739635 0 -0.01238856506809111 -0.0056223820592652667 0 -0.022358327961625384 -0.009155202244101681 0 -0.010956759483877046 -0.0083411560184934591 0 -0.012762746936167231 -0.0083111593364062712 0 -0.011514112574535671 -0.0070386402797671232 0 -0.0039420882000518959 -0.03065053255524176 0 -0.0021966357872580081 -0.026617014482034428 0 -0.0045350295132895405 -0.027988732516621973 0 -0.012762746936167231 -0.0083111593364062712 0 -0.011514112574535671 -0.0070386402797671232 0 -0.011906383501834136 -0.006288132793579199 0 -0.022358327961625384 -0.009155202244101681 0 -0.01097719128259466 -0.015548666472739635 0 -0.01238856506809111 -0.0056223820592652667 0 -0.012165698350871336 -0.0060942148320199787 0 -0.0039238321128264673 -0.026875539464734692 0 -0.0026643515140070103 -0.026178241479209715 0 -0.0021966357872580081 -0.026617014482034428 0 -0.0039238321128264673 -0.026875539464734692 0 -0.0021966357872580081 -0.026617014482034428 0 -0.0045350295132895405 -0.027988732516621973 0 -0.0039238321128264673 -0.026875539464734692 0 -0.0026643515140070103 -0.026178241479209715 0 -0.0037238312941506317 -0.025714220949120341 0 -0.010839378458066231 -0.015684514590477538 0 -0.01097719128259466 -0.015548666472739635 0 -0.010604692713172281 -0.01693560714081575 0 -0.01097719128259466 -0.015548666472739635 0 -0.0010441578268842158 -0.023595680957817784 0 -0.0018325137571554113 -0.025317312491017381 0 1.2090769397308872e-05 -0.024472365618632797 0 -0.0010441578268842158 -0.023595680957817784 0 -0.0026643515140070103 -0.026178241479209715 0 -0.0021430188197553825 -0.026648050560997703 0 -0.0010441578268842158 -0.023595680957817784 0 -0.0033237460901793556 -0.024273661340809761 0 -0.0026643515140070103 -0.026178241479209715 0 -0.0033237460901793556 -0.024273661340809761 0 -0.0026643515140070103 -0.026178241479209715 0 -0.0037238312941506317 -0.025714220949120341 0 0.0027743047168009597 -0.022289487524755777 0 0.00087623377795055567 -0.023392800792121287 0 0.0019138706404583262 -0.02570118584315273 0 -0.0018325137571554113 -0.025317312491017381 0 0.0019138706404583262 -0.02570118584315273 0 1.2090769397308872e-05 -0.024472365618632797 0 0.00087623377795055567 -0.023392800792121287 0 0.0019138706404583262 -0.02570118584315273 0 1.2090769397308872e-05 -0.024472365618632797 0 0.00087623377795055567 -0.023392800792121287 0 -0.0010441578268842158 -0.023595680957817784 0 1.2090769397308872e-05 -0.024472365618632797 0 0.0046101773570326292 -0.024273598414989328 0 0.0026790091892055358 -0.023499334690964945 0 0.0048898448610651107 -0.025803106165113006 0 0.0027743047168009597 -0.022289487524755777 0 0.0019138706404583262 -0.02570118584315273 0 0.0048898448610651107 -0.025803106165113006 0 0.0022753819174647629 -0.022536150960577619 0 0.0030374842933855901 -0.023911182957411622 0 0.0019138706404583262 -0.02570118584315273 0 0.0048898448610651107 -0.025803106165113006 0 0.0039206120197566498 -0.026406140095966507 0 0.0046101773570326292 -0.024273598414989328 0 0.0048898448610651107 -0.025803106165113006 0 0.0052661443190767654 -0.02504136439186223 0 0.0046101773570326292 -0.024273598414989328 0 0.0055660788088591571 -0.023822116549097529 0 0.0052661443190767654 -0.02504136439186223 0 0.020885129566758677 -0.020615710396466334 0 0.017159241487564585 -0.019314321270304718 0 0.016983677178385368 -0.023642541360757413 0 0.01354051035410994 -0.024920331103757905 0 0.014504488879104658 -0.029320209102819791 0 0.0055230556811039899 -0.027732454495357963 0 0.0048898448610651107 -0.025803106165113006 0 0.0052661443190767654 -0.02504136439186223 0 0.0055230556811039899 -0.027732454495357963 0 0.017159241487564585 -0.019314321270304718 0 0.01354051035410994 -0.024920331103757905 0 0.0055230556811039899 -0.027732454495357963 0 0.011421897440817549 -0.023630608280947665 0 0.0086015273583930386 -0.025979239443122925 0 0.017159241487564585 -0.019314321270304718 0 0.01354051035410994 -0.024920331103757905 0 0.016983677178385368 -0.023642541360757413 0 0.020334979088813234 -0.024002299579578411 0 0.016983677178385368 -0.023642541360757413 0 0.014504488879104658 -0.029320209102819791 0 0.01354051035410994 -0.024920331103757905 0 0.016983677178385368 -0.023642541360757413 0 0.014504488879104658 -0.029320209102819791 0 0.0017386884895510761 -0.029027243810877675 0 0.0019138706404583262 -0.02570118584315273 0 0.0039206120197566498 -0.026406140095966507 0 0.0025920056337734834 -0.012291948525754491 0 0.015894606575550693 -0.018719528522801468 0 0.0017386884895510761 -0.029027243810877675 0 0.014504488879104658 -0.029320209102819791 0 0.0055230556811039899 -0.027732454495357963 0 0.0017386884895510761 -0.029027243810877675 0 0.0055230556811039899 -0.027732454495357963 0 0.0039206120197566498 -0.026406140095966507 0 0.0048898448610651107 -0.025803106165113006 0 0.0055230556811039899 -0.027732454495357963 0 0.0039206120197566498 -0.026406140095966507 0 -0.044182356646157113 -0.0089064072225736833 0 -0.042893715963586619 -0.0079628134876809573 0 -0.043927138397930721 -0.011547091455268011 0 -0.044182356646157113 -0.0089064072225736833 0 -0.043927138397930721 -0.011547091455268011 0 -0.04531409080512025 -0.0088056879308499158 0 -0.013577292265074188 -0.027124114430019167 0 -0.0097249192005778983 -0.026861029244663465 0 -0.010124297589775108 -0.029429512822796114 0 -0.0254940277631815 -0.017855246621032106 0 -0.025845813116802296 -0.01492305686873349 0 -0.044182356646157113 -0.0089064072225736833 0 -0.04531409080512025 -0.0088056879308499158 0 -0.044357295268704029 -0.0075845383788969364 0 -0.044182356646157113 -0.0089064072225736833 0 -0.042893715963586619 -0.0079628134876809573 0 -0.044357295268704029 -0.0075845383788969364 0 -0.040643672864846284 -0.0091131252298891317 0 -0.042893715963586619 -0.0079628134876809573 0 -0.041303632487567174 -0.0066659887000149005 0 -0.040643672864846284 -0.0091131252298891317 0 -0.042893715963586619 -0.0079628134876809573 0 -0.043927138397930721 -0.011547091455268011 0 -0.023129082582660238 -0.020853182055703804 0 -0.016608371755659875 -0.0218845675611943 0 -0.017033511115608278 -0.024742344589139445 0 -0.013577292265074188 -0.027124114430019167 0 -0.011380821642669238 -0.024839239687664237 0 -0.023129082582660238 -0.020853182055703804 0 -0.0254940277631815 -0.017855246621032106 0 -0.039479969151222191 -0.016990686770754063 0 -0.040643672864846284 -0.0091131252298891317 0 -0.043927138397930721 -0.011547091455268011 0 -0.013577292265074188 -0.027124114430019167 0 -0.011380821642669238 -0.024839239687664237 0 -0.0097249192005778983 -0.026861029244663465 0 -0.011380821642669238 -0.024839239687664237 0 -0.0083994528783358172 -0.025445843114796224 0 -0.0097249192005778983 -0.026861029244663465 0 -0.0083994528783358172 -0.025445843114796224 0 -0.0064724467876532089 -0.024612719121354723 0 -0.0069630202106148349 -0.026536983480231396 0 -0.0097249192005778983 -0.026861029244663465 0 -0.0069630202106148349 -0.026536983480231396 0 -0.0084373236812256835 -0.028372998313287972 0 -0.0083994528783358172 -0.025445843114796224 0 -0.0097249192005778983 -0.026861029244663465 0 -0.0069630202106148349 -0.026536983480231396 0 -0.0033237460901793556 -0.024273661340809761 0 -0.0037238312941506317 -0.025714220949120341 0 -0.004969516174046929 -0.025513059692624851 0 -0.004969516174046929 -0.025513059692624851 0 -0.0064724467876532089 -0.024612719121354723 0 -0.0069630202106148349 -0.026536983480231396 0 -0.0069630202106148349 -0.026536983480231396 0 -0.005565992825705357 -0.027047031102023413 0 -0.0065205386465661402 -0.028587732787449985 0 -0.004969516174046929 -0.025513059692624851 0 -0.0069630202106148349 -0.026536983480231396 0 -0.005565992825705357 -0.027047031102023413 0 -0.0039238321128264673 -0.026875539464734692 0 -0.004969516174046929 -0.025513059692624851 0 -0.005565992825705357 -0.027047031102023413 0 -0.0039238321128264673 -0.026875539464734692 0 -0.005565992825705357 -0.027047031102023413 0 -0.0045350295132895405 -0.027988732516621973 0 -0.0039238321128264673 -0.026875539464734692 0 -0.0037238312941506317 -0.025714220949120341 0 -0.004969516174046929 -0.025513059692624851 0 -0.0039420882000518959 -0.03065053255524176 0 -0.0065205386465661402 -0.028587732787449985 0 -0.0083783907145674498 -0.030625651296549154 0 -0.022358327961625384 -0.009155202244101681 0 -0.026054536338985353 -0.012735953878651438 0 -0.005565992825705357 -0.027047031102023413 0 -0.0045350295132895405 -0.027988732516621973 0 -0.0065205386465661402 -0.028587732787449985 0 -0.0039420882000518959 -0.03065053255524176 0 -0.0045350295132895405 -0.027988732516621973 0 -0.0065205386465661402 -0.028587732787449985 0 -0.0097249192005778983 -0.026861029244663465 0 -0.0084373236812256835 -0.028372998313287972 0 -0.010124297589775108 -0.029429512822796114 0 -0.0065205386465661402 -0.028587732787449985 0 -0.0084373236812256835 -0.028372998313287972 0 -0.0083783907145674498 -0.030625651296549154 0 -0.0069630202106148349 -0.026536983480231396 0 -0.0065205386465661402 -0.028587732787449985 0 -0.0084373236812256835 -0.028372998313287972 0 -0.045891405454680269 -0.0080171143792596624 0 -0.04531409080512025 -0.0088056879308499158 0 -0.045409257249551097 -0.0073053353011757246 0 -0.0084373236812256835 -0.028372998313287972 0 -0.0083783907145674498 -0.030625651296549154 0 -0.010124297589775108 -0.029429512822796114 0 -0.026054536338985353 -0.012735953878651438 0 -0.025845813116802296 -0.01492305686873349 0 -0.04531409080512025 -0.0088056879308499158 0 -0.045409257249551097 -0.0073053353011757246 0 -0.044357295268704029 -0.0075845383788969364 0 -0.045409257249551097 -0.0073053353011757246 0 -0.044818763816982035 -0.0064737458769756071 0 -0.044357295268704029 -0.0075845383788969364 0 -0.045409257249551097 -0.0073053353011757246 0 -0.045931867117915845 -0.0063621241490479956 0 -0.046566371046390373 -0.0073985952383209107 0 -0.045891405454680269 -0.0080171143792596624 0 -0.045409257249551097 -0.0073053353011757246 0 -0.046566371046390373 -0.0073985952383209107 0 -0.026054536338985353 -0.012735953878651438 0 -0.02854297538152083 -0.011359601036607941 0 -0.045409257249551097 -0.0073053353011757246 0 -0.045931867117915845 -0.0063621241490479956 0 -0.044818763816982035 -0.0064737458769756071 0 -0.047899475281621508 -0.0079736432111063571 0 -0.046566371046390373 -0.0073985952383209107 0 -0.046908023966499665 -0.0055854889022585574 0 -0.047899475281621508 -0.0079736432111063571 0 -0.045686520711781961 -0.0080079985826037991 0 -0.046566371046390373 -0.0073985952383209107 0 -0.022358327961625384 -0.009155202244101681 0 -0.033546825787262605 -0.0061662330950466495 0 -0.042111718037187051 0.0017528768517442869 0 -0.042254394055516356 0.0020878508390886805 0 -0.04262638816556226 0.001691970954283255 0 -0.045931867117915845 -0.0063621241490479956 0 -0.046566371046390373 -0.0073985952383209107 0 -0.046908023966499665 -0.0055854889022585574 0 -0.045931867117915845 -0.0063621241490479956 0 -0.046908023966499665 -0.0055854889022585574 0 -0.045136038232623556 -0.0048574375561676129 0 -0.046908023966499665 -0.0055854889022585574 0 -0.045136038232623556 -0.0048574375561676129 0 -0.045653965056381376 -0.0032011215949731397 0 -0.045931867117915845 -0.0063621241490479956 0 -0.044818763816982035 -0.0064737458769756071 0 -0.045136038232623556 -0.0048574375561676129 0 -0.044818763816982035 -0.0064737458769756071 0 -0.045136038232623556 -0.0048574375561676129 0 -0.044045446050331172 -0.0052000994344054714 0 -0.044045446050331172 -0.0052000994344054714 0 -0.042904765966956297 -0.0057704007958404831 0 -0.043350348646614939 -0.0037818164929165825 0 -0.045136038232623556 -0.0048574375561676129 0 -0.044045446050331172 -0.0052000994344054714 0 -0.043350348646614939 -0.0037818164929165825 0 -0.044818763816982035 -0.0064737458769756071 0 -0.044045446050331172 -0.0052000994344054714 0 -0.042904765966956297 -0.0057704007958404831 0 -0.044818763816982035 -0.0064737458769756071 0 -0.044357295268704029 -0.0075845383788969364 0 -0.042904765966956297 -0.0057704007958404831 0 -0.042893715963586619 -0.0079628134876809573 0 -0.044357295268704029 -0.0075845383788969364 0 -0.042904765966956297 -0.0057704007958404831 0 -0.042893715963586619 -0.0079628134876809573 0 -0.041303632487567174 -0.0066659887000149005 0 -0.042904765966956297 -0.0057704007958404831 0 -0.042904765966956297 -0.0057704007958404831 0 -0.041501293159815641 -0.0047254195759156474 0 -0.043350348646614939 -0.0037818164929165825 0 -0.041303632487567174 -0.0066659887000149005 0 -0.042904765966956297 -0.0057704007958404831 0 -0.041501293159815641 -0.0047254195759156474 0 -0.041478565752750565 -0.0029465572407330574 0 -0.041501293159815641 -0.0047254195759156474 0 -0.043350348646614939 -0.0037818164929165825 0 -0.043350348646614939 -0.0037818164929165825 0 -0.043917099132362664 -0.0023763259388329496 0 -0.045653965056381376 -0.0032011215949731397 0 -0.043350348646614939 -0.0037818164929165825 0 -0.042819788880799639 -0.0017610650901045274 0 -0.043917099132362664 -0.0023763259388329496 0 -0.042819788880799639 -0.0017610650901045274 0 -0.043917099132362664 -0.0023763259388329496 0 -0.0440790706727913 -0.00087687399920075482 0 -0.041478565752750565 -0.0029465572407330574 0 -0.043350348646614939 -0.0037818164929165825 0 -0.042819788880799639 -0.0017610650901045274 0 -0.041478565752750565 -0.0029465572407330574 0 -0.040984455127904836 -0.0015470086720363596 0 -0.042819788880799639 -0.0017610650901045274 0 -0.042158175579684674 0.0014145759044231134 0 -0.04262638816556226 0.001691970954283255 0 -0.04338284513898491 0.00089637457878004886 0 -0.041965513600874416 0.00099945491581146192 0 -0.042158175579684674 0.0014145759044231134 0 -0.04338284513898491 0.00089637457878004886 0 -0.033546825787262605 -0.0061662330950466495 0 -0.038178208807486728 -0.0040353877072861312 0 -0.045136038232623556 -0.0048574375561676129 0 -0.043350348646614939 -0.0037818164929165825 0 -0.045653965056381376 -0.0032011215949731397 0 -0.038178208807486728 -0.0040353877072861312 0 -0.039408012307961281 -0.0032919393325260803 0 -0.043917099132362664 -0.0023763259388329496 0 -0.045653965056381376 -0.0032011215949731397 0 -0.0440790706727913 -0.00087687399920075482 0 -0.04338284513898491 0.00089637457878004886 0 -0.043060092717181114 -0.00057778240019726605 0 -0.0440790706727913 -0.00087687399920075482 0 -0.042258117189152219 0.0010172406225747649 0 -0.042301022509547995 0.0010678779366125033 0 -0.041965513600874416 0.00099945491581146192 0 -0.04338284513898491 0.00089637457878004886 0 -0.043060092717181114 -0.00057778240019726605 0 -0.041325159844697347 0.0016012809900319935 0 -0.040912507632935594 0.002096854558309158 0 -0.041345026151058312 0.0021766667894816188 0 -0.041707843147640755 0.0018808959588196158 0 -0.041325159844697347 0.0016012809900319935 0 -0.041345026151058312 0.0021766667894816188 0 -0.042301022509547995 0.0010678779366125033 0 -0.042204943004118117 0.0015461908533246629 0 -0.0440790706727913 -0.00087687399920075482 0 -0.044061745123948434 -0.00058841279777713371 0 -0.043319929817334693 -0.00083956478326981489 0 -0.043060092717181114 -0.00057778240019726605 0 -0.0440790706727913 -0.00087687399920075482 0 -0.044061745123948434 -0.00058841279777713371 0 -0.042204943004118117 0.0015461908533246629 0 -0.041704729107155385 0.0027634219954372303 0 -0.040912507632935594 0.002096854558309158 0 -0.04111540036507233 0.0024555108233602846 0 -0.040805926279330745 0.0029858006023454537 0 -0.040912507632935594 0.002096854558309158 0 -0.04111540036507233 0.0024555108233602846 0 -0.041345026151058312 0.0021766667894816188 0 -0.041630962931306199 0.0024329019667218262 0 -0.041707843147640755 0.0018808959588196158 0 -0.041345026151058312 0.0021766667894816188 0 -0.04111540036507233 0.0024555108233602846 0 -0.041345026151058312 0.0021766667894816188 0 -0.041313023409399338 0.0026250689676593319 0 -0.041630962931306199 0.0024329019667218262 0 -0.041345026151058312 0.0021766667894816188 0 -0.041313023409399338 0.0026250689676593319 0 -0.040984455127904836 -0.0015470086720363596 0 -0.042819788880799639 -0.0017610650901045274 0 -0.042411484701662866 -0.00061790863917635162 0 -0.042819788880799639 -0.0017610650901045274 0 -0.0440790706727913 -0.00087687399920075482 0 -0.043319929817334693 -0.00083956478326981489 0 -0.042819788880799639 -0.0017610650901045274 0 -0.042411484701662866 -0.00061790863917635162 0 -0.043319929817334693 -0.00083956478326981489 0 -0.044061745123948434 -0.00058841279777713371 0 -0.043319929817334693 -0.00083956478326981489 0 -0.043231746984505985 -0.00019391879010977904 0 -0.042411484701662866 -0.00061790863917635162 0 -0.043319929817334693 -0.00083956478326981489 0 -0.043231746984505985 -0.00019391879010977904 0 -0.044061745123948434 -0.00058841279777713371 0 -0.043231746984505985 -0.00019391879010977904 0 -0.043334837508950175 0.0008821385588142352 0 -0.041376734492540618 -0.00020418426614173554 0 -0.042411484701662866 -0.00061790863917635162 0 -0.042323960075917627 0.00047049809033956772 0 -0.041376734492540618 -0.00020418426614173554 0 -0.042323960075917627 0.00047049809033956772 0 -0.041238012849064205 0.0009160359433641683 0 -0.042411484701662866 -0.00061790863917635162 0 -0.043231746984505985 -0.00019391879010977904 0 -0.042323960075917627 0.00047049809033956772 0 -0.042323960075917627 0.00047049809033956772 0 -0.043334837508950175 0.0008821385588142352 0 -0.042310920939589346 0.0021997670117716245 0 -0.042323960075917627 0.00047049809033956772 0 -0.042310920939589346 0.0021997670117716245 0 -0.041238012849064205 0.0009160359433641683 0 -0.043231746984505985 -0.00019391879010977904 0 -0.042323960075917627 0.00047049809033956772 0 -0.043334837508950175 0.0008821385588142352 0 -0.039732728408453717 0.0032731782925542264 0 -0.039940906807756797 0.0053477162106235834 0 -0.040814805618745433 0.0042905193284330624 0 -0.039940906807756797 0.0053477162106235834 0 -0.037918609257374045 0.0054780718312585214 0 -0.039186261221337858 0.00703363196815483 0 -0.039732728408453717 0.0032731782925542264 0 -0.039940906807756797 0.0053477162106235834 0 -0.037918609257374045 0.0054780718312585214 0 -0.041704729107155385 0.0027634219954372303 0 -0.041049454147956729 0.0045969580363660533 0 -0.041049454147956729 0.0045969580363660533 0 -0.040410488116321704 0.0022953584190164847 0 -0.034256654807779077 0.010572091253075195 0 -0.037606877225026397 0.0093335174042447726 0 -0.041630962931306199 0.0024329019667218262 0 -0.041618865352063973 0.0029755033926441225 0 -0.041313023409399338 0.0026250689676593319 0 -0.041618865352063973 0.0029755033926441225 0 -0.041313023409399338 0.0026250689676593319 0 -0.040805926279330745 0.0029858006023454537 0 -0.044106226234259922 0.0041645350695405734 0 -0.040805926279330745 0.0029858006023454537 0 -0.042074300575389793 0.0044144607291214813 0 -0.040912507632935594 0.002096854558309158 0 -0.039732728408453717 0.0032731782925542264 0 -0.040805926279330745 0.0029858006023454537 0 -0.04111540036507233 0.0024555108233602846 0 -0.041313023409399338 0.0026250689676593319 0 -0.040805926279330745 0.0029858006023454537 0 -0.040805926279330745 0.0029858006023454537 0 -0.040814805618745433 0.0042905193284330624 0 -0.042074300575389793 0.0044144607291214813 0 -0.039732728408453717 0.0032731782925542264 0 -0.040805926279330745 0.0029858006023454537 0 -0.040814805618745433 0.0042905193284330624 0 -0.039940906807756797 0.0053477162106235834 0 -0.040814805618745433 0.0042905193284330624 0 -0.041422733887822014 0.0055398307102755822 0 -0.039940906807756797 0.0053477162106235834 0 -0.041422733887822014 0.0055398307102755822 0 -0.041030330664207436 0.0070450396971978475 0 -0.040814805618745433 0.0042905193284330624 0 -0.041422733887822014 0.0055398307102755822 0 -0.042074300575389793 0.0044144607291214813 0 -0.041422733887822014 0.0055398307102755822 0 -0.042074300575389793 0.0044144607291214813 0 -0.043195651203342914 0.0050527222042733647 0 -0.044106226234259922 0.0041645350695405734 0 -0.042074300575389793 0.0044144607291214813 0 -0.043195651203342914 0.0050527222042733647 0 -0.044106226234259922 0.0041645350695405734 0 -0.043195651203342914 0.0050527222042733647 0 -0.043819508073767943 0.0061255944894686668 0 -0.034256654807779077 0.010572091253075195 0 -0.032769162741300081 0.013101876082851013 0 -0.043195651203342914 0.0050527222042733647 0 -0.043819508073767943 0.0061255944894686668 0 -0.042311147583015234 0.0063843158756564907 0 -0.041422733887822014 0.0055398307102755822 0 -0.043195651203342914 0.0050527222042733647 0 -0.042311147583015234 0.0063843158756564907 0 -0.043819508073767943 0.0061255944894686668 0 -0.042311147583015234 0.0063843158756564907 0 -0.042160829578467757 0.0081061022797282792 0 -0.032769162741300081 0.013101876082851013 0 -0.029325599217118616 0.018620481308777043 0 -0.030399300275323303 0.01662040375736281 0 -0.030380846778569282 0.01680335518620038 0 -0.030489525584528308 0.016591197222595451 0 -0.027711981593852131 0.024273637842791226 0 -0.031329345042818153 0.019969167043955516 0 -0.028303210530104633 0.01976026065149614 0 -0.032769162741300081 0.013101876082851013 0 -0.035150481356549683 0.012627953805241393 0 -0.041030330664207436 0.0070450396971978475 0 -0.042160829578467757 0.0081061022797282792 0 -0.040638062320442814 0.008545699552969542 0 -0.042311147583015234 0.0063843158756564907 0 -0.041030330664207436 0.0070450396971978475 0 -0.042160829578467757 0.0081061022797282792 0 -0.041422733887822014 0.0055398307102755822 0 -0.042311147583015234 0.0063843158756564907 0 -0.041030330664207436 0.0070450396971978475 0 -0.032712051023884858 0.015918863072213393 0 -0.031329345042818153 0.019969167043955516 0 -0.035181800528432818 0.0154486504368017 0 -0.035150481356549683 0.012627953805241393 0 -0.036802855354604438 0.011696915887323073 0 -0.042160829578467757 0.0081061022797282792 0 -0.040638062320442814 0.008545699552969542 0 -0.04082769426483162 0.0094862350870504302 0 -0.033043024515174511 0.015572795641031926 0 -0.028972759163590628 0.019093243439608044 0 -0.029776918338899797 0.013074525035368141 0 -0.029325599217118616 0.018620481308777043 0 -0.029287728342962057 0.015851086809659857 0 -0.032325191230386123 0.016054089589169158 0 -0.029325599217118616 0.018620481308777043 0 -0.032712051023884858 0.015918863072213393 0 -0.031329345042818153 0.019969167043955516 0 -0.028303210530104633 0.01976026065149614 0 -0.026126698592637668 0.028798767623794231 0 -0.027577732144665027 0.019336476829030901 0 -0.022714962181231476 0.023810201665936091 0 -0.040462591553941558 0.0081546216887387751 0 -0.040488123723390834 0.0082216149835554128 0 -0.040371782449312658 0.0087088972483323444 0 -0.040462591553941558 0.0081546216887387751 0 -0.040407110511941666 0.0083222636727275177 0 -0.040654361841320201 0.0078024688125518478 0 -0.041049454147956729 0.0045969580363660533 0 -0.04064504466185298 0.0054590840848199734 0 -0.040467999426821215 0.00826619490308814 0 -0.040462591553941558 0.0081546216887387751 0 -0.040654361841320201 0.0078024688125518478 0 -0.040467999426821215 0.00826619490308814 0 -0.040462591553941558 0.0081546216887387751 0 -0.040488123723390834 0.0082216149835554128 0 -0.041049454147956729 0.0045969580363660533 0 -0.041148384729336775 0.005809457210584402 0 -0.039940906807756797 0.0053477162106235834 0 -0.041030330664207436 0.0070450396971978475 0 -0.039186261221337858 0.00703363196815483 0 -0.041148384729336775 0.005809457210584402 0 -0.04125377030419633 0.0062758929724330828 0 -0.041030330664207436 0.0070450396971978475 0 -0.039186261221337858 0.00703363196815483 0 -0.040638062320442814 0.008545699552969542 0 -0.040488123723390834 0.0082216149835554128 0 -0.040371782449312658 0.0087088972483323444 0 -0.040638062320442814 0.008545699552969542 0 -0.040638062320442814 0.008545699552969542 0 -0.040299577162342205 0.0093179808811927264 0 -0.04082769426483162 0.0094862350870504302 0 -0.040371782449312658 0.0087088972483323444 0 -0.040299577162342205 0.0093179808811927264 0 -0.040081473546353351 0.0095141208344496873 0 -0.040371782449312658 0.0087088972483323444 0 -0.040638062320442814 0.008545699552969542 0 -0.040299577162342205 0.0093179808811927264 0 -0.040273032806976777 0.0089217210123835895 0 -0.04013513050961616 0.010162447795572311 0 -0.040002089118696377 0.0085455382096979501 0 -0.040371782449312658 0.0087088972483323444 0 -0.040273032806976777 0.0089217210123835895 0 -0.040081473546353351 0.0095141208344496873 0 -0.040462591553941558 0.0081546216887387751 0 -0.040371782449312658 0.0087088972483323444 0 -0.040273032806976777 0.0089217210123835895 0 -0.040407110511941666 0.0083222636727275177 0 -0.040273032806976777 0.0089217210123835895 0 -0.040002089118696377 0.0085455382096979501 0 -0.040462591553941558 0.0081546216887387751 0 -0.040407110511941666 0.0083222636727275177 0 -0.040273032806976777 0.0089217210123835895 0 -0.04013513050961616 0.010162447795572311 0 -0.040081473546353351 0.0095141208344496873 0 -0.039069873284692518 0.010058631720520621 0 -0.040273032806976777 0.0089217210123835895 0 -0.04013513050961616 0.010162447795572311 0 -0.040081473546353351 0.0095141208344496873 0 -0.037740099046113314 0.011637613093371758 0 -0.034971243228648835 0.013007465989925353 0 -0.041380306837414733 0.011676257322069323 0 -0.042683184731343478 0.014747629836526537 0 -0.040126593793116255 0.014388707712762114 0 -0.04013513050961616 0.010162447795572311 0 -0.039069873284692518 0.010058631720520621 0 -0.039332379115906778 0.0064714667543798125 0 -0.036611036236019599 0.0090146378760401352 0 -0.039069873284692518 0.010058631720520621 0 -0.039332379115906778 0.0064714667543798125 0 -0.036611036236019599 0.0090146378760401352 0 -0.039069873284692518 0.010058631720520621 0 -0.037389028805655894 0.011467845430863838 0 -0.036611036236019599 0.0090146378760401352 0 -0.037389028805655894 0.011467845430863838 0 -0.035166348697251479 0.010523321182216661 0 -0.039069873284692518 0.010058631720520621 0 -0.037389028805655894 0.011467845430863838 0 -0.035181800528432818 0.0154486504368017 0 -0.040299577162342205 0.0093179808811927264 0 -0.040081473546353351 0.0095141208344496873 0 -0.039069873284692518 0.010058631720520621 0 -0.037570799329074769 0.011013922088117741 0 -0.036802855354604438 0.011696915887323073 0 -0.040299577162342205 0.0093179808811927264 0 -0.039069873284692518 0.010058631720520621 0 -0.04082769426483162 0.0094862350870504302 0 -0.032325191230386123 0.016054089589169158 0 -0.034157737847494138 0.014453402576677836 0 -0.033043024515174511 0.015572795641031926 0 -0.037389028805655894 0.011467845430863838 0 -0.033612430527426553 0.012002280948462037 0 -0.032712051023884858 0.015918863072213393 0 -0.037389028805655894 0.011467845430863838 0 -0.035181800528432818 0.0154486504368017 0 -0.033043024515174511 0.015572795641031926 0 -0.033612430527426553 0.012002280948462037 0 -0.029776918338899797 0.013074525035368141 0 -0.029776918338899797 0.013074525035368141 0 -0.033025604697096783 0.0095442250016126353 0 -0.029856093956678362 0.0080241964915546016 0 -0.029287728342962057 0.015851086809659857 0 -0.029601866155278683 0.012669451154635587 0 -0.027577732144665027 0.019336476829030901 0 -0.029856093956678362 0.0080241964915546016 0 -0.021730257050616 0.012178612724241127 0 -0.033612430527426553 0.012002280948462037 0 -0.029776918338899797 0.013074525035368141 0 -0.033025604697096783 0.0095442250016126353 0 -0.033612430527426553 0.012002280948462037 0 -0.035166348697251479 0.010523321182216661 0 -0.033025604697096783 0.0095442250016126353 0 -0.037389028805655894 0.011467845430863838 0 -0.033612430527426553 0.012002280948462037 0 -0.035166348697251479 0.010523321182216661 0 -0.036611036236019599 0.0090146378760401352 0 -0.033025604697096783 0.0095442250016126353 0 -0.03523775099959451 0.0068555452662884646 0 -0.036611036236019599 0.0090146378760401352 0 -0.035166348697251479 0.010523321182216661 0 -0.033025604697096783 0.0095442250016126353 0 -0.03523775099959451 0.0068555452662884646 0 -0.032589656426444499 0.0069686405312118279 0 -0.033454592528209433 0.0046544013468683698 0 -0.033025604697096783 0.0095442250016126353 0 -0.03523775099959451 0.0068555452662884646 0 -0.032589656426444499 0.0069686405312118279 0 -0.033025604697096783 0.0095442250016126353 0 -0.032589656426444499 0.0069686405312118279 0 -0.029856093956678362 0.0080241964915546016 0 -0.032589656426444499 0.0069686405312118279 0 -0.031124290620113543 0.0054569208627071606 0 -0.029856093956678362 0.0080241964915546016 0 -0.031124290620113543 0.0054569208627071606 0 -0.031429418763444017 0.0037160695336199189 0 -0.033454592528209433 0.0046544013468683698 0 -0.032589656426444499 0.0069686405312118279 0 -0.031124290620113543 0.0054569208627071606 0 -0.033454592528209433 0.0046544013468683698 0 -0.03523775099959451 0.0068555452662884646 0 -0.033454592528209433 0.0046544013468683698 0 -0.035959245011812253 0.0043061521573574948 0 -0.033454592528209433 0.0046544013468683698 0 -0.033977380129535349 0.002619690088173865 0 -0.035959245011812253 0.0043061521573574948 0 -0.027177346022377643 0.0063769590103298496 0 -0.025982058805529378 0.0034360509590415306 0 -0.021730257050616 0.012178612724241127 0 -0.027177346022377643 0.0063769590103298496 0 -0.029856093956678362 0.0080241964915546016 0 -0.021730257050616 0.012178612724241127 0 -0.027177346022377643 0.0063769590103298496 0 -0.029856093956678362 0.0080241964915546016 0 -0.02917749681059411 0.0053117760644044842 0 -0.031124290620113543 0.0054569208627071606 0 -0.029856093956678362 0.0080241964915546016 0 -0.02917749681059411 0.0053117760644044842 0 -0.031124290620113543 0.0054569208627071606 0 -0.030184400628686946 0.0038585000603731396 0 -0.02917749681059411 0.0053117760644044842 0 -0.031124290620113543 0.0054569208627071606 0 -0.031429418763444017 0.0037160695336199189 0 -0.030184400628686946 0.0038585000603731396 0 -0.030184400628686946 0.0038585000603731396 0 -0.02917749681059411 0.0053117760644044842 0 -0.028006994453066775 0.003409101333032401 0 -0.027177346022377643 0.0063769590103298496 0 -0.02917749681059411 0.0053117760644044842 0 -0.028006994453066775 0.003409101333032401 0 -0.027177346022377643 0.0063769590103298496 0 -0.028006994453066775 0.003409101333032401 0 -0.025982058805529378 0.0034360509590415306 0 -0.022944405454615662 0.0087651900977938815 0 -0.021109011847498679 0.013116603379995203 0 -0.028006994453066775 0.003409101333032401 0 -0.025982058805529378 0.0034360509590415306 0 -0.029153535387490152 -0.0038103135542511546 0 -0.022836307574822311 0.0071989967964585146 0 -0.021576376473753371 0.003768257043953407 0 -0.024441366497849573 0.0023459845168358837 0 -0.028006994453066775 0.003409101333032401 0 -0.032045025006181449 0.00070273738214556535 0 -0.029153535387490152 -0.0038103135542511546 0 -0.025870222145053502 0.010072902253107547 0 -0.024577729211661088 0.011254615353853255 0 -0.030184400628686946 0.0038585000603731396 0 -0.028006994453066775 0.003409101333032401 0 -0.031723017431449424 0.0018381269636945747 0 -0.024577729211661088 0.011254615353853255 0 -0.021109011847498679 0.013116603379995203 0 -0.016756311301544601 0.022916072763473086 0 -0.016672568711772837 0.022990265546943413 0 -0.016725382858635139 0.023013257206791475 0 -0.033977380129535349 0.002619690088173865 0 -0.031716535890513028 0.002046818358910768 0 -0.036345046346839244 -0.00088950357762846691 0 -0.033977380129535349 0.002619690088173865 0 -0.035959245011812253 0.0043061521573574948 0 -0.036345046346839244 -0.00088950357762846691 0 -0.024577729211661088 0.011254615353853255 0 -0.028317935223247208 0.016891838240045965 0 -0.031429418763444017 0.0037160695336199189 0 -0.033454592528209433 0.0046544013468683698 0 -0.032128279918146374 0.0026061159648080217 0 -0.033977380129535349 0.002619690088173865 0 -0.032128279918146374 0.0026061159648080217 0 -0.031716535890513028 0.002046818358910768 0 -0.033454592528209433 0.0046544013468683698 0 -0.033977380129535349 0.002619690088173865 0 -0.032128279918146374 0.0026061159648080217 0 -0.031429418763444017 0.0037160695336199189 0 -0.030184400628686946 0.0038585000603731396 0 -0.031723017431449424 0.0018381269636945747 0 -0.031429418763444017 0.0037160695336199189 0 -0.032128279918146374 0.0026061159648080217 0 -0.031723017431449424 0.0018381269636945747 0 -0.024581506502149412 0.011200302743317455 0 -0.024577729211661088 0.011254615353853255 0 -0.016756311301544601 0.022916072763473086 0 -0.016725382858635139 0.023013257206791475 0 -0.016780803091103774 0.022985939776444714 0 -0.041509460598015552 0.016863824577380847 0 -0.042683184731343478 0.014747629836526537 0 -0.04402863490427128 0.017776307488606126 0 -0.034971243228648835 0.013007465989925353 0 -0.028317935223247208 0.016891838240045965 0 -0.039332379115906778 0.0064714667543798125 0 -0.035959245011812253 0.0043061521573574948 0 -0.036345046346839244 -0.00088950357762846691 0 -0.041509460598015552 0.016863824577380847 0 -0.042683184731343478 0.014747629836526537 0 -0.040126593793116255 0.014388707712762114 0 -0.036611036236019599 0.0090146378760401352 0 -0.03523775099959451 0.0068555452662884646 0 -0.039332379115906778 0.0064714667543798125 0 -0.03523775099959451 0.0068555452662884646 0 -0.039332379115906778 0.0064714667543798125 0 -0.035959245011812253 0.0043061521573574948 0 -0.0085544833050989096 0.0093923477421615428 0 -0.012367872641138028 0.004589160469455354 0 -0.01295351513602274 0.010613153026841432 0 -0.0084669328846419846 0.011877924732177844 0 -0.0042806460188099128 0.014453800457340966 0 -0.0017413864582322735 0.0079221205707118575 0 -0.005411285106319364 0.0035652613263236215 0 -0.0017413864582322735 0.0079221205707118575 0 -0.0030302574914135502 -0.0019029538678834077 0 -0.0084669328846419846 0.011877924732177844 0 -0.005411285106319364 0.0035652613263236215 0 -0.0017413864582322735 0.0079221205707118575 0 -0.0086373280055808115 0.011591569204652442 0 -0.0072846128512041473 0.0083817211824881426 0 -0.0085544833050989096 0.0093923477421615428 0 -0.005411285106319364 0.0035652613263236215 0 -0.012367872641138028 0.004589160469455354 0 -0.012367872641138028 0.004589160469455354 0 -0.016710530245780501 0.0075105779253521335 0 -0.018713730656842356 0.0022190942535152288 0 -0.020243383853569497 0.0060323124384230493 0 -0.016710530245780501 0.0075105779253521335 0 -0.018713730656842356 0.0022190942535152288 0 -0.021576376473753371 0.003768257043953407 0 -0.020243383853569497 0.0060323124384230493 0 -0.018713730656842356 0.0022190942535152288 0 -0.022836307574822311 0.0071989967964585146 0 -0.021576376473753371 0.003768257043953407 0 -0.020243383853569497 0.0060323124384230493 0 -0.022944405454615662 0.0087651900977938815 0 -0.02268210730605473 0.0094511725273757168 0 -0.020238501985025251 0.0090495851981751974 0 -0.016710530245780501 0.0075105779253521335 0 -0.016685019225210977 0.012649063333139676 0 -0.022836307574822311 0.0071989967964585146 0 -0.020238501985025251 0.0090495851981751974 0 -0.021730257050616 0.012178612724241127 0 -0.022836307574822311 0.0071989967964585146 0 -0.020243383853569497 0.0060323124384230493 0 -0.020238501985025251 0.0090495851981751974 0 -0.020243383853569497 0.0060323124384230493 0 -0.020238501985025251 0.0090495851981751974 0 -0.016710530245780501 0.0075105779253521335 0 -0.012367872641138028 0.004589160469455354 0 -0.01295351513602274 0.010613153026841432 0 -0.016710530245780501 0.0075105779253521335 0 -0.01295351513602274 0.010613153026841432 0 -0.016710530245780501 0.0075105779253521335 0 -0.016685019225210977 0.012649063333139676 0 -0.01295351513602274 0.010613153026841432 0 -0.016685019225210977 0.012649063333139676 0 -0.011064072523023665 0.015911343604709857 0 -0.016685019225210977 0.012649063333139676 0 -0.018747332326377462 0.019210665264057479 0 -0.011064072523023665 0.015911343604709857 0 -0.016685019225210977 0.012649063333139676 0 -0.021730257050616 0.012178612724241127 0 -0.018747332326377462 0.019210665264057479 0 -0.020238501985025251 0.0090495851981751974 0 -0.016685019225210977 0.012649063333139676 0 -0.021730257050616 0.012178612724241127 0 -0.027577732144665027 0.019336476829030901 0 -0.021730257050616 0.012178612724241127 0 -0.018747332326377462 0.019210665264057479 0 -0.027577732144665027 0.019336476829030901 0 -0.018747332326377462 0.019210665264057479 0 -0.022714962181231476 0.023810201665936091 0 -0.018747332326377462 0.019210665264057479 0 -0.011064072523023665 0.015911343604709857 0 -0.013979827518563585 0.023488074168419231 0 -0.0083625511630591679 0.022397705350601083 0 -0.0095364100284952586 0.025340405113217498 0 -0.013435845971935062 0.02517414715996355 0 -0.011067533252128111 0.017470113296525498 0 -0.013506972118274674 0.023302975766964471 0 -0.0083625511630591679 0.022397705350601083 0 -0.01090531017819287 0.019164589065372335 0 -0.0056777283616352651 0.018994492062915005 0 -0.0083625511630591679 0.022397705350601083 0 -0.01090531017819287 0.019164589065372335 0 -0.013435845971935062 0.02517414715996355 0 -0.0083625511630591679 0.022397705350601083 0 -0.0073045652915894373 0.024023689819470801 0 -0.0095364100284952586 0.025340405113217498 0 -0.0084669328846419846 0.011877924732177844 0 -0.01090531017819287 0.019164589065372335 0 -0.0056777283616352651 0.018994492062915005 0 -0.0086373280055808115 0.011591569204652442 0 -0.011067533252128111 0.017470113296525498 0 -0.0085544833050989096 0.0093923477421615428 0 -0.01295351513602274 0.010613153026841432 0 -0.011064072523023665 0.015911343604709857 0 -0.0084669328846419846 0.011877924732177844 0 -0.0042806460188099128 0.014453800457340966 0 -0.0056777283616352651 0.018994492062915005 0 -0.0042806460188099128 0.014453800457340966 0 -0.0056777283616352651 0.018994492062915005 0 -0.00094486829292415191 0.018704570228118535 0 -0.0056777283616352651 0.018994492062915005 0 -0.0030757933111489836 0.021922471752325853 0 -0.00094486829292415191 0.018704570228118535 0 -0.0056777283616352651 0.018994492062915005 0 -0.0030757933111489836 0.021922471752325853 0 -0.0057234728982862347 0.022835433726319451 0 -0.0083625511630591679 0.022397705350601083 0 -0.0056777283616352651 0.018994492062915005 0 -0.0057234728982862347 0.022835433726319451 0 -0.0057234728982862347 0.022835433726319451 0 -0.0073045652915894373 0.024023689819470801 0 -0.0055559978014157298 0.025497238899060304 0 -0.0083625511630591679 0.022397705350601083 0 -0.0057234728982862347 0.022835433726319451 0 -0.0073045652915894373 0.024023689819470801 0 -0.0030757933111489836 0.021922471752325853 0 -0.0057234728982862347 0.022835433726319451 0 -0.0055559978014157298 0.025497238899060304 0 -0.00362935540285591 0.025531230178987639 0 -0.0092063398790865978 0.028500760934844833 0 -0.0059855027830655024 0.02899323360044969 0 -0.0048552341506152641 0.026287167478941303 0 -0.0065379892743187883 0.02547721872750501 0 -0.011910188736714686 0.028547349242813994 0 -0.00362935540285591 0.025531230178987639 0 -0.0034564754590578495 0.028049404454883888 0 -0.0059855027830655024 0.02899323360044969 0 -0.0038986668567737525 0.025919740750856884 0 -0.0076268005976533725 0.027176429645956676 0 -0.00362935540285591 0.025531230178987639 0 -0.011910188736714686 0.028547349242813994 0 -0.0092063398790865978 0.028500760934844833 0 -0.0055559978014157298 0.025497238899060304 0 -0.0095364100284952586 0.025340405113217498 0 -0.012498292414367215 0.028269077514789322 0 -0.0073045652915894373 0.024023689819470801 0 -0.0055559978014157298 0.025497238899060304 0 -0.0095364100284952586 0.025340405113217498 0 -0.0065379892743187883 0.02547721872750501 0 -0.011910188736714686 0.028547349242813994 0 -0.012498292414367215 0.028269077514789322 0 -0.005396240279428444 0.025113871920348512 0 -0.0082954384048047804 0.026511127314166071 0 -0.0095364100284952586 0.025340405113217498 0 -0.013435845971935062 0.02517414715996355 0 -0.012498292414367215 0.028269077514789322 0 -0.0092063398790865978 0.028500760934844833 0 -0.0083700572837909267 0.032999283740920975 0 -0.0059855027830655024 0.02899323360044969 0 -0.0092063398790865978 0.028500760934844833 0 -0.010671681447879068 0.030740852268539079 0 -0.0083700572837909267 0.032999283740920975 0 -0.011910188736714686 0.028547349242813994 0 -0.0092063398790865978 0.028500760934844833 0 -0.010922055095999264 0.029358881370071269 0 -0.01188639602374488 0.029656101764687377 0 -0.010671681447879068 0.030740852268539079 0 -0.013148091772741772 0.030618501423534082 0 -0.011910188736714686 0.028547349242813994 0 -0.01188639602374488 0.029656101764687377 0 -0.013122549753772443 0.029638632437263227 0 -0.011910188736714686 0.028547349242813994 0 -0.01188639602374488 0.029656101764687377 0 -0.010922055095999264 0.029358881370071269 0 -0.0092063398790865978 0.028500760934844833 0 -0.010922055095999264 0.029358881370071269 0 -0.010671681447879068 0.030740852268539079 0 -0.01188639602374488 0.029656101764687377 0 -0.010922055095999264 0.029358881370071269 0 -0.010671681447879068 0.030740852268539079 0 -0.010671681447879068 0.030740852268539079 0 -0.013148091772741772 0.030618501423534082 0 -0.012703827745003811 0.032455575919676717 0 -0.010671681447879068 0.030740852268539079 0 -0.0083700572837909267 0.032999283740920975 0 -0.012703827745003811 0.032455575919676717 0 -0.0083700572837909267 0.032999283740920975 0 -0.0059855027830655024 0.02899323360044969 0 -0.0020321629321791205 0.030159945351139406 0 -0.0029861208461987739 0.029796885843582168 0 -0.0011211793067307555 0.030484644267022826 0 0.00010403980414851037 0.02861806193531935 0 -0.011314966717325417 0.022387910026525511 0 -0.0046946004726351187 0.024046666322459258 0 -0.0034564754590578495 0.028049404454883888 0 -0.0059855027830655024 0.02899323360044969 0 -0.0020321629321791205 0.030159945351139406 0 -0.018747332326377462 0.019210665264057479 0 -0.018327289561658012 0.027776406677293624 0 -0.022714962181231476 0.023810201665936091 0 -0.021845930218314262 0.023119938637378434 0 -0.022419196429187004 0.02426043136856788 0 -0.026126698592637668 0.028798767623794231 0 -0.018327289561658012 0.027776406677293624 0 -0.022714962181231476 0.023810201665936091 0 -0.013435845971935062 0.02517414715996355 0 -0.012498292414367215 0.028269077514789322 0 -0.016732250231399685 0.030956516349161627 0 -0.017934244080209424 0.026621544612206009 0 -0.013979827518563585 0.023488074168419231 0 -0.016732250231399685 0.030956516349161627 0 -0.013506972118274674 0.023302975766964471 0 -0.014841728116003752 0.026419166429516645 0 -0.018747332326377462 0.019210665264057479 0 -0.017934244080209424 0.026621544612206009 0 -0.013979827518563585 0.023488074168419231 0 -0.017934244080209424 0.026621544612206009 0 -0.016732250231399685 0.030956516349161627 0 -0.017028068101436943 0.034017596605501729 0 -0.013122549753772443 0.029638632437263227 0 -0.013148091772741772 0.030618501423534082 0 -0.016732250231399685 0.030956516349161627 0 -0.012498292414367215 0.028269077514789322 0 -0.013122549753772443 0.029638632437263227 0 -0.016732250231399685 0.030956516349161627 0 -0.011910188736714686 0.028547349242813994 0 -0.012498292414367215 0.028269077514789322 0 -0.013122549753772443 0.029638632437263227 0 -0.01188639602374488 0.029656101764687377 0 -0.013122549753772443 0.029638632437263227 0 -0.013148091772741772 0.030618501423534082 0 -0.013148091772741772 0.030618501423534082 0 -0.012703827745003811 0.032455575919676717 0 -0.01474732883482768 0.032088159242413108 0 -0.012703827745003811 0.032455575919676717 0 -0.01474732883482768 0.032088159242413108 0 -0.014852149564743693 0.0335618451216977 0 -0.013148091772741772 0.030618501423534082 0 -0.01474732883482768 0.032088159242413108 0 -0.016732250231399685 0.030956516349161627 0 -0.01474732883482768 0.032088159242413108 0 -0.016732250231399685 0.030956516349161627 0 -0.017028068101436943 0.034017596605501729 0 -0.01474732883482768 0.032088159242413108 0 -0.017028068101436943 0.034017596605501729 0 -0.014852149564743693 0.0335618451216977 0 -0.030380846778569282 0.01680335518620038 0 -0.030489525584528308 0.016591197222595451 0 -0.030581306729271243 0.016609531331656154 0 -0.026126698592637668 0.028798767623794231 0 -0.018327289561658012 0.027776406677293624 0 -0.017752436998876488 0.035987080882872884 0 -0.022419196429187004 0.02426043136856788 0 -0.024993039094568729 0.019624249767075448 0 -0.029325599217118616 0.018620481308777043 0 -0.024993039094568729 0.019624249767075448 0 -0.034107881170255566 0.011494358308400348 0 -0.033972424734489963 0.012530333386604389 0 -0.034649205580410784 0.01170507603219992 0 -0.034256654807779077 0.010572091253075195 0 -0.032297139192871027 0.012409607471083186 0 -0.032769162741300081 0.013101876082851013 0 -0.032297139192871027 0.012409607471083186 0 -0.030399300275323303 0.01662040375736281 0 -0.030498754194128373 0.016489052046903641 0 -0.030489525584528308 0.016591197222595451 0 -0.030489525584528308 0.016591197222595451 0 -0.030586785978421602 0.016526641709219626 0 -0.030581306729271243 0.016609531331656154 0 -0.030498754194128373 0.016489052046903641 0 -0.030489525584528308 0.016591197222595451 0 -0.030586785978421602 0.016526641709219626 0 -0.032297139192871027 0.012409607471083186 0 -0.02734535286661181 0.015821363538604763 0 -0.023758715634961052 0.017969374802504826 0 -0.01571882741947957 0.015426418287760568 0 -0.040787135004444398 0.0041712561439289 0 -0.041157418939218829 0.0043171334430473652 0 -0.041197066472718036 0.0036834698607833356 0 -0.02734535286661181 0.015821363538604763 0 -0.023758715634961052 0.017969374802504826 0 -0.028430588423535373 0.016529413328852719 0 -0.028401531002635587 0.016928560305113197 0 -0.028723426439687168 0.016644093672332279 0 -0.02734535286661181 0.015821363538604763 0 -0.024993039094568729 0.019624249767075448 0 -0.017028068101436943 0.034017596605501729 0 -0.014852149564743693 0.0335618451216977 0 -0.01495984602888222 0.035683487045926117 0 -0.024993039094568729 0.019624249767075448 0 -0.023758715634961052 0.017969374802504826 0 -0.012703827745003811 0.032455575919676717 0 -0.014852149564743693 0.0335618451216977 0 -0.01495984602888222 0.035683487045926117 0 -0.041157418939218829 0.0043171334430473652 0 -0.041197066472718036 0.0036834698607833356 0 -0.042151206977527042 0.0033829324726501321 0 -0.040911210286544701 0.0031622389063675409 0 -0.041197066472718036 0.0036834698607833356 0 -0.042151206977527042 0.0033829324726501321 0 -0.02734535286661181 0.015821363538604763 0 -0.033588524721999163 0.0075840413125035384 0 -0.040787135004444398 0.0041712561439289 0 -0.040911210286544701 0.0031622389063675409 0 -0.041197066472718036 0.0036834698607833356 0 -0.035217096112155413 0.0078389475098945647 0 -0.034256654807779077 0.010572091253075195 0 -0.041630962931306199 0.0024329019667218262 0 -0.041555507184766111 0.0027745671891837155 0 -0.041726401975424793 0.0026255239270062073 0 -0.028041850963282475 0.013527338400141904 0 -0.029330173377541971 0.014028764801302364 0 -0.029498681305594139 0.011750189790747961 0 -0.041630962931306199 0.0024329019667218262 0 -0.041963358515435527 0.0025424801149666492 0 -0.041726401975424793 0.0026255239270062073 0 -0.041738072053706748 0.0028484682090054235 0 -0.041963358515435527 0.0025424801149666492 0 -0.041726401975424793 0.0026255239270062073 0 -0.032297139192871027 0.012409607471083186 0 -0.033588524721999163 0.0075840413125035384 0 -0.041555507184766111 0.0027745671891837155 0 -0.041738072053706748 0.0028484682090054235 0 -0.041726401975424793 0.0026255239270062073 0 -0.0023810595204732028 0.031580207413363266 0 -0.00098502635431508786 0.031900466741358199 0 -0.0011211793067307555 0.030484644267022826 0 -0.00098502635431508786 0.031900466741358199 0 -0.0011211793067307555 0.030484644267022826 0 0.00088789213421379279 0.030464445441295399 0 -0.0029861208461987739 0.029796885843582168 0 -0.0023810595204732028 0.031580207413363266 0 -0.0011211793067307555 0.030484644267022826 0 -0.0083700572837909267 0.032999283740920975 0 -0.012703827745003811 0.032455575919676717 0 -0.01495984602888222 0.035683487045926117 0 -0.0060585024836624481 0.030937827660969218 0 -0.0038121709898954587 0.03133461696053353 0 -0.0036226224592407499 0.03300054785583157 0 -0.011314966717325417 0.022387910026525511 0 -0.023758715634961052 0.017969374802504826 0 -0.0029861208461987739 0.029796885843582168 0 -0.0060585024836624481 0.030937827660969218 0 -0.0038121709898954587 0.03133461696053353 0 -0.0029861208461987739 0.029796885843582168 0 -0.0023810595204732028 0.031580207413363266 0 -0.0038121709898954587 0.03133461696053353 0 -0.0023810595204732028 0.031580207413363266 0 -0.0038121709898954587 0.03133461696053353 0 -0.0036226224592407499 0.03300054785583157 0 -0.04232642812805941 0.0026106397332502245 0 -0.040911210286544701 0.0031622389063675409 0 -0.042151206977527042 0.0033829324726501321 0 -0.0023810595204732028 0.031580207413363266 0 -0.0036226224592407499 0.03300054785583157 0 -0.0017727080160733783 0.032925851592893157 0 -8.6929491327334226e-05 0.015709033602631248 0 -0.01571882741947957 0.015426418287760568 0 -0.0012464314730294454 0.034968832410512539 0 -0.0036226224592407499 0.03300054785583157 0 -0.0017727080160733783 0.032925851592893157 0 -0.0023810595204732028 0.031580207413363266 0 -0.00098502635431508786 0.031900466741358199 0 -0.0017727080160733783 0.032925851592893157 0 0.0044292335688847946 0.025205723484208929 0 0.0044140997077088242 0.0243876045309552 0 -0.00098502635431508786 0.031900466741358199 0 -0.0017727080160733783 0.032925851592893157 0 -0.00045509120508844793 0.033144075693934627 0 -0.0012464314730294454 0.034968832410512539 0 -0.0017727080160733783 0.032925851592893157 0 -0.00045509120508844793 0.033144075693934627 0 -8.6929491327334226e-05 0.015709033602631248 0 0.0044140997077088242 0.0243876045309552 0 0.0012742053026818831 0.037729959193853808 0 -0.00048986013605800791 0.033808788484269638 0 0.0022721933511241827 0.033213489636261008 0 -0.00098502635431508786 0.031900466741358199 0 -0.00042514626628697218 0.033179030322104106 0 0.00088789213421379279 0.030464445441295399 0 0.0044140997077088242 0.0243876045309552 0 0.0026772852228942969 0.028046797195083396 0 -0.00048986013605800791 0.033808788484269638 0 0.00088789213421379279 0.030464445441295399 0 0.0022721933511241827 0.033213489636261008 0 0.00088789213421379279 0.030464445441295399 0 0.0041062931508389876 0.030782314843140864 0 0.0020938031268284011 0.029275309118869025 0 0.00088789213421379279 0.030464445441295399 0 0.0041062931508389876 0.030782314843140864 0 0.0022721933511241827 0.033213489636261008 0 0.0041062931508389876 0.030782314843140864 0 0.0046824851522145232 0.034902579957607857 0 0.0022721933511241827 0.033213489636261008 0 0.063876653639894948 0.049129658067840976 0 0.05998590323312894 0.049098163415778308 0 0.060283374412509035 0.052669017248965264 0 0.02734043272554083 0.034156360722121519 0 0.031395278808484084 0.039016817194206535 0 0.05998590323312894 0.049098163415778308 0 0.060283374412509035 0.052669017248965264 0 0.056855850185492059 0.052588271535356605 0 0.031395278808484084 0.039016817194206535 0 0.033582545887314068 0.04164210920017216 0 0.0041062931508389876 0.030782314843140864 0 0.0046824851522145232 0.034902579957607857 0 0.0082479854360594206 0.032088204672842444 0 0.0041062931508389876 0.030782314843140864 0 0.0082479854360594206 0.032088204672842444 0 0.0073827504804086664 0.028824018261474346 0 0.0041062931508389876 0.030782314843140864 0 0.0073827504804086664 0.028824018261474346 0 0.0033599916281630117 0.027296011944229408 0 0.0082479854360594206 0.032088204672842444 0 0.0073827504804086664 0.028824018261474346 0 0.01201196053462647 0.029066808236046536 0 0.0073827504804086664 0.028824018261474346 0 0.0092341044454777033 0.026019618421299982 0 0.01201196053462647 0.029066808236046536 0 0.0092341044454777033 0.026019618421299982 0 0.0064231713216534392 0.025622682161066175 0 0.0081830767673810294 0.02217936609806076 0 0.0073827504804086664 0.028824018261474346 0 0.0092341044454777033 0.026019618421299982 0 0.0064231713216534392 0.025622682161066175 0 0.0073827504804086664 0.028824018261474346 0 0.0064231713216534392 0.025622682161066175 0 0.0033599916281630117 0.027296011944229408 0 0.0033599916281630117 0.027296011944229408 0 0.0003881587820983591 0.02599328214163767 0 0.0032404399171288975 0.023665675019098706 0 0.0064231713216534392 0.025622682161066175 0 0.0033599916281630117 0.027296011944229408 0 0.0032404399171288975 0.023665675019098706 0 0.0033599916281630117 0.027296011944229408 0 0.0003881587820983591 0.02599328214163767 0 -0.0014183995674508414 0.027406961251247166 0 -0.0048552341506152641 0.026287167478941303 0 -0.0065379892743187883 0.02547721872750501 0 -0.00089878069748757156 0.022863130456876535 0 -0.00362935540285591 0.025531230178987639 0 0.0003881587820983591 0.02599328214163767 0 0.0032404399171288975 0.023665675019098706 0 -0.0038986668567737525 0.025919740750856884 0 0.0020828110052063518 0.023942015267405109 0 -0.00362935540285591 0.025531230178987639 0 -0.0034564754590578495 0.028049404454883888 0 -0.0014183995674508414 0.027406961251247166 0 -0.00362935540285591 0.025531230178987639 0 0.0003881587820983591 0.02599328214163767 0 -0.0014183995674508414 0.027406961251247166 0 -0.0020116169656580543 0.024200590271745412 0 -0.0046946004726351187 0.024046666322459258 0 0.0033599916281630117 0.027296011944229408 0 0.00010403980414851037 0.02861806193531935 0 0.0020938031268284011 0.029275309118869025 0 0.0033599916281630117 0.027296011944229408 0 -0.0014183995674508414 0.027406961251247166 0 -0.0020321629321791205 0.030159945351139406 0 -0.0034564754590578495 0.028049404454883888 0 -0.0014183995674508414 0.027406961251247166 0 -0.0020321629321791205 0.030159945351139406 0 -0.0011211793067307555 0.030484644267022826 0 0.00088789213421379279 0.030464445441295399 0 0.00010403980414851037 0.02861806193531935 0 0.00088789213421379279 0.030464445441295399 0 0.00010403980414851037 0.02861806193531935 0 0.0020938031268284011 0.029275309118869025 0 0.0041062931508389876 0.030782314843140864 0 0.0033599916281630117 0.027296011944229408 0 0.0020938031268284011 0.029275309118869025 0 0.039857706352987972 -0.022695675449534203 0 0.038590309654445903 -0.019091034496003519 0 0.034498130025589775 -0.018296870797718807 0 0.039938181782745899 -0.025698183675387006 0 0.041750800759312909 -0.025535704264026675 0 0.039042151201258521 -0.024611086466017423 0 0.041750800759312909 -0.025535704264026675 0 0.039042151201258521 -0.024611086466017423 0 0.038992710267748372 -0.023374407959981212 0 0.0416859089140506 -0.022157169226758699 0 0.039516618566485841 -0.018097727316527267 0 0.039938181782745899 -0.025698183675387006 0 0.040937755579465496 -0.026889797092030862 0 0.041750800759312909 -0.025535704264026675 0 0.039938181782745899 -0.025698183675387006 0 0.039688255344475398 -0.026436927758978278 0 0.040937755579465496 -0.026889797092030862 0 0.039688255344475398 -0.026436927758978278 0 0.039569857894193441 -0.027959753547171357 0 0.040937755579465496 -0.026889797092030862 0 0.041255959225583526 -0.028431221023204608 0 0.039569857894193441 -0.027959753547171357 0 0.040937755579465496 -0.026889797092030862 0 0.040937755579465496 -0.026889797092030862 0 0.04225044814700351 -0.027109878770870972 0 0.041750800759312909 -0.025535704264026675 0 0.04225044814700351 -0.027109878770870972 0 0.041750800759312909 -0.025535704264026675 0 0.044051811077058231 -0.026689083248506919 0 0.041255959225583526 -0.028431221023204608 0 0.040937755579465496 -0.026889797092030862 0 0.04225044814700351 -0.027109878770870972 0 0.053669223505299186 0.052541011299387111 0 0.05375071657235661 0.056096253117648945 0 0.050796484132736727 0.056171472594745968 0 0.039857706352987972 -0.022695675449534203 0 0.042558323238945123 -0.023829081545236202 0 0.038590309654445903 -0.019091034496003519 0 0.047105280257413645 0.013634589957854841 0 0.044600892472714343 0.018326951096707074 0 0.056855850185492059 0.052588271535356605 0 0.056842640056886447 0.056156342504358997 0 0.05375071657235661 0.056096253117648945 0 0.053669223505299186 0.052541011299387111 0 0.056855850185492059 0.052588271535356605 0 0.05375071657235661 0.056096253117648945 0 0.0416859089140506 -0.022157169226758699 0 0.043258812754945114 -0.023998892025392304 0 0.043231134321445742 -0.027950492834869306 0 0.04225044814700351 -0.027109878770870972 0 0.044051811077058231 -0.026689083248506919 0 0.048740252481547647 0.0087182140476066983 0 0.047105280257413645 0.013634589957854841 0 0.0456396634222547 -0.027773720478534658 0 0.042558323238945123 -0.023829081545236202 0 0.044051811077058231 -0.026689083248506919 0 0.039857706352987972 -0.022695675449534203 0 0.042558323238945123 -0.023829081545236202 0 0.044051811077058231 -0.026689083248506919 0 0.056769373605779452 0.048907851983685642 0 0.053669223505299186 0.052541011299387111 0 0.056855850185492059 0.052588271535356605 0 0.056769373605779452 0.048907851983685642 0 0.05998590323312894 0.049098163415778308 0 0.056855850185492059 0.052588271535356605 0 0.060283374412509035 0.052669017248965264 0 0.056855850185492059 0.052588271535356605 0 0.056842640056886447 0.056156342504358997 0 0.0092341044454777033 0.026019618421299982 0 0.01201196053462647 0.029066808236046536 0 0.012183806687945836 0.024399717019387382 0 0.01201196053462647 0.029066808236046536 0 0.015755318248892588 0.025896600006114372 0 0.012183806687945836 0.024399717019387382 0 0.033582545887314068 0.04164210920017216 0 0.035369135684810538 0.043505740506063394 0 0.056842640056886447 0.056156342504358997 0 0.053563482632818515 0.059523909035765786 0 0.05375071657235661 0.056096253117648945 0 0.053563482632818515 0.059523909035765786 0 0.05375071657235661 0.056096253117648945 0 0.050796484132736727 0.056171472594745968 0 0.053563482632818515 0.059523909035765786 0 0.05040064765776834 0.059900051048404242 0 0.050796484132736727 0.056171472594745968 0 0.053563482632818515 0.059523909035765786 0 0.05040064765776834 0.059900051048404242 0 0.050494383289943441 0.062555933617262291 0 0.05040064765776834 0.059900051048404242 0 0.050796484132736727 0.056171472594745968 0 0.048435722802559388 0.059655011002591997 0 0.05040064765776834 0.059900051048404242 0 0.048435722802559388 0.059655011002591997 0 0.048998849811691246 0.06138969915944157 0 0.038590309654445903 -0.019091034496003519 0 0.034498130025589775 -0.018296870797718807 0 0.033797241324437295 -0.014110697187482101 0 0.044600892472714343 0.018326951096707074 0 0.042135569233260582 0.022811745531157123 0 0.019474466900230743 0.022708483810823205 0 0.017725308500628607 0.018694074566500296 0 0.023186470405251576 0.019539676319455527 0 0.037896760738950555 0.04567296414845954 0 0.042792716211009427 0.049497694576718619 0 0.05040064765776834 0.059900051048404242 0 0.050494383289943441 0.062555933617262291 0 0.048998849811691246 0.06138969915944157 0 0.050494383289943441 0.062555933617262291 0 0.048998849811691246 0.06138969915944157 0 0.048843212813765392 0.062872310787744606 0 0.035369135684810538 0.043505740506063394 0 0.037896760738950555 0.04567296414845954 0 0.015755318248892588 0.025896600006114372 0 0.019474466900230743 0.022708483810823205 0 0.016107311449958143 0.021827330975572927 0 0.019474466900230743 0.022708483810823205 0 0.016107311449958143 0.021827330975572927 0 0.017725308500628607 0.018694074566500296 0 0.012902818141112786 0.020138795052289393 0 0.015185147103248347 0.017258954653962284 0 0.017725308500628607 0.018694074566500296 0 0.012435969526067675 0.020462698934212493 0 0.015043106500071693 0.0195707069305299 0 0.016107311449958143 0.021827330975572927 0 0.012941750395427899 0.020493683093701233 0 0.017725308500628607 0.018694074566500296 0 0.016107311449958143 0.021827330975572927 0 0.012183806687945836 0.024399717019387382 0 0.012941750395427899 0.020493683093701233 0 0.015755318248892588 0.025896600006114372 0 0.016107311449958143 0.021827330975572927 0 0.012183806687945836 0.024399717019387382 0 0.012183806687945836 0.024399717019387382 0 0.012941750395427899 0.020493683093701233 0 0.0081830767673810294 0.02217936609806076 0 0.012435969526067675 0.020462698934212493 0 0.0076338950560491305 0.022093579828744256 0 0.012902818141112786 0.020138795052289393 0 0.010946348271008752 0.016897230484966514 0 0.0091377839392640155 0.01829959553513533 0 0.012902818141112786 0.020138795052289393 0 0.010946348271008752 0.016897230484966514 0 0.01307391300450674 0.016891129703074076 0 0.010946348271008752 0.016897230484966514 0 0.012289597121539526 0.015445962261083886 0 0.01307391300450674 0.016891129703074076 0 0.010946348271008752 0.016897230484966514 0 0.010525772877561299 0.014889546035549411 0 0.012289597121539526 0.015445962261083886 0 0.010946348271008752 0.016897230484966514 0 0.010525772877561299 0.014889546035549411 0 0.0086637288199634833 0.016130833034064075 0 0.027719480079679778 0.023615124401716574 0 0.028289338699524786 0.023900647427817504 0 0.010525772877561299 0.014889546035549411 0 0.011263704869340127 0.013409669187902557 0 0.0090657523418883196 0.013642943189730273 0 0.011434488488792614 0.013662508168100445 0 0.012863324042490647 0.013952245338061319 0 0.012628955737666462 0.011846891060641592 0 0.010525772877561299 0.014889546035549411 0 0.011434488488792614 0.013662508168100445 0 0.012863324042490647 0.013952245338061319 0 0.010525772877561299 0.014889546035549411 0 0.012863324042490647 0.013952245338061319 0 0.012289597121539526 0.015445962261083886 0 0.012863324042490647 0.013952245338061319 0 0.012289597121539526 0.015445962261083886 0 0.014247139648275849 0.014841275770232263 0 0.012863324042490647 0.013952245338061319 0 0.014247139648275849 0.014841275770232263 0 0.014529714601693717 0.012749011157185013 0 0.014247139648275849 0.014841275770232263 0 0.016799656557141194 0.012525553742434043 0 0.014529714601693717 0.012749011157185013 0 0.014247139648275849 0.014841275770232263 0 0.015185147103248347 0.017258954653962284 0 0.017382964820052631 0.015459980208219344 0 0.012902818141112786 0.020138795052289393 0 0.01307391300450674 0.016891129703074076 0 0.015185147103248347 0.017258954653962284 0 0.012289597121539526 0.015445962261083886 0 0.014247139648275849 0.014841275770232263 0 0.01307391300450674 0.016891129703074076 0 0.014247139648275849 0.014841275770232263 0 0.01307391300450674 0.016891129703074076 0 0.015185147103248347 0.017258954653962284 0 0.015185147103248347 0.017258954653962284 0 0.017725308500628607 0.018694074566500296 0 0.017382964820052631 0.015459980208219344 0 0.014247139648275849 0.014841275770232263 0 0.017382964820052631 0.015459980208219344 0 0.016799656557141194 0.012525553742434043 0 0.017382964820052631 0.015459980208219344 0 0.016799656557141194 0.012525553742434043 0 0.021597762071391215 0.014777722141433865 0 0.017725308500628607 0.018694074566500296 0 0.023186470405251576 0.019539676319455527 0 0.021597762071391215 0.014777722141433865 0 0.017725308500628607 0.018694074566500296 0 0.017382964820052631 0.015459980208219344 0 0.021597762071391215 0.014777722141433865 0 0.0022870649741884128 0.018917408300718995 0 0.0011021587638927674 0.022020286403147186 0 0.0052190378870777031 0.019760399309889317 0 0.0022870649741884128 0.018917408300718995 0 0.0052190378870777031 0.019760399309889317 0 0.0037294118574275137 0.016976026077487716 0 0.0022870649741884128 0.018917408300718995 0 -0.00094486829292415191 0.018704570228118535 0 0.0015990508054528618 0.01678950558587557 0 0.0022870649741884128 0.018917408300718995 0 -0.00094486829292415191 0.018704570228118535 0 0.0011021587638927674 0.022020286403147186 0 -0.0030757933111489836 0.021922471752325853 0 -0.0055559978014157298 0.025497238899060304 0 0.0011021587638927674 0.022020286403147186 0 -0.005396240279428444 0.025113871920348512 0 -0.00041203452899586673 0.022684462839693702 0 -0.0048552341506152641 0.026287167478941303 0 -0.00089878069748757156 0.022863130456876535 0 0.0016936586122138291 0.024071132575034359 0 -0.0030757933111489836 0.021922471752325853 0 -0.00094486829292415191 0.018704570228118535 0 0.0011021587638927674 0.022020286403147186 0 -0.00041203452899586673 0.022684462839693702 0 0.0039941235428523738 0.020538487725543293 0 -0.00089878069748757156 0.022863130456876535 0 0.0016936586122138291 0.024071132575034359 0 0.0043363703438346396 0.02046389211359181 0 0.0064231713216534392 0.025622682161066175 0 0.0032404399171288975 0.023665675019098706 0 0.0081830767673810294 0.02217936609806076 0 0.0016936586122138291 0.024071132575034359 0 0.0076320493198099018 0.021974732833496321 0 0.0043363703438346396 0.02046389211359181 0 0.0020828110052063518 0.023942015267405109 0 0.0076338950560491305 0.022093579828744256 0 0.0092341044454777033 0.026019618421299982 0 0.012183806687945836 0.024399717019387382 0 0.0081830767673810294 0.02217936609806076 0 0.0076320493198099018 0.021974732833496321 0 0.0091377839392640155 0.01829959553513533 0 0.0043363703438346396 0.02046389211359181 0 0.012902818141112786 0.020138795052289393 0 0.0076320493198099018 0.021974732833496321 0 0.0091377839392640155 0.01829959553513533 0 0.0091377839392640155 0.01829959553513533 0 0.0052190378870777031 0.019760399309889317 0 0.0064410639218663588 0.016600999381746445 0 0.0062280316824284542 0.019466066674657747 0 0.0039941235428523738 0.020538487725543293 0 0.0052190378870777031 0.019760399309889317 0 0.0064410639218663588 0.016600999381746445 0 0.0037294118574275137 0.016976026077487716 0 0.0064410639218663588 0.016600999381746445 0 0.0045167995649065271 0.015185546013100518 0 0.0037294118574275137 0.016976026077487716 0 0.010946348271008752 0.016897230484966514 0 0.0091377839392640155 0.01829959553513533 0 0.0086637288199634833 0.016130833034064075 0 0.0091377839392640155 0.01829959553513533 0 0.0064410639218663588 0.016600999381746445 0 0.0086637288199634833 0.016130833034064075 0 0.0064410639218663588 0.016600999381746445 0 0.0086637288199634833 0.016130833034064075 0 0.007669290429660274 0.014531980700786274 0 0.010525772877561299 0.014889546035549411 0 0.0089789409664936884 0.014771866957975379 0 0.0090657523418883196 0.013642943189730273 0 0.010525772877561299 0.014889546035549411 0 0.0086637288199634833 0.016130833034064075 0 0.0089789409664936884 0.014771866957975379 0 0.0086637288199634833 0.016130833034064075 0 0.0089789409664936884 0.014771866957975379 0 0.007669290429660274 0.014531980700786274 0 0.0089789409664936884 0.014771866957975379 0 0.007669290429660274 0.014531980700786274 0 0.0090657523418883196 0.013642943189730273 0 0.007669290429660274 0.014531980700786274 0 0.0074770768704590894 0.013029784240407145 0 0.0090657523418883196 0.013642943189730273 0 0.0074770768704590894 0.013029784240407145 0 0.0090657523418883196 0.013642943189730273 0 0.0084442367544027841 0.011564245310286797 0 0.011263704869340127 0.013409669187902557 0 0.0090657523418883196 0.013642943189730273 0 0.0084442367544027841 0.011564245310286797 0 0.0064410639218663588 0.016600999381746445 0 0.007669290429660274 0.014531980700786274 0 0.0057534885285544903 0.013772691781912681 0 0.0064410639218663588 0.016600999381746445 0 0.0045167995649065271 0.015185546013100518 0 0.0057534885285544903 0.013772691781912681 0 0.0045167995649065271 0.015185546013100518 0 0.0057534885285544903 0.013772691781912681 0 0.0041728190784054145 0.013249479010349638 0 0.007669290429660274 0.014531980700786274 0 0.0074770768704590894 0.013029784240407145 0 0.0057534885285544903 0.013772691781912681 0 0.0074770768704590894 0.013029784240407145 0 0.0057534885285544903 0.013772691781912681 0 0.0060941514216615381 0.012045448746818423 0 0.0057534885285544903 0.013772691781912681 0 0.0041728190784054145 0.013249479010349638 0 0.0060941514216615381 0.012045448746818423 0 0.0041728190784054145 0.013249479010349638 0 0.0022080222044944904 0.012841433070412444 0 0.0025525826634375708 0.014879886965235577 0 0.0045167995649065271 0.015185546013100518 0 0.0041728190784054145 0.013249479010349638 0 0.0025525826634375708 0.014879886965235577 0 0.0045167995649065271 0.015185546013100518 0 0.0025525826634375708 0.014879886965235577 0 0.0037294118574275137 0.016976026077487716 0 0.0025525826634375708 0.014879886965235577 0 0.0015990508054528618 0.01678950558587557 0 0.0037294118574275137 0.016976026077487716 0 0.0022870649741884128 0.018917408300718995 0 0.0015990508054528618 0.01678950558587557 0 0.0037294118574275137 0.016976026077487716 0 0.0017002896453283988 0.014687783536194968 0 0.0024189174223798867 0.011460867603808411 0 -0.0042806460188099128 0.014453800457340966 0 -0.00094486829292415191 0.018704570228118535 0 -0.0017413864582322735 0.0079221205707118575 0 -0.00094486829292415191 0.018704570228118535 0 0.0015990508054528618 0.01678950558587557 0 -0.00045792521104033471 0.014676904189101975 0 0.0025525826634375708 0.014879886965235577 0 0.0015990508054528618 0.01678950558587557 0 -0.00045792521104033471 0.014676904189101975 0 0.0022080222044944904 0.012841433070412444 0 0.0025525826634375708 0.014879886965235577 0 -0.00045792521104033471 0.014676904189101975 0 0.0022080222044944904 0.012841433070412444 0 -0.00045792521104033471 0.014676904189101975 0 0.0012923709405013764 0.011193969995141747 0 -0.00045792521104033471 0.014676904189101975 0 0.0012923709405013764 0.011193969995141747 0 -0.00063698569800351443 0.010298637129681194 0 0.0024189174223798867 0.011460867603808411 0 0.0056851751573822077 0.0090132022086372061 0 0.0012923709405013764 0.011193969995141747 0 0.001854759787754815 0.0089736614281975078 0 -0.00063698569800351443 0.010298637129681194 0 0.001854759787754815 0.0089736614281975078 0 -0.00063698569800351443 0.010298637129681194 0 -0.00091902890573988903 0.0059239613457719147 0 0.001854759787754815 0.0089736614281975078 0 0.0044302035411344929 0.0087086422474823479 0 0.0028967184603843287 0.0065206973497258765 0 0.001854759787754815 0.0089736614281975078 0 0.0044302035411344929 0.0087086422474823479 0 0.0039678788079582049 0.0107863029069788 0 0.0022080222044944904 0.012841433070412444 0 0.0012923709405013764 0.011193969995141747 0 0.0039678788079582049 0.0107863029069788 0 0.0012923709405013764 0.011193969995141747 0 0.001854759787754815 0.0089736614281975078 0 0.0039678788079582049 0.0107863029069788 0 0.0041728190784054145 0.013249479010349638 0 0.0022080222044944904 0.012841433070412444 0 0.0039678788079582049 0.0107863029069788 0 0.0041728190784054145 0.013249479010349638 0 0.0039678788079582049 0.0107863029069788 0 0.0060941514216615381 0.012045448746818423 0 0.0039678788079582049 0.0107863029069788 0 0.0060941514216615381 0.012045448746818423 0 0.0066351348999291408 0.010151200228185718 0 0.0060941514216615381 0.012045448746818423 0 0.0066351348999291408 0.010151200228185718 0 0.0084442367544027841 0.011564245310286797 0 0.011263704869340127 0.013409669187902557 0 0.0084442367544027841 0.011564245310286797 0 0.0087690772704078577 0.0097417823289412901 0 0.0074770768704590894 0.013029784240407145 0 0.0060941514216615381 0.012045448746818423 0 0.0084442367544027841 0.011564245310286797 0 0.0066351348999291408 0.010151200228185718 0 0.0084442367544027841 0.011564245310286797 0 0.0086839507395046183 0.0099197860819049289 0 0.028274505200617993 0.026700961224550481 0 0.028848300743899654 0.029030232104064427 0 0.031716870191762787 0.037572607930462222 0 0.031577868212021215 0.037376397108981128 0 0.031749483212076206 0.037401315250289661 0 0.028848300743899654 0.029030232104064427 0 0.03087760790040903 0.037272440713854112 0 0.0066351348999291408 0.010151200228185718 0 0.0086839507395046183 0.0099197860819049289 0 0.0068446009036151412 0.0071340429701772521 0 0.031417945840338503 0.03387812070407481 0 0.031338455426480283 0.034342050103261711 0 0.031110145896257466 0.034055214011699426 0 0.028848300743899654 0.029030232104064427 0 0.033832196082180632 0.040109843588112502 0 0.0044302035411344929 0.0087086422474823479 0 0.0066351348999291408 0.010151200228185718 0 0.0068446009036151412 0.0071340429701772521 0 0.0044302035411344929 0.0087086422474823479 0 0.0039678788079582049 0.0107863029069788 0 0.0066351348999291408 0.010151200228185718 0 0.0044302035411344929 0.0087086422474823479 0 0.0068446009036151412 0.0071340429701772521 0 0.0028967184603843287 0.0065206973497258765 0 0.042187018298618151 0.050514667267705482 0 0.044955710881422348 0.054798546073580229 0 0.046362849768955793 0.051301808269377303 0 0.03087760790040903 0.037272440713854112 0 0.023775504145163828 0.03189141629268484 0 0.03087760790040903 0.037272440713854112 0 0.042896284629801391 0.053703701548828101 0 0.045637249355562265 0.055291722434315044 0 0.044595468802078382 0.055101578797628947 0 0.045378761795189682 0.056450074455663538 0 0.033832196082180632 0.040109843588112502 0 0.037607993682512608 0.052364011913219113 0 0.044595468802078382 0.055101578797628947 0 0.045378761795189682 0.056450074455663538 0 0.044352016043825951 0.056792526356591821 0 0.03087760790040903 0.037272440713854112 0 0.033832196082180632 0.040109843588112502 0 0.045378761795189682 0.056450074455663538 0 0.044352016043825951 0.056792526356591821 0 0.045479790825279691 0.057837106814576496 0 0.045637249355562265 0.055291722434315044 0 0.045378761795189682 0.056450074455663538 0 0.046802227465706246 0.057200652410117341 0 0.045378761795189682 0.056450074455663538 0 0.046802227465706246 0.057200652410117341 0 0.045479790825279691 0.057837106814576496 0 0.044955710881422348 0.054798546073580229 0 0.04823495448315205 0.054542154119768184 0 0.046362849768955793 0.051301808269377303 0 0.04823495448315205 0.054542154119768184 0 0.050588357920407299 0.056609277725278233 0 0.050358336558024408 0.052084022986253406 0 0.023775504145163828 0.03189141629268484 0 0.015529968509018844 0.027899152530312794 0 0.001854759787754815 0.0089736614281975078 0 0.0028967184603843287 0.0065206973497258765 0 -0.00091902890573988903 0.0059239613457719147 0 0.04823495448315205 0.054542154119768184 0 0.046362849768955793 0.051301808269377303 0 0.050358336558024408 0.052084022986253406 0 0.03127384284965979 0.04007603596311065 0 0.029180609271906008 0.046810203882789177 0 0.03127384284965979 0.04007603596311065 0 0.035421199407700325 0.041979419918168767 0 0.020014315633557319 0.010278037945061314 0 0.016799656557141194 0.012525553742434043 0 0.021597762071391215 0.014777722141433865 0 0.020014315633557319 0.010278037945061314 0 0.016799656557141194 0.012525553742434043 0 0.016494910250069134 0.010303658514248606 0 0.016799656557141194 0.012525553742434043 0 0.016494910250069134 0.010303658514248606 0 0.01458298860292722 0.010794458845508653 0 0.020014315633557319 0.010278037945061314 0 0.016494910250069134 0.010303658514248606 0 0.018595232267957621 0.0059858777673191307 0 0.016494910250069134 0.010303658514248606 0 0.01511727369943376 0.0088107684816888989 0 0.018595232267957621 0.0059858777673191307 0 0.033000386331454926 0.038776597283260487 0 0.029463391124627768 0.027884766698832227 0 0.014538107868711157 0.0087210642151178026 0 0.01458298860292722 0.010794458845508653 0 0.012628955737666462 0.011846891060641592 0 0.01511727369943376 0.0088107684816888989 0 0.014538107868711157 0.0087210642151178026 0 0.015262906960576993 0.00979603659493989 0 0.032590989859589109 0.038581585849367522 0 0.033000386331454926 0.038776597283260487 0 0.014538107868711157 0.0087210642151178026 0 0.015262906960576993 0.00979603659493989 0 0.01458298860292722 0.010794458845508653 0 0.016494910250069134 0.010303658514248606 0 0.01511727369943376 0.0088107684816888989 0 0.015262906960576993 0.00979603659493989 0 0.016494910250069134 0.010303658514248606 0 0.015262906960576993 0.00979603659493989 0 0.01458298860292722 0.010794458845508653 0 0.016799656557141194 0.012525553742434043 0 0.01458298860292722 0.010794458845508653 0 0.014529714601693717 0.012749011157185013 0 0.012863324042490647 0.013952245338061319 0 0.014529714601693717 0.012749011157185013 0 0.012628955737666462 0.011846891060641592 0 0.01458298860292722 0.010794458845508653 0 0.014529714601693717 0.012749011157185013 0 0.012628955737666462 0.011846891060641592 0 0.031005004729342762 0.033211214874316358 0 0.030813505227857967 0.033581469481665384 0 0.031091266058048336 0.03376323399396728 0 0.031005004729342762 0.033211214874316358 0 0.031417945840338503 0.03387812070407481 0 0.031091266058048336 0.03376323399396728 0 0.028289338699524786 0.023900647427817504 0 0.028848300743899654 0.029030232104064427 0 0.028289338699524786 0.023900647427817504 0 0.029463391124627768 0.027884766698832227 0 0.031338455426480283 0.034342050103261711 0 0.030503397485453686 0.034203274099486945 0 0.031110145896257466 0.034055214011699426 0 0.031417945840338503 0.03387812070407481 0 0.031091266058048336 0.03376323399396728 0 0.031110145896257466 0.034055214011699426 0 0.030503397485453686 0.034203274099486945 0 0.031091266058048336 0.03376323399396728 0 0.031110145896257466 0.034055214011699426 0 0.033832196082180632 0.040109843588112502 0 0.033000386331454926 0.038776597283260487 0 0.030497592140741644 0.034218746173058055 0 0.030813505227857967 0.033581469481665384 0 0.031091266058048336 0.03376323399396728 0 0.033000386331454926 0.038776597283260487 0 0.032915689427509477 0.03758989510166403 0 0.044569658682953116 0.056908520237039809 0 0.044407947590186445 0.057972189214566199 0 0.043568291607455692 0.057632121353534418 0 0.044569658682953116 0.056908520237039809 0 0.043250445861023862 0.056685773420801749 0 0.043568291607455692 0.057632121353534418 0 0.044407947590186445 0.057972189214566199 0 0.043520891534926602 0.058425263718324898 0 0.043568291607455692 0.057632121353534418 0 0.043520891534926602 0.058425263718324898 0 0.04303412112135948 0.05818697237539161 0 0.043568291607455692 0.057632121353534418 0 0.04303412112135948 0.05818697237539161 0 0.043568291607455692 0.057632121353534418 0 0.042809074229481256 0.057592604796407418 0 0.033000386331454926 0.038776597283260487 0 0.034700850559000386 0.050794975462185768 0 0.043250445861023862 0.056685773420801749 0 0.043568291607455692 0.057632121353534418 0 0.042809074229481256 0.057592604796407418 0 0.033000386331454926 0.038776597283260487 0 0.029180609271906008 0.046810203882789177 0 0.040603333796499219 0.062339959210470391 0 0.041162448850241215 0.061461600391524034 0 0.041996122984103573 0.061533107940079226 0 0.01511727369943376 0.0088107684816888989 0 0.014543965366491992 0.0087264566978267327 0 0.018595232267957621 0.0059858777673191307 0 0.041162448850241215 0.061461600391524034 0 0.041944160771258142 0.061312318788549633 0 0.041996122984103573 0.061533107940079226 0 0.04303412112135948 0.05818697237539161 0 0.042809074229481256 0.057592604796407418 0 0.042444193555454417 0.058535853073540492 0 0.041162448850241215 0.061461600391524034 0 0.041743152072609153 0.060352676218221164 0 0.041944160771258142 0.061312318788549633 0 0.034700850559000386 0.050794975462185768 0 0.036519522384829715 0.054826615603972145 0 0.029180609271906008 0.046810203882789177 0 0.034309403409612818 0.04984474086131583 0 0.042548816240224094 0.060717174209481715 0 0.042007621627421839 0.061633097554933888 0 0.044083153970778707 0.060584890137512941 0 0.041944160771258142 0.061312318788549633 0 0.042548816240224094 0.060717174209481715 0 0.042007621627421839 0.061633097554933888 0 0.041743152072609153 0.060352676218221164 0 0.041944160771258142 0.061312318788549633 0 0.042548816240224094 0.060717174209481715 0 0.042949716000483439 0.06552439386528025 0 0.041709453977087606 0.062550353866140496 0 0.044085024465201017 0.06321880413882372 0 0.029398070204954142 0.047304431563702024 0 0.029180609271906008 0.046810203882789177 0 0.042421594744580626 0.05918150199113624 0 0.04215134306152412 0.059958931477285107 0 0.04279060024214347 0.058948321329828003 0 0.042421594744580626 0.05918150199113624 0 0.042993132021673014 0.059120437085086061 0 0.04279060024214347 0.058948321329828003 0 0.042421594744580626 0.05918150199113624 0 0.042993132021673014 0.059120437085086061 0 0.043021646417043653 0.059743985944649386 0 0.041743152072609153 0.060352676218221164 0 0.042548816240224094 0.060717174209481715 0 0.043021646417043653 0.059743985944649386 0 0.036519522384829715 0.054826615603972145 0 0.037218490700743595 0.055763838611346511 0 0.042548816240224094 0.060717174209481715 0 0.043021646417043653 0.059743985944649386 0 0.044083153970778707 0.060584890137512941 0 0.041743152072609153 0.060352676218221164 0 0.042421594744580626 0.05918150199113624 0 0.043021646417043653 0.059743985944649386 0 0.042444193555454417 0.058535853073540492 0 0.042421594744580626 0.05918150199113624 0 0.042603032256465168 0.05906532930841886 0 0.04303412112135948 0.05818697237539161 0 0.042444193555454417 0.058535853073540492 0 0.04300775718014186 0.058779883015125475 0 0.042444193555454417 0.058535853073540492 0 0.042603032256465168 0.05906532930841886 0 0.04300775718014186 0.058779883015125475 0 0.042603032256465168 0.05906532930841886 0 0.042960213418818428 0.059403890193144945 0 0.04300775718014186 0.058779883015125475 0 0.042421594744580626 0.05918150199113624 0 0.042516267183372619 0.059467720783400971 0 0.04215134306152412 0.059958931477285107 0 0.042603032256465168 0.05906532930841886 0 0.042516267183372619 0.059467720783400971 0 0.042960213418818428 0.059403890193144945 0 0.042421594744580626 0.05918150199113624 0 0.042603032256465168 0.05906532930841886 0 0.042516267183372619 0.059467720783400971 0 0.042516267183372619 0.059467720783400971 0 0.042960213418818428 0.059403890193144945 0 0.042621372938653673 0.059984518476346955 0 0.043591803663429241 0.059619969839191982 0 0.042960213418818428 0.059403890193144945 0 0.043198005413571744 0.060281860320865258 0 0.042960213418818428 0.059403890193144945 0 0.043198005413571744 0.060281860320865258 0 0.042621372938653673 0.059984518476346955 0 0.043591803663429241 0.059619969839191982 0 0.042960213418818428 0.059403890193144945 0 0.043536642198802863 0.059039650820169813 0 0.042960213418818428 0.059403890193144945 0 0.04300775718014186 0.058779883015125475 0 0.043536642198802863 0.059039650820169813 0 0.043520891534926602 0.058425263718324898 0 0.04303412112135948 0.05818697237539161 0 0.04300775718014186 0.058779883015125475 0 0.043520891534926602 0.058425263718324898 0 0.04300775718014186 0.058779883015125475 0 0.043536642198802863 0.059039650820169813 0 0.043520891534926602 0.058425263718324898 0 0.043536642198802863 0.059039650820169813 0 0.044254939826549967 0.059010869355366126 0 0.037607993682512608 0.052364011913219113 0 0.039687600036200088 0.056592277351939071 0 0.044407947590186445 0.057972189214566199 0 0.043520891534926602 0.058425263718324898 0 0.044254939826549967 0.059010869355366126 0 0.043591803663429241 0.059619969839191982 0 0.044254939826549967 0.059010869355366126 0 0.044092197664618651 0.060161827790271821 0 0.039687600036200088 0.056592277351939071 0 0.040305800441674762 0.057845070000305643 0 0.043591803663429241 0.059619969839191982 0 0.043536642198802863 0.059039650820169813 0 0.044254939826549967 0.059010869355366126 0 0.044092197664618651 0.060161827790271821 0 0.044300107595043312 0.061519287842464403 0 0.04365373424617499 0.060922423042933278 0 0.044092197664618651 0.060161827790271821 0 0.044300107595043312 0.061519287842464403 0 0.045081387843380311 0.060809749183769066 0 0.044562690855037439 0.062173020976459423 0 0.043646089028136145 0.062102040361276943 0 0.044751861929940628 0.062762207584539889 0 0.042876243166702778 0.061829473205593413 0 0.044207657423895944 0.063547175670769382 0 0.044300107595043312 0.061519287842464403 0 0.042876243166702778 0.061829473205593413 0 0.04365373424617499 0.060922423042933278 0 0.042876243166702778 0.061829473205593413 0 0.042943192226861528 0.063229135558673683 0 0.044207657423895944 0.063547175670769382 0 0.042876243166702778 0.061829473205593413 0 0.043198005413571744 0.060281860320865258 0 0.042651547152139077 0.060740941454005347 0 0.043591803663429241 0.059619969839191982 0 0.044092197664618651 0.060161827790271821 0 0.043198005413571744 0.060281860320865258 0 0.044092197664618651 0.060161827790271821 0 0.04365373424617499 0.060922423042933278 0 0.043198005413571744 0.060281860320865258 0 0.042876243166702778 0.061829473205593413 0 0.04365373424617499 0.060922423042933278 0 0.043198005413571744 0.060281860320865258 0 0.043198005413571744 0.060281860320865258 0 0.042621372938653673 0.059984518476346955 0 0.042651547152139077 0.060740941454005347 0 0.042621372938653673 0.059984518476346955 0 0.04215134306152412 0.059958931477285107 0 0.042211999134937506 0.060609211840576722 0 0.042516267183372619 0.059467720783400971 0 0.042621372938653673 0.059984518476346955 0 0.04215134306152412 0.059958931477285107 0 0.042211999134937506 0.060609211840576722 0 0.041782357867353154 0.060979347604045643 0 0.042496710023644496 0.061450267432054624 0 0.042211999134937506 0.060609211840576722 0 0.041782357867353154 0.060979347604045643 0 0.041592077326760866 0.060112114861387525 0 0.04215134306152412 0.059958931477285107 0 0.042211999134937506 0.060609211840576722 0 0.041592077326760866 0.060112114861387525 0 0.042211999134937506 0.060609211840576722 0 0.042651547152139077 0.060740941454005347 0 0.042496710023644496 0.061450267432054624 0 0.042621372938653673 0.059984518476346955 0 0.042211999134937506 0.060609211840576722 0 0.042651547152139077 0.060740941454005347 0 0.042876243166702778 0.061829473205593413 0 0.042651547152139077 0.060740941454005347 0 0.042496710023644496 0.061450267432054624 0 0.042876243166702778 0.061829473205593413 0 0.042496710023644496 0.061450267432054624 0 0.042943192226861528 0.063229135558673683 0 0.045772401414277526 0.061213438306650027 0 0.045500521525320525 0.062328509029708747 0 0.0455355060837139 0.063174578006452126 0 0.041782357867353154 0.060979347604045643 0 0.042496710023644496 0.061450267432054624 0 0.042943192226861528 0.063229135558673683 0 0.04381294217888345 0.061144361659223705 0 0.044246918082105083 0.062468067501203622 0 0.045500521525320525 0.062328509029708747 0 0.045648840483747843 0.061510838208285207 0 0.045518511108942089 0.062008794088290291 0 0.045772401414277526 0.061213438306650027 0 0.045500521525320525 0.062328509029708747 0 0.045648840483747843 0.061510838208285207 0 0.045772401414277526 0.061213438306650027 0 0.045705873851634854 0.061283252118389774 0 0.045728658100889982 0.061205835177335258 0 0.045705873851634854 0.061283252118389774 0 0.045716182020459011 0.061167966034735954 0 0.045728658100889982 0.061205835177335258 0 0.045716182020459011 0.061167966034735954 0 0.045648840483747843 0.061510838208285207 0 0.045559381280585079 0.061628013330924991 0 0.045705873851634854 0.061283252118389774 0 0.045716182020459011 0.061167966034735954 0 0.045648840483747843 0.061510838208285207 0 0.045772401414277526 0.061213438306650027 0 0.045705873851634854 0.061283252118389774 0 0.045648840483747843 0.061510838208285207 0 0.045559381280585079 0.061628013330924991 0 0.045518511108942089 0.062008794088290291 0 0.045376031960954466 0.062448645388130601 0 0.045648840483747843 0.061510838208285207 0 0.045559381280585079 0.061628013330924991 0 0.045518511108942089 0.062008794088290291 0 0.045559381280585079 0.061628013330924991 0 0.045729050562602916 0.060984436946205124 0 0.045475922796921933 0.061673948060773025 0 0.045716182020459011 0.061167966034735954 0 0.045559381280585079 0.061628013330924991 0 0.045729050562602916 0.060984436946205124 0 0.045716182020459011 0.061167966034735954 0 0.045925945037459906 0.060557769504529908 0 0.045729050562602916 0.060984436946205124 0 0.045728658100889982 0.061205835177335258 0 0.045380115463394884 0.060912088350631236 0 0.045505103599545974 0.060881519586592991 0 0.045772401414277526 0.061213438306650027 0 0.045728658100889982 0.061205835177335258 0 0.045505103599545974 0.060881519586592991 0 0.04381294217888345 0.061144361659223705 0 0.043654725673435556 0.059996615461002309 0 0.043005992409404017 0.05974945708027659 0 0.043654725673435556 0.059996615461002309 0 0.041782357867353154 0.060979347604045643 0 0.041592077326760866 0.060112114861387525 0 0.040123683358684749 0.058928417814763379 0 0.045728658100889982 0.061205835177335258 0 0.046199187563574759 0.060085272811605861 0 0.045925945037459906 0.060557769504529908 0 0.045716182020459011 0.061167966034735954 0 0.045728658100889982 0.061205835177335258 0 0.045925945037459906 0.060557769504529908 0 0.045784870461194532 0.060482654908394086 0 0.045871277056847043 0.060343281684525206 0 0.04215134306152412 0.059958931477285107 0 0.041592077326760866 0.060112114861387525 0 0.040123683358684749 0.058928417814763379 0 0.04792376438906127 0.058798252643247742 0 0.046606568081085854 0.0586752849128621 0 0.046966703753797939 0.060788369947255935 0 0.04792376438906127 0.058798252643247742 0 0.048861167904244253 0.060953915207260602 0 0.050525379938912561 0.060168152216651928 0 0.04792376438906127 0.058798252643247742 0 0.050525379938912561 0.060168152216651928 0 0.050588357920407299 0.056609277725278233 0 0.04823495448315205 0.054542154119768184 0 0.04792376438906127 0.058798252643247742 0 0.050588357920407299 0.056609277725278233 0 0.042896284629801391 0.053703701548828101 0 0.045393725885826866 0.056921082963550897 0 0.044955710881422348 0.054798546073580229 0 0.04823495448315205 0.054542154119768184 0 0.04792376438906127 0.058798252643247742 0 0.046802227465706246 0.057200652410117341 0 0.04792376438906127 0.058798252643247742 0 0.046606568081085854 0.0586752849128621 0 0.046802227465706246 0.057200652410117341 0 0.045479790825279691 0.057837106814576496 0 0.046606568081085854 0.0586752849128621 0 0.045479790825279691 0.057837106814576496 0 0.045617277231461695 0.05952323647266871 0 0.046606568081085854 0.0586752849128621 0 0.0441615040692456 0.058493801914884881 0 0.045479790825279691 0.057837106814576496 0 0.045617277231461695 0.05952323647266871 0 0.044352016043825951 0.056792526356591821 0 0.0441615040692456 0.058493801914884881 0 0.045479790825279691 0.057837106814576496 0 0.0441615040692456 0.058493801914884881 0 0.044092197664618651 0.060161827790271821 0 0.045617277231461695 0.05952323647266871 0 0.045617277231461695 0.05952323647266871 0 0.046606568081085854 0.0586752849128621 0 0.046966703753797939 0.060788369947255935 0 0.045081387843380311 0.060809749183769066 0 0.045923364362297769 0.061838580172259662 0 0.046966703753797939 0.060788369947255935 0 0.045617277231461695 0.05952323647266871 0 0.045081387843380311 0.060809749183769066 0 0.046966703753797939 0.060788369947255935 0 0.044092197664618651 0.060161827790271821 0 0.045617277231461695 0.05952323647266871 0 0.045081387843380311 0.060809749183769066 0 0.044562690855037439 0.062173020976459423 0 0.046137440842617151 0.062285721540582532 0 0.044751861929940628 0.062762207584539889 0 0.046175410693184676 0.062911151826696751 0 0.045185095337405987 0.064195233713547989 0 0.044300107595043312 0.061519287842464403 0 0.045081387843380311 0.060809749183769066 0 0.045923364362297769 0.061838580172259662 0 0.046137440842617151 0.062285721540582532 0 0.047148582253123822 0.062342138163214593 0 0.046175410693184676 0.062911151826696751 0 0.048167946929399977 0.062500962927021231 0 0.047107878430744279 0.063745623250144628 0 0.046966703753797939 0.060788369947255935 0 0.048640217035739321 0.061806106332022388 0 0.048167946929399977 0.062500962927021231 0 0.045923364362297769 0.061838580172259662 0 0.046966703753797939 0.060788369947255935 0 0.048167946929399977 0.062500962927021231 0 0.04792376438906127 0.058798252643247742 0 0.046966703753797939 0.060788369947255935 0 0.048861167904244253 0.060953915207260602 0 0.048861167904244253 0.060953915207260602 0 0.049178375665900186 0.062619209659433614 0 0.050525379938912561 0.060168152216651928 0 0.046966703753797939 0.060788369947255935 0 0.048861167904244253 0.060953915207260602 0 0.048640217035739321 0.061806106332022388 0 0.048861167904244253 0.060953915207260602 0 0.048640217035739321 0.061806106332022388 0 0.049178375665900186 0.062619209659433614 0 0.048640217035739321 0.061806106332022388 0 0.048167946929399977 0.062500962927021231 0 0.049178375665900186 0.062619209659433614 0 0.024877785675930325 0.058031496618623779 0 0.023586842385410749 0.056106688913496482 0 0.023896519600607381 0.059947717880334088 0 0.048643445801844529 0.063255730611313649 0 0.049441655837667263 0.062803169714529469 0 0.049551040907165736 0.06399133292914097 0 0.032650079717164007 0.057732927859892813 0 0.034085309757390013 0.060711966028647653 0 0.023586842385410749 0.056106688913496482 0 0.025167548261122798 0.056733499582514377 0 0.025734097713829066 0.055598802274000596 0 0.024877785675930325 0.058031496618623779 0 0.023586842385410749 0.056106688913496482 0 0.025167548261122798 0.056733499582514377 0 0.021089443377525923 0.060161917515291416 0 0.021699709966780008 0.058606685602562679 0 0.022579276194589184 0.060806433048132422 0 0.018055585193438452 0.052905809539390794 0 0.019445643025355751 0.062670387245227971 0 0.021089443377525923 0.060161917515291416 0 0.022579276194589184 0.060806433048132422 0 0.021916433622571268 0.061631899365896324 0 0.024364284431896872 0.059462910701377249 0 0.025483209294046599 0.064627667851662823 0 0.024877785675930325 0.058031496618623779 0 0.026529861416787807 0.056996159768539834 0 0.025245209236105026 0.060247763386928346 0 0.024364284431896872 0.059462910701377249 0 0.031452996216857106 0.062005994270917117 0 0.024877785675930325 0.058031496618623779 0 0.025167548261122798 0.056733499582514377 0 0.026529861416787807 0.056996159768539834 0 0.025734097713829066 0.055598802274000596 0 0.026503411232005388 0.056978556477955182 0 0.02767961893851105 0.054022700594967971 0 0.025167548261122798 0.056733499582514377 0 0.025734097713829066 0.055598802274000596 0 0.026529861416787807 0.056996159768539834 0 0.02433578869342844 0.059279860991335552 0 0.024364284431896872 0.059462910701377249 0 0.024364284431896872 0.059462910701377249 0 0.018055585193438452 0.052905809539390794 0 0.025734097713829066 0.055598802274000596 0 0.02767961893851105 0.054022700594967971 0 0.025107516237791588 0.053192574213273024 0 0.032650079717164007 0.057732927859892813 0 0.030078198894944279 0.052447468809389219 0 0.023586842385410749 0.056106688913496482 0 0.02327860284329699 0.052288525086036333 0 0.025107516237791588 0.053192574213273024 0 0.048643445801844529 0.063255730611313649 0 0.049441655837667263 0.062803169714529469 0 0.049287577633676277 0.061590475467820906 0 0.038447944336113024 0.057899376270159751 0 0.030078198894944279 0.052447468809389219 0 0.023586842385410749 0.056106688913496482 0 0.025734097713829066 0.055598802274000596 0 0.025107516237791588 0.053192574213273024 0 0.023055506754485464 0.050106167050646161 0 0.026293128810799839 0.043042326524078335 0 0.022302234439988532 0.040686718583784136 0 0.030078198894944279 0.052447468809389219 0 0.017935343523132502 0.040869116811265184 0 0.030078198894944279 0.052447468809389219 0 0.026342345069427099 0.045959364134656767 0 0.02327860284329699 0.052288525086036333 0 0.025107516237791588 0.053192574213273024 0 0.025256462279235291 0.047944368782097867 0 0.02767961893851105 0.054022700594967971 0 0.025107516237791588 0.053192574213273024 0 0.025256462279235291 0.047944368782097867 0 0.0081311479660450634 0.044694319874927904 0 0.0058963724321324492 0.039109617124139552 0 0.010208982310992258 0.039360678917316816 0 0.018055585193438452 0.052905809539390794 0 0.017935343523132502 0.040869116811265184 0 0.012901725177480219 0.030948840551170517 0 0.011969938394279456 0.028588098940862065 0 0.013846850155973098 0.028853009982558513 0 0.0058963724321324492 0.039109617124139552 0 0.010208982310992258 0.039360678917316816 0 0.007194305218688718 0.036250497793565463 0 0.017935343523132502 0.040869116811265184 0 0.010127506880847851 0.03170349486575353 0 0.026293128810799839 0.043042326524078335 0 0.022302234439988532 0.040686718583784136 0 0.024016694805527601 0.037306161677160991 0 0.017935343523132502 0.040869116811265184 0 0.016819123914514247 0.034146737659884518 0 0.0069644057481451074 0.048574840288422003 0 0.0065449310448275492 0.048816988514526358 0 0.006934011206529915 0.04944206501595684 0 0.0069644057481451074 0.048574840288422003 0 0.006934011206529915 0.04944206501595684 0 0.0073146150754579819 0.048862139845639044 0 0.0069644057481451074 0.048574840288422003 0 0.0065449310448275492 0.048816988514526358 0 0.0067767640206111866 0.048135506896636419 0 0.0082146209002056363 0.043309851856796783 0 -0.00076843245998925165 0.030700991250253003 0 0.010208982310992258 0.039360678917316816 0 0.007194305218688718 0.036250497793565463 0 0.01044179892208111 0.034951859016980842 0 0.0063106864584640456 0.049523091558117037 0 0.0065449310448275492 0.048816988514526358 0 0.006934011206529915 0.04944206501595684 0 0.018055585193438452 0.052905809539390794 0 0.0082146209002056363 0.043309851856796783 0 0.0096808824834710306 0.057914535462561249 0 0.0035615719422142627 0.052592673191784331 0 0.0063106864584640456 0.049523091558117037 0 0.006934011206529915 0.04944206501595684 0 0.0065281906779194468 0.050044086964959565 0 0.0096808824834710306 0.057914535462561249 0 0.019445643025355751 0.062670387245227971 0 0.0062052590080046615 0.062942228737736736 0 0.0054756183749310365 0.063921316915530144 0 0.0062676161551407502 0.063982916931113062 0 0.0062052590080046615 0.062942228737736736 0 0.0062676161551407502 0.063982916931113062 0 0.0070809213596732968 0.063875652090031418 0 0.0075370138084522214 0.072635997220359808 0 0.0038174735746568308 0.069277576914518885 0 0.0030715887453454439 0.079779079634015787 0 0.0036615668696873124 0.079951849100469957 0 0.0034633557318547972 0.0785837056513988 0 0.0054559960602370223 0.080959537757316333 0 0.0052914408462033458 0.080119578611058048 0 0.0036615668696873124 0.079951849100469957 0 0.0034633557318547972 0.0785837056513988 0 0.0045968039640265921 0.078980854997597508 0 0.0034633557318547972 0.0785837056513988 0 0.0045968039640265921 0.078980854997597508 0 0.0042428598368284519 0.078046717526355974 0 0.0062052590080046615 0.062942228737736736 0 0.0070809213596732968 0.063875652090031418 0 0.0074217898111061465 0.062930805468748144 0 0.0064591027061904312 0.081613410674291981 0 0.0073220981731439818 0.083874347774470989 0 0.0094948376124900109 0.082884104031958006 0 0.0064591027061904312 0.081613410674291981 0 0.0054263493458956936 0.084046978841760489 0 0.0073220981731439818 0.083874347774470989 0 0.0017791904855504401 0.083295449459543688 0 0.0039525854275486343 0.083130345903916672 0 0.0040357766282265598 0.080532803892115368 0 0.0064591027061904312 0.081613410674291981 0 0.0039525854275486343 0.083130345903916672 0 0.0054263493458956936 0.084046978841760489 0 0.0064591027061904312 0.081613410674291981 0 0.0039525854275486343 0.083130345903916672 0 0.0040357766282265598 0.080532803892115368 0 0.0045968039640265921 0.078980854997597508 0 0.0049173982315711736 0.077528725655625935 0 0.0042428598368284519 0.078046717526355974 0 0.0052914408462033458 0.080119578611058048 0 0.0058354178257630247 0.0792135824521948 0 0.0040357766282265598 0.080532803892115368 0 0.0067256650854809847 0.079710332821739519 0 0.0064115782298163927 0.077644436445189854 0 0.0064591027061904312 0.081613410674291981 0 0.0067256650854809847 0.079710332821739519 0 0.0087731854647546872 0.080466513908577952 0 0.0064591027061904312 0.081613410674291981 0 0.0040357766282265598 0.080532803892115368 0 0.0067256650854809847 0.079710332821739519 0 0.0064115782298163927 0.077644436445189854 0 0.0049173982315711736 0.077528725655625935 0 0.0085137587514513974 0.076996202083477808 0 0.0049173982315711736 0.077528725655625935 0 0.0052879889425582445 0.076899779540785557 0 0.0058383715549386074 0.077007624800899635 0 0.0046101065898926027 0.072796806368569389 0 0.0042920534620286988 0.071104310906283788 0 0.0067256650854809847 0.079710332821739519 0 0.0064115782298163927 0.077644436445189854 0 0.0082576470407980333 0.078761206567682512 0 0.0045968039640265921 0.078980854997597508 0 0.0064115782298163927 0.077644436445189854 0 0.0049173982315711736 0.077528725655625935 0 0.0049173982315711736 0.077528725655625935 0 0.0047235251179149774 0.076905424640504677 0 0.0052879889425582445 0.076899779540785557 0 0.0049173982315711736 0.077528725655625935 0 0.0042428598368284519 0.078046717526355974 0 0.0040449213303518881 0.077126961720002676 0 0.0049173982315711736 0.077528725655625935 0 0.0047235251179149774 0.076905424640504677 0 0.0040449213303518881 0.077126961720002676 0 0.0047235251179149774 0.076905424640504677 0 0.0040449213303518881 0.077126961720002676 0 0.0045764231200944036 0.076133661553635684 0 0.0047235251179149774 0.076905424640504677 0 0.0052879889425582445 0.076899779540785557 0 0.0045764231200944036 0.076133661553635684 0 0.0052879889425582445 0.076899779540785557 0 0.0058383715549386074 0.077007624800899635 0 0.0057139145245121608 0.076481488388987065 0 0.0052879889425582445 0.076899779540785557 0 0.0045764231200944036 0.076133661553635684 0 0.0057139145245121608 0.076481488388987065 0 0.0062052590080046615 0.062942228737736736 0 0.0074217898111061465 0.062930805468748144 0 0.0069297143564346917 0.061944048172827802 0 0.0038174735746568308 0.069277576914518885 0 -0.00012483345325222384 0.064077215601071047 0 0.0034633557318547972 0.0785837056513988 0 0.0042428598368284519 0.078046717526355974 0 0.0040449213303518881 0.077126961720002676 0 0.0074217898111061465 0.062930805468748144 0 0.0069297143564346917 0.061944048172827802 0 0.0077553272287215784 0.061973135358325999 0 0.0077553272287215784 0.061973135358325999 0 0.007654563412143967 0.060947055863660282 0 0.0080911265139940475 0.06102098988050806 0 0.0069297143564346917 0.061944048172827802 0 0.0077553272287215784 0.061973135358325999 0 0.007654563412143967 0.060947055863660282 0 0.0035615719422142627 0.052592673191784331 0 -0.0052069979400685973 0.045449828691178716 0 -0.00012483345325222384 0.064077215601071047 0 -0.0047524545670500707 0.051722023027662233 0 0.0073146150754579819 0.048862139845639044 0 0.0072425463055578246 0.048239894127660589 0 0.0076817491138138913 0.048324461072624156 0 0.0069644057481451074 0.048574840288422003 0 0.0073146150754579819 0.048862139845639044 0 0.0072425463055578246 0.048239894127660589 0 -0.0037358478032383825 0.037596785622149152 0 -0.0052069979400685973 0.045449828691178716 0 -0.016015924351558929 0.022614040438292196 0 -0.016528211627423909 0.022589381376463543 0 -0.016567504821374347 0.022954975948063446 0 -0.0052069979400685973 0.045449828691178716 0 -0.0047524545670500707 0.051722023027662233 0 -0.016528211627423909 0.022589381376463543 0 -0.016567504821374347 0.022954975948063446 0 -0.01679010895278606 0.022976791543602031 0 -0.016015924351558929 0.022614040438292196 0 -0.016567504821374347 0.022954975948063446 0 -0.016118753457181757 0.02307368057691318 0 -0.016015924351558929 0.022614040438292196 0 -0.016118753457181757 0.02307368057691318 0 -0.015777249249004182 0.022910361994683989 0 -0.016118753457181757 0.02307368057691318 0 -0.015753305760835973 0.023308394426072833 0 -0.015777249249004182 0.022910361994683989 0 -0.020529540421914235 0.040426354494188306 0 -0.020955454472513936 0.040329865112309196 0 -0.020969863723974413 0.039970428031978936 0 -0.0047524545670500707 0.051722023027662233 0 -0.0069028890241173285 0.057281351825143954 0 -0.020025252775466771 0.04007197166424048 0 -0.020529540421914235 0.040426354494188306 0 -0.020969863723974413 0.039970428031978936 0 -0.019663401246950912 0.04012681283810917 0 -0.020169239937110908 0.040384680251664466 0 -0.020245563151525002 0.04070578826036924 0 -0.0052069979400685973 0.045449828691178716 0 -0.015699572491474294 0.035442480608988913 0 -0.020169239937110908 0.040384680251664466 0 -0.020025252775466771 0.04007197166424048 0 -0.020529540421914235 0.040426354494188306 0 -0.0052899570930009529 0.050562636305286346 0 -0.0047524545670500707 0.051722023027662233 0 -0.019663401246950912 0.04012681283810917 0 -0.020169239937110908 0.040384680251664466 0 -0.020000347472937115 0.040061930457428195 0 -0.016567504821374347 0.022954975948063446 0 -0.01679010895278606 0.022976791543602031 0 -0.0166924188535418 0.023041730192214834 0 -0.020169239937110908 0.040384680251664466 0 -0.020245563151525002 0.04070578826036924 0 -0.020529540421914235 0.040426354494188306 0 -0.020245563151525002 0.04070578826036924 0 -0.020529540421914235 0.040426354494188306 0 -0.020572762429722155 0.040780862125300202 0 -0.020529540421914235 0.040426354494188306 0 -0.020572762429722155 0.040780862125300202 0 -0.020839306782020509 0.040656206285226551 0 -0.020572762429722155 0.040780862125300202 0 -0.020839306782020509 0.040656206285226551 0 -0.020790983151444547 0.040884569138867781 0 -0.020529540421914235 0.040426354494188306 0 -0.020839306782020509 0.040656206285226551 0 -0.020955454472513936 0.040329865112309196 0 -0.015699572491474294 0.035442480608988913 0 -0.026393477262359032 0.029741599256221822 0 -0.020572762429722155 0.040780862125300202 0 -0.020751220995018214 0.041229495592926213 0 -0.020790983151444547 0.040884569138867781 0 -0.020751220995018214 0.041229495592926213 0 -0.020790983151444547 0.040884569138867781 0 -0.021054542677079173 0.040758016975111319 0 -0.020245563151525002 0.04070578826036924 0 -0.020572762429722155 0.040780862125300202 0 -0.020751220995018214 0.041229495592926213 0 -0.01679010895278606 0.022976791543602031 0 -0.016875711730180681 0.023085928498809343 0 -0.016766283956879884 0.023065985984158162 0 -0.01679010895278606 0.022976791543602031 0 -0.016766283956879884 0.023065985984158162 0 -0.0166924188535418 0.023041730192214834 0 -0.016766283956879884 0.023065985984158162 0 -0.0166924188535418 0.023041730192214834 0 -0.016701312141024729 0.023063640225651567 0 -0.016766283956879884 0.023065985984158162 0 -0.016744983506438604 0.023131947521041796 0 -0.016701312141024729 0.023063640225651567 0 -0.016875711730180681 0.023085928498809343 0 -0.016766283956879884 0.023065985984158162 0 -0.016744983506438604 0.023131947521041796 0 -0.041210202811989199 0.019690742795449943 0 -0.04402863490427128 0.017776307488606126 0 -0.042433666132245002 0.018482787447222312 0 -0.026393477262359032 0.029741599256221822 0 -0.028317935223247208 0.016891838240045965 0 -0.041509460598015552 0.016863824577380847 0 -0.04402863490427128 0.017776307488606126 0 -0.042433666132245002 0.018482787447222312 0 -0.028317935223247208 0.016891838240045965 0 -0.027804393403559814 0.017267043755349647 0 -0.041509460598015552 0.016863824577380847 0 -0.042433666132245002 0.018482787447222312 0 -0.040831229922402776 0.019053781937168623 0 -0.033085157530164139 0.02738117215230423 0 -0.029083077524735216 0.029320886030072182 0 -0.041210202811989199 0.019690742795449943 0 -0.042433666132245002 0.018482787447222312 0 -0.040723331303657212 0.019106813934284515 0 -0.026393477262359032 0.029741599256221822 0 -0.029083077524735216 0.029320886030072182 0 -0.016118753457181757 0.02307368057691318 0 -0.016346259706440682 0.023429446823004706 0 -0.015753305760835973 0.023308394426072833 0 -0.016346259706440682 0.023429446823004706 0 -0.016166083392233438 0.023856670546173249 0 -0.015753305760835973 0.023308394426072833 0 -0.016567504821374347 0.022954975948063446 0 -0.0166924188535418 0.023041730192214834 0 -0.016687852951622079 0.023057949371272243 0 -0.016567504821374347 0.022954975948063446 0 -0.016118753457181757 0.02307368057691318 0 -0.016346259706440682 0.023429446823004706 0 -0.017533155068318484 0.021327743454624844 0 -0.018160366171922918 0.019919379622155339 0 -0.0166924188535418 0.023041730192214834 0 -0.016687852951622079 0.023057949371272243 0 -0.016701312141024729 0.023063640225651567 0 -0.016687852951622079 0.023057949371272243 0 -0.016725382858635139 0.023013257206791475 0 -0.016780803091103774 0.022985939776444714 0 -0.016687852951622079 0.023057949371272243 0 -0.016701312141024729 0.023063640225651567 0 -0.016725382858635139 0.023013257206791475 0 -0.016672568711772837 0.022990265546943413 0 -0.016701312141024729 0.023063640225651567 0 -0.016725382858635139 0.023013257206791475 0 -0.024441366497849573 0.0023459845168358837 0 -0.021319141605056574 0.0012886729436618288 0 -0.020530037474186261 -0.0030151753973851709 0 -0.018160366171922918 0.019919379622155339 0 -0.021109011847498679 0.013116603379995203 0 -0.021109011847498679 0.013116603379995203 0 -0.012330236552201499 0.015672214383254352 0 -0.021576376473753371 0.003768257043953407 0 -0.024441366497849573 0.0023459845168358837 0 -0.021319141605056574 0.0012886729436618288 0 -0.021319141605056574 0.0012886729436618288 0 -0.018713730656842356 0.0022190942535152288 0 -0.020530037474186261 -0.0030151753973851709 0 -0.021576376473753371 0.003768257043953407 0 -0.021319141605056574 0.0012886729436618288 0 -0.018713730656842356 0.0022190942535152288 0 -0.018713730656842356 0.0022190942535152288 0 -0.020530037474186261 -0.0030151753973851709 0 -0.016540883428935286 -0.0027043870632514544 0 -0.012367872641138028 0.004589160469455354 0 -0.018713730656842356 0.0022190942535152288 0 -0.014013902186839183 0.00012544074709378453 0 -0.015385181774077267 -0.0048401519931945821 0 -0.014013902186839183 0.00012544074709378453 0 -0.0096375879197990195 -0.0015224929576624577 0 -0.0064717081282030285 0.0053381904201724078 0 -0.0033745150889880923 0.006546129696289424 0 -0.018713730656842356 0.0022190942535152288 0 -0.015385181774077267 -0.0048401519931945821 0 -0.014013902186839183 0.00012544074709378453 0 -0.005411285106319364 0.0035652613263236215 0 -0.012367872641138028 0.004589160469455354 0 -0.0096375879197990195 -0.0015224929576624577 0 -0.012367872641138028 0.004589160469455354 0 -0.014013902186839183 0.00012544074709378453 0 -0.0096375879197990195 -0.0015224929576624577 0 -0.005411285106319364 0.0035652613263236215 0 -0.0096375879197990195 -0.0015224929576624577 0 -0.0030302574914135502 -0.0019029538678834077 0 -0.0030302574914135502 -0.0019029538678834077 0 -0.0067298386019321614 -0.0051816171284909838 0 -0.0038090442994068757 -0.010361827950394583 0 0.0056851751573822077 0.0090132022086372061 0 0.015529968509018844 0.027899152530312794 0 -0.0096375879197990195 -0.0015224929576624577 0 -0.0030302574914135502 -0.0019029538678834077 0 -0.0067298386019321614 -0.0051816171284909838 0 -0.015385181774077267 -0.0048401519931945821 0 -0.0096375879197990195 -0.0015224929576624577 0 -0.010489828654790589 -0.0068490094278182301 0 -0.0096375879197990195 -0.0015224929576624577 0 -0.0067298386019321614 -0.0051816171284909838 0 -0.010489828654790589 -0.0068490094278182301 0 -0.010489828654790589 -0.0068490094278182301 0 -0.012079950984504841 -0.011783174066355184 0 -0.0038090442994068757 -0.010361827950394583 0 0.0024193778787409918 0.021973633354703051 0 0.015529968509018844 0.027899152530312794 0 -0.015385181774077267 -0.0048401519931945821 0 -0.010489828654790589 -0.0068490094278182301 0 -0.012079950984504841 -0.011783174066355184 0 -0.0067298386019321614 -0.0051816171284909838 0 -0.010489828654790589 -0.0068490094278182301 0 -0.0038090442994068757 -0.010361827950394583 0 0.015529968509018844 0.027899152530312794 0 0.016819123914514247 0.034146737659884518 0 0.014786788756122708 0.026771295751561622 0 0.010977072743790414 0.026115000391959662 0 0.011969938394279456 0.028588098940862065 0 0.026342345069427099 0.045959364134656767 0 0.015529968509018844 0.027899152530312794 0 0.022302234439988532 0.040686718583784136 0 0.021549708728247439 0.031222429381522625 0 0.024016694805527601 0.037306161677160991 0 0.014786788756122708 0.026771295751561622 0 0.011969938394279456 0.028588098940862065 0 0.013846850155973098 0.028853009982558513 0 0.008484740990261315 0.033400531478943271 0 0.007194305218688718 0.036250497793565463 0 0.01044179892208111 0.034951859016980842 0 0.0024193778787409918 0.021973633354703051 0 0.010127506880847851 0.03170349486575353 0 0.010208982310992258 0.039360678917316816 0 0.01044179892208111 0.034951859016980842 0 0.012261476581627809 0.034056987756991106 0 0.0024193778787409918 0.021973633354703051 0 -0.0021577498087546713 0.026346951052304363 0 0.008484740990261315 0.033400531478943271 0 0.01044179892208111 0.034951859016980842 0 0.011133665040977127 0.033859215084481135 0 0.01044179892208111 0.034951859016980842 0 0.011128115173785182 0.03386507993836442 0 0.012261476581627809 0.034056987756991106 0 -0.0021577498087546713 0.026346951052304363 0 -0.00076843245998925165 0.030700991250253003 0 -0.0019425076106140795 0.026484199052447886 0 -0.0021577498087546713 0.026346951052304363 0 -0.0037358478032383825 0.037596785622149152 0 -0.00076843245998925165 0.030700991250253003 0 0.0069644057481451074 0.048574840288422003 0 0.0072425463055578246 0.048239894127660589 0 0.0067767640206111866 0.048135506896636419 0 -0.016015924351558929 0.022614040438292196 0 -0.015453142776449581 0.02268368557261927 0 -0.015777249249004182 0.022910361994683989 0 -0.015282560478691851 0.02271983191891816 0 -0.015443391973080579 0.022687747251220747 0 -0.015531420486293196 0.022858523705617927 0 -0.015753305760835973 0.023308394426072833 0 -0.015531420486293196 0.022858523705617927 0 -0.015777249249004182 0.022910361994683989 0 -0.015453142776449581 0.02268368557261927 0 -0.015531420486293196 0.022858523705617927 0 -0.015777249249004182 0.022910361994683989 0 -0.015753305760835973 0.023308394426072833 0 -0.015282560478691851 0.02271983191891816 0 -0.015531420486293196 0.022858523705617927 0 -0.00076843245998925165 0.030700991250253003 0 -0.0010236655346819398 0.030445682764158412 0 -0.012330236552201499 0.015672214383254352 0 -0.0021577498087546713 0.026346951052304363 0 -0.0033745150889880923 0.006546129696289424 0 0.0024193778787409918 0.021973633354703051 0 -0.016540883428935286 -0.0027043870632514544 0 -0.014333741554446335 -0.0073500786932332281 0 -0.017153756740970406 -0.0078615632124888011 0 -0.020530037474186261 -0.0030151753973851709 0 -0.016540883428935286 -0.0027043870632514544 0 -0.017153756740970406 -0.0078615632124888011 0 0.089353678784786811 0.015706924995701543 0 0.084999760550551126 0.016778778794280538 0 0.089006242283427905 0.020902058959920877 0 0.084999760550551126 0.016778778794280538 0 0.089006242283427905 0.020902058959920877 0 0.084999897120162052 0.021884149568329257 0 0.087001815596679841 0.020742569261402173 0 0.087022077557896302 0.016903503173762078 0 0.089353678784786811 0.015706924995701543 0 0.089006242283427905 0.020902058959920877 0 0.092482144947899747 0.019135662578387096 0 0.087001815596679841 0.020742569261402173 0 0.086388015595152731 0.023079013002291794 0 0.086940524289892129 0.016688558511336146 0 0.084261931398248252 0.017820023687691148 0 0.083446604646591718 0.017185921062580829 0 0.087022077557896302 0.016903503173762078 0 0.085325727218801578 0.012782636253976005 0 0.084261931398248252 0.017820023687691148 0 0.083446604646591718 0.017185921062580829 0 0.081579416134782062 0.018945875834184649 0 0.092482144947899747 0.019135662578387096 0 0.093210202248510482 0.015816035291255436 0 0.096169236734051242 0.017411809952295628 0 0.089353678784786811 0.015706924995701543 0 0.092482144947899747 0.019135662578387096 0 0.093210202248510482 0.015816035291255436 0 0.089353678784786811 0.015706924995701543 0 0.092792709950216046 0.01213846000029498 0 0.089665306042359977 0.010916802133696543 0 0.089353678784786811 0.015706924995701543 0 0.093210202248510482 0.015816035291255436 0 0.092792709950216046 0.01213846000029498 0 0.093210202248510482 0.015816035291255436 0 0.092792709950216046 0.01213846000029498 0 0.097215530057515404 0.013702420875446247 0 0.094385357352137086 0.0085512802832843383 0 0.093854449149702174 0.0072527819913754546 0 0.092792709950216046 0.01213846000029498 0 0.094025326787731539 0.0085940078137864764 0 0.09576474289273805 0.009745934637457921 0 0.092792709950216046 0.01213846000029498 0 0.089665306042359977 0.010916802133696543 0 0.091881263344261249 0.008219684143189741 0 0.089353678784786811 0.015706924995701543 0 0.089665306042359977 0.010916802133696543 0 0.084999832690225402 0.011673155978800479 0 0.089353678784786811 0.015706924995701543 0 0.084999760550551126 0.016778778794280538 0 0.084999832690225402 0.011673155978800479 0 0.084999832690225402 0.011673155978800479 0 0.088924256315043429 0.0072179725202624941 0 0.084999947657038846 0.0065679659089703931 0 0.089665306042359977 0.010916802133696543 0 0.084999832690225402 0.011673155978800479 0 0.088924256315043429 0.0072179725202624941 0 0.084999947657038846 0.0065679659089703931 0 0.088525373344442007 0.0017396357959425543 0 0.084999851522321007 0.0014629568069200198 0 0.088924256315043429 0.0072179725202624941 0 0.084999947657038846 0.0065679659089703931 0 0.088525373344442007 0.0017396357959425543 0 0.088924256315043429 0.0072179725202624941 0 0.088525373344442007 0.0017396357959425543 0 0.091906751065366069 0.0048348045679729402 0 0.095615428859069471 0.00030218095244926847 0 0.092681144819577385 0.0014738997133806738 0 0.095405535425324636 0.0021654976779293404 0 0.092681144819577385 0.0014738997133806738 0 0.094096705349016194 0.0040317402058973831 0 0.095405535425324636 0.0021654976779293404 0 0.090520240884051056 -0.00075941011887093292 0 0.088525373344442007 0.0017396357959425543 0 0.092681144819577385 0.0014738997133806738 0 0.088525373344442007 0.0017396357959425543 0 0.092681144819577385 0.0014738997133806738 0 0.091906751065366069 0.0048348045679729402 0 0.091906751065366069 0.0048348045679729402 0 0.094096705349016194 0.0040317402058973831 0 0.093881885681039404 0.0061688070564713 0 0.092681144819577385 0.0014738997133806738 0 0.091906751065366069 0.0048348045679729402 0 0.094096705349016194 0.0040317402058973831 0 0.091906751065366069 0.0048348045679729402 0 0.093881885681039404 0.0061688070564713 0 0.091881263344261249 0.008219684143189741 0 0.088924256315043429 0.0072179725202624941 0 0.091906751065366069 0.0048348045679729402 0 0.091881263344261249 0.008219684143189741 0 0.089665306042359977 0.010916802133696543 0 0.088924256315043429 0.0072179725202624941 0 0.091881263344261249 0.008219684143189741 0 0.093881885681039404 0.0061688070564713 0 0.091881263344261249 0.008219684143189741 0 0.094025326787731539 0.0085940078137864764 0 0.092792709950216046 0.01213846000029498 0 0.091881263344261249 0.008219684143189741 0 0.094025326787731539 0.0085940078137864764 0 0.094025326787731539 0.0085940078137864764 0 0.095693531248412469 0.0066660713608347744 0 0.09576474289273805 0.009745934637457921 0 0.097059858649619371 0.0079648064486173842 0 0.09786801953560513 0.0095276223330224598 0 0.09576474289273805 0.009745934637457921 0 0.097059858649619371 0.0079648064486173842 0 0.095693531248412469 0.0066660713608347744 0 0.097714458141902383 0.0062064393233187522 0 0.097059858649619371 0.0079648064486173842 0 0.095693531248412469 0.0066660713608347744 0 0.09576474289273805 0.009745934637457921 0 0.097059858649619371 0.0079648064486173842 0 0.098252427640421192 0.0076691064933426334 0 0.09786801953560513 0.0095276223330224598 0 0.097059858649619371 0.0079648064486173842 0 0.097714458141902383 0.0062064393233187522 0 0.098252427640421192 0.0076691064933426334 0 0.096877031267621136 0.0045833310282792491 0 0.095693531248412469 0.0066660713608347744 0 0.097714458141902383 0.0062064393233187522 0 0.096877031267621136 0.0045833310282792491 0 0.095693531248412469 0.0066660713608347744 0 0.09551414728532516 0.0045016820162679626 0 0.093881885681039404 0.0061688070564713 0 0.094025326787731539 0.0085940078137864764 0 0.095693531248412469 0.0066660713608347744 0 0.093881885681039404 0.0061688070564713 0 0.095693531248412469 0.0066660713608347744 0 0.09551414728532516 0.0045016820162679626 0 0.094096705349016194 0.0040317402058973831 0 0.093881885681039404 0.0061688070564713 0 0.09551414728532516 0.0045016820162679626 0 0.094096705349016194 0.0040317402058973831 0 0.09551414728532516 0.0045016820162679626 0 0.095405535425324636 0.0021654976779293404 0 0.09551414728532516 0.0045016820162679626 0 0.096518754304713641 0.0030212944884573365 0 0.095405535425324636 0.0021654976779293404 0 0.096877031267621136 0.0045833310282792491 0 0.09551414728532516 0.0045016820162679626 0 0.096518754304713641 0.0030212944884573365 0 0.096877031267621136 0.0045833310282792491 0 0.096518754304713641 0.0030212944884573365 0 0.097509864991486367 0.0029666871810702712 0 0.096518754304713641 0.0030212944884573365 0 0.097022998249763709 0.0014158157740650967 0 0.097509864991486367 0.0029666871810702712 0 0.096518754304713641 0.0030212944884573365 0 0.097022998249763709 0.0014158157740650967 0 0.095405535425324636 0.0021654976779293404 0 0.095615428859069471 0.00030218095244926847 0 0.097022998249763709 0.0014158157740650967 0 0.095405535425324636 0.0021654976779293404 0 0.096579785445347635 0.0020896645055575036 0 0.092795440792215106 0.00012938882315215614 0 0.097341710940117732 0.00062665689529227029 0 0.092795440792215106 0.00012938882315215614 0 0.097341710940117732 0.00062665689529227029 0 0.092984322480266626 -0.0030121586386011173 0 0.092795440792215106 0.00012938882315215614 0 0.092984322480266626 -0.0030121586386011173 0 0.090178149883803044 -0.0026833437587783912 0 0.096579785445347635 0.0020896645055575036 0 0.097022998249763709 0.0014158157740650967 0 0.097341710940117732 0.00062665689529227029 0 0.097022998249763709 0.0014158157740650967 0 0.097341710940117732 0.00062665689529227029 0 0.097509864991486367 0.0029666871810702712 0 0.097341710940117732 0.00062665689529227029 0 0.097509864991486367 0.0029666871810702712 0 0.098932136499100237 0.0037716991168872589 0 0.096877031267621136 0.0045833310282792491 0 0.097509864991486367 0.0029666871810702712 0 0.098571475907590106 0.0050029619102841313 0 0.097509864991486367 0.0029666871810702712 0 0.098932136499100237 0.0037716991168872589 0 0.098571475907590106 0.0050029619102841313 0 0.097341710940117732 0.00062665689529227029 0 0.098932136499100237 0.0037716991168872589 0 0.1008867346969826 0.0047638791827441943 0 0.092984322480266626 -0.0030121586386011173 0 0.09528620688183409 -0.0087635218616721518 0 0.090238296537812013 -0.0053746803983614894 0 0.097341710940117732 0.00062665689529227029 0 0.092984322480266626 -0.0030121586386011173 0 0.09528620688183409 -0.0087635218616721518 0 0.090170367530717846 0.0014146080084451941 0 0.08671215302795858 -0.00016507868210842048 0 0.098932136499100237 0.0037716991168872589 0 0.10034392199162598 0.0047031213986089533 0 0.1008867346969826 0.0047638791827441943 0 0.098932136499100237 0.0037716991168872589 0 0.10034392199162598 0.0047031213986089533 0 0.099350419173942481 0.0046905838860048085 0 0.10073003749283528 0.0048139980567975839 0 0.099966304098905473 0.0058902231226725986 0 0.10199288245346835 0.0079910456187861096 0 0.08671215302795858 -0.00016507868210842048 0 0.082827285903889394 -0.0015607657707342431 0 0.08686559037745728 -0.00012642672003977391 0 0.08671215302795858 -0.00016507868210842048 0 0.10034392199162598 0.0047031213986089533 0 0.099966304098905473 0.0058902231226725986 0 0.099350419173942481 0.0046905838860048085 0 0.10034392199162598 0.0047031213986089533 0 0.10073003749283528 0.0048139980567975839 0 0.099966304098905473 0.0058902231226725986 0 0.096877031267621136 0.0045833310282792491 0 0.098571475907590106 0.0050029619102841313 0 0.097714458141902383 0.0062064393233187522 0 0.099966304098905473 0.0058902231226725986 0 0.098571475907590106 0.0050029619102841313 0 0.099350419173942481 0.0046905838860048085 0 0.098932136499100237 0.0037716991168872589 0 0.098571475907590106 0.0050029619102841313 0 0.099350419173942481 0.0046905838860048085 0 0.099966304098905473 0.0058902231226725986 0 0.098571475907590106 0.0050029619102841313 0 0.098843362684917238 0.0064645571847792875 0 0.099966304098905473 0.0058902231226725986 0 0.098843362684917238 0.0064645571847792875 0 0.099802124354490984 0.0074766802250606701 0 0.098843362684917238 0.0064645571847792875 0 0.097714458141902383 0.0062064393233187522 0 0.098252427640421192 0.0076691064933426334 0 0.098571475907590106 0.0050029619102841313 0 0.098843362684917238 0.0064645571847792875 0 0.097714458141902383 0.0062064393233187522 0 0.098252427640421192 0.0076691064933426334 0 0.10004052641246167 0.0094698085335224794 0 0.09786801953560513 0.0095276223330224598 0 0.098843362684917238 0.0064645571847792875 0 0.098252427640421192 0.0076691064933426334 0 0.099802124354490984 0.0074766802250606701 0 0.098252427640421192 0.0076691064933426334 0 0.099802124354490984 0.0074766802250606701 0 0.10004052641246167 0.0094698085335224794 0 0.099802124354490984 0.0074766802250606701 0 0.10004052641246167 0.0094698085335224794 0 0.10199288245346835 0.0079910456187861096 0 0.099966304098905473 0.0058902231226725986 0 0.099802124354490984 0.0074766802250606701 0 0.10199288245346835 0.0079910456187861096 0 0.10004052641246167 0.0094698085335224794 0 0.10146350755580628 0.010056626840152133 0 0.10199288245346835 0.0079910456187861096 0 0.10004052641246167 0.0094698085335224794 0 0.10146350755580628 0.010056626840152133 0 0.10070925234388058 0.011909535561429336 0 0.10004052641246167 0.0094698085335224794 0 0.10070925234388058 0.011909535561429336 0 0.098929426035608101 0.011094983584109413 0 0.0662461866900899 -0.027326912158617545 0 0.071875909837487276 -0.029688087172911784 0 0.063660191326090465 -0.032377304616721635 0 0.0662461866900899 -0.027326912158617545 0 0.063660191326090465 -0.032377304616721635 0 0.062297857263004776 -0.02891393503826576 0 0.080078659261880403 -0.0068278889185515029 0 0.082138078385295826 -0.00043135896803079578 0 0.10070925234388058 0.011909535561429336 0 0.098367547803230843 0.012935072954150596 0 0.098929426035608101 0.011094983584109413 0 0.098367547803230843 0.012935072954150596 0 0.098929426035608101 0.011094983584109413 0 0.097298633969161094 0.011143736131260483 0 0.10004052641246167 0.0094698085335224794 0 0.098929426035608101 0.011094983584109413 0 0.09786801953560513 0.0095276223330224598 0 0.098929426035608101 0.011094983584109413 0 0.09786801953560513 0.0095276223330224598 0 0.097298633969161094 0.011143736131260483 0 0.09786801953560513 0.0095276223330224598 0 0.097298633969161094 0.011143736131260483 0 0.09576474289273805 0.009745934637457921 0 0.097298633969161094 0.011143736131260483 0 0.09576474289273805 0.009745934637457921 0 0.095517214356203889 0.012190580182078237 0 0.092792709950216046 0.01213846000029498 0 0.09576474289273805 0.009745934637457921 0 0.095517214356203889 0.012190580182078237 0 0.082138078385295826 -0.00043135896803079578 0 0.093854449149702174 0.0072527819913754546 0 0.098367547803230843 0.012935072954150596 0 0.097298633969161094 0.011143736131260483 0 0.095517214356203889 0.012190580182078237 0 0.10128135682197079 0.015028652619162955 0 0.097215530057515404 0.013702420875446247 0 0.099839202764492138 0.015656133463112915 0 0.080004977548273348 0.0069681709416809789 0 0.085325727218801578 0.012782636253976005 0 0.078479954629292387 0.025563862421350572 0 0.080991951496706668 0.019692984862304377 0 0.074646494624987569 0.020646308662132871 0 0.078916595830556657 0.02006993392265145 0 0.081579416134782062 0.018945875834184649 0 0.079953032976564392 0.017692519927893492 0 0.080004977548273348 0.0069681709416809789 0 0.077911255530131854 0.028892628821315533 0 0.097215530057515404 0.013702420875446247 0 0.099839202764492138 0.015656133463112915 0 0.096169236734051242 0.017411809952295628 0 0.093210202248510482 0.015816035291255436 0 0.097215530057515404 0.013702420875446247 0 0.096169236734051242 0.017411809952295628 0 0.086388015595152731 0.023079013002291794 0 0.077911255530131854 0.028892628821315533 0 0.083446604646591718 0.017185921062580829 0 0.081579416134782062 0.018945875834184649 0 0.079953032976564392 0.017692519927893492 0 0.077911255530131854 0.028892628821315533 0 0.072287796648364475 0.033234391443746535 0 0.073639333318885225 0.075427006535478819 0 0.068058163221376783 0.071829860090737732 0 0.07308445305995373 0.070893012782108883 0 0.080992592241687075 0.074768362041055303 0 0.073639333318885225 0.075427006535478819 0 0.07308445305995373 0.070893012782108883 0 0.072287796648364475 0.033234391443746535 0 0.066118903187698835 0.031850392423173758 0 0.073639333318885225 0.075427006535478819 0 0.066832876321892096 0.075598148562207437 0 0.068058163221376783 0.071829860090737732 0 0.072152466300327775 -0.029338700728844432 0 0.066236632090011155 -0.032275958916623146 0 0.063660191326090465 -0.032377304616721635 0 0.074646494624987569 0.020646308662132871 0 0.068280214103382364 0.021609571180379965 0 0.070169261180228731 0.02407197077191232 0 0.082138078385295826 -0.00043135896803079578 0 0.067974930878563253 -0.011934963190793473 0 0.072152466300327775 -0.029338700728844432 0 0.074866055300402051 -0.030388961536746861 0 0.066236632090011155 -0.032275958916623146 0 0.080004977548273348 0.0069681709416809789 0 0.067400439338171456 0.010014973780805026 0 0.078479954629292387 0.025563862421350572 0 0.074646494624987569 0.020646308662132871 0 0.070169261180228731 0.02407197077191232 0 0.082138078385295826 -0.00043135896803079578 0 0.080004977548273348 0.0069681709416809789 0 0.060476028992272092 0.023836218931878862 0 0.058242383467944366 0.022021658442263253 0 0.057833693757999675 -0.033888186546568028 0 0.056004251695975393 -0.03101650758491583 0 0.058623515715301874 -0.029352178349506156 0 0.059038169110104032 0.022258811091190482 0 0.057975320622785056 0.022058329969289275 0 0.057035007737607793 0.022548367267397035 0 0.057833693757999675 -0.033888186546568028 0 0.056004251695975393 -0.03101650758491583 0 0.053505485118040846 -0.033080293098229428 0 0.060476028992272092 0.023836218931878862 0 0.057570600716015601 0.027326608671620262 0 0.057570600716015601 0.027326608671620262 0 0.057022975447457484 0.028137042586148329 0 0.06077902463204541 0.075602970895535138 0 0.058329391667399616 0.074992375567530883 0 0.059665481052088312 0.07432740965050226 0 0.057833693757999675 -0.033888186546568028 0 0.060591133444267711 -0.031146447556750393 0 0.058623515715301874 -0.029352178349506156 0 0.066118903187698835 0.031850392423173758 0 0.060476028992272092 0.023836218931878862 0 0.068280214103382364 0.021609571180379965 0 0.070169261180228731 0.02407197077191232 0 0.061902702049947869 0.022593300566698261 0 0.057833693757999675 -0.033888186546568028 0 0.060591133444267711 -0.031146447556750393 0 0.063660191326090465 -0.032377304616721635 0 0.067400439338171456 0.010014973780805026 0 0.060476028992272092 0.023836218931878862 0 0.066236632090011155 -0.032275958916623146 0 0.057833693757999675 -0.033888186546568028 0 0.063660191326090465 -0.032377304616721635 0 0.060591133444267711 -0.031146447556750393 0 0.063660191326090465 -0.032377304616721635 0 0.062297857263004776 -0.02891393503826576 0 0.068058163221376783 0.071829860090737732 0 0.06278376102820632 0.072870091431121053 0 0.063375919718193216 0.068899645185260205 0 0.066832876321892096 0.075598148562207437 0 0.06077902463204541 0.075602970895535138 0 0.06278376102820632 0.072870091431121053 0 0.066832876321892096 0.075598148562207437 0 0.068058163221376783 0.071829860090737732 0 0.06278376102820632 0.072870091431121053 0 0.06278376102820632 0.072870091431121053 0 0.059880828508605564 0.071067001339694222 0 0.063375919718193216 0.068899645185260205 0 0.06077902463204541 0.075602970895535138 0 0.06278376102820632 0.072870091431121053 0 0.059665481052088312 0.07432740965050226 0 0.06278376102820632 0.072870091431121053 0 0.059880828508605564 0.071067001339694222 0 0.059665481052088312 0.07432740965050226 0 0.058482651375047677 0.074682295486542927 0 0.059665481052088312 0.07432740965050226 0 0.058071661988223923 0.07243160754979644 0 0.059880828508605564 0.071067001339694222 0 0.059665481052088312 0.07432740965050226 0 0.058071661988223923 0.07243160754979644 0 0.059880828508605564 0.071067001339694222 0 0.058071661988223923 0.07243160754979644 0 0.056713860188660571 0.069974070221772572 0 0.058482651375047677 0.074682295486542927 0 0.056129671348490916 0.071950163144431312 0 0.053751492269804593 0.072803155373754549 0 0.057570600716015601 0.027326608671620262 0 0.055196843666133644 0.036949406146055082 0 0.058071661988223923 0.07243160754979644 0 0.056129671348490916 0.071950163144431312 0 0.056713860188660571 0.069974070221772572 0 0.056129671348490916 0.071950163144431312 0 0.053713684404144049 0.069957072717037827 0 0.056713860188660571 0.069974070221772572 0 0.056129671348490916 0.071950163144431312 0 0.053713684404144049 0.069957072717037827 0 0.053751492269804593 0.072803155373754549 0 0.058482651375047677 0.074682295486542927 0 0.058071661988223923 0.07243160754979644 0 0.056129671348490916 0.071950163144431312 0 0.055196843666133644 0.036949406146055082 0 0.05303711727285753 0.042657143575720279 0 0.052391022131388069 0.023675966705716849 0 0.051168211260540448 0.023975414852858243 0 0.049528129849618956 0.023150783589544959 0 0.050922062660456388 0.069712955350121328 0 0.053751492269804593 0.072803155373754549 0 0.049384688014788361 0.070588994411017944 0 0.050922062660456388 0.069712955350121328 0 0.053713684404144049 0.069957072717037827 0 0.051644367256030832 0.068593930851768098 0 0.050922062660456388 0.069712955350121328 0 0.053713684404144049 0.069957072717037827 0 0.053751492269804593 0.072803155373754549 0 0.058242383467944366 0.022021658442263253 0 0.05340746555142474 0.011328897582086873 0 0.053960872995433451 0.024717862557546318 0 0.05265729996977267 0.024881163859907983 0 0.050480526761892373 0.026405774170292651 0 0.051470156339298363 0.024843030969513354 0 0.05265729996977267 0.024881163859907983 0 0.050480526761892373 0.026405774170292651 0 0.051168211260540448 0.023975414852858243 0 0.051470156339298363 0.024843030969513354 0 0.050698486494471055 0.025189693556089392 0 0.051168211260540448 0.023975414852858243 0 0.050698486494471055 0.025189693556089392 0 0.049510835722058381 0.025519525771888166 0 0.052391022131388069 0.023675966705716849 0 0.051168211260540448 0.023975414852858243 0 0.051470156339298363 0.024843030969513354 0 0.052391022131388069 0.023675966705716849 0 0.051470156339298363 0.024843030969513354 0 0.05265729996977267 0.024881163859907983 0 0.051470156339298363 0.024843030969513354 0 0.050698486494471055 0.025189693556089392 0 0.050480526761892373 0.026405774170292651 0 0.056004251695975393 -0.03101650758491583 0 0.053505485118040846 -0.033080293098229428 0 0.0539112704702365 -0.028439315635023572 0 0.054994797515712852 0.024160343299189903 0 0.052391022131388069 0.023675966705716849 0 0.053985797283621122 0.024687880886970728 0 0.057570600716015601 0.027326608671620262 0 0.058242383467944366 0.022021658442263253 0 0.052391022131388069 0.023675966705716849 0 0.053985797283621122 0.024687880886970728 0 0.05265729996977267 0.024881163859907983 0 0.058242383467944366 0.022021658442263253 0 0.057464511232307752 0.022219312191969483 0 0.053505485118040846 -0.033080293098229428 0 0.0539112704702365 -0.028439315635023572 0 0.046691878214697703 -0.029715935314266063 0 0.0539112704702365 -0.028439315635023572 0 0.046691878214697703 -0.029715935314266063 0 0.050163904231046497 -0.025586920083753108 0 0.050163904231046497 -0.025586920083753108 0 0.04967830659938581 -0.02187438973787326 0 0.045661182431640905 -0.023938184068044072 0 0.046691878214697703 -0.029715935314266063 0 0.050163904231046497 -0.025586920083753108 0 0.045661182431640905 -0.023938184068044072 0 0.06477864955875666 -0.012745987134724279 0 0.058669750029115286 -0.012632266187623748 0 0.0539112704702365 -0.028439315635023572 0 0.050163904231046497 -0.025586920083753108 0 0.054867082328686187 -0.023898427247929531 0 0.050163904231046497 -0.025586920083753108 0 0.054867082328686187 -0.023898427247929531 0 0.04967830659938581 -0.02187438973787326 0 0.054867082328686187 -0.023898427247929531 0 0.056780911455480837 -0.027249276687410773 0 0.060001089262670539 -0.025973827458017792 0 0.06477864955875666 -0.012745987134724279 0 0.072519550564710794 -0.011038480463364234 0 0.06937641073897205 -0.011688321141341398 0 0.074701173570134796 -0.013993790641357891 0 0.072873087843922171 -0.009257517823056843 0 0.0539112704702365 -0.028439315635023572 0 0.054867082328686187 -0.023898427247929531 0 0.056780911455480837 -0.027249276687410773 0 0.056780911455480837 -0.027249276687410773 0 0.058623515715301874 -0.029352178349506156 0 0.060001089262670539 -0.025973827458017792 0 0.056004251695975393 -0.03101650758491583 0 0.056780911455480837 -0.027249276687410773 0 0.058623515715301874 -0.029352178349506156 0 0.056004251695975393 -0.03101650758491583 0 0.0539112704702365 -0.028439315635023572 0 0.056780911455480837 -0.027249276687410773 0 0.0662461866900899 -0.027326912158617545 0 0.062297857263004776 -0.02891393503826576 0 0.060532018982395117 -0.024845084131771208 0 0.080078659261880403 -0.0068278889185515029 0 0.072519550564710794 -0.011038480463364234 0 0.060591133444267711 -0.031146447556750393 0 0.058623515715301874 -0.029352178349506156 0 0.062297857263004776 -0.02891393503826576 0 0.058623515715301874 -0.029352178349506156 0 0.062297857263004776 -0.02891393503826576 0 0.060532018982395117 -0.024845084131771208 0 0.069637975929783394 -0.016527067922169601 0 0.072519550564710794 -0.011038480463364234 0 0.074701173570134796 -0.013993790641357891 0 0.077194390686685058 -0.0082390669669870804 0 0.072873087843922171 -0.009257517823056843 0 0.10146350755580628 0.010056626840152133 0 0.10070925234388058 0.011909535561429336 0 0.10311854144292781 0.010826015482428463 0 0.10146350755580628 0.010056626840152133 0 0.10311854144292781 0.010826015482428463 0 0.10199288245346835 0.0079910456187861096 0 0.072519550564710794 -0.011038480463364234 0 0.082827285903889394 -0.0015607657707342431 0 0.077194390686685058 -0.0082390669669870804 0 0.072873087843922171 -0.009257517823056843 0 0.072690900405113071 -0.0040022745488581856 0 0.06937641073897205 -0.011688321141341398 0 0.072873087843922171 -0.009257517823056843 0 0.069739741483936107 -0.0072973229873202093 0 0.072873087843922171 -0.009257517823056843 0 0.069739741483936107 -0.0072973229873202093 0 0.072690900405113071 -0.0040022745488581856 0 0.083182515688099451 -0.012337604187002077 0 0.087172104624967661 -0.0080878453453843164 0 0.068556066933938592 -0.0037534642516578332 0 0.069739741483936107 -0.0072973229873202093 0 0.072690900405113071 -0.0040022745488581856 0 0.065687078832505075 -0.0055349570416927275 0 0.09528620688183409 -0.0087635218616721518 0 0.083182515688099451 -0.012337604187002077 0 0.087172104624967661 -0.0080878453453843164 0 0.079695765950589956 -0.0024701774199204583 0 0.077194390686685058 -0.0082390669669870804 0 0.072690900405113071 -0.0040022745488581856 0 0.08671215302795858 -0.00016507868210842048 0 0.076521771225819296 -0.0054774289242682352 0 0.09528620688183409 -0.0087635218616721518 0 0.087172104624967661 -0.0080878453453843164 0 0.090238296537812013 -0.0053746803983614894 0 0.092984322480266626 -0.0030121586386011173 0 0.090238296537812013 -0.0053746803983614894 0 0.090178149883803044 -0.0026833437587783912 0 0.090238296537812013 -0.0053746803983614894 0 0.087641701054974319 -0.0041584045961766784 0 0.090178149883803044 -0.0026833437587783912 0 0.087172104624967661 -0.0080878453453843164 0 0.087641701054974319 -0.0041584045961766784 0 0.084481934594134694 -0.0042939413120395998 0 0.087172104624967661 -0.0080878453453843164 0 0.090238296537812013 -0.0053746803983614894 0 0.087641701054974319 -0.0041584045961766784 0 0.080025942886324919 -0.0076683748614103028 0 0.072547341886224262 -0.0066920548316323838 0 0.087172104624967661 -0.0080878453453843164 0 0.084481934594134694 -0.0042939413120395998 0 0.080692783632304074 -0.0054419180974479113 0 0.087641701054974319 -0.0041584045961766784 0 0.084481934594134694 -0.0042939413120395998 0 0.085512465476094021 -0.0021689960412238376 0 0.085512465476094021 -0.0021689960412238376 0 0.085478283432275523 -2.383270029906015e-05 0 0.087850942149908517 -0.00075778470846168814 0 0.083159242447430032 0.0016305756408725 0 0.082683615219505791 -0.0013992271469990478 0 0.085478283432275523 -2.383270029906015e-05 0 0.085512465476094021 -0.0021689960412238376 0 0.082683615219505791 -0.0013992271469990478 0 0.085478283432275523 -2.383270029906015e-05 0 0.084481934594134694 -0.0042939413120395998 0 0.085512465476094021 -0.0021689960412238376 0 0.082683615219505791 -0.0013992271469990478 0 0.088236977523301952 0.0023583025340130838 0 0.085478283432275523 -2.383270029906015e-05 0 0.087850942149908517 -0.00075778470846168814 0 0.093372683448802937 0.0028820449096157584 0 0.092795440792215106 0.00012938882315215614 0 0.087850942149908517 -0.00075778470846168814 0 0.092795440792215106 0.00012938882315215614 0 0.087850942149908517 -0.00075778470846168814 0 0.090178149883803044 -0.0026833437587783912 0 0.087641701054974319 -0.0041584045961766784 0 0.087850942149908517 -0.00075778470846168814 0 0.090178149883803044 -0.0026833437587783912 0 0.087641701054974319 -0.0041584045961766784 0 0.085512465476094021 -0.0021689960412238376 0 0.087850942149908517 -0.00075778470846168814 0 0.074991399804838488 0.0021930127276764701 0 0.078440715345223538 -0.0018827266524693181 0 0.074621017929471095 -0.0041594051217317589 0 0.081183290243797446 0.0013500300959084829 0 0.082683615219505791 -0.0013992271469990478 0 0.078440715345223538 -0.0018827266524693181 0 0.082683615219505791 -0.0013992271469990478 0 0.078440715345223538 -0.0018827266524693181 0 0.080692783632304074 -0.0054419180974479113 0 0.084481934594134694 -0.0042939413120395998 0 0.082683615219505791 -0.0013992271469990478 0 0.080692783632304074 -0.0054419180974479113 0 0.072547341886224262 -0.0066920548316323838 0 0.05579924901298796 -0.0056620735888210901 0 0.068556066933938592 -0.0037534642516578332 0 0.055355899018001524 -0.010050992314128029 0 0.048937299081562094 -0.00042479376606915719 0 0.078440715345223538 -0.0018827266524693181 0 0.080692783632304074 -0.0054419180974479113 0 0.074621017929471095 -0.0041594051217317589 0 0.055355899018001524 -0.010050992314128029 0 0.065291929457997847 -0.016555426636932428 0 0.047812402800088423 -0.019542308788793573 0 0.068556066933938592 -0.0037534642516578332 0 0.055355899018001524 -0.010050992314128029 0 0.065291929457997847 -0.016555426636932428 0 0.083182515688099451 -0.012337604187002077 0 0.068556066933938592 -0.0037534642516578332 0 0.065291929457997847 -0.016555426636932428 0 0.076521771225819296 -0.0054774289242682352 0 0.065262710721007949 -0.0091426544194245628 0 0.06937641073897205 -0.011688321141341398 0 0.069739741483936107 -0.0072973229873202093 0 0.064028534003267995 -0.0093854291563901272 0 0.069739741483936107 -0.0072973229873202093 0 0.065687078832505075 -0.0055349570416927275 0 0.064028534003267995 -0.0093854291563901272 0 0.065262710721007949 -0.0091426544194245628 0 0.0540160283463983 -0.01162158858921538 0 0.065687078832505075 -0.0055349570416927275 0 0.064028534003267995 -0.0093854291563901272 0 0.05866842062617212 -0.007074555991963747 0 0.058669750029115286 -0.012632266187623748 0 0.0540160283463983 -0.01162158858921538 0 0.04967830659938581 -0.02187438973787326 0 0.04449331348172797 -0.019461952305458038 0 0.045661182431640905 -0.023938184068044072 0 0.043648981257315339 -0.021999638219768112 0 0.04449331348172797 -0.019461952305458038 0 0.045661182431640905 -0.023938184068044072 0 0.043600195131962519 -0.01713828571814011 0 0.046842704447808137 -0.018543881978971798 0 0.042022983470108938 -0.019360375934796215 0 0.043648981257315339 -0.021999638219768112 0 0.04449331348172797 -0.019461952305458038 0 0.042022983470108938 -0.019360375934796215 0 0.0540160283463983 -0.01162158858921538 0 0.052450223395981217 -0.012149078709588902 0 0.053544144570851195 -0.011623509645615709 0 0.0540160283463983 -0.01162158858921538 0 0.042022983470108938 -0.019360375934796215 0 0.036596098051637029 -0.011536107691378328 0 0.041009146786883728 -0.023844776612602949 0 0.037864502189629959 -0.023826405300523414 0 0.038526954037633274 -0.023663093157281864 0 0.041009146786883728 -0.023844776612602949 0 0.038683115618263215 -0.017906578506530928 0 0.039731002409921577 -0.020938132571535456 0 0.038526954037633274 -0.023663093157281864 0 0.038567932321195549 -0.023599747901841391 0 0.041009146786883728 -0.023844776612602949 0 0.043648981257315339 -0.021999638219768112 0 0.042022983470108938 -0.019360375934796215 0 0.041009146786883728 -0.023844776612602949 0 0.043600195131962519 -0.01713828571814011 0 0.043149121132350053 -0.01094556473848989 0 0.036596098051637029 -0.011536107691378328 0 0.043600195131962519 -0.01713828571814011 0 0.042022983470108938 -0.019360375934796215 0 0.036596098051637029 -0.011536107691378328 0 0.043149121132350053 -0.01094556473848989 0 0.036596098051637029 -0.011536107691378328 0 0.043532478289081619 -0.0064134948478493676 0 0.055355899018001524 -0.010050992314128029 0 0.047812402800088423 -0.019542308788793573 0 0.047800475244774029 -0.012888755907966034 0 0.043600195131962519 -0.01713828571814011 0 0.047812402800088423 -0.019542308788793573 0 0.047800475244774029 -0.012888755907966034 0 0.043600195131962519 -0.01713828571814011 0 0.043149121132350053 -0.01094556473848989 0 0.047800475244774029 -0.012888755907966034 0 0.043149121132350053 -0.01094556473848989 0 0.047800475244774029 -0.012888755907966034 0 0.048529281046617107 -0.0064339352817981135 0 0.055355899018001524 -0.010050992314128029 0 0.047800475244774029 -0.012888755907966034 0 0.048529281046617107 -0.0064339352817981135 0 0.055355899018001524 -0.010050992314128029 0 0.048529281046617107 -0.0064339352817981135 0 0.048937299081562094 -0.00042479376606915719 0 0.055583229410494955 -0.005604794668038024 0 0.05579924901298796 -0.0056620735888210901 0 0.048696731837312657 -0.0022221474320144909 0 0.043532478289081619 -0.0064134948478493676 0 0.040880203353067815 -0.0010699965297785532 0 0.05579924901298796 -0.0056620735888210901 0 0.046700821964593679 -0.0035140073559808511 0 0.043149121132350053 -0.01094556473848989 0 0.048529281046617107 -0.0064339352817981135 0 0.043532478289081619 -0.0064134948478493676 0 0.048529281046617107 -0.0064339352817981135 0 0.048696731837312657 -0.0022221474320144909 0 0.043532478289081619 -0.0064134948478493676 0 0.036596098051637029 -0.011536107691378328 0 0.040880203353067815 -0.0010699965297785532 0 0.033420656536405011 0.00012984669198939892 0 0.036596098051637029 -0.011536107691378328 0 0.043532478289081619 -0.0064134948478493676 0 0.040880203353067815 -0.0010699965297785532 0 0.039304600672746284 -0.00096735867360857439 0 0.034799412547863118 0.0027727039951610066 0 0.033420656536405011 0.00012984669198939892 0 0.046700821964593679 -0.0035140073559808511 0 0.043342941059129711 -0.0027472074843321228 0 0.039304600672746284 -0.00096735867360857439 0 0.037244243564002882 0.0047333013061048703 0 0.034799412547863118 0.0027727039951610066 0 0.039304600672746284 -0.00096735867360857439 0 0.037244243564002882 0.0047333013061048703 0 0.041511719179714433 0.0041481629461640034 0 0.045180320524005654 -0.0021514281159765078 0 0.039304600672746284 -0.00096735867360857439 0 0.041511719179714433 0.0041481629461640034 0 0.05671916140778311 -0.007286298492008716 0 0.05579924901298796 -0.0056620735888210901 0 0.045906147880122046 0.0092110024861358688 0 0.045180320524005654 -0.0021514281159765078 0 0.041511719179714433 0.0041481629461640034 0 0.039688255344475398 -0.026436927758978278 0 0.039569857894193441 -0.027959753547171357 0 0.037803822588318728 -0.024538746511274082 0 0.039569857894193441 -0.027959753547171357 0 0.038274418454539494 -0.026834333143046327 0 0.038641843799865294 -0.025052589814441435 0 0.04125289424768093 -0.024564635724995818 0 0.041163369846028322 -0.022020338060247696 0 0.038274418454539494 -0.026834333143046327 0 0.037853711105608888 -0.027626535859126413 0 0.037780759074520741 -0.026727833477645714 0 0.039569857894193441 -0.027959753547171357 0 0.038274418454539494 -0.026834333143046327 0 0.038280491554194787 -0.028255294578705705 0 0.038274418454539494 -0.026834333143046327 0 0.038280491554194787 -0.028255294578705705 0 0.037853711105608888 -0.027626535859126413 0 0.037852622432552607 -0.02854515066080909 0 0.038280491554194787 -0.028255294578705705 0 0.037853711105608888 -0.027626535859126413 0 0.037852622432552607 -0.02854515066080909 0 0.037853711105608888 -0.027626535859126413 0 0.037130449262997689 -0.027019230052202612 0 0.033947901855650525 0.0061750149546327768 0 0.034799412547863118 0.0027727039951610066 0 0.032100106752388689 0.0015708649023593096 0 0.033947901855650525 0.0061750149546327768 0 0.037244243564002882 0.0047333013061048703 0 0.034799412547863118 0.0027727039951610066 0 0.034799412547863118 0.0027727039951610066 0 0.033420656536405011 0.00012984669198939892 0 0.032100106752388689 0.0015708649023593096 0 0.037130449262997689 -0.027019230052202612 0 0.037780759074520741 -0.026727833477645714 0 0.03794258293297588 -0.025627427509401259 0 0.037853711105608888 -0.027626535859126413 0 0.037130449262997689 -0.027019230052202612 0 0.037780759074520741 -0.026727833477645714 0 0.037864502189629959 -0.023826405300523414 0 0.037130449262997689 -0.027019230052202612 0 0.03794258293297588 -0.025627427509401259 0 0.038274418454539494 -0.026834333143046327 0 0.037780759074520741 -0.026727833477645714 0 0.03794258293297588 -0.025627427509401259 0 0.036596098051637029 -0.011536107691378328 0 0.033420656536405011 0.00012984669198939892 0 0.032100106752388689 0.0015708649023593096 0 0.038683115618263215 -0.017906578506530928 0 0.038174138974908269 -0.014022004950594013 0 0.037864502189629959 -0.023826405300523414 0 0.03794258293297588 -0.025627427509401259 0 0.038188703064694601 -0.024586870319183746 0 0.03794258293297588 -0.025627427509401259 0 0.038641843799865294 -0.025052589814441435 0 0.038188703064694601 -0.024586870319183746 0 0.039938181782745899 -0.025698183675387006 0 0.039688255344475398 -0.026436927758978278 0 0.037803822588318728 -0.024538746511274082 0 0.039938181782745899 -0.025698183675387006 0 0.037803822588318728 -0.024538746511274082 0 0.039042151201258521 -0.024611086466017423 0 0.038274418454539494 -0.026834333143046327 0 0.03794258293297588 -0.025627427509401259 0 0.038641843799865294 -0.025052589814441435 0 0.037803822588318728 -0.024538746511274082 0 0.039042151201258521 -0.024611086466017423 0 0.038992710267748372 -0.023374407959981212 0 0.037803822588318728 -0.024538746511274082 0 0.038992710267748372 -0.023374407959981212 0 0.036093850384600994 -0.021219873739210311 0 0.039516618566485841 -0.018097727316527267 0 0.04119058893594995 -0.013492827415876022 0 0.038641843799865294 -0.025052589814441435 0 0.038295441586137818 -0.024102095897511843 0 0.038516402548203876 -0.02348655119642697 0 0.041163369846028322 -0.022020338060247696 0 0.04119058893594995 -0.013492827415876022 0 0.037864502189629959 -0.023826405300523414 0 0.038188703064694601 -0.024586870319183746 0 0.038295441586137818 -0.024102095897511843 0 0.038641843799865294 -0.025052589814441435 0 0.038188703064694601 -0.024586870319183746 0 0.038295441586137818 -0.024102095897511843 0 0.038295441586137818 -0.024102095897511843 0 0.038526954037633274 -0.023663093157281864 0 0.038516402548203876 -0.02348655119642697 0 0.037864502189629959 -0.023826405300523414 0 0.038295441586137818 -0.024102095897511843 0 0.038526954037633274 -0.023663093157281864 0 0.028526055607118732 -0.013739970614736067 0 0.033797241324437295 -0.014110697187482101 0 0.0286144497654095 -0.0090928797880263004 0 0.038215678827068465 -0.023340368670187066 0 0.038567932321195549 -0.023599747901841391 0 0.039772795110636638 -0.026381825579670989 0 0.038526954037633274 -0.023663093157281864 0 0.038516402548203876 -0.02348655119642697 0 0.038567932321195549 -0.023599747901841391 0 0.04119058893594995 -0.013492827415876022 0 0.041220216424239162 -0.013568634018483941 0 0.042135569233260582 0.022811745531157123 0 0.041470025284384739 0.026282664001925495 0 0.034498130025589775 -0.018296870797718807 0 0.028526055607118732 -0.013739970614736067 0 0.033797241324437295 -0.014110697187482101 0 0.048435722802559388 0.059655011002591997 0 0.047914510035344561 0.061442390030093816 0 0.046423347787290431 0.062650466116996581 0 0.048435722802559388 0.059655011002591997 0 0.047914510035344561 0.061442390030093816 0 0.048998849811691246 0.06138969915944157 0 0.048191984076329915 0.062653743507137774 0 0.048047554445897041 0.064405392615113508 0 0.04744866848285946 0.062568181433039563 0 0.048998849811691246 0.06138969915944157 0 0.048191984076329915 0.062653743507137774 0 0.048843212813765392 0.062872310787744606 0 0.047914510035344561 0.061442390030093816 0 0.048998849811691246 0.06138969915944157 0 0.048191984076329915 0.062653743507137774 0 0.047914510035344561 0.061442390030093816 0 0.048191984076329915 0.062653743507137774 0 0.04744866848285946 0.062568181433039563 0 0.048191984076329915 0.062653743507137774 0 0.048843212813765392 0.062872310787744606 0 0.048047554445897041 0.064405392615113508 0 0.050494383289943441 0.062555933617262291 0 0.048843212813765392 0.062872310787744606 0 0.048047554445897041 0.064405392615113508 0 0.042792716211009427 0.049497694576718619 0 0.045457467037137538 0.057625390698929226 0 0.049171228510627128 0.06701826704126089 0 0.046875795313007847 0.06626375563809131 0 0.04744866848285946 0.062568181433039563 0 0.046875795313007847 0.06626375563809131 0 0.046665021413633434 0.063467165080474397 0 0.045623323488312169 0.066857954289210667 0 0.046875795313007847 0.06626375563809131 0 0.046386786413807495 0.067912479286884972 0 0.046775035579869062 0.068515449212832508 0 0.049171228510627128 0.06701826704126089 0 0.046875795313007847 0.06626375563809131 0 0.046775035579869062 0.068515449212832508 0 0.046875795313007847 0.06626375563809131 0 0.04744866848285946 0.062568181433039563 0 0.046665021413633434 0.063467165080474397 0 0.028526055607118732 -0.013739970614736067 0 0.0286144497654095 -0.0090928797880263004 0 0.025217671487491666 -0.0071963949513350689 0 0.04119058893594995 -0.013492827415876022 0 0.045057057405359348 0.015017557363530243 0 0.041470025284384739 0.026282664001925495 0 0.045057057405359348 0.015017557363530243 0 0.04000117660276882 0.030322253249347855 0 0.041470025284384739 0.026282664001925495 0 0.047914510035344561 0.061442390030093816 0 0.04744866848285946 0.062568181433039563 0 0.046665021413633434 0.063467165080474397 0 0.041470025284384739 0.026282664001925495 0 0.043866038070489131 0.027761045011597804 0 0.043994319406597954 0.025534920798484007 0 0.046220273309178043 0.024396420915600358 0 0.047072185324981024 0.022848241290973192 0 0.041009146786883728 -0.023844776612602949 0 0.039772795110636638 -0.026381825579670989 0 0.045661182431640905 -0.023938184068044072 0 0.038567932321195549 -0.023599747901841391 0 0.041009146786883728 -0.023844776612602949 0 0.039772795110636638 -0.026381825579670989 0 0.046691878214697703 -0.029715935314266063 0 0.039772795110636638 -0.026381825579670989 0 0.045661182431640905 -0.023938184068044072 0 0.043648981257315339 -0.021999638219768112 0 0.041009146786883728 -0.023844776612602949 0 0.045661182431640905 -0.023938184068044072 0 0.050480526761892373 0.026405774170292651 0 0.047289990457333453 0.027963471807441308 0 0.047872247153702807 0.026935832521910424 0 0.05340746555142474 0.011328897582086873 0 0.045057057405359348 0.015017557363530243 0 0.050480526761892373 0.026405774170292651 0 0.047872247153702807 0.026935832521910424 0 0.049510835722058381 0.025519525771888166 0 0.043866038070489131 0.027761045011597804 0 0.046967444004650284 0.025776500382655079 0 0.046875795313007847 0.06626375563809131 0 0.045623323488312169 0.066857954289210667 0 0.046386786413807495 0.067912479286884972 0 0.045057057405359348 0.015017557363530243 0 0.043866038070489131 0.027761045011597804 0 0.045623323488312169 0.066857954289210667 0 0.046386786413807495 0.067912479286884972 0 0.046606081478423309 0.068269086906003321 0 0.043866038070489131 0.027761045011597804 0 0.047159324600593411 0.038688660253949993 0 0.046386786413807495 0.067912479286884972 0 0.04683367942755997 0.068471666459066105 0 0.046606081478423309 0.068269086906003321 0 0.04683367942755997 0.068471666459066105 0 0.046606081478423309 0.068269086906003321 0 0.047165149576945002 0.068645459206079423 0 0.050698486494471055 0.025189693556089392 0 0.050480526761892373 0.026405774170292651 0 0.049510835722058381 0.025519525771888166 0 0.046835322411807247 0.027960844477653353 0 0.049101434236788345 0.025939435121847876 0 0.048195357077131476 0.025475700888193387 0 0.049101434236788345 0.025939435121847876 0 0.048195357077131476 0.025475700888193387 0 0.049507417159780215 0.02463221056213848 0 0.046606081478423309 0.068269086906003321 0 0.047401999491954616 0.068996924079335359 0 0.047165149576945002 0.068645459206079423 0 0.047159324600593411 0.038688660253949993 0 0.05303711727285753 0.042657143575720279 0 0.051168211260540448 0.023975414852858243 0 0.049101434236788345 0.025939435121847876 0 0.049507417159780215 0.02463221056213848 0 0.048195357077131476 0.025475700888193387 0 0.049507417159780215 0.02463221056213848 0 0.049528129849618956 0.023150783589544959 0 0.048100608211367482 0.024999534037605724 0 0.046967444004650284 0.025776500382655079 0 0.051168211260540448 0.023975414852858243 0 0.049507417159780215 0.02463221056213848 0 0.049528129849618956 0.023150783589544959 0 0.049384688014788361 0.070588994411017944 0 0.04773301640321706 0.069162094408199551 0 0.049026163728100883 0.069673723017568523 0 0.047401999491954616 0.068996924079335359 0 0.047165149576945002 0.068645459206079423 0 0.04773301640321706 0.069162094408199551 0 0.047165149576945002 0.068645459206079423 0 0.04773301640321706 0.069162094408199551 0 0.04730354258363903 0.068549871889472314 0 0.05303711727285753 0.042657143575720279 0 0.053022598177604671 0.043059924939170956 0 0.04773301640321706 0.069162094408199551 0 0.047943006531228669 0.068535153416918293 0 0.04730354258363903 0.068549871889472314 0 0.047943006531228669 0.068535153416918293 0 0.048559100214107635 0.069013001222117398 0 0.048985752581264808 0.068589225845019336 0 0.04773301640321706 0.069162094408199551 0 0.047943006531228669 0.068535153416918293 0 0.048559100214107635 0.069013001222117398 0 0.04773301640321706 0.069162094408199551 0 0.048559100214107635 0.069013001222117398 0 0.049026163728100883 0.069673723017568523 0 0.048559100214107635 0.069013001222117398 0 0.049026163728100883 0.069673723017568523 0 0.049472029903593014 0.069252087821763009 0 0.049384688014788361 0.070588994411017944 0 0.049026163728100883 0.069673723017568523 0 0.04974139730466863 0.069756420366020935 0 0.049026163728100883 0.069673723017568523 0 0.049472029903593014 0.069252087821763009 0 0.04974139730466863 0.069756420366020935 0 0.048985752581264808 0.068589225845019336 0 0.049472029903593014 0.069252087821763009 0 0.049814522863752424 0.068829529618116947 0 0.048559100214107635 0.069013001222117398 0 0.048985752581264808 0.068589225845019336 0 0.049472029903593014 0.069252087821763009 0 0.050922062660456388 0.069712955350121328 0 0.049814522863752424 0.068829529618116947 0 0.050061509130184249 0.068093340928416846 0 0.050922062660456388 0.069712955350121328 0 0.049472029903593014 0.069252087821763009 0 0.049814522863752424 0.068829529618116947 0 0.050922062660456388 0.069712955350121328 0 0.049384688014788361 0.070588994411017944 0 0.04974139730466863 0.069756420366020935 0 0.050922062660456388 0.069712955350121328 0 0.049472029903593014 0.069252087821763009 0 0.04974139730466863 0.069756420366020935 0 0.04683367942755997 0.068471666459066105 0 0.04730354258363903 0.068549871889472314 0 0.046687695754658698 0.067905791016948713 0 0.04683367942755997 0.068471666459066105 0 0.047165149576945002 0.068645459206079423 0 0.04730354258363903 0.068549871889472314 0 0.047943006531228669 0.068535153416918293 0 0.04730354258363903 0.068549871889472314 0 0.047353766282139519 0.067795967363362866 0 0.04730354258363903 0.068549871889472314 0 0.046687695754658698 0.067905791016948713 0 0.047353766282139519 0.067795967363362866 0 0.04683367942755997 0.068471666459066105 0 0.046687695754658698 0.067905791016948713 0 0.046217128931359652 0.068021504033869029 0 0.046687695754658698 0.067905791016948713 0 0.046217128931359652 0.068021504033869029 0 0.045559272282914245 0.067062782757314324 0 0.046217128931359652 0.068021504033869029 0 0.044570731976118896 0.067862032953352636 0 0.046775035579869062 0.068515449212832508 0 0.046217128931359652 0.068021504033869029 0 0.044570731976118896 0.067862032953352636 0 0.045559272282914245 0.067062782757314324 0 0.042792716211009427 0.049497694576718619 0 0.035421199407700325 0.041979419918168767 0 0.045743458894249127 0.069366635479999522 0 0.044570731976118896 0.067862032953352636 0 0.046775035579869062 0.068515449212832508 0 0.042792716211009427 0.049497694576718619 0 0.041707073271697676 0.052509744932121315 0 0.046386786413807495 0.067912479286884972 0 0.04683367942755997 0.068471666459066105 0 0.046775035579869062 0.068515449212832508 0 0.04683367942755997 0.068471666459066105 0 0.046217128931359652 0.068021504033869029 0 0.046775035579869062 0.068515449212832508 0 0.045469043705221715 0.065217652223502676 0 0.046682939587441484 0.065743524176530996 0 0.046534585498576475 0.066775661070405709 0 0.045469043705221715 0.065217652223502676 0 0.046682939587441484 0.065743524176530996 0 0.046603367915417936 0.064351303163972182 0 0.045469043705221715 0.065217652223502676 0 0.046603367915417936 0.064351303163972182 0 0.045653846881894604 0.063466858111288535 0 0.042949716000483439 0.06552439386528025 0 0.045469043705221715 0.065217652223502676 0 0.044085024465201017 0.06321880413882372 0 0.042949716000483439 0.06552439386528025 0 0.044570731976118896 0.067862032953352636 0 0.045559272282914245 0.067062782757314324 0 0.042949716000483439 0.06552439386528025 0 0.045469043705221715 0.065217652223502676 0 0.045559272282914245 0.067062782757314324 0 0.045469043705221715 0.065217652223502676 0 0.045559272282914245 0.067062782757314324 0 0.046534585498576475 0.066775661070405709 0 0.046687695754658698 0.067905791016948713 0 0.045559272282914245 0.067062782757314324 0 0.046534585498576475 0.066775661070405709 0 0.046534585498576475 0.066775661070405709 0 0.047353766282139519 0.067795967363362866 0 0.047542489115146774 0.066841824738943789 0 0.046687695754658698 0.067905791016948713 0 0.046534585498576475 0.066775661070405709 0 0.047353766282139519 0.067795967363362866 0 0.047943006531228669 0.068535153416918293 0 0.047353766282139519 0.067795967363362866 0 0.048024629456372252 0.067639011968719687 0 0.047353766282139519 0.067795967363362866 0 0.048024629456372252 0.067639011968719687 0 0.047542489115146774 0.066841824738943789 0 0.047542489115146774 0.066841824738943789 0 0.048509105353053868 0.066877013845178718 0 0.048291941165155595 0.065994363611341145 0 0.048024629456372252 0.067639011968719687 0 0.047542489115146774 0.066841824738943789 0 0.048509105353053868 0.066877013845178718 0 0.046682939587441484 0.065743524176530996 0 0.046534585498576475 0.066775661070405709 0 0.047542489115146774 0.066841824738943789 0 0.048985752581264808 0.068589225845019336 0 0.049814522863752424 0.068829529618116947 0 0.050061509130184249 0.068093340928416846 0 0.048985752581264808 0.068589225845019336 0 0.050061509130184249 0.068093340928416846 0 0.048759854971511959 0.067832062525291434 0 0.050061509130184249 0.068093340928416846 0 0.048759854971511959 0.067832062525291434 0 0.049359382394553876 0.067183604199327951 0 0.047943006531228669 0.068535153416918293 0 0.048985752581264808 0.068589225845019336 0 0.048759854971511959 0.067832062525291434 0 0.047943006531228669 0.068535153416918293 0 0.048024629456372252 0.067639011968719687 0 0.048759854971511959 0.067832062525291434 0 0.048024629456372252 0.067639011968719687 0 0.048759854971511959 0.067832062525291434 0 0.048509105353053868 0.066877013845178718 0 0.048509105353053868 0.066877013845178718 0 0.049411394708851968 0.066040519366276945 0 0.048291941165155595 0.065994363611341145 0 0.048509105353053868 0.066877013845178718 0 0.049359382394553876 0.067183604199327951 0 0.049411394708851968 0.066040519366276945 0 0.048759854971511959 0.067832062525291434 0 0.048509105353053868 0.066877013845178718 0 0.049359382394553876 0.067183604199327951 0 0.050293264450007799 0.066994186973175066 0 0.050694392013223968 0.066168356164999678 0 0.049411394708851968 0.066040519366276945 0 0.050061509130184249 0.068093340928416846 0 0.049359382394553876 0.067183604199327951 0 0.050293264450007799 0.066994186973175066 0 0.049359382394553876 0.067183604199327951 0 0.050293264450007799 0.066994186973175066 0 0.049411394708851968 0.066040519366276945 0 0.050293264450007799 0.066994186973175066 0 0.050694392013223968 0.066168356164999678 0 0.05135928621623502 0.067245067037614639 0 0.050061509130184249 0.068093340928416846 0 0.050293264450007799 0.066994186973175066 0 0.05135928621623502 0.067245067037614639 0 0.050767904665715714 0.065048808597366087 0 0.050694392013223968 0.066168356164999678 0 0.049411394708851968 0.066040519366276945 0 0.050767904665715714 0.065048808597366087 0 0.049411394708851968 0.066040519366276945 0 0.049726098503478554 0.064611534090364589 0 0.049411394708851968 0.066040519366276945 0 0.048644423055712871 0.064939965653634663 0 0.049726098503478554 0.064611534090364589 0 0.049411394708851968 0.066040519366276945 0 0.048644423055712871 0.064939965653634663 0 0.048291941165155595 0.065994363611341145 0 0.049726098503478554 0.064611534090364589 0 0.050582753035472383 0.063494183229443668 0 0.049215949849062433 0.06385901518066768 0 0.048644423055712871 0.064939965653634663 0 0.049726098503478554 0.064611534090364589 0 0.049215949849062433 0.06385901518066768 0 0.050767904665715714 0.065048808597366087 0 0.049726098503478554 0.064611534090364589 0 0.050582753035472383 0.063494183229443668 0 0.050767904665715714 0.065048808597366087 0 0.050582753035472383 0.063494183229443668 0 0.051857896279087747 0.064241820562076501 0 0.046682939587441484 0.065743524176530996 0 0.046603367915417936 0.064351303163972182 0 0.04759283629815432 0.06520542834445224 0 0.046682939587441484 0.065743524176530996 0 0.047542489115146774 0.066841824738943789 0 0.04759283629815432 0.06520542834445224 0 0.048644423055712871 0.064939965653634663 0 0.04759283629815432 0.06520542834445224 0 0.048291941165155595 0.065994363611341145 0 0.047542489115146774 0.066841824738943789 0 0.04759283629815432 0.06520542834445224 0 0.048291941165155595 0.065994363611341145 0 0.048644423055712871 0.064939965653634663 0 0.047990965399587825 0.063812379472204639 0 0.049215949849062433 0.06385901518066768 0 0.048644423055712871 0.064939965653634663 0 0.04759283629815432 0.06520542834445224 0 0.047990965399587825 0.063812379472204639 0 0.046603367915417936 0.064351303163972182 0 0.04759283629815432 0.06520542834445224 0 0.047990965399587825 0.063812379472204639 0 0.046603367915417936 0.064351303163972182 0 0.047990965399587825 0.063812379472204639 0 0.046752095397933721 0.062890089768763327 0 0.047990965399587825 0.063812379472204639 0 0.0478646380969266 0.062329942206532131 0 0.046752095397933721 0.062890089768763327 0 0.047990965399587825 0.063812379472204639 0 0.0478646380969266 0.062329942206532131 0 0.049249609740176718 0.06244965481622803 0 0.0478646380969266 0.062329942206532131 0 0.049249609740176718 0.06244965481622803 0 0.048222263720824034 0.061063263290504613 0 0.0478646380969266 0.062329942206532131 0 0.047043005373785148 0.06165914543741427 0 0.046752095397933721 0.062890089768763327 0 0.047990965399587825 0.063812379472204639 0 0.049215949849062433 0.06385901518066768 0 0.049249609740176718 0.06244965481622803 0 0.050582753035472383 0.063494183229443668 0 0.049215949849062433 0.06385901518066768 0 0.049249609740176718 0.06244965481622803 0 0.049249609740176718 0.06244965481622803 0 0.04960779406067551 0.061133611377373547 0 0.051285531720327036 0.061622453502378188 0 0.050582753035472383 0.063494183229443668 0 0.049249609740176718 0.06244965481622803 0 0.051285531720327036 0.061622453502378188 0 0.04960779406067551 0.061133611377373547 0 0.050666028161521617 0.060089435736216792 0 0.051285531720327036 0.061622453502378188 0 0.049249609740176718 0.06244965481622803 0 0.04960779406067551 0.061133611377373547 0 0.048222263720824034 0.061063263290504613 0 0.04960779406067551 0.061133611377373547 0 0.050666028161521617 0.060089435736216792 0 0.049143174622254274 0.059534932246099445 0 0.047311532835869939 0.060679422268281068 0 0.046911498379664719 0.0605349697039127 0 0.04960779406067551 0.061133611377373547 0 0.048222263720824034 0.061063263290504613 0 0.049143174622254274 0.059534932246099445 0 0.047043005373785148 0.06165914543741427 0 0.048222263720824034 0.061063263290504613 0 0.046764473422336368 0.060508893839693809 0 0.0478646380969266 0.062329942206532131 0 0.047043005373785148 0.06165914543741427 0 0.048222263720824034 0.061063263290504613 0 0.048222263720824034 0.061063263290504613 0 0.047625210873765381 0.060169587036204432 0 0.049143174622254274 0.059534932246099445 0 0.048222263720824034 0.061063263290504613 0 0.047625210873765381 0.060169587036204432 0 0.046764473422336368 0.060508893839693809 0 0.046764473422336368 0.060508893839693809 0 0.045637866082540092 0.061737069943074513 0 0.045396117800527373 0.059973014663962862 0 0.045637866082540092 0.061737069943074513 0 0.044083153970778707 0.060584890137512941 0 0.045396117800527373 0.059973014663962862 0 0.047043005373785148 0.06165914543741427 0 0.046764473422336368 0.060508893839693809 0 0.045637866082540092 0.061737069943074513 0 0.045637866082540092 0.061737069943074513 0 0.046752095397933721 0.062890089768763327 0 0.045653846881894604 0.063466858111288535 0 0.047043005373785148 0.06165914543741427 0 0.045637866082540092 0.061737069943074513 0 0.046752095397933721 0.062890089768763327 0 0.045637866082540092 0.061737069943074513 0 0.045653846881894604 0.063466858111288535 0 0.044085024465201017 0.06321880413882372 0 0.046603367915417936 0.064351303163972182 0 0.046752095397933721 0.062890089768763327 0 0.045653846881894604 0.063466858111288535 0 0.045469043705221715 0.065217652223502676 0 0.045653846881894604 0.063466858111288535 0 0.044085024465201017 0.06321880413882372 0 0.041709453977087606 0.062550353866140496 0 0.044085024465201017 0.06321880413882372 0 0.044083153970778707 0.060584890137512941 0 0.045637866082540092 0.061737069943074513 0 0.044085024465201017 0.06321880413882372 0 0.044083153970778707 0.060584890137512941 0 0.043021646417043653 0.059743985944649386 0 0.044083153970778707 0.060584890137512941 0 0.043881140015061652 0.058848603395868448 0 0.044083153970778707 0.060584890137512941 0 0.045396117800527373 0.059973014663962862 0 0.043881140015061652 0.058848603395868448 0 0.042993132021673014 0.059120437085086061 0 0.043021646417043653 0.059743985944649386 0 0.043881140015061652 0.058848603395868448 0 0.045396117800527373 0.059973014663962862 0 0.045831471467107539 0.058778197954030574 0 0.04678287495611546 0.059735903684539259 0 0.046764473422336368 0.060508893839693809 0 0.045396117800527373 0.059973014663962862 0 0.04678287495611546 0.059735903684539259 0 0.045396117800527373 0.059973014663962862 0 0.045831471467107539 0.058778197954030574 0 0.043881140015061652 0.058848603395868448 0 0.047259315234953893 0.059655599454068294 0 0.046199187563574759 0.060085272811605861 0 0.046606177185355722 0.059843302433774705 0 0.04521028476341811 0.060724852536864923 0 0.045380115463394884 0.060912088350631236 0 0.045108848551020139 0.060700437007942323 0 0.045871277056847043 0.060343281684525206 0 0.046400365695756951 0.060348657301252391 0 0.047259315234953893 0.059655599454068294 0 0.046199187563574759 0.060085272811605861 0 0.04805508503946631 0.05983429662051034 0 0.045831471467107539 0.058778197954030574 0 0.043881140015061652 0.058848603395868448 0 0.042796940957594252 0.057892901537826259 0 0.04521028476341811 0.060724852536864923 0 0.045380115463394884 0.060912088350631236 0 0.045505103599545974 0.060881519586592991 0 0.045439566125905391 0.060183336932954967 0 0.043654725673435556 0.059996615461002309 0 0.042993132021673014 0.059120437085086061 0 0.043881140015061652 0.058848603395868448 0 0.04279060024214347 0.058948321329828003 0 0.043579553197084148 0.059835023807515403 0 0.043654725673435556 0.059996615461002309 0 0.045925945037459906 0.060557769504529908 0 0.046370878615877367 0.059941611265073462 0 0.045928000829482049 0.060404514018314086 0 0.045925945037459906 0.060557769504529908 0 0.046252839256469419 0.060095911124707066 0 0.046370878615877367 0.059941611265073462 0 0.046199187563574759 0.060085272811605861 0 0.046252839256469419 0.060095911124707066 0 0.046606177185355722 0.059843302433774705 0 0.046199187563574759 0.060085272811605861 0 0.045925945037459906 0.060557769504529908 0 0.046252839256469419 0.060095911124707066 0 0.046606177185355722 0.059843302433774705 0 0.047048858042874876 0.059490764943557352 0 0.046370878615877367 0.059941611265073462 0 0.046252839256469419 0.060095911124707066 0 0.046606177185355722 0.059843302433774705 0 0.046370878615877367 0.059941611265073462 0 0.047259315234953893 0.059655599454068294 0 0.047048858042874876 0.059490764943557352 0 0.04819008344180814 0.059060016761752709 0 0.047259315234953893 0.059655599454068294 0 0.046606177185355722 0.059843302433774705 0 0.047048858042874876 0.059490764943557352 0 0.047048858042874876 0.059490764943557352 0 0.046682248922340533 0.05954374506298224 0 0.047637162193856455 0.058987743023426457 0 0.047048858042874876 0.059490764943557352 0 0.046370878615877367 0.059941611265073462 0 0.046682248922340533 0.05954374506298224 0 0.046682248922340533 0.05954374506298224 0 0.04611977796831003 0.059942745975775029 0 0.045928000829482049 0.060404514018314086 0 0.046370878615877367 0.059941611265073462 0 0.046682248922340533 0.05954374506298224 0 0.045928000829482049 0.060404514018314086 0 0.04611977796831003 0.059942745975775029 0 0.045928000829482049 0.060404514018314086 0 0.045632665319671493 0.060852592472255621 0 0.045729050562602916 0.060984436946205124 0 0.045928000829482049 0.060404514018314086 0 0.045475922796921933 0.061673948060773025 0 0.045925945037459906 0.060557769504529908 0 0.045729050562602916 0.060984436946205124 0 0.045928000829482049 0.060404514018314086 0 0.05033704177669112 0.057583258792437572 0 0.047317677693023259 0.058696913191678191 0 0.049877160520591768 0.057222264071690482 0 0.05033704177669112 0.057583258792437572 0 0.047317677693023259 0.058696913191678191 0 0.049340721344730026 0.058283690890642038 0 0.047317677693023259 0.058696913191678191 0 0.047637162193856455 0.058987743023426457 0 0.049340721344730026 0.058283690890642038 0 0.046682248922340533 0.05954374506298224 0 0.04611977796831003 0.059942745975775029 0 0.047317677693023259 0.058696913191678191 0 0.046682248922340533 0.05954374506298224 0 0.047317677693023259 0.058696913191678191 0 0.047637162193856455 0.058987743023426457 0 0.047048858042874876 0.059490764943557352 0 0.047637162193856455 0.058987743023426457 0 0.04819008344180814 0.059060016761752709 0 0.047637162193856455 0.058987743023426457 0 0.04819008344180814 0.059060016761752709 0 0.049340721344730026 0.058283690890642038 0 0.049340721344730026 0.058283690890642038 0 0.051041960157573237 0.057884726696489759 0 0.052098720776341825 0.057165367914587886 0 0.04819008344180814 0.059060016761752709 0 0.049340721344730026 0.058283690890642038 0 0.049666562730438249 0.058525893584768875 0 0.05033704177669112 0.057583258792437572 0 0.049340721344730026 0.058283690890642038 0 0.052098720776341825 0.057165367914587886 0 0.049340721344730026 0.058283690890642038 0 0.051041960157573237 0.057884726696489759 0 0.049666562730438249 0.058525893584768875 0 0.051041960157573237 0.057884726696489759 0 0.049666562730438249 0.058525893584768875 0 0.050362976367850622 0.058690350427501869 0 0.049666562730438249 0.058525893584768875 0 0.050362976367850622 0.058690350427501869 0 0.048892027511247695 0.059067984772572676 0 0.050362976367850622 0.058690350427501869 0 0.048892027511247695 0.059067984772572676 0 0.048938631343711833 0.059364055917770685 0 0.047259315234953893 0.059655599454068294 0 0.04819008344180814 0.059060016761752709 0 0.048173187225819057 0.059400092297305952 0 0.04819008344180814 0.059060016761752709 0 0.048892027511247695 0.059067984772572676 0 0.048173187225819057 0.059400092297305952 0 0.04819008344180814 0.059060016761752709 0 0.049666562730438249 0.058525893584768875 0 0.048892027511247695 0.059067984772572676 0 0.048892027511247695 0.059067984772572676 0 0.048938631343711833 0.059364055917770685 0 0.048173187225819057 0.059400092297305952 0 0.048938631343711833 0.059364055917770685 0 0.048173187225819057 0.059400092297305952 0 0.04805508503946631 0.05983429662051034 0 0.047259315234953893 0.059655599454068294 0 0.048173187225819057 0.059400092297305952 0 0.04805508503946631 0.05983429662051034 0 0.04521028476341811 0.060724852536864923 0 0.045108848551020139 0.060700437007942323 0 0.044945630543524108 0.060573852425773803 0 0.047625210873765381 0.060169587036204432 0 0.04678287495611546 0.059735903684539259 0 0.049143174622254274 0.059534932246099445 0 0.04805508503946631 0.05983429662051034 0 0.049767885728938095 0.059421058130455194 0 0.04976708237892017 0.059934236703111161 0 0.048938631343711833 0.059364055917770685 0 0.04805508503946631 0.05983429662051034 0 0.049767885728938095 0.059421058130455194 0 0.045439566125905391 0.060183336932954967 0 0.046911498379664719 0.0605349697039127 0 0.045831471467107539 0.058778197954030574 0 0.04678287495611546 0.059735903684539259 0 0.049143174622254274 0.059534932246099445 0 0.046400365695756951 0.060348657301252391 0 0.046911498379664719 0.0605349697039127 0 0.047625210873765381 0.060169587036204432 0 0.046764473422336368 0.060508893839693809 0 0.04678287495611546 0.059735903684539259 0 0.050362976367850622 0.058690350427501869 0 0.050820693762944159 0.059253173489718473 0 0.052304847912845738 0.058529461264658342 0 0.050362976367850622 0.058690350427501869 0 0.049767885728938095 0.059421058130455194 0 0.050820693762944159 0.059253173489718473 0 0.050362976367850622 0.058690350427501869 0 0.048938631343711833 0.059364055917770685 0 0.049767885728938095 0.059421058130455194 0 0.050666028161521617 0.060089435736216792 0 0.049767885728938095 0.059421058130455194 0 0.04976708237892017 0.059934236703111161 0 0.050666028161521617 0.060089435736216792 0 0.050820693762944159 0.059253173489718473 0 0.052304847912845738 0.058529461264658342 0 0.050666028161521617 0.060089435736216792 0 0.049767885728938095 0.059421058130455194 0 0.050820693762944159 0.059253173489718473 0 0.052304847912845738 0.058529461264658342 0 0.054783283912306226 0.057787702628812852 0 0.053070405118863954 0.057209454170460215 0 0.052304847912845738 0.058529461264658342 0 0.054783283912306226 0.057787702628812852 0 0.053009380991216729 0.059738222786849808 0 0.054783283912306226 0.057787702628812852 0 0.056675470559864674 0.055460372886138816 0 0.058569510392812149 0.056849358102029519 0 0.054783283912306226 0.057787702628812852 0 0.053070405118863954 0.057209454170460215 0 0.056675470559864674 0.055460372886138816 0 0.053070405118863954 0.057209454170460215 0 0.054876953357046343 0.056066720985081565 0 0.056675470559864674 0.055460372886138816 0 0.050362976367850622 0.058690350427501869 0 0.052304847912845738 0.058529461264658342 0 0.053070405118863954 0.057209454170460215 0 0.051041960157573237 0.057884726696489759 0 0.050362976367850622 0.058690350427501869 0 0.053070405118863954 0.057209454170460215 0 0.053070405118863954 0.057209454170460215 0 0.052098720776341825 0.057165367914587886 0 0.054876953357046343 0.056066720985081565 0 0.051041960157573237 0.057884726696489759 0 0.053070405118863954 0.057209454170460215 0 0.052098720776341825 0.057165367914587886 0 0.052098720776341825 0.057165367914587886 0 0.054876953357046343 0.056066720985081565 0 0.053159856354701815 0.056252657648139921 0 0.054876953357046343 0.056066720985081565 0 0.053159856354701815 0.056252657648139921 0 0.055934376435371892 0.055340132482110185 0 0.05033704177669112 0.057583258792437572 0 0.052098720776341825 0.057165367914587886 0 0.053159856354701815 0.056252657648139921 0 0.05033704177669112 0.057583258792437572 0 0.053159856354701815 0.056252657648139921 0 0.049877160520591768 0.057222264071690482 0 0.056990199261504185 0.055171083710476847 0 0.055934376435371892 0.055340132482110185 0 0.057548931045409001 0.055096982592498976 0 0.054876953357046343 0.056066720985081565 0 0.055934376435371892 0.055340132482110185 0 0.057548931045409001 0.055096982592498976 0 0.054876953357046343 0.056066720985081565 0 0.057548931045409001 0.055096982592498976 0 0.056675470559864674 0.055460372886138816 0 0.057548931045409001 0.055096982592498976 0 0.061158124607370239 0.052782733500463822 0 0.057196265104093709 0.055161141539618749 0 0.056990199261504185 0.055171083710476847 0 0.057548931045409001 0.055096982592498976 0 0.057196265104093709 0.055161141539618749 0 0.064420541434929729 0.052531820312163469 0 0.066541790382329297 0.050751462661653181 0 0.057548931045409001 0.055096982592498976 0 0.056675470559864674 0.055460372886138816 0 0.061158124607370239 0.052782733500463822 0 0.056675470559864674 0.055460372886138816 0 0.058569510392812149 0.056849358102029519 0 0.061158124607370239 0.052782733500463822 0 0.058569510392812149 0.056849358102029519 0 0.061158124607370239 0.052782733500463822 0 0.065900419854210385 0.057596842064725824 0 0.058569510392812149 0.056849358102029519 0 0.065900419854210385 0.057596842064725824 0 0.06005222718343968 0.060376731660549618 0 0.064487189552847893 0.061968533616397183 0 0.06005222718343968 0.060376731660549618 0 0.061952302293330666 0.0645585774099557 0 0.065900419854210385 0.057596842064725824 0 0.064487189552847893 0.061968533616397183 0 0.06005222718343968 0.060376731660549618 0 0.06005222718343968 0.060376731660549618 0 0.055916614522081097 0.059633214015072891 0 0.056638366357840524 0.062302118427446172 0 0.06005222718343968 0.060376731660549618 0 0.061952302293330666 0.0645585774099557 0 0.058775325342397017 0.063746459832195998 0 0.06005222718343968 0.060376731660549618 0 0.056638366357840524 0.062302118427446172 0 0.058775325342397017 0.063746459832195998 0 0.058569510392812149 0.056849358102029519 0 0.06005222718343968 0.060376731660549618 0 0.055916614522081097 0.059633214015072891 0 0.054783283912306226 0.057787702628812852 0 0.055916614522081097 0.059633214015072891 0 0.053009380991216729 0.059738222786849808 0 0.054783283912306226 0.057787702628812852 0 0.058569510392812149 0.056849358102029519 0 0.055916614522081097 0.059633214015072891 0 0.055916614522081097 0.059633214015072891 0 0.053009380991216729 0.059738222786849808 0 0.053597535838033498 0.061982818494629353 0 0.053009380991216729 0.059738222786849808 0 0.051285531720327036 0.061622453502378188 0 0.053597535838033498 0.061982818494629353 0 0.050666028161521617 0.060089435736216792 0 0.052304847912845738 0.058529461264658342 0 0.053009380991216729 0.059738222786849808 0 0.050666028161521617 0.060089435736216792 0 0.053009380991216729 0.059738222786849808 0 0.051285531720327036 0.061622453502378188 0 0.051285531720327036 0.061622453502378188 0 0.053597535838033498 0.061982818494629353 0 0.052055106572373895 0.062990600169816627 0 0.053597535838033498 0.061982818494629353 0 0.053035059470894007 0.06365866449056215 0 0.052055106572373895 0.062990600169816627 0 0.053597535838033498 0.061982818494629353 0 0.053035059470894007 0.06365866449056215 0 0.054651134706998915 0.064083607151886601 0 0.050582753035472383 0.063494183229443668 0 0.051285531720327036 0.061622453502378188 0 0.052055106572373895 0.062990600169816627 0 0.050582753035472383 0.063494183229443668 0 0.052055106572373895 0.062990600169816627 0 0.051857896279087747 0.064241820562076501 0 0.053035059470894007 0.06365866449056215 0 0.052055106572373895 0.062990600169816627 0 0.051857896279087747 0.064241820562076501 0 0.055916614522081097 0.059633214015072891 0 0.053597535838033498 0.061982818494629353 0 0.056638366357840524 0.062302118427446172 0 0.053597535838033498 0.061982818494629353 0 0.056638366357840524 0.062302118427446172 0 0.054651134706998915 0.064083607151886601 0 0.056638366357840524 0.062302118427446172 0 0.056892737057035569 0.065674842721132484 0 0.058775325342397017 0.063746459832195998 0 0.056638366357840524 0.062302118427446172 0 0.054651134706998915 0.064083607151886601 0 0.056892737057035569 0.065674842721132484 0 0.054651134706998915 0.064083607151886601 0 0.054716129947868349 0.066149960981423936 0 0.053109996084919987 0.065032895706474442 0 0.054651134706998915 0.064083607151886601 0 0.054716129947868349 0.066149960981423936 0 0.056892737057035569 0.065674842721132484 0 0.054716129947868349 0.066149960981423936 0 0.056892737057035569 0.065674842721132484 0 0.056442803488866822 0.067554575090212635 0 0.050767904665715714 0.065048808597366087 0 0.051857896279087747 0.064241820562076501 0 0.051745417174115252 0.065628997579858642 0 0.051857896279087747 0.064241820562076501 0 0.053109996084919987 0.065032895706474442 0 0.051745417174115252 0.065628997579858642 0 0.053035059470894007 0.06365866449056215 0 0.054651134706998915 0.064083607151886601 0 0.053109996084919987 0.065032895706474442 0 0.053035059470894007 0.06365866449056215 0 0.051857896279087747 0.064241820562076501 0 0.053109996084919987 0.065032895706474442 0 0.054716129947868349 0.066149960981423936 0 0.053109996084919987 0.065032895706474442 0 0.052845701941724915 0.066510011055303145 0 0.053109996084919987 0.065032895706474442 0 0.051745417174115252 0.065628997579858642 0 0.052845701941724915 0.066510011055303145 0 0.050767904665715714 0.065048808597366087 0 0.050694392013223968 0.066168356164999678 0 0.051745417174115252 0.065628997579858642 0 0.050694392013223968 0.066168356164999678 0 0.051745417174115252 0.065628997579858642 0 0.05135928621623502 0.067245067037614639 0 0.051745417174115252 0.065628997579858642 0 0.05135928621623502 0.067245067037614639 0 0.052845701941724915 0.066510011055303145 0 0.05135928621623502 0.067245067037614639 0 0.05275705242455711 0.067852401930510134 0 0.052845701941724915 0.066510011055303145 0 0.05275705242455711 0.067852401930510134 0 0.052845701941724915 0.066510011055303145 0 0.054555070469660578 0.068099158807029186 0 0.053713684404144049 0.069957072717037827 0 0.05275705242455711 0.067852401930510134 0 0.054555070469660578 0.068099158807029186 0 0.053713684404144049 0.069957072717037827 0 0.05275705242455711 0.067852401930510134 0 0.051644367256030832 0.068593930851768098 0 0.05135928621623502 0.067245067037614639 0 0.05275705242455711 0.067852401930510134 0 0.051644367256030832 0.068593930851768098 0 0.050922062660456388 0.069712955350121328 0 0.050061509130184249 0.068093340928416846 0 0.051644367256030832 0.068593930851768098 0 0.050061509130184249 0.068093340928416846 0 0.05135928621623502 0.067245067037614639 0 0.051644367256030832 0.068593930851768098 0 0.056892737057035569 0.065674842721132484 0 0.056442803488866822 0.067554575090212635 0 0.059074159741312395 0.067660862057806623 0 0.056442803488866822 0.067554575090212635 0 0.056713860188660571 0.069974070221772572 0 0.059074159741312395 0.067660862057806623 0 0.054716129947868349 0.066149960981423936 0 0.056442803488866822 0.067554575090212635 0 0.054555070469660578 0.068099158807029186 0 0.054716129947868349 0.066149960981423936 0 0.052845701941724915 0.066510011055303145 0 0.054555070469660578 0.068099158807029186 0 0.053713684404144049 0.069957072717037827 0 0.054555070469660578 0.068099158807029186 0 0.056713860188660571 0.069974070221772572 0 0.056442803488866822 0.067554575090212635 0 0.054555070469660578 0.068099158807029186 0 0.056713860188660571 0.069974070221772572 0 0.059880828508605564 0.071067001339694222 0 0.059074159741312395 0.067660862057806623 0 0.063375919718193216 0.068899645185260205 0 0.059880828508605564 0.071067001339694222 0 0.056713860188660571 0.069974070221772572 0 0.059074159741312395 0.067660862057806623 0 0.059074159741312395 0.067660862057806623 0 0.063375919718193216 0.068899645185260205 0 0.061952302293330666 0.0645585774099557 0 0.063375919718193216 0.068899645185260205 0 0.065768798408006673 0.065071421732830842 0 0.06950259014247688 0.067432714117366163 0 0.063375919718193216 0.068899645185260205 0 0.065768798408006673 0.065071421732830842 0 0.061952302293330666 0.0645585774099557 0 0.064487189552847893 0.061968533616397183 0 0.065768798408006673 0.065071421732830842 0 0.061952302293330666 0.0645585774099557 0 0.056892737057035569 0.065674842721132484 0 0.059074159741312395 0.067660862057806623 0 0.058775325342397017 0.063746459832195998 0 0.059074159741312395 0.067660862057806623 0 0.061952302293330666 0.0645585774099557 0 0.058775325342397017 0.063746459832195998 0 0.073312034804363893 0.063062632577048222 0 0.076748361009901581 0.066708033069354578 0 0.077091066850575554 0.059458193423489208 0 0.073312034804363893 0.063062632577048222 0 0.06950259014247688 0.067432714117366163 0 0.076748361009901581 0.066708033069354578 0 0.073312034804363893 0.063062632577048222 0 0.069159544155633801 0.062324943151783163 0 0.06950259014247688 0.067432714117366163 0 0.065768798408006673 0.065071421732830842 0 0.069159544155633801 0.062324943151783163 0 0.06950259014247688 0.067432714117366163 0 0.064487189552847893 0.061968533616397183 0 0.065768798408006673 0.065071421732830842 0 0.069159544155633801 0.062324943151783163 0 0.068058163221376783 0.071829860090737732 0 0.063375919718193216 0.068899645185260205 0 0.06950259014247688 0.067432714117366163 0 0.068058163221376783 0.071829860090737732 0 0.06950259014247688 0.067432714117366163 0 0.07308445305995373 0.070893012782108883 0 0.06950259014247688 0.067432714117366163 0 0.07308445305995373 0.070893012782108883 0 0.076748361009901581 0.066708033069354578 0 0.080992592241687075 0.074768362041055303 0 0.07308445305995373 0.070893012782108883 0 0.076748361009901581 0.066708033069354578 0 0.080992592241687075 0.074768362041055303 0 0.076748361009901581 0.066708033069354578 0 0.085922439886639917 0.065460652831904942 0 0.077911255530131854 0.028892628821315533 0 0.084076646398085458 0.040335129855168815 0 0.092077151099461199 0.022241987576682425 0 0.095101026900663271 0.021804236955569909 0 0.093374779460495369 0.024295504782427833 0 0.095101026900663271 0.021804236955569909 0 0.093374779460495369 0.024295504782427833 0 0.093882646825680371 0.024821955390000896 0 0.076748361009901581 0.066708033069354578 0 0.077091066850575554 0.059458193423489208 0 0.082817799454270924 0.059816016643244492 0 0.076748361009901581 0.066708033069354578 0 0.085922439886639917 0.065460652831904942 0 0.082817799454270924 0.059816016643244492 0 0.077091066850575554 0.059458193423489208 0 0.083918282966350274 0.052055247464223769 0 0.077604235832271704 0.054098353575657405 0 0.077091066850575554 0.059458193423489208 0 0.082817799454270924 0.059816016643244492 0 0.083918282966350274 0.052055247464223769 0 0.082817799454270924 0.059816016643244492 0 0.083918282966350274 0.052055247464223769 0 0.091632843146601625 0.053978528791715212 0 0.084076646398085458 0.040335129855168815 0 0.08876170521711825 0.040288434234599727 0 0.085922439886639917 0.065460652831904942 0 0.082817799454270924 0.059816016643244492 0 0.091632843146601625 0.053978528791715212 0 0.083918282966350274 0.052055247464223769 0 0.087500762765757675 0.046124895396696064 0 0.089249657898395729 0.04934845520767614 0 0.087812121620073402 0.041553655351157799 0 0.08876170521711825 0.040288434234599727 0 0.083918282966350274 0.052055247464223769 0 0.080658237624675305 0.049160283717183943 0 0.085661323132970951 0.046024634674820583 0 0.083918282966350274 0.052055247464223769 0 0.087500762765757675 0.046124895396696064 0 0.085661323132970951 0.046024634674820583 0 0.083918282966350274 0.052055247464223769 0 0.077604235832271704 0.054098353575657405 0 0.080658237624675305 0.049160283717183943 0 0.077604235832271704 0.054098353575657405 0 0.072612632448594297 0.057793676075252612 0 0.073885867582117556 0.052441235363590591 0 0.077604235832271704 0.054098353575657405 0 0.073885867582117556 0.052441235363590591 0 0.080658237624675305 0.049160283717183943 0 0.073312034804363893 0.063062632577048222 0 0.069159544155633801 0.062324943151783163 0 0.072612632448594297 0.057793676075252612 0 0.073312034804363893 0.063062632577048222 0 0.077091066850575554 0.059458193423489208 0 0.072612632448594297 0.057793676075252612 0 0.077091066850575554 0.059458193423489208 0 0.077604235832271704 0.054098353575657405 0 0.072612632448594297 0.057793676075252612 0 0.065900419854210385 0.057596842064725824 0 0.064487189552847893 0.061968533616397183 0 0.069159544155633801 0.062324943151783163 0 0.065900419854210385 0.057596842064725824 0 0.069159544155633801 0.062324943151783163 0 0.072612632448594297 0.057793676075252612 0 0.065900419854210385 0.057596842064725824 0 0.072612632448594297 0.057793676075252612 0 0.073885867582117556 0.052441235363590591 0 0.061158124607370239 0.052782733500463822 0 0.073885867582117556 0.052441235363590591 0 0.073993368593904776 0.046622460038567792 0 0.061158124607370239 0.052782733500463822 0 0.065900419854210385 0.057596842064725824 0 0.073885867582117556 0.052441235363590591 0 0.073885867582117556 0.052441235363590591 0 0.073993368593904776 0.046622460038567792 0 0.079493994166554144 0.046324996653384555 0 0.073885867582117556 0.052441235363590591 0 0.079493994166554144 0.046324996653384555 0 0.080658237624675305 0.049160283717183943 0 0.073993368593904776 0.046622460038567792 0 0.080774280069935506 0.042155149082902493 0 0.079493994166554144 0.046324996653384555 0 0.061158124607370239 0.052782733500463822 0 0.073993368593904776 0.046622460038567792 0 0.070663620810763883 0.040514109186921991 0 0.073993368593904776 0.046622460038567792 0 0.070663620810763883 0.040514109186921991 0 0.080774280069935506 0.042155149082902493 0 0.080774280069935506 0.042155149082902493 0 0.086593411412819676 0.038784609424085841 0 0.077580469102558614 0.034561155924531781 0 0.070663620810763883 0.040514109186921991 0 0.080774280069935506 0.042155149082902493 0 0.077580469102558614 0.034561155924531781 0 0.066541790382329297 0.050751462661653181 0 0.070322586305272564 0.051713737441403305 0 0.056990199261504185 0.055171083710476847 0 0.057196265104093709 0.055161141539618749 0 0.057635663622009912 0.054767524729579221 0 0.086593411412819676 0.038784609424085841 0 0.086084456234545956 0.040892732379903596 0 0.08764727922362342 0.040931229105189114 0 0.080774280069935506 0.042155149082902493 0 0.086593411412819676 0.038784609424085841 0 0.086084456234545956 0.040892732379903596 0 0.080774280069935506 0.042155149082902493 0 0.086084456234545956 0.040892732379903596 0 0.085519568254983358 0.04341380074529326 0 0.086084456234545956 0.040892732379903596 0 0.085519568254983358 0.04341380074529326 0 0.087519401986384568 0.041112807325231045 0 0.086084456234545956 0.040892732379903596 0 0.087519401986384568 0.041112807325231045 0 0.08764727922362342 0.040931229105189114 0 0.080774280069935506 0.042155149082902493 0 0.085519568254983358 0.04341380074529326 0 0.079493994166554144 0.046324996653384555 0 0.085519568254983358 0.04341380074529326 0 0.079493994166554144 0.046324996653384555 0 0.080658237624675305 0.049160283717183943 0 0.085519568254983358 0.04341380074529326 0 0.085661323132970951 0.046024634674820583 0 0.088515655165578494 0.042713409736891673 0 0.085519568254983358 0.04341380074529326 0 0.080658237624675305 0.049160283717183943 0 0.085661323132970951 0.046024634674820583 0 0.087500762765757675 0.046124895396696064 0 0.085661323132970951 0.046024634674820583 0 0.088515655165578494 0.042713409736891673 0 0.088515655165578494 0.042713409736891673 0 0.089044303369141292 0.040424094395913449 0 0.090151617056043881 0.042246722953704186 0 0.088515655165578494 0.042713409736891673 0 0.089044303369141292 0.040424094395913449 0 0.088577440551747669 0.041046888193287737 0 0.089044303369141292 0.040424094395913449 0 0.088577440551747669 0.041046888193287737 0 0.088061859158400632 0.038469795741130894 0 0.089044303369141292 0.040424094395913449 0 0.088061859158400632 0.038469795741130894 0 0.088211975430394413 0.037387612435197531 0 0.089044303369141292 0.040424094395913449 0 0.088211975430394413 0.037387612435197531 0 0.090151617056043881 0.042246722953704186 0 0.088577440551747669 0.041046888193287737 0 0.088171999865090708 0.040698435450496305 0 0.088061859158400632 0.038469795741130894 0 0.085519568254983358 0.04341380074529326 0 0.088515655165578494 0.042713409736891673 0 0.088577440551747669 0.041046888193287737 0 0.085519568254983358 0.04341380074529326 0 0.088577440551747669 0.041046888193287737 0 0.087519401986384568 0.041112807325231045 0 0.087519401986384568 0.041112807325231045 0 0.088171999865090708 0.040698435450496305 0 0.08764727922362342 0.040931229105189114 0 0.088577440551747669 0.041046888193287737 0 0.087519401986384568 0.041112807325231045 0 0.088171999865090708 0.040698435450496305 0 0.088171999865090708 0.040698435450496305 0 0.087718172640414052 0.041850039120906457 0 0.08722301638909867 0.042510139714081033 0 0.088171999865090708 0.040698435450496305 0 0.087718172640414052 0.041850039120906457 0 0.08764727922362342 0.040931229105189114 0 0.084999214405826792 0.041920167952604809 0 0.087114911643719539 0.039718525036029302 0 0.08722301638909867 0.042510139714081033 0 0.088171999865090708 0.040698435450496305 0 0.087114911643719539 0.039718525036029302 0 0.08722301638909867 0.042510139714081033 0 0.088171999865090708 0.040698435450496305 0 0.087114911643719539 0.039718525036029302 0 0.088061859158400632 0.038469795741130894 0 0.084999214405826792 0.041920167952604809 0 0.087114911643719539 0.039718525036029302 0 0.084999642638198022 0.037019089994073072 0 0.088061859158400632 0.038469795741130894 0 0.084999407035163066 0.032118327118217792 0 0.088211975430394413 0.037387612435197531 0 0.084999642638198022 0.037019089994073072 0 0.088061859158400632 0.038469795741130894 0 0.084999407035163066 0.032118327118217792 0 0.087114911643719539 0.039718525036029302 0 0.084999642638198022 0.037019089994073072 0 0.088061859158400632 0.038469795741130894 0 0.084999407035163066 0.032118327118217792 0 0.087725685321799987 0.033347738194262594 0 0.088211975430394413 0.037387612435197531 0 0.084999407035163066 0.032118327118217792 0 0.084998997390876671 0.027215099199255632 0 0.087725685321799987 0.033347738194262594 0 0.084999812451601112 0.027218092401673964 0 0.086879090526855163 0.032754085793856497 0 0.085000081542186842 0.027208340612120588 0 0.089058166752178522 0.027593780396280163 0 0.088121168238763675 0.025101928775901776 0 0.087725685321799987 0.033347738194262594 0 0.088211975430394413 0.037387612435197531 0 0.090151617056043881 0.042246722953704186 0 0.087725685321799987 0.033347738194262594 0 0.090151617056043881 0.042246722953704186 0 0.091642987761039005 0.039089403362360789 0 0.087500762765757675 0.046124895396696064 0 0.088515655165578494 0.042713409736891673 0 0.090151617056043881 0.042246722953704186 0 0.088658612987675592 0.040870053334705621 0 0.08876170521711825 0.040288434234599727 0 0.087500762765757675 0.046124895396696064 0 0.090151617056043881 0.042246722953704186 0 0.089249657898395729 0.04934845520767614 0 0.086879090526855163 0.032754085793856497 0 0.08876170521711825 0.040288434234599727 0 0.089058166752178522 0.027593780396280163 0 0.09254801931158603 0.028162479839951151 0 0.091531358171108176 0.025629309390064879 0 0.089058166752178522 0.027593780396280163 0 0.08973032568069457 0.025483594648540421 0 0.091531358171108176 0.025629309390064879 0 0.08973032568069457 0.025483594648540421 0 0.091531358171108176 0.025629309390064879 0 0.090172878568804141 0.023637674898728506 0 0.093374779460495369 0.024295504782427833 0 0.093882646825680371 0.024821955390000896 0 0.091531358171108176 0.025629309390064879 0 0.093882646825680371 0.024821955390000896 0 0.09254801931158603 0.028162479839951151 0 0.091531358171108176 0.025629309390064879 0 0.093374779460495369 0.024295504782427833 0 0.091531358171108176 0.025629309390064879 0 0.090172878568804141 0.023637674898728506 0 0.091474680746431253 0.023624610628280876 0 0.08971626257466768 0.023254344839870909 0 0.092077151099461199 0.022241987576682425 0 0.093374779460495369 0.024295504782427833 0 0.090275753484284432 0.023892681345502872 0 0.088918657749079671 0.022702725708267604 0 0.092077151099461199 0.022241987576682425 0 0.090275753484284432 0.023892681345502872 0 0.08971626257466768 0.023254344839870909 0 0.086102709291582383 0.02233846391171751 0 0.088918657749079671 0.022702725708267604 0 0.090275753484284432 0.023892681345502872 0 0.087163452251537682 0.02346245358420081 0 0.090172878568804141 0.023637674898728506 0 0.086462784836041889 0.02273654410507599 0 0.088121168238763675 0.025101928775901776 0 0.087001815596679841 0.020742569261402173 0 0.086102709291582383 0.02233846391171751 0 0.087001815596679841 0.020742569261402173 0 0.085002386027357199 0.02188278065970297 0 0.088885402977447861 0.021300454854488903 0 0.08649853263431187 0.022336132317008893 0 0.085000051070569363 0.021884929596339302 0 0.086102709291582383 0.02233846391171751 0 0.085002845973192895 0.022151430006111798 0 0.086647857137495107 0.022376531695652849 0 0.084999998494954043 0.02215086672109012 0 0.084999999313769448 0.023097291206616657 0 0.08649853263431187 0.022336132317008893 0 0.085000051070569363 0.021884929596339302 0 0.084999941995508463 0.022150593504185495 0 0.086462784836041889 0.02273654410507599 0 0.084999726967179404 0.02309885574108635 0 0.086342710754127319 0.024562704019644124 0 0.086102709291582383 0.02233846391171751 0 0.085002348890351756 0.023095001919466736 0 0.085000081542186842 0.027208340612120588 0 0.084999726967179404 0.02309885574108635 0 0.086342710754127319 0.024562704019644124 0 0.085000081542186842 0.027208340612120588 0 0.086342710754127319 0.024562704019644124 0 0.088121168238763675 0.025101928775901776 0 0.086462784836041889 0.02273654410507599 0 0.086342710754127319 0.024562704019644124 0 0.088121168238763675 0.025101928775901776 0 0.089058166752178522 0.027593780396280163 0 0.08973032568069457 0.025483594648540421 0 0.088121168238763675 0.025101928775901776 0 0.08973032568069457 0.025483594648540421 0 0.090172878568804141 0.023637674898728506 0 0.088121168238763675 0.025101928775901776 0 0.086119480218486671 0.059669276305875506 0 0.085455652199179125 0.062169437841079409 0 0.086129059857065315 0.062281875150223161 0 0.086119480218486671 0.059669276305875506 0 0.08538731064668717 0.059404101935224961 0 0.085455652199179125 0.062169437841079409 0 0.08538731064668717 0.059404101935224961 0 0.08499810871630599 0.061535589176122139 0 0.085455652199179125 0.062169437841079409 0 0.08538731064668717 0.059404101935224961 0 0.08499810871630599 0.061535589176122139 0 0.084997792533864081 0.05663005402080943 0 0.08499810871630599 0.061535589176122139 0 0.085455652199179125 0.062169437841079409 0 0.085101936298914632 0.064631550999621812 0 0.085455652199179125 0.062169437841079409 0 0.085142841729419688 0.064291726420446005 0 0.085101936298914632 0.064631550999621812 0 0.085455652199179125 0.062169437841079409 0 0.086129059857065315 0.062281875150223161 0 0.085142841729419688 0.064291726420446005 0 0.086129059857065315 0.062281875150223161 0 0.085416343721469917 0.064643553874467047 0 0.085142841729419688 0.064291726420446005 0 0.086129059857065315 0.062281875150223161 0 0.087756348349113056 0.061695545937508839 0 0.085416343721469917 0.064643553874467047 0 0.087756348349113056 0.061695545937508839 0 0.087504899928944488 0.06302294617981162 0 0.085416343721469917 0.064643553874467047 0 0.084061883565489923 0.059773094048465987 0 0.082944487350016971 0.06041359982104888 0 0.087756348349113056 0.061695545937508839 0 0.088596589977653309 0.058092798767913151 0 0.091291608406857988 0.057675145025692751 0 0.086129059857065315 0.062281875150223161 0 0.087756348349113056 0.061695545937508839 0 0.087066632909659367 0.060084390565540921 0 0.087756348349113056 0.061695545937508839 0 0.087066632909659367 0.060084390565540921 0 0.088596589977653309 0.058092798767913151 0 0.086119480218486671 0.059669276305875506 0 0.086129059857065315 0.062281875150223161 0 0.087066632909659367 0.060084390565540921 0 0.086119480218486671 0.059669276305875506 0 0.087066632909659367 0.060084390565540921 0 0.087160576704759102 0.057592426831266794 0 0.087160576704759102 0.057592426831266794 0 0.088368841143372151 0.05459190539736454 0 0.086278016491941084 0.055268533498938802 0 0.086119480218486671 0.059669276305875506 0 0.087160576704759102 0.057592426831266794 0 0.086278016491941084 0.055268533498938802 0 0.088596589977653309 0.058092798767913151 0 0.088368841143372151 0.05459190539736454 0 0.091231414324895191 0.057033284585062453 0 0.084494968980189586 0.059594366110019552 0 0.083015044672854033 0.059728514899499117 0 0.088596589977653309 0.058092798767913151 0 0.091231414324895191 0.057033284585062453 0 0.091291608406857988 0.057675145025692751 0 0.087066632909659367 0.060084390565540921 0 0.087160576704759102 0.057592426831266794 0 0.088596589977653309 0.058092798767913151 0 0.087160576704759102 0.057592426831266794 0 0.088596589977653309 0.058092798767913151 0 0.088368841143372151 0.05459190539736454 0 0.088368841143372151 0.05459190539736454 0 0.089651302671706706 0.049781921272510313 0 0.091711169330510642 0.056603524563389691 0 0.088368841143372151 0.05459190539736454 0 0.087926168882595523 0.051219916935695893 0 0.089651302671706706 0.049781921272510313 0 0.088368841143372151 0.05459190539736454 0 0.086278016491941084 0.055268533498938802 0 0.087926168882595523 0.051219916935695893 0 0.086278016491941084 0.055268533498938802 0 0.086786053999218626 0.050184637075055466 0 0.085814380518575109 0.052653744541278399 0 0.086119480218486671 0.059669276305875506 0 0.08538731064668717 0.059404101935224961 0 0.086278016491941084 0.055268533498938802 0 0.08538731064668717 0.059404101935224961 0 0.086278016491941084 0.055268533498938802 0 0.084997792533864081 0.05663005402080943 0 0.086278016491941084 0.055268533498938802 0 0.084997792533864081 0.05663005402080943 0 0.085814380518575109 0.052653744541278399 0 0.084997792533864081 0.05663005402080943 0 0.084998344228325265 0.051726194595265715 0 0.085814380518575109 0.052653744541278399 0 0.084998344228325265 0.051726194595265715 0 0.085814380518575109 0.052653744541278399 0 0.085850308731612146 0.049075180101013444 0 0.086786053999218626 0.050184637075055466 0 0.085814380518575109 0.052653744541278399 0 0.085850308731612146 0.049075180101013444 0 0.086786053999218626 0.050184637075055466 0 0.085850308731612146 0.049075180101013444 0 0.086727426306397251 0.046097485993647568 0 0.084998344228325265 0.051726194595265715 0 0.085850308731612146 0.049075180101013444 0 0.084998531473264208 0.046822622805055891 0 0.084998531473264208 0.046822622805055891 0 0.086727426306397251 0.046097485993647568 0 0.086028135444470646 0.044355497628703694 0 0.085850308731612146 0.049075180101013444 0 0.084998531473264208 0.046822622805055891 0 0.086727426306397251 0.046097485993647568 0 0.086727426306397251 0.046097485993647568 0 0.08722301638909867 0.042510139714081033 0 0.086028135444470646 0.044355497628703694 0 0.084999214405826792 0.041920167952604809 0 0.08722301638909867 0.042510139714081033 0 0.086028135444470646 0.044355497628703694 0 0.084999214405826792 0.041920167952604809 0 0.084998531473264208 0.046822622805055891 0 0.086028135444470646 0.044355497628703694 0 0.087718172640414052 0.041850039120906457 0 0.08764727922362342 0.040931229105189114 0 0.087815808886992808 0.043984780506044811 0 0.08764727922362342 0.040931229105189114 0 0.087815808886992808 0.043984780506044811 0 0.087962937838347785 0.042708301886434118 0 0.087718172640414052 0.041850039120906457 0 0.08722301638909867 0.042510139714081033 0 0.087815808886992808 0.043984780506044811 0 0.086727426306397251 0.046097485993647568 0 0.08722301638909867 0.042510139714081033 0 0.087815808886992808 0.043984780506044811 0 0.086727426306397251 0.046097485993647568 0 0.087815808886992808 0.043984780506044811 0 0.088055838927726615 0.047587754421345246 0 0.087815808886992808 0.043984780506044811 0 0.088055838927726615 0.047587754421345246 0 0.088998821380969956 0.046478128526182487 0 0.088055838927726615 0.047587754421345246 0 0.089651302671706706 0.049781921272510313 0 0.088998821380969956 0.046478128526182487 0 0.086786053999218626 0.050184637075055466 0 0.086727426306397251 0.046097485993647568 0 0.088055838927726615 0.047587754421345246 0 0.086278016491941084 0.055268533498938802 0 0.086786053999218626 0.050184637075055466 0 0.087926168882595523 0.051219916935695893 0 0.086786053999218626 0.050184637075055466 0 0.088055838927726615 0.047587754421345246 0 0.087926168882595523 0.051219916935695893 0 0.088055838927726615 0.047587754421345246 0 0.087926168882595523 0.051219916935695893 0 0.089651302671706706 0.049781921272510313 0 0.089651302671706706 0.049781921272510313 0 0.090791070691846179 0.049633317015742424 0 0.088998821380969956 0.046478128526182487 0 0.062334579759794909 0.061208110493196737 0 0.062609294696741466 0.06116178764863086 0 0.062249068914450686 0.061324213646885693 0 0.062430271251799466 0.061142644684894963 0 0.062334579759794909 0.061208110493196737 0 0.062214336081509579 0.061137331838736715 0 0.062430271251799466 0.061142644684894963 0 0.062334579759794909 0.061208110493196737 0 0.062609294696741466 0.06116178764863086 0 0.062609294696741466 0.06116178764863086 0 0.062267656870160795 0.061514286481948836 0 0.062249068914450686 0.061324213646885693 0 0.078245891789975153 0.056298002300959146 0 0.075178985941157461 0.053588063136521334 0 0.062609294696741466 0.06116178764863086 0 0.06230906592982368 0.061981343246987314 0 0.062267656870160795 0.061514286481948836 0 0.090791070691846179 0.049633317015742424 0 0.088998821380969956 0.046478128526182487 0 0.091110565541394128 0.045700742906636359 0 0.086593411412819676 0.038784609424085841 0 0.087962937838347785 0.042708301886434118 0 0.091110565541394128 0.045700742906636359 0 0.087815808886992808 0.043984780506044811 0 0.088998821380969956 0.046478128526182487 0 0.087962937838347785 0.042708301886434118 0 0.088998821380969956 0.046478128526182487 0 0.087962937838347785 0.042708301886434118 0 0.091110565541394128 0.045700742906636359 0 0.086593411412819676 0.038784609424085841 0 0.08764727922362342 0.040931229105189114 0 0.087962937838347785 0.042708301886434118 0 0.086593411412819676 0.038784609424085841 0 0.092591808978473772 0.03999272766244738 0 0.091110565541394128 0.045700742906636359 0 0.070322586305272564 0.051713737441403305 0 0.060845545243919226 0.055414054117266923 0 0.061701508439316204 0.063361741481654799 0 0.061295233461347354 0.062410759474988163 0 0.060381122575343608 0.06310691623059328 0 0.056990199261504185 0.055171083710476847 0 0.057635663622009912 0.054767524729579221 0 0.056934020345071903 0.054398873602715871 0 0.077274071199224831 0.050190034450783905 0 0.070322586305272564 0.051713737441403305 0 0.061295233461347354 0.062410759474988163 0 0.06230906592982368 0.061981343246987314 0 0.061658159426133466 0.06177430254925706 0 0.070322586305272564 0.051713737441403305 0 0.075178985941157461 0.053588063136521334 0 0.061701508439316204 0.063361741481654799 0 0.061295233461347354 0.062410759474988163 0 0.06230906592982368 0.061981343246987314 0 0.061295233461347354 0.062410759474988163 0 0.060839601629109612 0.06190605785394053 0 0.060712868231880199 0.062432998789100851 0 0.061295233461347354 0.062410759474988163 0 0.060839601629109612 0.06190605785394053 0 0.061658159426133466 0.06177430254925706 0 0.061025742755264137 0.061437614824366535 0 0.061658159426133466 0.06177430254925706 0 0.062019672080261441 0.061300187237846991 0 0.060839601629109612 0.06190605785394053 0 0.061025742755264137 0.061437614824366535 0 0.061658159426133466 0.06177430254925706 0 0.06230906592982368 0.061981343246987314 0 0.061658159426133466 0.06177430254925706 0 0.062070490771789645 0.061586633705326958 0 0.061658159426133466 0.06177430254925706 0 0.062070490771789645 0.061586633705326958 0 0.062019672080261441 0.061300187237846991 0 0.06230906592982368 0.061981343246987314 0 0.062070490771789645 0.061586633705326958 0 0.062267656870160795 0.061514286481948836 0 0.062070490771789645 0.061586633705326958 0 0.062267656870160795 0.061514286481948836 0 0.062090060345760902 0.061326649221372508 0 0.062267656870160795 0.061514286481948836 0 0.062249068914450686 0.061324213646885693 0 0.062090060345760902 0.061326649221372508 0 0.062070490771789645 0.061586633705326958 0 0.062090060345760902 0.061326649221372508 0 0.062019672080261441 0.061300187237846991 0 0.059565547961601961 0.062147484765533383 0 0.059554752802924896 0.062148024991158748 0 0.059698261244117458 0.06210299163534614 0 0.059554752802924896 0.062148024991158748 0 0.062249068914450686 0.061324213646885693 0 0.062120559501950057 0.061378925257592344 0 0.062157990331897867 0.061283387280508791 0 0.062249068914450686 0.061324213646885693 0 0.062090060345760902 0.061326649221372508 0 0.062028047671659918 0.061305356445832578 0 0.059554752802924896 0.062148024991158748 0 0.058665132016376235 0.062362229021648896 0 0.062120559501950057 0.061378925257592344 0 0.062157990331897867 0.061283387280508791 0 0.061837945075775759 0.061366774209259192 0 0.062051998589315933 0.061438387496012173 0 0.061996735339342322 0.061435700425460205 0 0.062269192580814231 0.061189711007244019 0 0.060566281373308654 0.061406011027363143 0 0.058665132016376235 0.062362229021648896 0 0.057950933014360058 0.06254087746063787 0 0.059976077046077395 0.061321931014844934 0 0.062157990331897867 0.061283387280508791 0 0.062214336081509579 0.061137331838736715 0 0.061837945075775759 0.061366774209259192 0 0.062348800753364603 0.061234428696916664 0 0.062051998589315933 0.061438387496012173 0 0.062269192580814231 0.061189711007244019 0 0.062334579759794909 0.061208110493196737 0 0.062249068914450686 0.061324213646885693 0 0.062157990331897867 0.061283387280508791 0 0.062334579759794909 0.061208110493196737 0 0.062157990331897867 0.061283387280508791 0 0.062214336081509579 0.061137331838736715 0 0.058482262828977893 0.062181749771640087 0 0.059554752802924896 0.062148024991158748 0 0.058622992931802259 0.06226040082036112 0 0.059041642216374646 0.062131707660239677 0 0.058825457633268123 0.062120749976444546 0 0.057950933014360058 0.06254087746063787 0 0.048858813122419957 0.064617992709650324 0 0.061535507011841635 0.062002825641321715 0 0.061551195197392328 0.061494817056875158 0 0.060678482490409795 0.06196815433059194 0 0.053265753883373436 0.062952358175430143 0 0.053814888875320759 0.062442861104125877 0 0.052731518331442281 0.062384921925746836 0 0.058482262828977893 0.062181749771640087 0 0.057950933014360058 0.06254087746063787 0 0.058607653251451911 0.062031812825011252 0 0.057623821883034498 0.062727581929840223 0 0.057870716017555383 0.062738354769612592 0 0.058482262828977893 0.062181749771640087 0 0.058665132016376235 0.062362229021648896 0 0.058665132016376235 0.062362229021648896 0 0.057950933014360058 0.06254087746063787 0 0.061535507011841635 0.062002825641321715 0 0.061551195197392328 0.061494817056875158 0 0.062162111684197462 0.061404316382980439 0 0.054424419063255326 0.065314817690420357 0 0.048858813122419957 0.064617992709650324 0 0.034377352825201254 0.067828009855934929 0 0.035998741914683802 0.068573865684073032 0 0.035995321739152514 0.066880335649437087 0 0.054424419063255326 0.065314817690420357 0 0.05468233589450161 0.065041426127223037 0 0.034377352825201254 0.067828009855934929 0 0.035368477872270751 0.070863315470530652 0 0.035998741914683802 0.068573865684073032 0 0.062076214199117866 0.061294471686364725 0 0.061996281906034158 0.06092120169634016 0 0.062273039197840198 0.06093668826089798 0 0.061996281906034158 0.06092120169634016 0 0.062273039197840198 0.06093668826089798 0 0.062153872256521039 0.060784116264632586 0 0.062273039197840198 0.06093668826089798 0 0.062493015066306182 0.060899534096958502 0 0.062444112916832821 0.060747055626289286 0 0.062273039197840198 0.06093668826089798 0 0.062488594644955847 0.061030012509144152 0 0.062493015066306182 0.060899534096958502 0 0.062273039197840198 0.06093668826089798 0 0.062265784681159321 0.061174364750587941 0 0.062488594644955847 0.061030012509144152 0 0.062076214199117866 0.061294471686364725 0 0.062273039197840198 0.06093668826089798 0 0.062265784681159321 0.061174364750587941 0 0.054424419063255326 0.065314817690420357 0 0.057065355622092098 0.063804907040933945 0 0.061551195197392328 0.061494817056875158 0 0.062162111684197462 0.061404316382980439 0 0.062265784681159321 0.061174364750587941 0 0.059976077046077395 0.061321931014844934 0 0.060550665883145602 0.060994020130173368 0 0.062348800753364603 0.061234428696916664 0 0.062269192580814231 0.061189711007244019 0 0.062488594644955847 0.061030012509144152 0 0.062162111684197462 0.061404316382980439 0 0.062265784681159321 0.061174364750587941 0 0.062488594644955847 0.061030012509144152 0 0.062348800753364603 0.061234428696916664 0 0.062559612473499754 0.061060857202064986 0 0.062488594644955847 0.061030012509144152 0 0.062430271251799466 0.061142644684894963 0 0.062214336081509579 0.061137331838736715 0 0.062559612473499754 0.061060857202064986 0 0.062609294696741466 0.06116178764863086 0 0.062559612473499754 0.061060857202064986 0 0.06261391883308165 0.060970055776334513 0 0.060566281373308654 0.061406011027363143 0 0.061089024419031697 0.061156108078365932 0 0.062430271251799466 0.061142644684894963 0 0.062609294696741466 0.06116178764863086 0 0.062559612473499754 0.061060857202064986 0 0.062559612473499754 0.061060857202064986 0 0.062488594644955847 0.061030012509144152 0 0.06261391883308165 0.060970055776334513 0 0.090791070691846179 0.049633317015742424 0 0.089866588083870838 0.051398411740763199 0 0.089961763642187956 0.051457001133697701 0 0.078245891789975153 0.056298002300959146 0 0.082618832672163856 0.059843203001123384 0 0.089651302671706706 0.049781921272510313 0 0.090791070691846179 0.049633317015742424 0 0.089866588083870838 0.051398411740763199 0 0.062609294696741466 0.06116178764863086 0 0.062772475312740245 0.060904831078773439 0 0.06261391883308165 0.060970055776334513 0 0.084475165651131681 0.05439625626961711 0 0.083015044672854033 0.059728514899499117 0 0.084354180029772768 0.059259927269196461 0 0.084052215766910909 0.059080230134462619 0 0.084265195845381752 0.058657946294420858 0 0.083015044672854033 0.059728514899499117 0 0.082618832672163856 0.059843203001123384 0 0.08484457418632739 0.078102029095524494 0 0.085014712689485267 0.077758378602238207 0 0.08337783349227626 0.075630635308932506 0 0.082618832672163856 0.059843203001123384 0 0.082944487350016971 0.06041359982104888 0 0.083015044672854033 0.059728514899499117 0 0.082944487350016971 0.06041359982104888 0 0.062772475312740245 0.060904831078773439 0 0.062493015066306182 0.060899534096958502 0 0.062444112916832821 0.060747055626289286 0 0.062772475312740245 0.060904831078773439 0 0.06261391883308165 0.060970055776334513 0 0.062493015066306182 0.060899534096958502 0 0.082618832672163856 0.059843203001123384 0 0.074195807945207012 0.064606960130426688 0 0.062488594644955847 0.061030012509144152 0 0.06261391883308165 0.060970055776334513 0 0.062493015066306182 0.060899534096958502 0 0.08484457418632739 0.078102029095524494 0 0.080661441362496214 0.075650138736595096 0 0.08337783349227626 0.075630635308932506 0 0.080661441362496214 0.075650138736595096 0 0.081874474698747049 0.073635126487819294 0 0.078784760741377038 0.073248124712271129 0 0.080661441362496214 0.075650138736595096 0 0.08337783349227626 0.075630635308932506 0 0.081874474698747049 0.073635126487819294 0 0.087756348349113056 0.061695545937508839 0 0.088261831585749032 0.060797703437976656 0 0.087504899928944488 0.06302294617981162 0 0.085014712689485267 0.077758378602238207 0 0.08337783349227626 0.075630635308932506 0 0.08441071630184234 0.072977736514449734 0 0.082944487350016971 0.06041359982104888 0 0.08443483438344325 0.066283589366791087 0 0.08337783349227626 0.075630635308932506 0 0.08441071630184234 0.072977736514449734 0 0.081874474698747049 0.073635126487819294 0 0.08441071630184234 0.072977736514449734 0 0.081874474698747049 0.073635126487819294 0 0.081295796241343393 0.07078619820604376 0 0.081874474698747049 0.073635126487819294 0 0.078784760741377038 0.073248124712271129 0 0.081295796241343393 0.07078619820604376 0 0.078784760741377038 0.073248124712271129 0 0.077874080355412365 0.07080039009975321 0 0.081295796241343393 0.07078619820604376 0 0.080661441362496214 0.075650138736595096 0 0.078784760741377038 0.073248124712271129 0 0.076516207364863503 0.073209613448661351 0 0.076718773920415831 0.07340084214653754 0 0.075451416856109982 0.071595327054571042 0 0.077874080355412365 0.07080039009975321 0 0.076718773920415831 0.07340084214653754 0 0.074090180585257584 0.073479239043324845 0 0.075451416856109982 0.071595327054571042 0 0.078784760741377038 0.073248124712271129 0 0.076718773920415831 0.07340084214653754 0 0.077874080355412365 0.07080039009975321 0 0.06900447163937716 0.067615562243293598 0 0.060984693702270533 0.06852111877169148 0 0.07113967814581619 0.068019076789157029 0 0.06900447163937716 0.067615562243293598 0 0.061996281906034158 0.06092120169634016 0 0.062153872256521039 0.060784116264632586 0 0.061899984703743929 0.0606218765655148 0 0.062109262040590897 0.060612925939594997 0 0.062153872256521039 0.060784116264632586 0 0.061899984703743929 0.0606218765655148 0 0.062273039197840198 0.06093668826089798 0 0.062444112916832821 0.060747055626289286 0 0.062153872256521039 0.060784116264632586 0 0.074195807945207012 0.064606960130426688 0 0.06900447163937716 0.067615562243293598 0 0.062444112916832821 0.060747055626289286 0 0.062109262040590897 0.060612925939594997 0 0.062153872256521039 0.060784116264632586 0 0.037668113499199775 0.071960126967776469 0 0.03640564933676449 0.074047026408227815 0 0.038853924857717034 0.074223169074246226 0 0.037668113499199775 0.071960126967776469 0 0.038853924857717034 0.074223169074246226 0 0.039333088634128703 0.072094395157136018 0 0.035368477872270751 0.070863315470530652 0 0.037668113499199775 0.071960126967776469 0 0.03640564933676449 0.074047026408227815 0 0.05468233589450161 0.065041426127223037 0 0.060984693702270533 0.06852111877169148 0 0.060984693702270533 0.06852111877169148 0 0.053936370640882365 0.071870248146834001 0 0.072043141029545343 0.079723324685120292 0 0.064735778155598958 0.079508341598609769 0 0.069767651908266184 0.072888983517303815 0 0.053936370640882365 0.071870248146834001 0 0.05072958040066762 0.07333961856800679 0 0.038853924857717034 0.074223169074246226 0 0.04153519107515765 0.074577478090517804 0 0.039333088634128703 0.072094395157136018 0 0.064735778155598958 0.079508341598609769 0 0.056156832020761001 0.07862584371009762 0 0.058299028299390369 0.073660968595674337 0 0.056156832020761001 0.07862584371009762 0 0.046451919588635773 0.074767083625976477 0 0.052382139080244021 0.072411039607965577 0 0.05072958040066762 0.07333961856800679 0 0.049565830654693201 0.073661354679579114 0 0.04153519107515765 0.074577478090517804 0 0.041265999625964604 0.071294937069502198 0 0.043629370608670795 0.072444889199987941 0 0.04153519107515765 0.074577478090517804 0 0.039333088634128703 0.072094395157136018 0 0.041265999625964604 0.071294937069502198 0 0.039333088634128703 0.072094395157136018 0 0.039135860057817565 0.070018536171407242 0 0.041265999625964604 0.071294937069502198 0 0.039135860057817565 0.070018536171407242 0 0.041265999625964604 0.071294937069502198 0 0.041202292541503503 0.068900545780842301 0 0.041265999625964604 0.071294937069502198 0 0.042873681097990453 0.070675760252947736 0 0.043629370608670795 0.072444889199987941 0 0.041265999625964604 0.071294937069502198 0 0.041202292541503503 0.068900545780842301 0 0.042873681097990453 0.070675760252947736 0 0.041202292541503503 0.068900545780842301 0 0.039474553466082078 0.068272456625079136 0 0.040449063326303401 0.067219779889937201 0 0.039135860057817565 0.070018536171407242 0 0.041202292541503503 0.068900545780842301 0 0.039474553466082078 0.068272456625079136 0 0.039135860057817565 0.070018536171407242 0 0.039474553466082078 0.068272456625079136 0 0.038222235874868962 0.068434255935991908 0 0.039135860057817565 0.070018536171407242 0 0.038222235874868962 0.068434255935991908 0 0.037153643558365687 0.069367176774897857 0 0.038222235874868962 0.068434255935991908 0 0.037153643558365687 0.069367176774897857 0 0.037082858241087119 0.067962408084220688 0 0.037668113499199775 0.071960126967776469 0 0.039333088634128703 0.072094395157136018 0 0.039135860057817565 0.070018536171407242 0 0.037668113499199775 0.071960126967776469 0 0.039135860057817565 0.070018536171407242 0 0.037153643558365687 0.069367176774897857 0 0.035368477872270751 0.070863315470530652 0 0.037668113499199775 0.071960126967776469 0 0.037153643558365687 0.069367176774897857 0 0.035368477872270751 0.070863315470530652 0 0.037153643558365687 0.069367176774897857 0 0.035998741914683802 0.068573865684073032 0 0.037153643558365687 0.069367176774897857 0 0.035998741914683802 0.068573865684073032 0 0.037082858241087119 0.067962408084220688 0 0.048858813122419957 0.064617992709650324 0 0.040543594582895963 0.065400609350187836 0 0.035998741914683802 0.068573865684073032 0 0.037082858241087119 0.067962408084220688 0 0.035995321739152514 0.066880335649437087 0 0.037082858241087119 0.067962408084220688 0 0.035995321739152514 0.066880335649437087 0 0.038300688409594712 0.067030234091585969 0 0.031444380579040886 0.066286914622544144 0 0.034482424895502517 0.066454711719243428 0 0.034031957676214968 0.064691213355041535 0 0.039474553466082078 0.068272456625079136 0 0.038222235874868962 0.068434255935991908 0 0.038300688409594712 0.067030234091585969 0 0.038222235874868962 0.068434255935991908 0 0.037082858241087119 0.067962408084220688 0 0.038300688409594712 0.067030234091585969 0 0.051392590808968887 0.063145949422160355 0 0.051621934799607326 0.063440515336578199 0 0.050056347425534477 0.063887535688990957 0 0.054829106305386809 0.062227886000848241 0 0.049970738770406538 0.062495496464669037 0 0.059596540412101939 0.061519935382281371 0 0.05863080799668724 0.062200986701481456 0 0.058129282711082156 0.061917947577920629 0 0.046718516094696634 0.064578464379007466 0 0.049970738770406538 0.062495496464669037 0 0.034482424895502517 0.066454711719243428 0 0.034031957676214968 0.064691213355041535 0 0.036157146539871808 0.06507327416773899 0 0.059596540412101939 0.061519935382281371 0 0.060054866230021486 0.061676708251960005 0 0.059189141770946502 0.062279287038225689 0 0.060940889219017282 0.061129596042843397 0 0.059596540412101939 0.061519935382281371 0 0.060054866230021486 0.061676708251960005 0 0.058482262828977893 0.062181749771640087 0 0.054829106305386809 0.062227886000848241 0 0.048858813122419957 0.064617992709650324 0 0.046718516094696634 0.064578464379007466 0 0.053265753883373436 0.062952358175430143 0 0.052731518331442281 0.062384921925746836 0 0.051621934799607326 0.063440515336578199 0 0.052731518331442281 0.062384921925746836 0 0.051392590808968887 0.063145949422160355 0 0.051621934799607326 0.063440515336578199 0 0.058482262828977893 0.062181749771640087 0 0.059253489939906499 0.06182578386098362 0 0.060839601629109612 0.06190605785394053 0 0.060263311649075259 0.06198627079900397 0 0.060556353150570216 0.062148516561697446 0 0.058482262828977893 0.062181749771640087 0 0.059200044004101678 0.061892689969040141 0 0.060839601629109612 0.06190605785394053 0 0.061025742755264137 0.061437614824366535 0 0.060263311649075259 0.06198627079900397 0 0.060823523774271381 0.061212913509322439 0 0.06002441337955227 0.061732922080960199 0 0.060113861675990844 0.061909833109589078 0 0.060839601629109612 0.06190605785394053 0 0.060556353150570216 0.062148516561697446 0 0.060712868231880199 0.062432998789100851 0 0.060405413920677109 0.062269103608277337 0 0.060712868231880199 0.062432998789100851 0 0.060049952960944217 0.062568438064033852 0 0.061295233461347354 0.062410759474988163 0 0.060712868231880199 0.062432998789100851 0 0.060381122575343608 0.06310691623059328 0 0.060263311649075259 0.06198627079900397 0 0.060556353150570216 0.062148516561697446 0 0.060405413920677109 0.062269103608277337 0 0.060556353150570216 0.062148516561697446 0 0.060405413920677109 0.062269103608277337 0 0.060712868231880199 0.062432998789100851 0 0.060712868231880199 0.062432998789100851 0 0.060049952960944217 0.062568438064033852 0 0.060381122575343608 0.06310691623059328 0 0.060049952960944217 0.062568438064033852 0 0.059338847524614276 0.06269752010736955 0 0.060381122575343608 0.06310691623059328 0 0.060263311649075259 0.06198627079900397 0 0.060049952960944217 0.062568438064033852 0 0.059338847524614276 0.06269752010736955 0 0.060263311649075259 0.06198627079900397 0 0.060405413920677109 0.062269103608277337 0 0.060049952960944217 0.062568438064033852 0 0.06002441337955227 0.061732922080960199 0 0.060113861675990844 0.061909833109589078 0 0.059189141770946502 0.062279287038225689 0 0.059200044004101678 0.061892689969040141 0 0.059221022402050079 0.061989273243923601 0 0.059253489939906499 0.06182578386098362 0 0.059279880370964919 0.061849662757176946 0 0.059338847524614276 0.06269752010736955 0 0.060381122575343608 0.06310691623059328 0 0.058702109778725017 0.062761552323144301 0 0.060113861675990844 0.061909833109589078 0 0.059189141770946502 0.062279287038225689 0 0.059338847524614276 0.06269752010736955 0 0.059596540412101939 0.061519935382281371 0 0.059189141770946502 0.062279287038225689 0 0.05863080799668724 0.062200986701481456 0 0.059189141770946502 0.062279287038225689 0 0.058702109778725017 0.062761552323144301 0 0.05863080799668724 0.062200986701481456 0 0.059189141770946502 0.062279287038225689 0 0.059338847524614276 0.06269752010736955 0 0.058702109778725017 0.062761552323144301 0 0.060845545243919226 0.055414054117266923 0 0.056222086765943931 0.058182014031859727 0 0.055934376435371892 0.055340132482110185 0 0.056934020345071903 0.054398873602715871 0 0.054847613892571624 0.054035339668027295 0 0.056990199261504185 0.055171083710476847 0 0.055934376435371892 0.055340132482110185 0 0.056934020345071903 0.054398873602715871 0 0.053159856354701815 0.056252657648139921 0 0.052029165041357642 0.055578985139878627 0 0.049877160520591768 0.057222264071690482 0 0.052029165041357642 0.055578985139878627 0 0.049877160520591768 0.057222264071690482 0 0.049568978731164538 0.056455347892197617 0 0.053159856354701815 0.056252657648139921 0 0.052029165041357642 0.055578985139878627 0 0.054847613892571624 0.054035339668027295 0 0.053159856354701815 0.056252657648139921 0 0.055934376435371892 0.055340132482110185 0 0.054847613892571624 0.054035339668027295 0 0.052029165041357642 0.055578985139878627 0 0.054847613892571624 0.054035339668027295 0 0.051009067195315241 0.053539492961364378 0 0.056222086765943931 0.058182014031859727 0 0.050074867282391584 0.060488192385176762 0 0.058702109778725017 0.062761552323144301 0 0.057812047067191868 0.062089491959661187 0 0.056878334484123737 0.062296406158102648 0 0.058702109778725017 0.062761552323144301 0 0.05863080799668724 0.062200986701481456 0 0.057812047067191868 0.062089491959661187 0 0.05863080799668724 0.062200986701481456 0 0.058129282711082156 0.061917947577920629 0 0.057812047067191868 0.062089491959661187 0 0.049970738770406538 0.062495496464669037 0 0.050214800095650845 0.062391412102889815 0 0.058123629899490679 0.061904821224145805 0 0.057812047067191868 0.062089491959661187 0 0.056878334484123737 0.062296406158102648 0 0.049970738770406538 0.062495496464669037 0 0.050074867282391584 0.060488192385176762 0 0.052029165041357642 0.055578985139878627 0 0.051009067195315241 0.053539492961364378 0 0.049568978731164538 0.056455347892197617 0 0.039891899533500023 0.061871058494324331 0 0.039474733989797672 0.061774801997102315 0 0.040461188930297855 0.063382028799437551 0 0.049944198478119019 0.060467042994798791 0 0.050074867282391584 0.060488192385176762 0 0.036838021367486998 0.062848845378013996 0 0.039474733989797672 0.061774801997102315 0 0.038582708280007906 0.064224834703774117 0 0.039474733989797672 0.061774801997102315 0 0.040461188930297855 0.063382028799437551 0 0.038582708280007906 0.064224834703774117 0 0.040461188930297855 0.063382028799437551 0 0.038582708280007906 0.064224834703774117 0 0.040195369776861438 0.065203604764328293 0 0.038582708280007906 0.064224834703774117 0 0.040195369776861438 0.065203604764328293 0 0.037806766449251274 0.066784730979479803 0 0.034031957676214968 0.064691213355041535 0 0.036838021367486998 0.062848845378013996 0 0.036157146539871808 0.06507327416773899 0 0.036838021367486998 0.062848845378013996 0 0.038582708280007906 0.064224834703774117 0 0.036157146539871808 0.06507327416773899 0 0.038582708280007906 0.064224834703774117 0 0.036157146539871808 0.06507327416773899 0 0.037806766449251274 0.066784730979479803 0 0.034482424895502517 0.066454711719243428 0 0.036157146539871808 0.06507327416773899 0 0.037806766449251274 0.066784730979479803 0 0.039474553466082078 0.068272456625079136 0 0.038300688409594712 0.067030234091585969 0 0.040449063326303401 0.067219779889937201 0 0.040543594582895963 0.065400609350187836 0 0.039883112641665205 0.065946828797203288 0 0.040195369776861438 0.065203604764328293 0 0.037806766449251274 0.066784730979479803 0 0.041857600549060917 0.067105823226685749 0 0.041202292541503503 0.068900545780842301 0 0.040449063326303401 0.067219779889937201 0 0.041857600549060917 0.067105823226685749 0 0.039883112641665205 0.065946828797203288 0 0.040459602117687628 0.066145266294319147 0 0.041857600549060917 0.067105823226685749 0 0.04326557752128149 0.06609147391968874 0 0.043415358052925936 0.068831209699034321 0 0.041857600549060917 0.067105823226685749 0 0.04326557752128149 0.06609147391968874 0 0.042147113430114874 0.064641020200533708 0 0.04326557752128149 0.06609147391968874 0 0.044171439768290847 0.065979268895625387 0 0.043415358052925936 0.068831209699034321 0 0.04326557752128149 0.06609147391968874 0 0.044537952577633488 0.062894744348103035 0 0.044171439768290847 0.065979268895625387 0 0.04326557752128149 0.06609147391968874 0 0.044537952577633488 0.062894744348103035 0 0.042147113430114874 0.064641020200533708 0 0.040195369776861438 0.065203604764328293 0 0.041857600549060917 0.067105823226685749 0 0.042147113430114874 0.064641020200533708 0 0.040461188930297855 0.063382028799437551 0 0.040195369776861438 0.065203604764328293 0 0.042147113430114874 0.064641020200533708 0 0.044537952577633488 0.062894744348103035 0 0.042147113430114874 0.064641020200533708 0 0.042435719009662018 0.06258020518289123 0 0.040461188930297855 0.063382028799437551 0 0.042147113430114874 0.064641020200533708 0 0.042435719009662018 0.06258020518289123 0 0.039891899533500023 0.061871058494324331 0 0.040461188930297855 0.063382028799437551 0 0.042435719009662018 0.06258020518289123 0 0.039891899533500023 0.061871058494324331 0 0.042435719009662018 0.06258020518289123 0 0.045360856080516231 0.059171970479998316 0 0.050074867282391584 0.060488192385176762 0 0.047936956443690663 0.060345051558475984 0 0.051009067195315241 0.053539492961364378 0 0.045360856080516231 0.059171970479998316 0 0.049568978731164538 0.056455347892197617 0 0.039891899533500023 0.061871058494324331 0 0.039215340795583663 0.061731248466250069 0 0.045360856080516231 0.059171970479998316 0 0.044537952577633488 0.062894744348103035 0 0.045360856080516231 0.059171970479998316 0 0.045593682485714188 0.060188290308180153 0 0.044537952577633488 0.062894744348103035 0 0.042435719009662018 0.06258020518289123 0 0.045360856080516231 0.059171970479998316 0 0.047317677693023259 0.058696913191678191 0 0.045360856080516231 0.059171970479998316 0 0.045593682485714188 0.060188290308180153 0 0.04611977796831003 0.059942745975775029 0 0.047317677693023259 0.058696913191678191 0 0.045593682485714188 0.060188290308180153 0 0.045360856080516231 0.059171970479998316 0 0.049877160520591768 0.057222264071690482 0 0.049568978731164538 0.056455347892197617 0 0.047317677693023259 0.058696913191678191 0 0.045360856080516231 0.059171970479998316 0 0.049877160520591768 0.057222264071690482 0 0.045475922796921933 0.061673948060773025 0 0.045632665319671493 0.060852592472255621 0 0.045267386704712316 0.062513697920349748 0 0.045928000829482049 0.060404514018314086 0 0.045475922796921933 0.061673948060773025 0 0.045632665319671493 0.060852592472255621 0 0.045632665319671493 0.060852592472255621 0 0.045593682485714188 0.060188290308180153 0 0.045267386704712316 0.062513697920349748 0 0.04611977796831003 0.059942745975775029 0 0.045632665319671493 0.060852592472255621 0 0.045593682485714188 0.060188290308180153 0 0.044537952577633488 0.062894744348103035 0 0.045593682485714188 0.060188290308180153 0 0.045267386704712316 0.062513697920349748 0 0.045475922796921933 0.061673948060773025 0 0.045267386704712316 0.062513697920349748 0 0.044950932937113226 0.063810153048287216 0 0.045267386704712316 0.062513697920349748 0 0.044241929456806564 0.066234867364845518 0 0.044950932937113226 0.063810153048287216 0 0.045267386704712316 0.062513697920349748 0 0.044171439768290847 0.065979268895625387 0 0.044241929456806564 0.066234867364845518 0 0.044537952577633488 0.062894744348103035 0 0.045267386704712316 0.062513697920349748 0 0.044171439768290847 0.065979268895625387 0 0.044171439768290847 0.065979268895625387 0 0.044241929456806564 0.066234867364845518 0 0.043619181963057169 0.069047231197430697 0 0.044241929456806564 0.066234867364845518 0 0.043619181963057169 0.069047231197430697 0 0.042663261667096442 0.069294021715272339 0 0.040416110605722234 0.071313881808553567 0 0.042663261667096442 0.069294021715272339 0 0.041199649195205676 0.071896081416937832 0 0.043619181963057169 0.069047231197430697 0 0.040416110605722234 0.071313881808553567 0 0.042663261667096442 0.069294021715272339 0 0.043619181963057169 0.069047231197430697 0 0.044711869835492968 0.071922583407700136 0 0.045072646341284578 0.072085300942728386 0 0.042414141376858679 0.071511137135346473 0 0.042162470596558276 0.072226016473288787 0 0.044171439768290847 0.065979268895625387 0 0.043619181963057169 0.069047231197430697 0 0.043415358052925936 0.068831209699034321 0 0.041202292541503503 0.068900545780842301 0 0.041857600549060917 0.067105823226685749 0 0.043415358052925936 0.068831209699034321 0 0.041202292541503503 0.068900545780842301 0 0.043415358052925936 0.068831209699034321 0 0.042873681097990453 0.070675760252947736 0 0.043415358052925936 0.068831209699034321 0 0.042873681097990453 0.070675760252947736 0 0.044711869835492968 0.071922583407700136 0 0.043619181963057169 0.069047231197430697 0 0.043415358052925936 0.068831209699034321 0 0.044711869835492968 0.071922583407700136 0 0.044711869835492968 0.071922583407700136 0 0.043629370608670795 0.072444889199987941 0 0.046451919588635773 0.074767083625976477 0 0.042873681097990453 0.070675760252947736 0 0.044711869835492968 0.071922583407700136 0 0.043629370608670795 0.072444889199987941 0 0.04153519107515765 0.074577478090517804 0 0.043629370608670795 0.072444889199987941 0 0.046451919588635773 0.074767083625976477 0 0.046451919588635773 0.074767083625976477 0 0.045414134865445405 0.07303551316272254 0 0.048006960615977021 0.071889943749678012 0 0.044711869835492968 0.071922583407700136 0 0.046451919588635773 0.074767083625976477 0 0.045414134865445405 0.07303551316272254 0 0.045414134865445405 0.07303551316272254 0 0.043912639604892077 0.072404602877822008 0 0.045072646341284578 0.072085300942728386 0 0.04156661104021863 0.073004199904394051 0 0.042162470596558276 0.072226016473288787 0 0.038623416925170538 0.074012580613449203 0 0.040416110605722234 0.071313881808553567 0 0.041199649195205676 0.071896081416937832 0 0.044711869835492968 0.071922583407700136 0 0.045414134865445405 0.07303551316272254 0 0.045072646341284578 0.072085300942728386 0 0.044935300557176865 0.068081896874398931 0 0.042156692488101902 0.068434742373235991 0 0.044730477720839677 0.070685326785244446 0 0.044935300557176865 0.068081896874398931 0 0.044730477720839677 0.070685326785244446 0 0.04663547409521266 0.069989765220035347 0 0.04156661104021863 0.073004199904394051 0 0.041137651487621676 0.073531787025181303 0 0.043912639604892077 0.072404602877822008 0 0.042156692488101902 0.068434742373235991 0 0.044730477720839677 0.070685326785244446 0 0.038623416925170538 0.074012580613449203 0 0.036977098743767436 0.077343810247468628 0 0.039816879588792091 0.076163593617834993 0 0.045414134865445405 0.07303551316272254 0 0.043912639604892077 0.072404602877822008 0 0.044730477720839677 0.070685326785244446 0 0.045414134865445405 0.07303551316272254 0 0.044730477720839677 0.070685326785244446 0 0.04663547409521266 0.069989765220035347 0 0.045414134865445405 0.07303551316272254 0 0.048006960615977021 0.071889943749678012 0 0.04663547409521266 0.069989765220035347 0 0.048006960615977021 0.071889943749678012 0 0.050967686979699445 0.067667234635098467 0 0.052382139080244021 0.072411039607965577 0 0.046451919588635773 0.074767083625976477 0 0.048006960615977021 0.071889943749678012 0 0.052382139080244021 0.072411039607965577 0 0.048006960615977021 0.071889943749678012 0 0.050967686979699445 0.067667234635098467 0 0.04663547409521266 0.069989765220035347 0 0.050967686979699445 0.067667234635098467 0 0.04663547409521266 0.069989765220035347 0 0.047619083697499315 0.066571117249719203 0 0.044935300557176865 0.068081896874398931 0 0.04663547409521266 0.069989765220035347 0 0.047619083697499315 0.066571117249719203 0 0.047619083697499315 0.066571117249719203 0 0.049340378257199308 0.063239480955595076 0 0.044392143326678443 0.065366035910377984 0 0.050314026937020674 0.064935783423677132 0 0.047843547452724094 0.065123159179616877 0 0.049340378257199308 0.063239480955595076 0 0.052812061027235763 0.064525950090745424 0 0.056610868237813597 0.061584844489383297 0 0.050967686979699445 0.067667234635098467 0 0.050246213552454524 0.065441759737774871 0 0.052812061027235763 0.064525950090745424 0 0.047619083697499315 0.066571117249719203 0 0.050246213552454524 0.065441759737774871 0 0.049340378257199308 0.063239480955595076 0 0.050967686979699445 0.067667234635098467 0 0.047619083697499315 0.066571117249719203 0 0.050246213552454524 0.065441759737774871 0 0.050246213552454524 0.065441759737774871 0 0.049340378257199308 0.063239480955595076 0 0.052812061027235763 0.064525950090745424 0 0.050314026937020674 0.064935783423677132 0 0.055642533492353013 0.064904364338018411 0 0.048292550349699474 0.065161250661305126 0 0.048542581542442148 0.063824326699833234 0 0.050481185533941451 0.063625050076215744 0 0.051996502945682831 0.071836556929875339 0 0.051235982893214738 0.074273353063592784 0 0.048542581542442148 0.063824326699833234 0 0.049982980175475283 0.061848839415308172 0 0.050481185533941451 0.063625050076215744 0 0.048292550349699474 0.065161250661305126 0 0.046170025717868594 0.064010730125918791 0 0.044392143326678443 0.065366035910377984 0 0.048542581542442148 0.063824326699833234 0 0.046170025717868594 0.064010730125918791 0 0.045444858079566094 0.061010037030659277 0 0.048292550349699474 0.065161250661305126 0 0.048542581542442148 0.063824326699833234 0 0.046170025717868594 0.064010730125918791 0 0.043746084196058313 0.062944019709372495 0 0.044392143326678443 0.065366035910377984 0 0.041616068056937627 0.064067919016977892 0 0.046170025717868594 0.064010730125918791 0 0.043746084196058313 0.062944019709372495 0 0.045444858079566094 0.061010037030659277 0 0.046170025717868594 0.064010730125918791 0 0.043746084196058313 0.062944019709372495 0 0.044392143326678443 0.065366035910377984 0 0.044935300557176865 0.068081896874398931 0 0.047619083697499315 0.066571117249719203 0 0.044392143326678443 0.065366035910377984 0 0.044935300557176865 0.068081896874398931 0 0.042156692488101902 0.068434742373235991 0 0.044392143326678443 0.065366035910377984 0 0.041137651487621676 0.073531787025181303 0 0.041668106541187196 0.074950118569247742 0 0.042156692488101902 0.068434742373235991 0 0.044392143326678443 0.065366035910377984 0 0.041616068056937627 0.064067919016977892 0 0.036977098743767436 0.077343810247468628 0 0.035786277267488044 0.083548300367103812 0 0.038223237151020772 0.079854619309746702 0 0.041668106541187196 0.074950118569247742 0 0.044360719624131809 0.080481343407622516 0 0.035786277267488044 0.083548300367103812 0 0.036391082607225643 0.089295483399167236 0 0.03705986491891386 0.087207579699342827 0 0.043746084196058313 0.062944019709372495 0 0.041616068056937627 0.064067919016977892 0 0.04116743723888891 0.060261273466639585 0 0.046899159163850658 0.07731790080112784 0 0.044360719624131809 0.080481343407622516 0 0.043746084196058313 0.062944019709372495 0 0.045444858079566094 0.061010037030659277 0 0.04116743723888891 0.060261273466639585 0 0.047662830452706258 0.094031887890791852 0 0.043870038286882872 0.090267546170897286 0 0.046663737915011418 0.089093046670703002 0 0.047662830452706258 0.094031887890791852 0 0.042205796739139101 0.093240422530390568 0 0.043870038286882872 0.090267546170897286 0 0.042205796739139101 0.093240422530390568 0 0.043870038286882872 0.090267546170897286 0 0.041174379664321414 0.087470379550846036 0 0.044360719624131809 0.080481343407622516 0 0.043848421182878003 0.085687025839025599 0 0.043870038286882872 0.090267546170897286 0 0.044280038236144112 0.087666330592874084 0 0.041174379664321414 0.087470379550846036 0 0.043870038286882872 0.090267546170897286 0 0.044280038236144112 0.087666330592874084 0 0.046663737915011418 0.089093046670703002 0 0.044280038236144112 0.087666330592874084 0 0.046663737915011418 0.089093046670703002 0 0.046705997475026365 0.086775669618666978 0 0.046705997475026365 0.086775669618666978 0 0.043839669333054186 0.08499922744580421 0 0.048933547127105133 0.084999953925694566 0 0.044280038236144112 0.087666330592874084 0 0.043839669333054186 0.08499922744580421 0 0.041174379664321414 0.087470379550846036 0 0.044280038236144112 0.087666330592874084 0 0.046705997475026365 0.086775669618666978 0 0.043839669333054186 0.08499922744580421 0 0.051952559779320742 0.085513560160101434 0 0.048933547127105133 0.084999953925694566 0 0.054025799978963444 0.084999953207508791 0 0.05253693026873571 0.087513062417306775 0 0.051952559779320742 0.085513560160101434 0 0.049906057166177575 0.087365844672708762 0 0.05253693026873571 0.087513062417306775 0 0.051952559779320742 0.085513560160101434 0 0.054559208690458112 0.086817760765126914 0 0.046705997475026365 0.086775669618666978 0 0.048933547127105133 0.084999953925694566 0 0.049906057166177575 0.087365844672708762 0 0.051952559779320742 0.085513560160101434 0 0.048933547127105133 0.084999953925694566 0 0.049906057166177575 0.087365844672708762 0 0.046663737915011418 0.089093046670703002 0 0.046705997475026365 0.086775669618666978 0 0.049906057166177575 0.087365844672708762 0 0.046663737915011418 0.089093046670703002 0 0.049906057166177575 0.087365844672708762 0 0.049383663954441839 0.090387341549549194 0 0.049906057166177575 0.087365844672708762 0 0.051915448399794381 0.089693714775817432 0 0.049383663954441839 0.090387341549549194 0 0.05253693026873571 0.087513062417306775 0 0.049906057166177575 0.087365844672708762 0 0.051915448399794381 0.089693714775817432 0 0.05253693026873571 0.087513062417306775 0 0.051915448399794381 0.089693714775817432 0 0.05424027229190953 0.0889586720629746 0 0.051915448399794381 0.089693714775817432 0 0.051285137142052226 0.092062860671384528 0 0.054953908457432192 0.091493720623327307 0 0.051285137142052226 0.092062860671384528 0 0.052716693517595357 0.094843666512992211 0 0.054953908457432192 0.091493720623327307 0 0.051915448399794381 0.089693714775817432 0 0.051285137142052226 0.092062860671384528 0 0.049383663954441839 0.090387341549549194 0 0.047662830452706258 0.094031887890791852 0 0.051285137142052226 0.092062860671384528 0 0.049383663954441839 0.090387341549549194 0 0.047662830452706258 0.094031887890791852 0 0.046663737915011418 0.089093046670703002 0 0.049383663954441839 0.090387341549549194 0 0.046899159163850658 0.07731790080112784 0 0.051235982893214738 0.074273353063592784 0 0.048542581542442148 0.063824326699833234 0 0.045444858079566094 0.061010037030659277 0 0.049886805311998586 0.061860729520630951 0 0.047662830452706258 0.094031887890791852 0 0.051285137142052226 0.092062860671384528 0 0.052716693517595357 0.094843666512992211 0 0.051235982893214738 0.074273353063592784 0 0.053529193180545359 0.080392175133333493 0 0.055518505858998514 0.075262724620223764 0 0.054926340279714402 0.075147873357781711 0 0.055128905260804224 0.075864426539724 0 0.051235982893214738 0.074273353063592784 0 0.052988491482932665 0.072067968128510851 0 0.049982980175475283 0.061848839415308172 0 0.053085393654383833 0.062521092103501597 0 0.050481185533941451 0.063625050076215744 0 0.054926340279714402 0.075147873357781711 0 0.05472621213977226 0.07555055817898923 0 0.054323628839879935 0.075026845105455112 0 0.054926340279714402 0.075147873357781711 0 0.05472621213977226 0.07555055817898923 0 0.055128905260804224 0.075864426539724 0 0.05472621213977226 0.07555055817898923 0 0.054667042433946489 0.075965346026198838 0 0.054337470130129448 0.075646470169209404 0 0.05472621213977226 0.07555055817898923 0 0.054667042433946489 0.075965346026198838 0 0.055128905260804224 0.075864426539724 0 0.05424027229190953 0.0889586720629746 0 0.057180336587113696 0.088170462953461315 0 0.054559208690458112 0.086817760765126914 0 0.054953908457432192 0.091493720623327307 0 0.05424027229190953 0.0889586720629746 0 0.057180336587113696 0.088170462953461315 0 0.051915448399794381 0.089693714775817432 0 0.054953908457432192 0.091493720623327307 0 0.05424027229190953 0.0889586720629746 0 0.05253693026873571 0.087513062417306775 0 0.05424027229190953 0.0889586720629746 0 0.054559208690458112 0.086817760765126914 0 0.053529193180545359 0.080392175133333493 0 0.057190298884427407 0.081931145554364912 0 0.054667042433946489 0.075965346026198838 0 0.054735809681640941 0.07647541892734025 0 0.054353359275539227 0.076271016339769487 0 0.054667042433946489 0.075965346026198838 0 0.055128905260804224 0.075864426539724 0 0.054735809681640941 0.07647541892734025 0 0.057190298884427407 0.081931145554364912 0 0.059015294172031801 0.078743664381269812 0 0.057190298884427407 0.081931145554364912 0 0.056242674270856087 0.083077294437125859 0 0.057190298884427407 0.081931145554364912 0 0.058970115467977514 0.084490657502526087 0 0.054025799978963444 0.084999953207508791 0 0.054533729517715158 0.086873783551995584 0 0.05912230378970787 0.08525519758281036 0 0.054025799978963444 0.084999953207508791 0 0.05912230378970787 0.08525519758281036 0 0.059118212187614316 0.085000010228609424 0 0.057107830025068307 0.088215753552451939 0 0.054533729517715158 0.086873783551995584 0 0.05912230378970787 0.08525519758281036 0 0.055504557108681234 0.083198180703444882 0 0.056242674270856087 0.083077294437125859 0 0.051952559779320742 0.085513560160101434 0 0.054025799978963444 0.084999953207508791 0 0.054533729517715158 0.086873783551995584 0 0.063198924880836088 0.084999974739505199 0 0.061163799544864589 0.087195680468612827 0 0.059118277858299394 0.084999967289608042 0 0.063198924880836088 0.084999974739505199 0 0.061163799544864589 0.087195680468612827 0 0.064275560151160469 0.088052513534604665 0 0.060175547191097016 0.081541667086504455 0 0.059525025859754506 0.082511468954372363 0 0.059501771542632545 0.081185364679013799 0 0.061163799544864589 0.087195680468612827 0 0.059126493879372723 0.085251258507329397 0 0.059228558755623321 0.089245582410103566 0 0.061163799544864589 0.087195680468612827 0 0.059126493879372723 0.085251258507329397 0 0.059118277858299394 0.084999967289608042 0 0.058970115467977514 0.084490657502526087 0 0.059015294172031801 0.078743664381269812 0 0.058970115467977514 0.084490657502526087 0 0.05911357869174956 0.084991736565731099 0 0.061163799544864589 0.087195680468612827 0 0.059228558755623321 0.089245582410103566 0 0.061852670190515366 0.090607750843059234 0 0.059015294172031801 0.078743664381269812 0 0.062338622547189845 0.075447426944231469 0 0.061852670190515366 0.090607750843059234 0 0.064477515780972508 0.091963091902812683 0 0.064275560151160469 0.088052513534604665 0 0.061163799544864589 0.087195680468612827 0 0.061852670190515366 0.090607750843059234 0 0.064275560151160469 0.088052513534604665 0 0.062338622547189845 0.075447426944231469 0 0.068136040745437901 0.07261175324074369 0 0.056527111244683535 0.063493255079333816 0 0.056512857975626843 0.063598372978425924 0 0.056706404104372735 0.063578390312493654 0 0.054667042433946489 0.075965346026198838 0 0.054353359275539227 0.076271016339769487 0 0.054337470130129448 0.075646470169209404 0 0.059015294172031801 0.078743664381269812 0 0.056307976327702597 0.07254262438697133 0 0.056366398114194721 0.063442961296022837 0 0.056527111244683535 0.063493255079333816 0 0.056340334318653838 0.063594352155302208 0 0.056527111244683535 0.063493255079333816 0 0.056512857975626843 0.063598372978425924 0 0.056340334318653838 0.063594352155302208 0 0.05472621213977226 0.07555055817898923 0 0.054337470130129448 0.075646470169209404 0 0.054323628839879935 0.075026845105455112 0 0.056340334318653838 0.063594352155302208 0 0.05638101730744708 0.063715344937632742 0 0.05621399352485363 0.063866630593660045 0 0.056307976327702597 0.07254262438697133 0 0.053978388137730864 0.070852403061346172 0 0.056512857975626843 0.063598372978425924 0 0.056340334318653838 0.063594352155302208 0 0.05638101730744708 0.063715344937632742 0 0.05638101730744708 0.063715344937632742 0 0.05657426234255878 0.063705394890030145 0 0.056239480900805043 0.063875824017188942 0 0.05638101730744708 0.063715344937632742 0 0.05621399352485363 0.063866630593660045 0 0.056239480900805043 0.063875824017188942 0 0.056512857975626843 0.063598372978425924 0 0.05657426234255878 0.063705394890030145 0 0.056706404104372735 0.063578390312493654 0 0.0667824305903955 0.06745676633186691 0 0.068136040745437901 0.07261175324074369 0 0.056512857975626843 0.063598372978425924 0 0.05638101730744708 0.063715344937632742 0 0.05657426234255878 0.063705394890030145 0 0.074768780183157954 0.063918410244732077 0 0.076473023293126829 0.065299342033390495 0 0.077839346498028691 0.065259705944085714 0 0.075566602837492558 0.064160039101007274 0 0.074768780183157954 0.063918410244732077 0 0.077839346498028691 0.065259705944085714 0 0.075566602837492558 0.064160039101007274 0 0.074768780183157954 0.063918410244732077 0 0.074765950738876333 0.063892301486794589 0 0.074768780183157954 0.063918410244732077 0 0.072676195570681182 0.065141141275257289 0 0.076473023293126829 0.065299342033390495 0 0.072676195570681182 0.065141141275257289 0 0.075658868391628456 0.066831211150263289 0 0.076473023293126829 0.065299342033390495 0 0.072676195570681182 0.065141141275257289 0 0.075658868391628456 0.066831211150263289 0 0.07326693783062814 0.067923246699702719 0 0.069227334577303692 0.066963130263950926 0 0.069015500995934065 0.064623676405402564 0 0.064063157763794218 0.06435192878847068 0 0.072676195570681182 0.065141141275257289 0 0.069227334577303692 0.066963130263950926 0 0.07326693783062814 0.067923246699702719 0 0.072676195570681182 0.065141141275257289 0 0.069227334577303692 0.066963130263950926 0 0.069015500995934065 0.064623676405402564 0 0.072676195570681182 0.065141141275257289 0 0.069015500995934065 0.064623676405402564 0 0.069935392780576561 0.062086678693926166 0 0.063881237994594053 0.065564640072249089 0 0.062346426334745547 0.066206091799261388 0 0.069015500995934065 0.064623676405402564 0 0.069935392780576561 0.062086678693926166 0 0.064063157763794218 0.06435192878847068 0 0.074768780183157954 0.063918410244732077 0 0.072676195570681182 0.065141141275257289 0 0.069935392780576561 0.062086678693926166 0 0.066098707089655345 0.065244812467066815 0 0.063881237994594053 0.065564640072249089 0 0.05657426234255878 0.063705394890030145 0 0.056303371022580061 0.064259235977350462 0 0.056239480900805043 0.063875824017188942 0 0.0667824305903955 0.06745676633186691 0 0.063881237994594053 0.065564640072249089 0 0.05399091217895647 0.070660365057182331 0 0.053978388137730864 0.070852403061346172 0 0.056303371022580061 0.064259235977350462 0 0.056082091862323477 0.063882769534593639 0 0.056239480900805043 0.063875824017188942 0 0.056082091862323477 0.063882769534593639 0 0.056176705151063058 0.06385816483223497 0 0.056239480900805043 0.063875824017188942 0 0.053978388137730864 0.070852403061346172 0 0.053988536075855575 0.070839089705119693 0 0.063881237994594053 0.065564640072249089 0 0.055642533492353013 0.064904364338018411 0 0.052988491482932665 0.072067968128510851 0 0.053978388137730864 0.070852403061346172 0 0.053085393654383833 0.062521092103501597 0 0.056082091862323477 0.063882769534593639 0 0.056074448597859018 0.063219260896629548 0 0.056303371022580061 0.064259235977350462 0 0.056082091862323477 0.063882769534593639 0 0.052453193993806525 0.064799640744483203 0 0.053085393654383833 0.062521092103501597 0 0.056082091862323477 0.063882769534593639 0 0.052453193993806525 0.064799640744483203 0 0.053085393654383833 0.062521092103501597 0 0.050481185533941451 0.063625050076215744 0 0.052453193993806525 0.064799640744483203 0 0.048292550349699474 0.065161250661305126 0 0.050481185533941451 0.063625050076215744 0 0.052453193993806525 0.064799640744483203 0 0.050967686979699445 0.067667234635098467 0 0.052812061027235763 0.064525950090745424 0 0.056310749459560952 0.065066844785179143 0 0.052812061027235763 0.064525950090745424 0 0.056610868237813597 0.061584844489383297 0 0.056310749459560952 0.065066844785179143 0 0.063564984835188382 0.060771506800673288 0 0.056610868237813597 0.061584844489383297 0 0.060080412152395658 0.064537273682050256 0 0.056610868237813597 0.061584844489383297 0 0.056310749459560952 0.065066844785179143 0 0.060080412152395658 0.064537273682050256 0 0.056310749459560952 0.065066844785179143 0 0.060080412152395658 0.064537273682050256 0 0.057066152872618368 0.068129533713582865 0 0.062346426334745547 0.066206091799261388 0 0.061045953731173004 0.067196425717179986 0 0.069227334577303692 0.066963130263950926 0 0.064063157763794218 0.06435192878847068 0 0.064030823516435992 0.071116492166950443 0 0.064063157763794218 0.06435192878847068 0 0.064030823516435992 0.071116492166950443 0 0.057066152872618368 0.068129533713582865 0 0.050967686979699445 0.067667234635098467 0 0.056310749459560952 0.065066844785179143 0 0.057066152872618368 0.068129533713582865 0 0.050967686979699445 0.067667234635098467 0 0.057066152872618368 0.068129533713582865 0 0.052382139080244021 0.072411039607965577 0 0.056156832020761001 0.07862584371009762 0 0.052382139080244021 0.072411039607965577 0 0.058299028299390369 0.073660968595674337 0 0.057066152872618368 0.068129533713582865 0 0.052382139080244021 0.072411039607965577 0 0.058299028299390369 0.073660968595674337 0 0.064030823516435992 0.071116492166950443 0 0.057066152872618368 0.068129533713582865 0 0.058299028299390369 0.073660968595674337 0 0.064735778155598958 0.079508341598609769 0 0.064030823516435992 0.071116492166950443 0 0.058299028299390369 0.073660968595674337 0 0.064735778155598958 0.079508341598609769 0 0.064030823516435992 0.071116492166950443 0 0.069767651908266184 0.072888983517303815 0 0.060984693702270533 0.06852111877169148 0 0.065218378819859549 0.071024544714607424 0 0.072667063854456163 0.070813381761349659 0 0.075457751157755021 0.069358644408186926 0 0.075451416856109982 0.071595327054571042 0 0.074090180585257584 0.073479239043324845 0 0.072667063854456163 0.070813381761349659 0 0.075451416856109982 0.071595327054571042 0 0.075658868391628456 0.066831211150263289 0 0.075457751157755021 0.069358644408186926 0 0.07326693783062814 0.067923246699702719 0 0.072667063854456163 0.070813381761349659 0 0.075457751157755021 0.069358644408186926 0 0.07326693783062814 0.067923246699702719 0 0.069227334577303692 0.066963130263950926 0 0.064030823516435992 0.071116492166950443 0 0.069767651908266184 0.072888983517303815 0 0.065777365411705271 0.069901694084746224 0 0.065218378819859549 0.071024544714607424 0 0.069227334577303692 0.066963130263950926 0 0.072667063854456163 0.070813381761349659 0 0.07326693783062814 0.067923246699702719 0 0.080131950731371263 0.068495183912972657 0 0.078042974928623901 0.067984077182802916 0 0.080358172860431468 0.066469645949627107 0 0.075658868391628456 0.066831211150263289 0 0.075457751157755021 0.069358644408186926 0 0.078042974928623901 0.067984077182802916 0 0.075457751157755021 0.069358644408186926 0 0.078042974928623901 0.067984077182802916 0 0.077874080355412365 0.07080039009975321 0 0.075457751157755021 0.069358644408186926 0 0.075451416856109982 0.071595327054571042 0 0.077874080355412365 0.07080039009975321 0 0.080131950731371263 0.068495183912972657 0 0.078042974928623901 0.067984077182802916 0 0.077874080355412365 0.07080039009975321 0 0.080131950731371263 0.068495183912972657 0 0.077874080355412365 0.07080039009975321 0 0.081295796241343393 0.07078619820604376 0 0.080131950731371263 0.068495183912972657 0 0.081295796241343393 0.07078619820604376 0 0.083520597022784873 0.067119456374299447 0 0.087504899928944488 0.06302294617981162 0 0.083520597022784873 0.067119456374299447 0 0.085416343721469917 0.064643553874467047 0 0.08441071630184234 0.072977736514449734 0 0.081295796241343393 0.07078619820604376 0 0.083520597022784873 0.067119456374299447 0 0.08443483438344325 0.066283589366791087 0 0.084376358468118556 0.066368900242819301 0 0.083520597022784873 0.067119456374299447 0 0.081823211561117215 0.066417615274583924 0 0.083344373721813664 0.066421709479546551 0 0.083520597022784873 0.067119456374299447 0 0.083344373721813664 0.066421709479546551 0 0.085416343721469917 0.064643553874467047 0 0.083520597022784873 0.067119456374299447 0 0.080358172860431468 0.066469645949627107 0 0.081823211561117215 0.066417615274583924 0 0.080131950731371263 0.068495183912972657 0 0.083520597022784873 0.067119456374299447 0 0.080358172860431468 0.066469645949627107 0 0.080358172860431468 0.066469645949627107 0 0.081823211561117215 0.066417615274583924 0 0.080329245703395016 0.066131888357215937 0 0.081823211561117215 0.066417615274583924 0 0.080905577907441045 0.066310472234275858 0 0.080329245703395016 0.066131888357215937 0 0.081823211561117215 0.066417615274583924 0 0.080905577907441045 0.066310472234275858 0 0.083344373721813664 0.066421709479546551 0 0.079240908873034796 0.066665336676124912 0 0.080329245703395016 0.066131888357215937 0 0.078921254982989616 0.067688436683742345 0 0.080905577907441045 0.066310472234275858 0 0.079240908873034796 0.066665336676124912 0 0.080329245703395016 0.066131888357215937 0 0.080905577907441045 0.066310472234275858 0 0.079240908873034796 0.066665336676124912 0 0.079902656816188022 0.06644100387837383 0 0.080358172860431468 0.066469645949627107 0 0.080329245703395016 0.066131888357215937 0 0.080161936058611716 0.065900435145590533 0 0.080329245703395016 0.066131888357215937 0 0.080161936058611716 0.065900435145590533 0 0.078921254982989616 0.067688436683742345 0 0.080161936058611716 0.065900435145590533 0 0.078210811785292836 0.065880658131773337 0 0.077839346498028691 0.065259705944085714 0 0.080358172860431468 0.066469645949627107 0 0.080161936058611716 0.065900435145590533 0 0.078210811785292836 0.065880658131773337 0 0.078042974928623901 0.067984077182802916 0 0.080358172860431468 0.066469645949627107 0 0.078210811785292836 0.065880658131773337 0 0.075658868391628456 0.066831211150263289 0 0.078042974928623901 0.067984077182802916 0 0.078210811785292836 0.065880658131773337 0 0.075658868391628456 0.066831211150263289 0 0.078210811785292836 0.065880658131773337 0 0.076473023293126829 0.065299342033390495 0 0.078210811785292836 0.065880658131773337 0 0.076473023293126829 0.065299342033390495 0 0.077839346498028691 0.065259705944085714 0 0.075566602837492558 0.064160039101007274 0 0.077839346498028691 0.065259705944085714 0 0.077909794871178883 0.063747446226438478 0 0.077839346498028691 0.065259705944085714 0 0.080838453698876989 0.066761112259616437 0 0.077909794871178883 0.063747446226438478 0 0.080161936058611716 0.065900435145590533 0 0.077839346498028691 0.065259705944085714 0 0.080838453698876989 0.066761112259616437 0 0.080161936058611716 0.065900435145590533 0 0.080838453698876989 0.066761112259616437 0 0.078245495487655747 0.070492653735722582 0 0.080838453698876989 0.066761112259616437 0 0.081774436845964027 0.077370415292009428 0 0.078245495487655747 0.070492653735722582 0 0.080838453698876989 0.066761112259616437 0 0.087314789714575777 0.069992496081832001 0 0.081774436845964027 0.077370415292009428 0 0.068136040745437901 0.07261175324074369 0 0.070973415816486196 0.079742211150982595 0 0.072257825914177384 0.072975643763106737 0 0.068136040745437901 0.07261175324074369 0 0.064477515780972508 0.091963091902812683 0 0.064275560151160469 0.088052513534604665 0 0.067726753593356392 0.088495495295003862 0 0.067726753593356392 0.088495495295003862 0 0.067101879645728155 0.084999968913960097 0 0.071004823149359061 0.085000004203925741 0 0.064275560151160469 0.088052513534604665 0 0.067726753593356392 0.088495495295003862 0 0.067101879645728155 0.084999968913960097 0 0.063198924880836088 0.084999974739505199 0 0.064275560151160469 0.088052513534604665 0 0.067101879645728155 0.084999968913960097 0 0.073427250433667296 0.082440102643701996 0 0.071032938848312049 0.08499676694188224 0 0.074428386090228366 0.079001361929124631 0 0.073427250433667296 0.082440102643701996 0 0.071032938848312049 0.08499676694188224 0 0.075139114338117069 0.084996283690401964 0 0.071032938848312049 0.08499676694188224 0 0.076219661455066617 0.077212671153106149 0 0.074428386090228366 0.079001361929124631 0 0.081774436845964027 0.077370415292009428 0 0.071032938848312049 0.08499676694188224 0 0.076219661455066617 0.077212671153106149 0 0.070973415816486196 0.079742211150982595 0 0.071003725584174851 0.084993286631126749 0 0.081774436845964027 0.077370415292009428 0 0.076219661455066617 0.077212671153106149 0 0.078245495487655747 0.070492653735722582 0 0.076219661455066617 0.077212671153106149 0 0.0754108335982758 0.075155886737706831 0 0.074428386090228366 0.079001361929124631 0 0.073427250433667296 0.082440102643701996 0 0.074428386090228366 0.079001361929124631 0 0.071538478903032152 0.078989768604552271 0 0.0754108335982758 0.075155886737706831 0 0.074428386090228366 0.079001361929124631 0 0.071538478903032152 0.078989768604552271 0 0.0754108335982758 0.075155886737706831 0 0.076306605475596007 0.071425774448344623 0 0.078245495487655747 0.070492653735722582 0 0.0754108335982758 0.075155886737706831 0 0.076306605475596007 0.071425774448344623 0 0.071538478903032152 0.078989768604552271 0 0.076219661455066617 0.077212671153106149 0 0.0754108335982758 0.075155886737706831 0 0.078245495487655747 0.070492653735722582 0 0.080161936058611716 0.065900435145590533 0 0.078245495487655747 0.070492653735722582 0 0.078921254982989616 0.067688436683742345 0 0.076306605475596007 0.071425774448344623 0 0.078245495487655747 0.070492653735722582 0 0.078921254982989616 0.067688436683742345 0 0.076306605475596007 0.071425774448344623 0 0.078921254982989616 0.067688436683742345 0 0.077860380554180486 0.068025084021872559 0 0.079240908873034796 0.066665336676124912 0 0.078921254982989616 0.067688436683742345 0 0.077860380554180486 0.068025084021872559 0 0.077860380554180486 0.068025084021872559 0 0.07783166339326647 0.066491973129356646 0 0.075339374255961503 0.067713164865690428 0 0.079240908873034796 0.066665336676124912 0 0.077860380554180486 0.068025084021872559 0 0.07783166339326647 0.066491973129356646 0 0.080558120441909409 0.065014876876454297 0 0.081268567023053948 0.066264437364759829 0 0.080109863969231587 0.066154398652508578 0 0.07783166339326647 0.066491973129356646 0 0.079598703337415394 0.065830641920234786 0 0.080109863969231587 0.066154398652508578 0 0.079598703337415394 0.065830641920234786 0 0.080558120441909409 0.065014876876454297 0 0.080109863969231587 0.066154398652508578 0 0.081346029174940424 0.078157170396834313 0 0.081295702803276568 0.078381729600883798 0 0.079598703337415394 0.065830641920234786 0 0.079841390216272401 0.06525223508622327 0 0.080558120441909409 0.065014876876454297 0 0.07783166339326647 0.066491973129356646 0 0.079598703337415394 0.065830641920234786 0 0.079841390216272401 0.06525223508622327 0 0.076306605475596007 0.071425774448344623 0 0.077860380554180486 0.068025084021872559 0 0.075339374255961503 0.067713164865690428 0 0.080558120441909409 0.065014876876454297 0 0.084225288807087781 0.065535920937384681 0 0.084022241484605506 0.062765129985564563 0 0.081295702803276568 0.078381729600883798 0 0.082369076381913986 0.078761240989588824 0 0.080558120441909409 0.065014876876454297 0 0.084225288807087781 0.065535920937384681 0 0.084719141564225137 0.068532405437154137 0 0.079841390216272401 0.06525223508622327 0 0.080558120441909409 0.065014876876454297 0 0.084022241484605506 0.062765129985564563 0 0.076489539205320853 0.093760966637819812 0 0.079265495527265584 0.091751592432591109 0 0.076689101673788923 0.089473095188092211 0 0.081295702803276568 0.078381729600883798 0 0.078063449092472148 0.082557070137351862 0 0.075465613967084608 0.077854884758771212 0 0.075276847772412114 0.080205877202388143 0 0.076306605475596007 0.071425774448344623 0 0.075339374255961503 0.067713164865690428 0 0.073150254730405456 0.077052241632759727 0 0.073150254730405456 0.077052241632759727 0 0.07640178594788985 0.079463396396529717 0 0.076748786091012933 0.085003547337833191 0 0.076306605475596007 0.071425774448344623 0 0.073150254730405456 0.077052241632759727 0 0.07640178594788985 0.079463396396529717 0 0.076689101673788923 0.089473095188092211 0 0.079466203758474435 0.088134631081243239 0 0.076767270438575161 0.085000024314257114 0 0.079265495527265584 0.091751592432591109 0 0.076689101673788923 0.089473095188092211 0 0.079466203758474435 0.088134631081243239 0 0.079466203758474435 0.088134631081243239 0 0.07963472435341036 0.084999907913776429 0 0.076767270438575161 0.085000024314257114 0 0.075276847772412114 0.080205877202388143 0 0.075160288693411542 0.084992907055111366 0 0.07640178594788985 0.079463396396529717 0 0.076748786091012933 0.085003547337833191 0 0.07517789137035194 0.084994493387487463 0 0.078063449092472148 0.082557070137351862 0 0.07676859182780868 0.084997107025902116 0 0.073427250433667296 0.082440102643701996 0 0.071538478903032152 0.078989768604552271 0 0.075139114338117069 0.084996283690401964 0 0.084552667671921738 0.083583860074616864 0 0.082511292138920472 0.08499711196895797 0 0.085905130870348734 0.082283891887915822 0 0.084552667671921738 0.083583860074616864 0 0.084997258596984329 0.084997796221364344 0 0.084996776846002819 0.08204920339196374 0 0.082504197576080393 0.084997226718031033 0 0.083495986181088652 0.079983820731292815 0 0.084552667671921738 0.083583860074616864 0 0.084997258596984329 0.084997796221364344 0 0.082511292138920472 0.08499711196895797 0 0.082502412752465781 0.085000002904797922 0 0.080942757011338254 0.086969847332367053 0 0.082144342184227948 0.089705284197444182 0 0.079466203758474435 0.088134631081243239 0 0.07963472435341036 0.084999907913776429 0 0.080942757011338254 0.086969847332367053 0 0.07963472435341036 0.084999907913776429 0 0.082502412752465781 0.085000002904797922 0 0.080942757011338254 0.086969847332367053 0 0.079265495527265584 0.091751592432591109 0 0.079466203758474435 0.088134631081243239 0 0.082144342184227948 0.089705284197444182 0 0.079466203758474435 0.088134631081243239 0 0.080942757011338254 0.086969847332367053 0 0.082144342184227948 0.089705284197444182 0 0.087713961043258279 0.0800304723278224 0 0.084999959805989678 0.08204185336099297 0 0.085000074054307442 0.078140837006488426 0 0.084552667671921738 0.083583860074616864 0 0.085905130870348734 0.082283891887915822 0 0.084996776846002819 0.08204920339196374 0 0.083495986181088652 0.079983820731292815 0 0.08499670822963433 0.082036877425332791 0 0.087713961043258279 0.0800304723278224 0 0.085000074054307442 0.078140837006488426 0 0.08791398322231711 0.075189618926548477 0 0.082369076381913986 0.078761240989588824 0 0.083495986181088652 0.079983820731292815 0 0.083495986181088652 0.079983820731292815 0 0.085582161077629948 0.07196640406575075 0 0.084022241484605506 0.062765129985564563 0 0.08749690392155722 0.060258069471858376 0 0.087235567679539272 0.065784468967948193 0 0.084225288807087781 0.065535920937384681 0 0.087235567679539272 0.065784468967948193 0 0.084719141564225137 0.068532405437154137 0 0.084225288807087781 0.065535920937384681 0 0.084022241484605506 0.062765129985564563 0 0.087235567679539272 0.065784468967948193 0 0.085000074054307442 0.078140837006488426 0 0.08791398322231711 0.075189618926548477 0 0.084999635566738979 0.074238878095790481 0 0.08791398322231711 0.075189618926548477 0 0.086633910781452744 0.07256294753351375 0 0.087130495752886519 0.069962031687532608 0 0.084999635566738979 0.074238878095790481 0 0.086633910781452744 0.07256294753351375 0 0.086339160770734946 0.071010187806922809 0 0.08791398322231711 0.075189618926548477 0 0.084999635566738979 0.074238878095790481 0 0.086633910781452744 0.07256294753351375 0 0.084999635566738979 0.074238878095790481 0 0.085000021974913631 0.070338737151254466 0 0.086339160770734946 0.071010187806922809 0 0.085000021974913631 0.070338737151254466 0 0.086339160770734946 0.071010187806922809 0 0.087533544112878864 0.070255670413179913 0 0.086633910781452744 0.07256294753351375 0 0.086339160770734946 0.071010187806922809 0 0.087130495752886519 0.069962031687532608 0 0.086339160770734946 0.071010187806922809 0 0.087533544112878864 0.070255670413179913 0 0.087130495752886519 0.069962031687532608 0 0.083746980449420375 0.06601095265965197 0 0.08434221088612015 0.065723096181711321 0 0.083009845179293898 0.066060440219643052 0 0.085024671222178869 0.067168354117199111 0 0.083997076330204479 0.06671956355169098 0 0.087533544112878864 0.070255670413179913 0 0.087130495752886519 0.069962031687532608 0 0.084719141564225137 0.068532405437154137 0 0.083746980449420375 0.06601095265965197 0 0.08434221088612015 0.065723096181711321 0 0.084240760420481245 0.065826622822152084 0 0.085582161077629948 0.07196640406575075 0 0.086053988144264904 0.070845774967660147 0 0.087235567679539272 0.065784468967948193 0 0.087130495752886519 0.069962031687532608 0 0.084719141564225137 0.068532405437154137 0 0.082984123563279999 0.065926013839276251 0 0.083997076330204479 0.06671956355169098 0 0.080558120441909409 0.065014876876454297 0 0.081268567023053948 0.066264437364759829 0 0.083009845179293898 0.066060440219643052 0 0.081268567023053948 0.066264437364759829 0 0.083009845179293898 0.066060440219643052 0 0.08285303214306837 0.066250000344413779 0 0.07783166339326647 0.066491973129356646 0 0.079902656816188022 0.06644100387837383 0 0.080109863969231587 0.066154398652508578 0 0.079240908873034796 0.066665336676124912 0 0.07783166339326647 0.066491973129356646 0 0.079902656816188022 0.06644100387837383 0 0.081268567023053948 0.066264437364759829 0 0.079902656816188022 0.06644100387837383 0 0.080109863969231587 0.066154398652508578 0 0.081268567023053948 0.066264437364759829 0 0.079902656816188022 0.06644100387837383 0 0.082140514239044823 0.06637998597311201 0 0.080905577907441045 0.066310472234275858 0 0.079902656816188022 0.06644100387837383 0 0.082140514239044823 0.06637998597311201 0 0.082140514239044823 0.06637998597311201 0 0.083634679489377931 0.066083775065401029 0 0.083344373721813664 0.066421709479546551 0 0.080905577907441045 0.066310472234275858 0 0.082140514239044823 0.06637998597311201 0 0.083344373721813664 0.066421709479546551 0 0.083746980449420375 0.06601095265965197 0 0.083009845179293898 0.066060440219643052 0 0.08285303214306837 0.066250000344413779 0 0.081268567023053948 0.066264437364759829 0 0.082140514239044823 0.06637998597311201 0 0.08285303214306837 0.066250000344413779 0 0.082140514239044823 0.06637998597311201 0 0.08285303214306837 0.066250000344413779 0 0.083634679489377931 0.066083775065401029 0 0.083746980449420375 0.06601095265965197 0 0.08285303214306837 0.066250000344413779 0 0.083634679489377931 0.066083775065401029 0 0.083746980449420375 0.06601095265965197 0 0.083634679489377931 0.066083775065401029 0 0.084459505529183368 0.065616572317986829 0 0.083634679489377931 0.066083775065401029 0 0.084516980874547301 0.065395140842050253 0 0.084459505529183368 0.065616572317986829 0 0.083634679489377931 0.066083775065401029 0 0.083344373721813664 0.066421709479546551 0 0.084516980874547301 0.065395140842050253 0 0.083344373721813664 0.066421709479546551 0 0.085416343721469917 0.064643553874467047 0 0.084516980874547301 0.065395140842050253 0 0.085416343721469917 0.064643553874467047 0 0.084516980874547301 0.065395140842050253 0 0.085142841729419688 0.064291726420446005 0 0.084516980874547301 0.065395140842050253 0 0.085142841729419688 0.064291726420446005 0 0.084459505529183368 0.065616572317986829 0 0.085142841729419688 0.064291726420446005 0 0.085101936298914632 0.064631550999621812 0 0.084459505529183368 0.065616572317986829 0 0.085101936298914632 0.064631550999621812 0 0.084459505529183368 0.065616572317986829 0 0.084602374055209179 0.065817327711932758 0 0.08499810871630599 0.061535589176122139 0 0.085101936298914632 0.064631550999621812 0 0.084997434664788513 0.066431787016378169 0 0.085101936298914632 0.064631550999621812 0 0.084997434664788513 0.066431787016378169 0 0.084602374055209179 0.065817327711932758 0 0.085024671222178869 0.067168354117199111 0 0.084999846752351393 0.066438326249678895 0 0.08434221088612015 0.065723096181711321 0 0.084997434664788513 0.066431787016378169 0 0.084602374055209179 0.065817327711932758 0 0.085000021974913631 0.070338737151254466 0 0.087533544112878864 0.070255670413179913 0 0.084999937723779603 0.066437351239654427 0 0.08434221088612015 0.065723096181711321 0 0.084240760420481245 0.065826622822152084 0 0.084602374055209179 0.065817327711932758 0 0.083746980449420375 0.06601095265965197 0 0.084240760420481245 0.065826622822152084 0 0.084459505529183368 0.065616572317986829 0 0.084240760420481245 0.065826622822152084 0 0.084459505529183368 0.065616572317986829 0 0.084602374055209179 0.065817327711932758 0 0.031033746479295802 0.078737146096665211 0 0.027692606443485441 0.077970409131699878 0 0.052501089296881201 0.073501676066642915 0 0.052484209481871498 0.073250982552748034 0 0.052940264839911676 0.071613891697606138 0 0.052484209481871498 0.073250982552748034 0 0.052940264839911676 0.071613891697606138 0 0.052248678011773082 0.072582080895307183 0 0.010023917544136595 0.08461724408677955 0 0.0072702235548220383 0.08543416218553912 0 0.0087528018417888948 0.087469259696409105 0 0.0072702235548220383 0.08543416218553912 0 0.0073531995200525786 0.08274211522844796 0 0.0047754389265192423 0.085059572046619125 0 0.0087528018417888948 0.087469259696409105 0 0.0058720606934948823 0.087564147432639836 0 0.0068330341751506023 0.089175344996132652 0 0.0072702235548220383 0.08543416218553912 0 0.0057389202374091173 0.086247100188394377 0 0.0058720606934948823 0.087564147432639836 0 0.0072702235548220383 0.08543416218553912 0 0.0087528018417888948 0.087469259696409105 0 0.0058720606934948823 0.087564147432639836 0 0.052940264839911676 0.071613891697606138 0 0.051977713544787564 0.072166147592035088 0 0.052248678011773082 0.072582080895307183 0 0.052940264839911676 0.071613891697606138 0 0.051977713544787564 0.072166147592035088 0 0.052212293548149373 0.071141319425407384 0 0.051977713544787564 0.072166147592035088 0 0.050654179441710821 0.072601219798355349 0 0.052212293548149373 0.071141319425407384 0 0.046909922305649873 0.069937562074155343 0 0.043530310536575578 0.067878145714942148 0 0.050580197144771355 0.071599449563795201 0 0.050110744218208221 0.069338233470845043 0 0.05212050963434077 0.069288961843419039 0 0.050580197144771355 0.071599449563795201 0 0.050110744218208221 0.069338233470845043 0 0.048578654573202769 0.070569706934263773 0 0.050580197144771355 0.071599449563795201 0 0.048578654573202769 0.070569706934263773 0 0.0482295095898123 0.074669955079764136 0 0.046909922305649873 0.069937562074155343 0 0.046947924518033292 0.071511295124521243 0 0.050654179441710821 0.072601219798355349 0 0.051572771848052382 0.0737331903692795 0 0.050563275974162519 0.074699082706424585 0 0.052484209481871498 0.073250982552748034 0 0.052248678011773082 0.072582080895307183 0 0.05201738273407544 0.073092319848446691 0 0.051977713544787564 0.072166147592035088 0 0.051707184407969099 0.072814348306098897 0 0.052248678011773082 0.072582080895307183 0 0.051707184407969099 0.072814348306098897 0 0.052248678011773082 0.072582080895307183 0 0.05201738273407544 0.073092319848446691 0 0.051977713544787564 0.072166147592035088 0 0.050654179441710821 0.072601219798355349 0 0.051707184407969099 0.072814348306098897 0 0.050654179441710821 0.072601219798355349 0 0.051707184407969099 0.072814348306098897 0 0.051572771848052382 0.0737331903692795 0 0.051707184407969099 0.072814348306098897 0 0.051572771848052382 0.0737331903692795 0 0.05201738273407544 0.073092319848446691 0 0.052484209481871498 0.073250982552748034 0 0.051572771848052382 0.0737331903692795 0 0.05201738273407544 0.073092319848446691 0 0.051572771848052382 0.0737331903692795 0 0.050563275974162519 0.074699082706424585 0 0.052159710028345199 0.076386747379646777 0 0.052484209481871498 0.073250982552748034 0 0.051572771848052382 0.0737331903692795 0 0.052159710028345199 0.076386747379646777 0 0.052501089296881201 0.073501676066642915 0 0.052484209481871498 0.073250982552748034 0 0.051389426145871719 0.075630200117781474 0 0.040315350344757042 0.073741425799623297 0 0.034492189289699715 0.078811386598953079 0 0.031033746479295802 0.078737146096665211 0 0.034492189289699715 0.078811386598953079 0 0.050654179441710821 0.072601219798355349 0 0.050563275974162519 0.074699082706424585 0 0.0482295095898123 0.074669955079764136 0 0.050563275974162519 0.074699082706424585 0 0.049858679126127396 0.076775622993361645 0 0.0482295095898123 0.074669955079764136 0 0.050563275974162519 0.074699082706424585 0 0.049858679126127396 0.076775622993361645 0 0.052159710028345199 0.076386747379646777 0 0.049858679126127396 0.076775622993361645 0 0.047442188670354338 0.077265084328192041 0 0.048812467955517101 0.079465004607461878 0 0.049858679126127396 0.076775622993361645 0 0.052159710028345199 0.076386747379646777 0 0.051752601492309327 0.079052647973680557 0 0.034492189289699715 0.078811386598953079 0 0.029537700816915376 0.085623141674538022 0 0.011318386597697579 0.081729874831031876 0 0.01002172893323762 0.080463097267523126 0 0.012068304809292862 0.079812994013996164 0 0.01002172893323762 0.080463097267523126 0 0.009532319743188248 0.082575988162466391 0 0.0073531995200525786 0.08274211522844796 0 0.011318386597697579 0.081729874831031876 0 0.01002172893323762 0.080463097267523126 0 0.009532319743188248 0.082575988162466391 0 0.01668269328271664 0.093818821581613143 0 0.011984858542919015 0.095211348463318302 0 0.010023917544136595 0.08461724408677955 0 0.009532319743188248 0.082575988162466391 0 0.0073531995200525786 0.08274211522844796 0 0.010023917544136595 0.08461724408677955 0 0.011318386597697579 0.081729874831031876 0 0.009532319743188248 0.082575988162466391 0 0.010023917544136595 0.08461724408677955 0 0.0072702235548220383 0.08543416218553912 0 0.0073531995200525786 0.08274211522844796 0 0.017639448506130806 0.10407528605078889 0 0.014210052537148771 0.10690816478483339 0 0.014321781883031581 0.10376338190369593 0 0.014210052537148771 0.10690816478483339 0 0.011861323546228141 0.10512099086486165 0 0.014321781883031581 0.10376338190369593 0 0.011767632619122287 0.10489696312600245 0 0.011397860017453281 0.1053993476701167 0 0.011851945063086596 0.10090058445020247 0 0.0041052587655453802 0.097294330456443506 0 0.004748117566105354 0.097402930937538948 0 0.004739498737568992 0.097625042008563229 0 0.004748117566105354 0.097402930937538948 0 0.0045346649596706137 0.096583527988425413 0 0.0050721170017191961 0.097985220044737767 0 0.0045346649596706137 0.096583527988425413 0 0.0053845899603113482 0.097039165984355233 0 0.0047194488497566715 0.098457712929749391 0 0.0045346649596706137 0.096583527988425413 0 0.0046750772482832825 0.098496052893643216 0 0.0047194488497566715 0.098457712929749391 0 0.0041339164296854873 0.09757466404184699 0 0.0039535608182522117 0.097696562493080591 0 0.004748117566105354 0.097402930937538948 0 0.00485803546659029 0.097695267098241764 0 0.004739498737568992 0.097625042008563229 0 0.004748117566105354 0.097402930937538948 0 0.0048950526093211244 0.097731437493407972 0 0.00485803546659029 0.097695267098241764 0 0.0041052587655453802 0.097294330456443506 0 0.004748117566105354 0.097402930937538948 0 0.0045346649596706137 0.096583527988425413 0 0.0045346649596706137 0.096583527988425413 0 0.0053845899603113482 0.097039165984355233 0 0.0052102282656852723 0.095153079071117197 0 0.0045346649596706137 0.096583527988425413 0 0.0041834142515039504 0.095641143805426154 0 0.0052102282656852723 0.095153079071117197 0 0.014210052537148771 0.10690816478483339 0 0.011656195546951695 0.10881662581027797 0 0.010919985406322453 0.10976941368894357 0 0.011397860017453281 0.1053993476701167 0 0.011656195546951695 0.10881662581027797 0 0.010919985406322453 0.10976941368894357 0 0.010276345805759427 0.1039841343363314 0 0.010484135996274312 0.10592464423985895 0 0.011984858542919015 0.095211348463318302 0 0.0094683464093456311 0.095578110240769204 0 0.014210052537148771 0.10690816478483339 0 0.011861323546228141 0.10512099086486165 0 0.011656195546951695 0.10881662581027797 0 0.0089045676397162751 0.099774060970005976 0 0.0094683464093456311 0.095578110240769204 0 0.0041052587655453802 0.097294330456443506 0 0.0041834142515039504 0.095641143805426154 0 0.0034901452535696328 0.094979356988835792 0 0.0041052587655453802 0.097294330456443506 0 0.0045346649596706137 0.096583527988425413 0 0.0041834142515039504 0.095641143805426154 0 0.011767632619122287 0.10489696312600245 0 0.011397860017453281 0.1053993476701167 0 0.011656195546951695 0.10881662581027797 0 0.0025255863502179729 0.10041552640809873 0 0.0029342638825340444 0.098758180916696373 0 0.0014885169711338856 0.099240302787649726 0 0.0036739742849974766 0.097164886633349198 0 0.0039679226649061324 0.097451719392101663 0 0.0053845899603113482 0.097039165984355233 0 0.0071509393505922222 0.096658164936666388 0 0.0047194488497566715 0.098457712929749391 0 0.0025255863502179729 0.10041552640809873 0 0.0029342638825340444 0.098758180916696373 0 0.0047194488497566715 0.098457712929749391 0 0.0053845899603113482 0.097039165984355233 0 0.0071509393505922222 0.096658164936666388 0 0.0066884603925329075 0.095136293536665334 0 0.0053845899603113482 0.097039165984355233 0 0.0066884603925329075 0.095136293536665334 0 0.0052102282656852723 0.095153079071117197 0 0.0071509393505922222 0.096658164936666388 0 0.0066884603925329075 0.095136293536665334 0 0.0089980775514951414 0.094550743408447782 0 0.0036739742849974766 0.097164886633349198 0 0.0027067567623063385 0.09593201934619687 0 0.0066884603925329075 0.095136293536665334 0 0.0061980594581235778 0.093356400315039612 0 0.0089980775514951414 0.094550743408447782 0 0.0066884603925329075 0.095136293536665334 0 0.0061980594581235778 0.093356400315039612 0 0.0052102282656852723 0.095153079071117197 0 0.0061980594581235778 0.093356400315039612 0 0.0052102282656852723 0.095153079071117197 0 0.0048360237988918043 0.093750760938746278 0 0.0061980594581235778 0.093356400315039612 0 0.0048783427225902783 0.092277394706624535 0 0.0057467855715761032 0.09129346397508839 0 0.0061980594581235778 0.093356400315039612 0 0.0075574118090612616 0.091795133392071057 0 0.0057467855715761032 0.09129346397508839 0 0.0061980594581235778 0.093356400315039612 0 0.0048360237988918043 0.093750760938746278 0 0.0048783427225902783 0.092277394706624535 0 0.0061980594581235778 0.093356400315039612 0 0.0075574118090612616 0.091795133392071057 0 0.0089980775514951414 0.094550743408447782 0 0.0072702235548220383 0.08543416218553912 0 0.0057389202374091173 0.086247100188394377 0 0.0047754389265192423 0.085059572046619125 0 0.0034076413219308326 0.094964873503830524 0 0.0036472745714615255 0.094738685344380444 0 0.0036356048123410449 0.092224324327728507 0 0.0041834142515039504 0.095641143805426154 0 0.0034901452535696328 0.094979356988835792 0 0.0036472745714615255 0.094738685344380444 0 0.0094683464093456311 0.095578110240769204 0 0.0094199450280293608 0.095600667451118629 0 0.0041834142515039504 0.095641143805426154 0 0.0044017511084395314 0.094669327150341237 0 0.0052102282656852723 0.095153079071117197 0 0.0041834142515039504 0.095641143805426154 0 0.0036472745714615255 0.094738685344380444 0 0.0044017511084395314 0.094669327150341237 0 0.0044017511084395314 0.094669327150341237 0 0.0052102282656852723 0.095153079071117197 0 0.0048360237988918043 0.093750760938746278 0 0.0036472745714615255 0.094738685344380444 0 0.0044017511084395314 0.094669327150341237 0 0.0042458755607215817 0.094049985877683193 0 0.0036472745714615255 0.094738685344380444 0 0.0042458755607215817 0.094049985877683193 0 0.0041673576133264721 0.093228233511358241 0 0.0044017511084395314 0.094669327150341237 0 0.0042458755607215817 0.094049985877683193 0 0.0048360237988918043 0.093750760938746278 0 0.0036472745714615255 0.094738685344380444 0 0.0041673576133264721 0.093228233511358241 0 0.0036356048123410449 0.092224324327728507 0 0.0042458755607215817 0.094049985877683193 0 0.0041673576133264721 0.093228233511358241 0 0.0048360237988918043 0.093750760938746278 0 0.0041673576133264721 0.093228233511358241 0 0.0048360237988918043 0.093750760938746278 0 0.0048783427225902783 0.092277394706624535 0 0.0041673576133264721 0.093228233511358241 0 0.0048783427225902783 0.092277394706624535 0 0.0036356048123410449 0.092224324327728507 0 0.0094683464093456311 0.095578110240769204 0 0.0075373831178816245 0.091585270425579263 0 0.0057389202374091173 0.086247100188394377 0 0.0047754389265192423 0.085059572046619125 0 0.0045534695409448281 0.087857125807433864 0 0.0057389202374091173 0.086247100188394377 0 0.0045534695409448281 0.087857125807433864 0 0.0058720606934948823 0.087564147432639836 0 0.0045534695409448281 0.087857125807433864 0 0.0058720606934948823 0.087564147432639836 0 0.0053214345322529976 0.088706946003793932 0 0.0058720606934948823 0.087564147432639836 0 0.0053214345322529976 0.088706946003793932 0 0.006053450522064306 0.08860379009831558 0 0.0045534695409448281 0.087857125807433864 0 0.0053214345322529976 0.088706946003793932 0 0.004504512967665502 0.089733541262379216 0 0.0053214345322529976 0.088706946003793932 0 0.0052869789676748772 0.089375898495537009 0 0.0057321416929047402 0.089126192618294242 0 0.0036356048123410449 0.092224324327728507 0 0.0048487782732857428 0.090942972637476693 0 0.004504512967665502 0.089733541262379216 0 0.0075373831178816245 0.091585270425579263 0 0.0069646113920253149 0.090802572151618716 0 0.0048487782732857428 0.090942972637476693 0 0.005205503918570371 0.089694690543974484 0 0.0057467855715761032 0.09129346397508839 0 0.0048783427225902783 0.092277394706624535 0 0.0036356048123410449 0.092224324327728507 0 0.0048487782732857428 0.090942972637476693 0 0.0048783427225902783 0.092277394706624535 0 0.0048487782732857428 0.090942972637476693 0 0.0057467855715761032 0.09129346397508839 0 0.005205503918570371 0.089694690543974484 0 0.0060717418417501889 0.089304903960074539 0 0.004706249773767858 0.089559406552723334 0 0.0048487782732857428 0.090942972637476693 0 0.004504512967665502 0.089733541262379216 0 0.005205503918570371 0.089694690543974484 0 0.005205503918570371 0.089694690543974484 0 0.0046933182821617047 0.089646475632951014 0 0.004706249773767858 0.089559406552723334 0 0.004504512967665502 0.089733541262379216 0 0.005205503918570371 0.089694690543974484 0 0.0046933182821617047 0.089646475632951014 0 0.0046933182821617047 0.089646475632951014 0 0.0050309293355475602 0.089777439538633444 0 0.004706249773767858 0.089559406552723334 0 0.004504512967665502 0.089733541262379216 0 0.0046933182821617047 0.089646475632951014 0 0.0050309293355475602 0.089777439538633444 0 0.004504512967665502 0.089733541262379216 0 0.0050309293355475602 0.089777439538633444 0 0.0052869789676748772 0.089375898495537009 0 0.0050309293355475602 0.089777439538633444 0 0.0054976974233950831 0.089601574288428312 0 0.0052869789676748772 0.089375898495537009 0 0.0050309293355475602 0.089777439538633444 0 0.0054976974233950831 0.089601574288428312 0 0.0053488029733203988 0.089889348104174385 0 0.0054976974233950831 0.089601574288428312 0 0.0052869789676748772 0.089375898495537009 0 0.0057321416929047402 0.089126192618294242 0 0.0053214345322529976 0.088706946003793932 0 0.004504512967665502 0.089733541262379216 0 0.0052869789676748772 0.089375898495537009 0 0.0075574118090612616 0.091795133392071057 0 0.0065574080870163115 0.090320592321395235 0 0.0078822335230458104 0.089367772213491986 0 0.0075574118090612616 0.091795133392071057 0 0.0057467855715761032 0.09129346397508839 0 0.0065574080870163115 0.090320592321395235 0 0.005205503918570371 0.089694690543974484 0 0.0065574080870163115 0.090320592321395235 0 0.0060717418417501889 0.089304903960074539 0 0.005205503918570371 0.089694690543974484 0 0.0057467855715761032 0.09129346397508839 0 0.0065574080870163115 0.090320592321395235 0 0.0065574080870163115 0.090320592321395235 0 0.0060717418417501889 0.089304903960074539 0 0.0078822335230458104 0.089367772213491986 0 0.0047369318747716108 0.088352140735686674 0 0.0078822335230458104 0.089367772213491986 0 0.0065793477515503473 0.087254542962048445 0 0.007381917450312297 0.084019261495269337 0 0.0077626487193424741 0.084939659987463362 0 0.0078822335230458104 0.089367772213491986 0 0.0065793477515503473 0.087254542962048445 0 0.008381223437427969 0.086035606254313834 0 0.0065793477515503473 0.087254542962048445 0 0.0065263229361869389 0.085487258639513272 0 0.008381223437427969 0.086035606254313834 0 0.0065793477515503473 0.087254542962048445 0 0.0049034945699123113 0.086242667102078563 0 0.0065263229361869389 0.085487258639513272 0 0.007381917450312297 0.084019261495269337 0 0.0079109898037411502 0.081421991596112908 0 0.0047369318747716108 0.088352140735686674 0 0.0065793477515503473 0.087254542962048445 0 0.0049034945699123113 0.086242667102078563 0 0.0047369318747716108 0.088352140735686674 0 0.0049034945699123113 0.086242667102078563 0 0.0029416575011815176 0.086807698375836559 0 0.0049034945699123113 0.086242667102078563 0 0.0036170566064306618 0.085839589094062724 0 0.0029416575011815176 0.086807698375836559 0 0.0049034945699123113 0.086242667102078563 0 0.0036170566064306618 0.085839589094062724 0 0.003786558081771238 0.084830599093906153 0 0.0036170566064306618 0.085839589094062724 0 0.003786558081771238 0.084830599093906153 0 0.0028367606384018893 0.085476542032276365 0 0.0039525854275486343 0.083130345903916672 0 0.003786558081771238 0.084830599093906153 0 0.0054263493458956936 0.084046978841760489 0 0.0039525854275486343 0.083130345903916672 0 0.003786558081771238 0.084830599093906153 0 0.0026162595697482552 0.084425374222325239 0 0.0049034945699123113 0.086242667102078563 0 0.003786558081771238 0.084830599093906153 0 0.0054263493458956936 0.084046978841760489 0 0.0049034945699123113 0.086242667102078563 0 0.0054263493458956936 0.084046978841760489 0 0.0065263229361869389 0.085487258639513272 0 0.0054263493458956936 0.084046978841760489 0 0.0065263229361869389 0.085487258639513272 0 0.0073220981731439818 0.083874347774470989 0 0.0065263229361869389 0.085487258639513272 0 0.0073220981731439818 0.083874347774470989 0 0.008381223437427969 0.086035606254313834 0 0.0050309293355475602 0.089777439538633444 0 0.0052909292825834868 0.090171029799710048 0 0.004706249773767858 0.089559406552723334 0 -0.00014862326237114577 0.086083880229251092 0 -0.0005299756504353227 0.086533727856061352 0 0.0020011337207303834 0.087360994940512873 0 0.012546134312244552 0.077039352903017694 0 0.0079109898037411502 0.081421991596112908 0 0.018288795272033892 0.075115479381524256 0 0.011446416002247705 0.073595819152311115 0 0.013015290174131142 0.081318215187606513 0 0.010456320222013142 0.077460391322780583 0 0.012448235236494029 0.076077064163272756 0 0.012448235236494029 0.076077064163272756 0 0.013812620499545807 0.076330552366252982 0 0.011446416002247705 0.073595819152311115 0 0.013015290174131142 0.081318215187606513 0 0.0087973570693636472 0.080035864022670447 0 0.012546134312244552 0.077039352903017694 0 0.013812620499545807 0.076330552366252982 0 0.010456320222013142 0.077460391322780583 0 0.012546134312244552 0.077039352903017694 0 0.0052909292825834868 0.090171029799710048 0 0.0053488029733203988 0.089889348104174385 0 0.0055821981643569153 0.08998082298030477 0 0.0050309293355475602 0.089777439538633444 0 0.0052909292825834868 0.090171029799710048 0 0.0053488029733203988 0.089889348104174385 0 0.0047369318747716108 0.088352140735686674 0 0.0020011337207303834 0.087360994940512873 0 0.0029416575011815176 0.086807698375836559 0 -0.00014862326237114577 0.086083880229251092 0 0.0020011337207303834 0.087360994940512873 0 0.0029416575011815176 0.086807698375836559 0 -0.00050860587371138045 0.086003855276196375 0 0.0029416575011815176 0.086807698375836559 0 0.0014412439978872646 0.085340573360435712 0 0.010456320222013142 0.077460391322780583 0 0.0063232659558143138 0.078802484044380353 0 0.0036170566064306618 0.085839589094062724 0 0.0029416575011815176 0.086807698375836559 0 0.0028367606384018893 0.085476542032276365 0 0.0029416575011815176 0.086807698375836559 0 0.0014412439978872646 0.085340573360435712 0 0.0028367606384018893 0.085476542032276365 0 0.003786558081771238 0.084830599093906153 0 0.0028367606384018893 0.085476542032276365 0 0.0026162595697482552 0.084425374222325239 0 0.0014412439978872646 0.085340573360435712 0 0.0028367606384018893 0.085476542032276365 0 0.0026162595697482552 0.084425374222325239 0 0.0017791904855504401 0.083295449459543688 0 0.0039525854275486343 0.083130345903916672 0 0.0026162595697482552 0.084425374222325239 0 0.0017791904855504401 0.083295449459543688 0 0.0014412439978872646 0.085340573360435712 0 0.0026162595697482552 0.084425374222325239 0 0.0017791904855504401 0.083295449459543688 0 -0.00050860587371138045 0.086003855276196375 0 0.0014412439978872646 0.085340573360435712 0 0.0054559960602370223 0.080959537757316333 0 0.010456320222013142 0.077460391322780583 0 0.0030715887453454439 0.079779079634015787 0 0.0036615668696873124 0.079951849100469957 0 0.0028749844639764559 0.080866233914516819 0 0.0062676161551407502 0.063982916931113062 0 0.0070809213596732968 0.063875652090031418 0 0.0067287963153306006 0.064811882026549916 0 0.0075370138084522214 0.072635997220359808 0 0.012448235236494029 0.076077064163272756 0 0.0030715887453454439 0.079779079634015787 0 0.0028749844639764559 0.080866233914516819 0 0.0026869354587685523 0.080822135006526435 0 0.0062676161551407502 0.063982916931113062 0 0.0067287963153306006 0.064811882026549916 0 0.0057339935535545361 0.064574679873207044 0 0.012448235236494029 0.076077064163272756 0 0.020758973246378778 0.068366587837136963 0 0.015037446998118426 0.071926817953061176 0 0.019520697324100375 0.07243239471060646 0 0.019726060865276618 0.072943654816803552 0 0.0054756183749310365 0.063921316915530144 0 0.0062676161551407502 0.063982916931113062 0 0.0057339935535545361 0.064574679873207044 0 0.019445643025355751 0.062670387245227971 0 0.020758973246378778 0.068366587837136963 0 0.019501494081808096 0.064997825488028793 0 0.018737465202892944 0.068580824899107704 0 0.017864653426045502 0.067022031556239342 0 0.019501494081808096 0.064997825488028793 0 0.021139318472262525 0.069118177419108126 0 0.018737465202892944 0.068580824899107704 0 0.019445643025355751 0.062670387245227971 0 0.025483209294046599 0.064627667851662823 0 0.021491449683026385 0.069613304335510814 0 0.020758973246378778 0.068366587837136963 0 0.020758973246378778 0.068366587837136963 0 0.025987700246923203 0.066805361708916391 0 0.021491449683026385 0.069613304335510814 0 0.026505388946747727 0.067786684234509273 0 0.021951235291450152 0.067824248475062202 0 0.024832413962181835 0.06785066524698638 0 0.025222337973878611 0.068540842435237739 0 0.021568373675396314 0.066869285432447439 0 0.021951235291450152 0.067824248475062202 0 0.024832413962181835 0.06785066524698638 0 0.026505388946747727 0.067786684234509273 0 0.025987700246923203 0.066805361708916391 0 0.021491449683026385 0.069613304335510814 0 0.023188830816429237 0.074927622022466958 0 0.025629443953036974 0.067954476803513603 0 0.025439813747249278 0.070954255606540353 0 0.02803057125812132 0.074017810897510888 0 0.052157645338957004 0.064675803092165848 0 0.052917035647029168 0.065987137587544001 0 0.052021522429839068 0.065975641698330159 0 0.026505388946747727 0.067786684234509273 0 0.028033922904480917 0.071419851496197853 0 0.025629443953036974 0.067954476803513603 0 0.023384858646740579 0.067265787752942188 0 0.025439813747249278 0.070954255606540353 0 0.052917035647029168 0.065987137587544001 0 0.052070726372044296 0.066842804867285471 0 0.052021522429839068 0.065975641698330159 0 0.021491449683026385 0.069613304335510814 0 0.013812620499545807 0.076330552366252982 0 0.015037446998118426 0.071926817953061176 0 0.019520697324100375 0.07243239471060646 0 0.015342890995770485 0.071185661611927478 0 0.02056690514371292 0.071683310643710585 0 0.023433768297596462 0.072566383109429838 0 0.023042047519437874 0.073528245198474784 0 0.02056690514371292 0.071683310643710585 0 0.023042047519437874 0.073528245198474784 0 0.021857398713933395 0.074928928351965615 0 0.017498062980456679 0.076410835992806528 0 0.016523745595047844 0.076114391480197247 0 0.015377847727399663 0.07890879884792637 0 0.013812620499545807 0.076330552366252982 0 0.016126766106776873 0.076883364653520733 0 0.012546134312244552 0.077039352903017694 0 0.016126766106776873 0.076883364653520733 0 0.016126766106776873 0.076883364653520733 0 0.023188830816429237 0.074927622022466958 0 0.016126766106776873 0.076883364653520733 0 0.022170555705477317 0.076250901317722636 0 0.0054976974233950831 0.089601574288428312 0 0.0053488029733203988 0.089889348104174385 0 0.0055821981643569153 0.08998082298030477 0 0.0054976974233950831 0.089601574288428312 0 0.0055821981643569153 0.08998082298030477 0 0.0060887973530104837 0.089321595466879025 0 0.0054976974233950831 0.089601574288428312 0 0.0060887973530104837 0.089321595466879025 0 0.0057321416929047402 0.089126192618294242 0 0.022991499922829638 0.075557614251654595 0 0.022170555705477317 0.076250901317722636 0 0.022487417785701558 0.079057732329738298 0 0.02370658592042215 0.076092549922449099 0 0.018839880246712366 0.072564170229001884 0 0.022170555705477317 0.076250901317722636 0 0.023188830816429237 0.074927622022466958 0 0.02370658592042215 0.076092549922449099 0 0.018839880246712366 0.072564170229001884 0 0.021195313187830144 0.069793738021429214 0 0.022991499922829638 0.075557614251654595 0 0.026118319073266606 0.073804210558834862 0 0.018620349577103699 0.075514274262164338 0 0.019119719840303612 0.07434114472832902 0 0.019280163266675979 0.074753016293959973 0 0.026118319073266606 0.073804210558834862 0 0.023188830816429237 0.074927622022466958 0 0.028033922904480917 0.071419851496197853 0 0.026118319073266606 0.073804210558834862 0 0.025439813747249278 0.070954255606540353 0 0.027499497125125009 0.074643004963614132 0 0.02803057125812132 0.074017810897510888 0 0.052917035647029168 0.065987137587544001 0 0.053645487836056535 0.067293452940605319 0 0.052748800835677401 0.067169336240248456 0 0.052917035647029168 0.065987137587544001 0 0.052748800835677401 0.067169336240248456 0 0.052070726372044296 0.066842804867285471 0 0.052748800835677401 0.067169336240248456 0 0.052070726372044296 0.066842804867285471 0 0.051888464844861842 0.067515085911805925 0 0.052748800835677401 0.067169336240248456 0 0.05244448302801543 0.067947579050856577 0 0.051888464844861842 0.067515085911805925 0 0.053645487836056535 0.067293452940605319 0 0.052748800835677401 0.067169336240248456 0 0.05244448302801543 0.067947579050856577 0 0.053311525758338169 0.070307754815361917 0 0.053128512062600115 0.070007728109823253 0 0.052212293548149373 0.071141319425407384 0 0.026118319073266606 0.073804210558834862 0 0.043530310536575578 0.067878145714942148 0 0.053645487836056535 0.067293452940605319 0 0.05244448302801543 0.067947579050856577 0 0.05212050963434077 0.069288961843419039 0 0.052940264839911676 0.071613891697606138 0 0.053311525758338169 0.070307754815361917 0 0.052212293548149373 0.071141319425407384 0 0.027692606443485441 0.077970409131699878 0 0.022991499922829638 0.075557614251654595 0 0.0087528018417888948 0.087469259696409105 0 0.0075259433319196075 0.09036724270164409 0 0.0068330341751506023 0.089175344996132652 0 0.02058188151521766 0.078516854612665804 0 0.021667866237451906 0.077491335032365855 0 0.0060887973530104837 0.089321595466879025 0 0.006053450522064306 0.08860379009831558 0 0.0057321416929047402 0.089126192618294242 0 0.0053214345322529976 0.088706946003793932 0 0.006053450522064306 0.08860379009831558 0 0.0057321416929047402 0.089126192618294242 0 0.022170555705477317 0.076250901317722636 0 0.021667866237451906 0.077491335032365855 0 0.022991499922829638 0.075557614251654595 0 0.021667866237451906 0.077491335032365855 0 0.020952119647303865 0.075808885983022975 0 0.021143045557074708 0.075343340614511922 0 0.021924223945918649 0.077535814696595179 0 0.050110744218208221 0.069338233470845043 0 0.050849703158296261 0.068460878031668268 0 0.049854325118806199 0.067368733385516133 0 0.050110744218208221 0.069338233470845043 0 0.048621810161736188 0.067803584163085281 0 0.048578654573202769 0.070569706934263773 0 0.050110744218208221 0.069338233470845043 0 0.049854325118806199 0.067368733385516133 0 0.048621810161736188 0.067803584163085281 0 0.050110744218208221 0.069338233470845043 0 0.05212050963434077 0.069288961843419039 0 0.050849703158296261 0.068460878031668268 0 0.05212050963434077 0.069288961843419039 0 0.051702177452000876 0.068349773229721286 0 0.050849703158296261 0.068460878031668268 0 0.05244448302801543 0.067947579050856577 0 0.051702177452000876 0.068349773229721286 0 0.051888464844861842 0.067515085911805925 0 0.05244448302801543 0.067947579050856577 0 0.05212050963434077 0.069288961843419039 0 0.051702177452000876 0.068349773229721286 0 0.051702177452000876 0.068349773229721286 0 0.050849703158296261 0.068460878031668268 0 0.050989818792946548 0.067516478244419531 0 0.050989818792946548 0.067516478244419531 0 0.051888464844861842 0.067515085911805925 0 0.051467300897724846 0.06699877653368766 0 0.051702177452000876 0.068349773229721286 0 0.050989818792946548 0.067516478244419531 0 0.051888464844861842 0.067515085911805925 0 0.052070726372044296 0.066842804867285471 0 0.051888464844861842 0.067515085911805925 0 0.051467300897724846 0.06699877653368766 0 0.052070726372044296 0.066842804867285471 0 0.051467300897724846 0.06699877653368766 0 0.051473134246046666 0.066443805187890836 0 0.050989818792946548 0.067516478244419531 0 0.050905802076864771 0.066665521017845369 0 0.050413712706834077 0.066944979838930871 0 0.050989818792946548 0.067516478244419531 0 0.051467300897724846 0.06699877653368766 0 0.050905802076864771 0.066665521017845369 0 0.051467300897724846 0.06699877653368766 0 0.050905802076864771 0.066665521017845369 0 0.051473134246046666 0.066443805187890836 0 0.050905802076864771 0.066665521017845369 0 0.050541158758394655 0.066465632570416766 0 0.050413712706834077 0.066944979838930871 0 0.041339778805329935 0.063161325451116468 0 0.044393009507559054 0.064841395173206223 0 0.050413712706834077 0.066944979838930871 0 0.049854325118806199 0.067368733385516133 0 0.050066021738947135 0.066128401773192208 0 0.049773597905143206 0.065659773075884553 0 0.048772029478172566 0.065843645326013958 0 0.048829088414861103 0.067333160795882224 0 0.049854325118806199 0.067368733385516133 0 0.050066021738947135 0.066128401773192208 0 0.048621810161736188 0.067803584163085281 0 0.050541158758394655 0.066465632570416766 0 0.050413712706834077 0.066944979838930871 0 0.050066021738947135 0.066128401773192208 0 0.050849703158296261 0.068460878031668268 0 0.050989818792946548 0.067516478244419531 0 0.049854325118806199 0.067368733385516133 0 0.050989818792946548 0.067516478244419531 0 0.050413712706834077 0.066944979838930871 0 0.049854325118806199 0.067368733385516133 0 0.049689966594180665 0.065511868505001306 0 0.049713145366615336 0.065413443030302457 0 0.049681359147448978 0.065288361314899082 0 0.049773597905143206 0.065659773075884553 0 0.049689966594180665 0.065511868505001306 0 0.048772029478172566 0.065843645326013958 0 0.049689966594180665 0.065511868505001306 0 0.048877781305468257 0.065334398472179631 0 0.048772029478172566 0.065843645326013958 0 0.050541158758394655 0.066465632570416766 0 0.050066021738947135 0.066128401773192208 0 0.050812341537346102 0.066058188495239659 0 0.049773597905143206 0.065659773075884553 0 0.049689966594180665 0.065511868505001306 0 0.049713145366615336 0.065413443030302457 0 0.049689966594180665 0.065511868505001306 0 0.049433050245108849 0.065086024224023195 0 0.049792791201370125 0.064777698405309142 0 0.049689966594180665 0.065511868505001306 0 0.049433050245108849 0.065086024224023195 0 0.048877781305468257 0.065334398472179631 0 0.049433050245108849 0.065086024224023195 0 0.049498820494815063 0.064798205858904209 0 0.049792791201370125 0.064777698405309142 0 0.049433050245108849 0.065086024224023195 0 0.049035195611158808 0.064817554417077136 0 0.048877781305468257 0.065334398472179631 0 0.049433050245108849 0.065086024224023195 0 0.049498820494815063 0.064798205858904209 0 0.049035195611158808 0.064817554417077136 0 0.049773597905143206 0.065659773075884553 0 0.049713145366615336 0.065413443030302457 0 0.049741455879162955 0.065262771353432864 0 0.041339778805329935 0.063161325451116468 0 0.029279622732529077 0.065416937740784512 0 0.050066021738947135 0.066128401773192208 0 0.051061091341034766 0.065551267063765684 0 0.051461151051918341 0.06437900572509922 0 0.052070726372044296 0.066842804867285471 0 0.052021522429839068 0.065975641698330159 0 0.051473134246046666 0.066443805187890836 0 0.052021522429839068 0.065975641698330159 0 0.051473134246046666 0.066443805187890836 0 0.051420765427230265 0.065842612791533639 0 0.050066021738947135 0.066128401773192208 0 0.050812341537346102 0.066058188495239659 0 0.051061091341034766 0.065551267063765684 0 0.051420765427230265 0.065842612791533639 0 0.050812341537346102 0.066058188495239659 0 0.051061091341034766 0.065551267063765684 0 0.050905802076864771 0.066665521017845369 0 0.051473134246046666 0.066443805187890836 0 0.050812341537346102 0.066058188495239659 0 0.051473134246046666 0.066443805187890836 0 0.051420765427230265 0.065842612791533639 0 0.050812341537346102 0.066058188495239659 0 0.050905802076864771 0.066665521017845369 0 0.050541158758394655 0.066465632570416766 0 0.050812341537346102 0.066058188495239659 0 0.052157645338957004 0.064675803092165848 0 0.052021522429839068 0.065975641698330159 0 0.051604567271078677 0.065278026391244484 0 0.051061091341034766 0.065551267063765684 0 0.051604567271078677 0.065278026391244484 0 0.051461151051918341 0.06437900572509922 0 0.051420765427230265 0.065842612791533639 0 0.051061091341034766 0.065551267063765684 0 0.051604567271078677 0.065278026391244484 0 0.052021522429839068 0.065975641698330159 0 0.051420765427230265 0.065842612791533639 0 0.051604567271078677 0.065278026391244484 0 0.052157645338957004 0.064675803092165848 0 0.051604567271078677 0.065278026391244484 0 0.051461151051918341 0.06437900572509922 0 0.025885146979903739 0.065146206216407057 0 0.026196708679252147 0.065696823063707388 0 0.028161809056758413 0.066124597105213304 0 0.026505388946747727 0.067786684234509273 0 0.029279622732529077 0.065416937740784512 0 0.025987700246923203 0.066805361708916391 0 0.029279622732529077 0.065416937740784512 0 0.025214975979455538 0.069445391261928141 0 0.021672494308629324 0.068656280914558387 0 0.023504659485171272 0.066395216914537106 0 0.049713145366615336 0.065413443030302457 0 0.049741455879162955 0.065262771353432864 0 0.04970712196964959 0.06532658006099383 0 0.049713145366615336 0.065413443030302457 0 0.04970712196964959 0.06532658006099383 0 0.049681359147448978 0.065288361314899082 0 0.049741455879162955 0.065262771353432864 0 0.049702928006699586 0.06529565571456955 0 0.04970712196964959 0.06532658006099383 0 0.029279622732529077 0.065416937740784512 0 0.030235946630577788 0.065503692656240675 0 0.049702928006699586 0.06529565571456955 0 0.04970712196964959 0.06532658006099383 0 0.049681359147448978 0.065288361314899082 0 0.029279622732529077 0.065416937740784512 0 0.031452996216857106 0.062005994270917117 0 0.026743302309702018 0.064360482329972282 0 0.025715827463538003 0.064129832618754545 0 0.027093142998217273 0.063926567248815541 0 0.026330648819379791 0.062571033171927776 0 0.025715827463538003 0.064129832618754545 0 0.027093142998217273 0.063926567248815541 0 0.049723870599202802 0.065299332034716828 0 0.049702928006699586 0.06529565571456955 0 0.049681359147448978 0.065288361314899082 0 0.029279622732529077 0.065416937740784512 0 0.025483209294046599 0.064627667851662823 0 0.025987700246923203 0.066805361708916391 0 0.025483209294046599 0.064627667851662823 0 0.049689966594180665 0.065511868505001306 0 0.050212791563756964 0.064121986588590044 0 0.049792791201370125 0.064777698405309142 0 0.0342703494113238 0.061418048053895023 0 0.031452996216857106 0.062005994270917117 0 0.049421765381351443 0.06450532911479985 0 0.049583764853577093 0.064260098113159775 0 0.048984906552290666 0.064253884883244392 0 0.049421765381351443 0.06450532911479985 0 0.049583764853577093 0.064260098113159775 0 0.04966654128462749 0.06444623275149676 0 0.049421765381351443 0.06450532911479985 0 0.049648963966347326 0.064632628562281386 0 0.04966654128462749 0.06444623275149676 0 0.049421765381351443 0.06450532911479985 0 0.048984906552290666 0.064253884883244392 0 0.049035195611158808 0.064817554417077136 0 0.049421765381351443 0.06450532911479985 0 0.049498820494815063 0.064798205858904209 0 0.049035195611158808 0.064817554417077136 0 0.049421765381351443 0.06450532911479985 0 0.049498820494815063 0.064798205858904209 0 0.049648963966347326 0.064632628562281386 0 0.049792791201370125 0.064777698405309142 0 0.049793007971881402 0.064538433514373633 0 0.049989199519714672 0.064313052291995562 0 0.050212791563756964 0.064121986588590044 0 0.049792791201370125 0.064777698405309142 0 0.049989199519714672 0.064313052291995562 0 0.049498820494815063 0.064798205858904209 0 0.049792791201370125 0.064777698405309142 0 0.049648963966347326 0.064632628562281386 0 0.049792791201370125 0.064777698405309142 0 0.049793007971881402 0.064538433514373633 0 0.049648963966347326 0.064632628562281386 0 0.049793007971881402 0.064538433514373633 0 0.049648963966347326 0.064632628562281386 0 0.04966654128462749 0.06444623275149676 0 0.049793007971881402 0.064538433514373633 0 0.04966654128462749 0.06444623275149676 0 0.049806201121448214 0.064407124502962446 0 0.049793007971881402 0.064538433514373633 0 0.049989199519714672 0.064313052291995562 0 0.049806201121448214 0.064407124502962446 0 0.049989199519714672 0.064313052291995562 0 0.049806201121448214 0.064407124502962446 0 0.049793807549256199 0.064222049573152931 0 0.049583764853577093 0.064260098113159775 0 0.049806201121448214 0.064407124502962446 0 0.049793807549256199 0.064222049573152931 0 0.049583764853577093 0.064260098113159775 0 0.04966654128462749 0.06444623275149676 0 0.049806201121448214 0.064407124502962446 0 0.024877785675930325 0.058031496618623779 0 0.025245209236105026 0.060247763386928346 0 0.023896519600607381 0.059947717880334088 0 0.049583764853577093 0.064260098113159775 0 0.049793807549256199 0.064222049573152931 0 0.049741939895865998 0.064021472861533188 0 0.049989199519714672 0.064313052291995562 0 0.049793807549256199 0.064222049573152931 0 0.049741939895865998 0.064021472861533188 0 0.031452996216857106 0.062005994270917117 0 0.034085309757390013 0.060711966028647653 0 0.050212791563756964 0.064121986588590044 0 0.049989199519714672 0.064313052291995562 0 0.049741939895865998 0.064021472861533188 0 0.034085309757390013 0.060711966028647653 0 0.037474925097881917 0.061454759714615628 0 0.048643445801844529 0.063255730611313649 0 0.049551040907165736 0.06399133292914097 0 0.048752319082219164 0.063821766520315931 0 0.049741939895865998 0.064021472861533188 0 0.048752319082219164 0.063821766520315931 0 0.048984906552290666 0.064253884883244392 0 0.049583764853577093 0.064260098113159775 0 0.049741939895865998 0.064021472861533188 0 0.048984906552290666 0.064253884883244392 0 0.048752319082219164 0.063821766520315931 0 0.048984906552290666 0.064253884883244392 0 0.047994196601490569 0.06494595724714862 0 0.038447944336113024 0.057899376270159751 0 0.040497867919441675 0.059981012652641968 0 0.048167946929399977 0.062500962927021231 0 0.049178375665900186 0.062619209659433614 0 0.047994196601490569 0.06494595724714862 0 0.048643445801844529 0.063255730611313649 0 0.048752319082219164 0.063821766520315931 0 0.047994196601490569 0.06494595724714862 0 0.048984906552290666 0.064253884883244392 0 0.049035195611158808 0.064817554417077136 0 0.047994196601490569 0.06494595724714862 0 0.048877781305468257 0.065334398472179631 0 0.047994196601490569 0.06494595724714862 0 0.048772029478172566 0.065843645326013958 0 0.049035195611158808 0.064817554417077136 0 0.048877781305468257 0.065334398472179631 0 0.047994196601490569 0.06494595724714862 0 0.047994196601490569 0.06494595724714862 0 0.048772029478172566 0.065843645326013958 0 0.047268982814771494 0.066270898314073692 0 0.047994196601490569 0.06494595724714862 0 0.046261889361390612 0.064661822804308447 0 0.047268982814771494 0.066270898314073692 0 0.047994196601490569 0.06494595724714862 0 0.047107878430744279 0.063745623250144628 0 0.046261889361390612 0.064661822804308447 0 0.048167946929399977 0.062500962927021231 0 0.047994196601490569 0.06494595724714862 0 0.047107878430744279 0.063745623250144628 0 0.046175410693184676 0.062911151826696751 0 0.047107878430744279 0.063745623250144628 0 0.046261889361390612 0.064661822804308447 0 0.046175410693184676 0.062911151826696751 0 0.045185095337405987 0.064195233713547989 0 0.046261889361390612 0.064661822804308447 0 0.045185095337405987 0.064195233713547989 0 0.045176628577941247 0.065566810006213186 0 0.046261889361390612 0.064661822804308447 0 0.045176628577941247 0.065566810006213186 0 0.046261889361390612 0.064661822804308447 0 0.045719261539674871 0.06673829020629965 0 0.046261889361390612 0.064661822804308447 0 0.045719261539674871 0.06673829020629965 0 0.047268982814771494 0.066270898314073692 0 0.045176628577941247 0.065566810006213186 0 0.045719261539674871 0.06673829020629965 0 0.044608770692976821 0.067075375185322389 0 0.045719261539674871 0.06673829020629965 0 0.044608770692976821 0.067075375185322389 0 0.045227540750457977 0.069074218332430659 0 0.044608770692976821 0.067075375185322389 0 0.043614750469119799 0.069349096282061984 0 0.045227540750457977 0.069074218332430659 0 0.045719261539674871 0.06673829020629965 0 0.046792051440657859 0.067750561814177643 0 0.045227540750457977 0.069074218332430659 0 0.046792051440657859 0.067750561814177643 0 0.047169755217876176 0.069465871024191828 0 0.045227540750457977 0.069074218332430659 0 0.046792051440657859 0.067750561814177643 0 0.048829088414861103 0.067333160795882224 0 0.047169755217876176 0.069465871024191828 0 0.044393009507559054 0.064841395173206223 0 0.044785416328570672 0.065923895149105197 0 0.048621810161736188 0.067803584163085281 0 0.048578654573202769 0.070569706934263773 0 0.047169755217876176 0.069465871024191828 0 0.048772029478172566 0.065843645326013958 0 0.048829088414861103 0.067333160795882224 0 0.047268982814771494 0.066270898314073692 0 0.046792051440657859 0.067750561814177643 0 0.048829088414861103 0.067333160795882224 0 0.047268982814771494 0.066270898314073692 0 0.045719261539674871 0.06673829020629965 0 0.046792051440657859 0.067750561814177643 0 0.047268982814771494 0.066270898314073692 0 0.044950932937113226 0.063810153048287216 0 0.045376031960954466 0.062448645388130601 0 0.04514104651090875 0.063723087236306916 0 0.045475922796921933 0.061673948060773025 0 0.044950932937113226 0.063810153048287216 0 0.045376031960954466 0.062448645388130601 0 0.045559381280585079 0.061628013330924991 0 0.045475922796921933 0.061673948060773025 0 0.045376031960954466 0.062448645388130601 0 0.045500521525320525 0.062328509029708747 0 0.045518511108942089 0.062008794088290291 0 0.045376031960954466 0.062448645388130601 0 0.045500521525320525 0.062328509029708747 0 0.045376031960954466 0.062448645388130601 0 0.04514104651090875 0.063723087236306916 0 0.045500521525320525 0.062328509029708747 0 0.04514104651090875 0.063723087236306916 0 0.0455355060837139 0.063174578006452126 0 0.044950932937113226 0.063810153048287216 0 0.04514104651090875 0.063723087236306916 0 0.044555996347922906 0.065237317467551154 0 0.04514104651090875 0.063723087236306916 0 0.044555996347922906 0.065237317467551154 0 0.044586745863768186 0.065110016583333846 0 0.04514104651090875 0.063723087236306916 0 0.0455355060837139 0.063174578006452126 0 0.044586745863768186 0.065110016583333846 0 0.042943192226861528 0.063229135558673683 0 0.044207657423895944 0.063547175670769382 0 0.044586745863768186 0.065110016583333846 0 0.044246918082105083 0.062468067501203622 0 0.044533011623205422 0.063193190391070422 0 0.044751861929940628 0.062762207584539889 0 0.045185095337405987 0.064195233713547989 0 0.044207657423895944 0.063547175670769382 0 0.045185095337405987 0.064195233713547989 0 0.044207657423895944 0.063547175670769382 0 0.044586745863768186 0.065110016583333846 0 0.045185095337405987 0.064195233713547989 0 0.045176628577941247 0.065566810006213186 0 0.044586745863768186 0.065110016583333846 0 0.044608770692976821 0.067075375185322389 0 0.044586745863768186 0.065110016583333846 0 0.043976904673247365 0.067064886964889894 0 0.045176628577941247 0.065566810006213186 0 0.044608770692976821 0.067075375185322389 0 0.044586745863768186 0.065110016583333846 0 0.044608770692976821 0.067075375185322389 0 0.043976904673247365 0.067064886964889894 0 0.043614750469119799 0.069349096282061984 0 0.043976904673247365 0.067064886964889894 0 0.042943495927285073 0.069212144655064575 0 0.043614750469119799 0.069349096282061984 0 0.044555996347922906 0.065237317467551154 0 0.044586745863768186 0.065110016583333846 0 0.043976904673247365 0.067064886964889894 0 0.044555996347922906 0.065237317467551154 0 0.043976904673247365 0.067064886964889894 0 0.043969428859168797 0.066578862127832844 0 0.044950932937113226 0.063810153048287216 0 0.044555996347922906 0.065237317467551154 0 0.043969428859168797 0.066578862127832844 0 0.043976904673247365 0.067064886964889894 0 0.043969428859168797 0.066578862127832844 0 0.042943495927285073 0.069212144655064575 0 0.044241929456806564 0.066234867364845518 0 0.043969428859168797 0.066578862127832844 0 0.042663261667096442 0.069294021715272339 0 0.044241929456806564 0.066234867364845518 0 0.044950932937113226 0.063810153048287216 0 0.043969428859168797 0.066578862127832844 0 0.042663261667096442 0.069294021715272339 0 0.041981489156590383 0.070998007362358118 0 0.041199649195205676 0.071896081416937832 0 0.042663261667096442 0.069294021715272339 0 0.041981489156590383 0.070998007362358118 0 0.042943495927285073 0.069212144655064575 0 0.043969428859168797 0.066578862127832844 0 0.042663261667096442 0.069294021715272339 0 0.042943495927285073 0.069212144655064575 0 0.041981489156590383 0.070998007362358118 0 0.042943495927285073 0.069212144655064575 0 0.042094788988710947 0.071987431333098081 0 0.042943495927285073 0.069212144655064575 0 0.043614750469119799 0.069349096282061984 0 0.042094788988710947 0.071987431333098081 0 0.043614750469119799 0.069349096282061984 0 0.042094788988710947 0.071987431333098081 0 0.043754250519746934 0.071450256502681261 0 0.042094788988710947 0.071987431333098081 0 0.043754250519746934 0.071450256502681261 0 0.042103430064343222 0.074139913308840705 0 0.042094788988710947 0.071987431333098081 0 0.03985196250480149 0.075871671370755706 0 0.042103430064343222 0.074139913308840705 0 0.03985196250480149 0.075871671370755706 0 0.04124006867859259 0.07326964180917804 0 0.041125341448421136 0.074047520713912726 0 0.042094788988710947 0.071987431333098081 0 0.03985196250480149 0.075871671370755706 0 0.04124006867859259 0.07326964180917804 0 0.041981489156590383 0.070998007362358118 0 0.042094788988710947 0.071987431333098081 0 0.04124006867859259 0.07326964180917804 0 0.041981489156590383 0.070998007362358118 0 0.04124006867859259 0.07326964180917804 0 0.041199649195205676 0.071896081416937832 0 0.04124006867859259 0.07326964180917804 0 0.041125341448421136 0.074047520713912726 0 0.041199649195205676 0.071896081416937832 0 0.038623416925170538 0.074012580613449203 0 0.041125341448421136 0.074047520713912726 0 0.041199649195205676 0.071896081416937832 0 0.045918591402937747 0.071882307240986182 0 0.048578654573202769 0.070569706934263773 0 0.0482295095898123 0.074669955079764136 0 0.045918591402937747 0.071882307240986182 0 0.047169755217876176 0.069465871024191828 0 0.045227540750457977 0.069074218332430659 0 0.045918591402937747 0.071882307240986182 0 0.048578654573202769 0.070569706934263773 0 0.047169755217876176 0.069465871024191828 0 0.045918591402937747 0.071882307240986182 0 0.045227540750457977 0.069074218332430659 0 0.043754250519746934 0.071450256502681261 0 0.043614750469119799 0.069349096282061984 0 0.045227540750457977 0.069074218332430659 0 0.043754250519746934 0.071450256502681261 0 0.045918591402937747 0.071882307240986182 0 0.043754250519746934 0.071450256502681261 0 0.044051147994018859 0.073764390954375536 0 0.044051147994018859 0.073764390954375536 0 0.042103430064343222 0.074139913308840705 0 0.041714739047382841 0.077754463675762664 0 0.043754250519746934 0.071450256502681261 0 0.044051147994018859 0.073764390954375536 0 0.042103430064343222 0.074139913308840705 0 0.03985196250480149 0.075871671370755706 0 0.042103430064343222 0.074139913308840705 0 0.041714739047382841 0.077754463675762664 0 0.041714739047382841 0.077754463675762664 0 0.045093353870221092 0.076110707217157472 0 0.042552836624728786 0.080295392880131822 0 0.044051147994018859 0.073764390954375536 0 0.041714739047382841 0.077754463675762664 0 0.045093353870221092 0.076110707217157472 0 0.045093353870221092 0.076110707217157472 0 0.047442188670354338 0.077265084328192041 0 0.045407700468309914 0.079713972352780077 0 0.045918591402937747 0.071882307240986182 0 0.045093353870221092 0.076110707217157472 0 0.0482295095898123 0.074669955079764136 0 0.045918591402937747 0.071882307240986182 0 0.044051147994018859 0.073764390954375536 0 0.045093353870221092 0.076110707217157472 0 0.049858679126127396 0.076775622993361645 0 0.0482295095898123 0.074669955079764136 0 0.047442188670354338 0.077265084328192041 0 0.045093353870221092 0.076110707217157472 0 0.0482295095898123 0.074669955079764136 0 0.047442188670354338 0.077265084328192041 0 0.046754789819750939 0.082248944249499203 0 0.045407700468309914 0.079713972352780077 0 0.048812467955517101 0.079465004607461878 0 0.047442188670354338 0.077265084328192041 0 0.045407700468309914 0.079713972352780077 0 0.048812467955517101 0.079465004607461878 0 0.046754789819750939 0.082248944249499203 0 0.04609637046997915 0.086699552794961179 0 0.050822261509739078 0.082135665880964284 0 0.046754789819750939 0.082248944249499203 0 0.041936522356302568 0.083877752786554655 0 0.04609637046997915 0.086699552794961179 0 0.046754789819750939 0.082248944249499203 0 0.041936522356302568 0.083877752786554655 0 0.045407700468309914 0.079713972352780077 0 0.045093353870221092 0.076110707217157472 0 0.045407700468309914 0.079713972352780077 0 0.042552836624728786 0.080295392880131822 0 0.041936522356302568 0.083877752786554655 0 0.045407700468309914 0.079713972352780077 0 0.042552836624728786 0.080295392880131822 0 0.041714739047382841 0.077754463675762664 0 0.042552836624728786 0.080295392880131822 0 0.038833396461094245 0.083949628249175456 0 0.041714739047382841 0.077754463675762664 0 0.038833396461094245 0.083949628249175456 0 0.038309750845862939 0.08189021104567798 0 0.041936522356302568 0.083877752786554655 0 0.038833396461094245 0.083949628249175456 0 0.037900845625220191 0.087319243997665705 0 0.041936522356302568 0.083877752786554655 0 0.042552836624728786 0.080295392880131822 0 0.038833396461094245 0.083949628249175456 0 0.041936522356302568 0.083877752786554655 0 0.037900845625220191 0.087319243997665705 0 0.035649780230873701 0.091631215013964859 0 0.038833396461094245 0.083949628249175456 0 0.037900845625220191 0.087319243997665705 0 0.036321745336357014 0.088728402103201376 0 0.036321745336357014 0.088728402103201376 0 0.035649780230873701 0.091631215013964859 0 0.033739226306588307 0.089429255014806142 0 0.037900845625220191 0.087319243997665705 0 0.036321745336357014 0.088728402103201376 0 0.035649780230873701 0.091631215013964859 0 0.035649780230873701 0.091631215013964859 0 0.024635343039528704 0.09377552518210297 0 0.029863430216890911 0.089605089960008155 0 0.035649780230873701 0.091631215013964859 0 0.024635343039528704 0.09377552518210297 0 0.027787780911921703 0.099970593108660577 0 0.024635343039528704 0.09377552518210297 0 0.027787780911921703 0.099970593108660577 0 0.022695846351426897 0.10015378975836341 0 0.041936522356302568 0.083877752786554655 0 0.035649780230873701 0.091631215013964859 0 0.04609637046997915 0.086699552794961179 0 0.034342448122542987 0.090261616785829599 0 0.033059649938826596 0.090318894983387021 0 0.036977098743767436 0.077343810247468628 0 0.039816879588792091 0.076163593617834993 0 0.038223237151020772 0.079854619309746702 0 0.038623416925170538 0.074012580613449203 0 0.041125341448421136 0.074047520713912726 0 0.039816879588792091 0.076163593617834993 0 0.041125341448421136 0.074047520713912726 0 0.039816879588792091 0.076163593617834993 0 0.041813270654618394 0.075781031494372139 0 0.038741049482121613 0.080277219139913841 0 0.037824622668089031 0.083045734901453325 0 0.039816879588792091 0.076163593617834993 0 0.041813270654618394 0.075781031494372139 0 0.041237156236227736 0.080405959074073788 0 0.034538379259468302 0.083401461579326291 0 0.038309750845862939 0.08189021104567798 0 0.035967018480322403 0.086975408157605863 0 0.039438601559643349 0.078592958342666872 0 0.038741049482121613 0.080277219139913841 0 0.03985196250480149 0.075871671370755706 0 0.034538379259468302 0.083401461579326291 0 0.038309750845862939 0.08189021104567798 0 0.03985196250480149 0.075871671370755706 0 0.041125341448421136 0.074047520713912726 0 0.041813270654618394 0.075781031494372139 0 0.03985196250480149 0.075871671370755706 0 0.041714739047382841 0.077754463675762664 0 0.038309750845862939 0.08189021104567798 0 0.038833396461094245 0.083949628249175456 0 0.038309750845862939 0.08189021104567798 0 0.035967018480322403 0.086975408157605863 0 0.038833396461094245 0.083949628249175456 0 0.036321745336357014 0.088728402103201376 0 0.035967018480322403 0.086975408157605863 0 0.036321745336357014 0.088728402103201376 0 0.035905331409515559 0.088695663192557742 0 0.035225609264794178 0.088967406160521678 0 0.036321745336357014 0.088728402103201376 0 0.035967018480322403 0.086975408157605863 0 0.035905331409515559 0.088695663192557742 0 0.035967018480322403 0.086975408157605863 0 0.036311699549037492 0.08811617568037089 0 0.035905331409515559 0.088695663192557742 0 0.034538379259468302 0.083401461579326291 0 0.035967018480322403 0.086975408157605863 0 0.035239431036952068 0.087275795935393155 0 0.035967018480322403 0.086975408157605863 0 0.035239431036952068 0.087275795935393155 0 0.036311699549037492 0.08811617568037089 0 0.035786277267488044 0.083548300367103812 0 0.041237156236227736 0.080405959074073788 0 0.03705986491891386 0.087207579699342827 0 0.037824622668089031 0.083045734901453325 0 0.037170118750917192 0.084704632727862689 0 0.035239431036952068 0.087275795935393155 0 0.03705986491891386 0.087207579699342827 0 0.036311699549037492 0.08811617568037089 0 0.039816879588792091 0.076163593617834993 0 0.041237156236227736 0.080405959074073788 0 0.038223237151020772 0.079854619309746702 0 0.035786277267488044 0.083548300367103812 0 0.041237156236227736 0.080405959074073788 0 0.038223237151020772 0.079854619309746702 0 0.039433611885266937 0.089254620948962998 0 0.03785592667847705 0.088915708869835283 0 0.041174379664321414 0.087470379550846036 0 0.044360719624131809 0.080481343407622516 0 0.042862418593397324 0.080973317006896792 0 0.03705986491891386 0.087207579699342827 0 0.037266587427177617 0.088090336222003726 0 0.036311699549037492 0.08811617568037089 0 0.036391082607225643 0.089295483399167236 0 0.03705986491891386 0.087207579699342827 0 0.037266587427177617 0.088090336222003726 0 0.036391082607225643 0.089295483399167236 0 0.03785592667847705 0.088915708869835283 0 0.037266587427177617 0.088090336222003726 0 0.03785592667847705 0.088915708869835283 0 0.037266587427177617 0.088090336222003726 0 0.036646536661828766 0.088672370919745641 0 0.037266587427177617 0.088090336222003726 0 0.036311699549037492 0.08811617568037089 0 0.036646536661828766 0.088672370919745641 0 0.03785592667847705 0.088915708869835283 0 0.036646536661828766 0.088672370919745641 0 0.03810096896161054 0.087882567816088747 0 0.036646536661828766 0.088672370919745641 0 0.034734302868427797 0.08862335338812713 0 0.035757386135607014 0.087535574695645962 0 0.036646536661828766 0.088672370919745641 0 0.035905331409515559 0.088695663192557742 0 0.034734302868427797 0.08862335338812713 0 0.036311699549037492 0.08811617568037089 0 0.036646536661828766 0.088672370919745641 0 0.035905331409515559 0.088695663192557742 0 0.035905331409515559 0.088695663192557742 0 0.034734302868427797 0.08862335338812713 0 0.035225609264794178 0.088967406160521678 0 0.034734302868427797 0.08862335338812713 0 0.03322959279744081 0.087204729097064365 0 0.035757386135607014 0.087535574695645962 0 0.03322959279744081 0.087204729097064365 0 0.033657246464204295 0.084999306354092447 0 0.035757386135607014 0.087535574695645962 0 0.033657246464204295 0.084999306354092447 0 0.035757386135607014 0.087535574695645962 0 0.038747448913991581 0.084999842291174799 0 0.035757386135607014 0.087535574695645962 0 0.03810096896161054 0.087882567816088747 0 0.038747448913991581 0.084999842291174799 0 0.036646536661828766 0.088672370919745641 0 0.035757386135607014 0.087535574695645962 0 0.03810096896161054 0.087882567816088747 0 0.043839669333054186 0.08499922744580421 0 0.038747448913991581 0.084999842291174799 0 0.041174379664321414 0.087470379550846036 0 0.03810096896161054 0.087882567816088747 0 0.038747448913991581 0.084999842291174799 0 0.041174379664321414 0.087470379550846036 0 0.03785592667847705 0.088915708869835283 0 0.03810096896161054 0.087882567816088747 0 0.041174379664321414 0.087470379550846036 0 0.029978799905705577 0.088302686391926274 0 0.029863430216890911 0.089605089960008155 0 0.033739226306588307 0.089429255014806142 0 0.029978799905705577 0.088302686391926274 0 0.026827603873705971 0.088305262100259532 0 0.026973318443094415 0.086908282981258661 0 0.029978799905705577 0.088302686391926274 0 0.026827603873705971 0.088305262100259532 0 0.029863430216890911 0.089605089960008155 0 0.026827603873705971 0.088305262100259532 0 0.023133162614461623 0.08700473258545767 0 0.023960697684499713 0.089460539114408863 0 0.026827603873705971 0.088305262100259532 0 0.029863430216890911 0.089605089960008155 0 0.023960697684499713 0.089460539114408863 0 0.024635343039528704 0.09377552518210297 0 0.029863430216890911 0.089605089960008155 0 0.023960697684499713 0.089460539114408863 0 0.035649780230873701 0.091631215013964859 0 0.029863430216890911 0.089605089960008155 0 0.033739226306588307 0.089429255014806142 0 0.036321745336357014 0.088728402103201376 0 0.033739226306588307 0.089429255014806142 0 0.035225609264794178 0.088967406160521678 0 0.034734302868427797 0.08862335338812713 0 0.033739226306588307 0.089429255014806142 0 0.035225609264794178 0.088967406160521678 0 0.034734302868427797 0.08862335338812713 0 0.033739226306588307 0.089429255014806142 0 0.031492920440939896 0.087729898483477453 0 0.029978799905705577 0.088302686391926274 0 0.033739226306588307 0.089429255014806142 0 0.030299865750212051 0.08720915236950802 0 0.030473644738530169 0.088291070834453769 0 0.029833784971134061 0.08709556059856588 0 0.029978799905705577 0.088302686391926274 0 0.030299865750212051 0.08720915236950802 0 0.026973318443094415 0.086908282981258661 0 0.034734302868427797 0.08862335338812713 0 0.03322959279744081 0.087204729097064365 0 0.031492920440939896 0.087729898483477453 0 0.03322959279744081 0.087204729097064365 0 0.031492920440939896 0.087729898483477453 0 0.028568744674970805 0.084999875037555156 0 0.03322959279744081 0.087204729097064365 0 0.033657246464204295 0.084999306354092447 0 0.028568744674970805 0.084999875037555156 0 0.029833784971134061 0.08709556059856588 0 0.028566719157681334 0.085001919439463544 0 0.030299865750212051 0.08720915236950802 0 0.028563842409319917 0.084999480163455529 0 0.026973318443094415 0.086908282981258661 0 0.028563842409319917 0.084999480163455529 0 0.024491689880056091 0.084998826718805848 0 0.026973318443094415 0.086908282981258661 0 0.026827603873705971 0.088305262100259532 0 0.026973318443094415 0.086908282981258661 0 0.023133162614461623 0.08700473258545767 0 0.024491689880056091 0.084998826718805848 0 0.023133162614461623 0.08700473258545767 0 0.020415396837020407 0.084999052288342147 0 0.024491689880056091 0.084998826718805848 0 0.026973318443094415 0.086908282981258661 0 0.023133162614461623 0.08700473258545767 0 0.023133162614461623 0.08700473258545767 0 0.020415396837020407 0.084999052288342147 0 0.019263683113446454 0.086549740012858728 0 0.019263683113446454 0.086549740012858728 0 0.016339428812197077 0.084999137597688693 0 0.016386429458334059 0.08733155176503278 0 0.020415396837020407 0.084999052288342147 0 0.019263683113446454 0.086549740012858728 0 0.016339428812197077 0.084999137597688693 0 0.019263683113446454 0.086549740012858728 0 0.016386429458334059 0.08733155176503278 0 0.020115344145302746 0.088748723077658673 0 0.023133162614461623 0.08700473258545767 0 0.019263683113446454 0.086549740012858728 0 0.020115344145302746 0.088748723077658673 0 0.012263292200303123 0.085002637881080201 0 0.01177163944356573 0.088437113739031389 0 0.016339428812197077 0.084999137597688693 0 0.012266785133422373 0.084999442041877621 0 0.016386429458334059 0.08733155176503278 0 0.012266785133422373 0.084999442041877621 0 0.016386429458334059 0.08733155176503278 0 0.013312353675602715 0.088118935132504475 0 0.01177163944356573 0.088437113739031389 0 0.011062580409600346 0.092332597892556115 0 0.013312353675602715 0.088118935132504475 0 0.017051294619316433 0.09109881016521934 0 0.013090049184643673 0.09195295952495218 0 0.016386429458334059 0.08733155176503278 0 0.013312353675602715 0.088118935132504475 0 0.017051294619316433 0.09109881016521934 0 0.017051294619316433 0.09109881016521934 0 0.013090049184643673 0.09195295952495218 0 0.015742184361610925 0.094931498291333141 0 0.023960697684499713 0.089460539114408863 0 0.020115344145302746 0.088748723077658673 0 0.020874727146638201 0.091359812740528512 0 0.023133162614461623 0.08700473258545767 0 0.023960697684499713 0.089460539114408863 0 0.020115344145302746 0.088748723077658673 0 0.017051294619316433 0.09109881016521934 0 0.020115344145302746 0.088748723077658673 0 0.020874727146638201 0.091359812740528512 0 0.016386429458334059 0.08733155176503278 0 0.017051294619316433 0.09109881016521934 0 0.020115344145302746 0.088748723077658673 0 0.017051294619316433 0.09109881016521934 0 0.020874727146638201 0.091359812740528512 0 0.019492473221592085 0.094330621069857595 0 0.024635343039528704 0.09377552518210297 0 0.023960697684499713 0.089460539114408863 0 0.020874727146638201 0.091359812740528512 0 0.024635343039528704 0.09377552518210297 0 0.020874727146638201 0.091359812740528512 0 0.019492473221592085 0.094330621069857595 0 0.024635343039528704 0.09377552518210297 0 0.020715580723822551 0.096800938045782631 0 0.019492473221592085 0.094330621069857595 0 0.024635343039528704 0.09377552518210297 0 0.02281999250305557 0.097811278301552132 0 0.020715580723822551 0.096800938045782631 0 0.024032344251435737 0.095617692199897547 0 0.023955857188159561 0.095861347921399859 0 0.02281999250305557 0.097811278301552132 0 0.020715580723822551 0.096800938045782631 0 0.021182729197333352 0.098713766914069551 0 0.027787780911921703 0.099970593108660577 0 0.023144531290621675 0.1009960794263408 0 0.022695846351426897 0.10015378975836341 0 0.020715580723822551 0.096800938045782631 0 0.019492473221592085 0.094330621069857595 0 0.017858534142147185 0.097870229230417674 0 0.020715580723822551 0.096800938045782631 0 0.017858534142147185 0.097870229230417674 0 0.019886209281134916 0.099036280880476363 0 0.020715580723822551 0.096800938045782631 0 0.021182729197333352 0.098713766914069551 0 0.019886209281134916 0.099036280880476363 0 0.017051294619316433 0.09109881016521934 0 0.019492473221592085 0.094330621069857595 0 0.015742184361610925 0.094931498291333141 0 0.019492473221592085 0.094330621069857595 0 0.015742184361610925 0.094931498291333141 0 0.017858534142147185 0.097870229230417674 0 0.013090049184643673 0.09195295952495218 0 0.015742184361610925 0.094931498291333141 0 0.012499921436127661 0.096536324931147346 0 0.011062580409600346 0.092332597892556115 0 0.010243523309285201 0.096269664318093071 0 0.015742184361610925 0.094931498291333141 0 0.014721381277098105 0.098309253773172192 0 0.012499921436127661 0.096536324931147346 0 0.015742184361610925 0.094931498291333141 0 0.014721381277098105 0.098309253773172192 0 0.017858534142147185 0.097870229230417674 0 0.017858534142147185 0.097870229230417674 0 0.015590462953018526 0.10090297727601001 0 0.018285723461238742 0.10113780291519599 0 0.014721381277098105 0.098309253773172192 0 0.017858534142147185 0.097870229230417674 0 0.015590462953018526 0.10090297727601001 0 0.014721381277098105 0.098309253773172192 0 0.0119699918912201 0.10127829517967395 0 0.012499921436127661 0.096536324931147346 0 0.014721381277098105 0.098309253773172192 0 0.015590462953018526 0.10090297727601001 0 0.0119699918912201 0.10127829517967395 0 0.015590462953018526 0.10090297727601001 0 0.014321781883031581 0.10376338190369593 0 0.0119699918912201 0.10127829517967395 0 0.017639448506130806 0.10407528605078889 0 0.015590462953018526 0.10090297727601001 0 0.018285723461238742 0.10113780291519599 0 0.017639448506130806 0.10407528605078889 0 0.015590462953018526 0.10090297727601001 0 0.014321781883031581 0.10376338190369593 0 0.017639448506130806 0.10407528605078889 0 0.021269920656555766 0.10113634528030807 0 0.018285723461238742 0.10113780291519599 0 0.01668269328271664 0.093818821581613143 0 0.025658605749434262 0.091228690711196644 0 0.01002172893323762 0.080463097267523126 0 0.012068304809292862 0.079812994013996164 0 0.012693856950915287 0.078229495408594779 0 0.029537700816915376 0.085623141674538022 0 0.025658605749434262 0.091228690711196644 0 0.051752601492309327 0.079052647973680557 0 0.048812467955517101 0.079465004607461878 0 0.050822261509739078 0.082135665880964284 0 0.049858679126127396 0.076775622993361645 0 0.051752601492309327 0.079052647973680557 0 0.048812467955517101 0.079465004607461878 0 0.046754789819750939 0.082248944249499203 0 0.048812467955517101 0.079465004607461878 0 0.050822261509739078 0.082135665880964284 0 0.029537700816915376 0.085623141674538022 0 0.027210360513891869 0.090739619362669305 0 0.029158512686146731 0.086236904818164969 0 0.027468655169950139 0.091024831710807649 0 0.026580185669027794 0.091826831784142179 0 0.02281999250305557 0.097811278301552132 0 0.021269920656555766 0.10113634528030807 0 0.021182729197333352 0.098713766914069551 0 0.022695846351426897 0.10015378975836341 0 0.020840746082180263 0.1057411935999621 0 0.021507756647132691 0.10512705695385614 0 0.023955857188159561 0.095861347921399859 0 0.025658605749434262 0.091228690711196644 0 0.027787780911921703 0.099970593108660577 0 0.023144531290621675 0.1009960794263408 0 0.021185379895966444 0.10558892839274227 0 0.033059649938826596 0.090318894983387021 0 0.027210360513891869 0.090739619362669305 0 0.023144531290621675 0.1009960794263408 0 0.022695846351426897 0.10015378975836341 0 0.021507756647132691 0.10512705695385614 0 0.025658605749434262 0.091228690711196644 0 0.027210360513891869 0.090739619362669305 0 0.025755814320719304 0.09430810058339073 0 0.027210360513891869 0.090739619362669305 0 0.021269920656555766 0.10113634528030807 0 0.019886209281134916 0.099036280880476363 0 0.018285723461238742 0.10113780291519599 0 0.021269920656555766 0.10113634528030807 0 0.021182729197333352 0.098713766914069551 0 0.019886209281134916 0.099036280880476363 0 0.017858534142147185 0.097870229230417674 0 0.019886209281134916 0.099036280880476363 0 0.018285723461238742 0.10113780291519599 0 0.0035922610036056893 0.097459847888387324 0 0.0046753010790272255 0.097682351600333228 0 0.0050721170017191961 0.097985220044737767 0 0.0035922610036056893 0.097459847888387324 0 0.0046753010790272255 0.097682351600333228 0 0.0047659404766256033 0.097095609385337941 0 0.0028353163118141622 0.096732359913409768 0 0.0039535608182522117 0.097696562493080591 0 0.002820685444817918 0.09654680411777429 0 0.0019518412794498365 0.097307544245875871 0 0.0031793094056440816 0.097756578233323177 0 0.002820685444817918 0.09654680411777429 0 0.0019518412794498365 0.097307544245875871 0 0.0010463770651034782 0.096631294238249399 0 0.0019518412794498365 0.097307544245875871 0 0.0017731213734947099 0.098241156081013539 0 0.0031793094056440816 0.097756578233323177 0 0.0017731213734947099 0.098241156081013539 0 0.0029342638825340444 0.098758180916696373 0 0.0014885169711338856 0.099240302787649726 0 0.0017731213734947099 0.098241156081013539 0 0.0029342638825340444 0.098758180916696373 0 0.0031793094056440816 0.097756578233323177 0 0.0039206384184940976 0.098340456556844189 0 0.0031793094056440816 0.097756578233323177 0 0.0046750772482832825 0.098496052893643216 0 0.002820685444817918 0.09654680411777429 0 0.0031793094056440816 0.097756578233323177 0 0.0046750772482832825 0.098496052893643216 0 0.0029342638825340444 0.098758180916696373 0 0.0039206384184940976 0.098340456556844189 0 0.0047194488497566715 0.098457712929749391 0 0.0029342638825340444 0.098758180916696373 0 0.0039206384184940976 0.098340456556844189 0 0.0031793094056440816 0.097756578233323177 0 0.0046753010790272255 0.097682351600333228 0 0.0050721170017191961 0.097985220044737767 0 0.0049686400075202386 0.097880489904159193 0 0.0039206384184940976 0.098340456556844189 0 0.0046750772482832825 0.098496052893643216 0 0.0047194488497566715 0.098457712929749391 0 0.004748117566105354 0.097402930937538948 0 0.0050721170017191961 0.097985220044737767 0 0.0048950526093211244 0.097731437493407972 0 0.0050721170017191961 0.097985220044737767 0 0.004967432214675137 0.097866088315689284 0 0.0048950526093211244 0.097731437493407972 0 0.0050721170017191961 0.097985220044737767 0 0.004967432214675137 0.097866088315689284 0 0.0049686400075202386 0.097880489904159193 0 0.004967432214675137 0.097866088315689284 0 0.0049450251139941384 0.097824028814105402 0 0.0049686400075202386 0.097880489904159193 0 0.004967432214675137 0.097866088315689284 0 0.0049450251139941384 0.097824028814105402 0 0.0048950526093211244 0.097731437493407972 0 0.0049450251139941384 0.097824028814105402 0 0.0048950526093211244 0.097731437493407972 0 0.00485803546659029 0.097695267098241764 0 0.00485803546659029 0.097695267098241764 0 0.0050034626745277784 0.097781818943598497 0 0.004739498737568992 0.097625042008563229 0 0.0049450251139941384 0.097824028814105402 0 0.00485803546659029 0.097695267098241764 0 0.0050034626745277784 0.097781818943598497 0 0.0049450251139941384 0.097824028814105402 0 0.0050034626745277784 0.097781818943598497 0 0.0050137827144362615 0.097816543992256699 0 0.0050034626745277784 0.097781818943598497 0 0.0050137827144362615 0.097816543992256699 0 0.0052008978303699806 0.097745229979115777 0 0.0046753010790272255 0.097682351600333228 0 0.0050137827144362615 0.097816543992256699 0 0.0049686400075202386 0.097880489904159193 0 0.0049450251139941384 0.097824028814105402 0 0.0050137827144362615 0.097816543992256699 0 0.0049686400075202386 0.097880489904159193 0 0.010276345805759427 0.1039841343363314 0 0.0094495496387226111 0.09970940894025189 0 0.0041052587655453802 0.097294330456443506 0 0.004739498737568992 0.097625042008563229 0 0.0055176655263966031 0.097832601580325571 0 0.011861323546228141 0.10512099086486165 0 0.014321781883031581 0.10376338190369593 0 0.0119699918912201 0.10127829517967395 0 0.0089045676397162751 0.099774060970005976 0 0.0094495496387226111 0.09970940894025189 0 0.0050034626745277784 0.097781818943598497 0 0.004739498737568992 0.097625042008563229 0 0.0055176655263966031 0.097832601580325571 0 0.0050034626745277784 0.097781818943598497 0 0.0055176655263966031 0.097832601580325571 0 0.0052008978303699806 0.097745229979115777 0 0.0055176655263966031 0.097832601580325571 0 0.0056237187772740314 0.097509184452674036 0 0.0066616352478368621 0.09706247851929968 0 0.0094495496387226111 0.09970940894025189 0 0.0088958836278015176 0.097940845397639975 0 0.0071604465925089403 0.099893986901595289 0 0.0079117468644839001 0.096537259469292341 0 0.007461650765766127 0.097726685558761087 0 0.0094495496387226111 0.09970940894025189 0 0.010243523309285201 0.096269664318093071 0 0.0055176655263966031 0.097832601580325571 0 0.0056237187772740314 0.097509184452674036 0 0.0052008978303699806 0.097745229979115777 0 0.0056237187772740314 0.097509184452674036 0 0.0056727954709458019 0.097025735688661893 0 0.0066616352478368621 0.09706247851929968 0 0.0046753010790272255 0.097682351600333228 0 0.0050137827144362615 0.097816543992256699 0 0.0051340116614450627 0.097555614129575113 0 0.0056237187772740314 0.097509184452674036 0 0.0051340116614450627 0.097555614129575113 0 0.0052008978303699806 0.097745229979115777 0 0.0050137827144362615 0.097816543992256699 0 0.0051340116614450627 0.097555614129575113 0 0.0052008978303699806 0.097745229979115777 0 0.0056237187772740314 0.097509184452674036 0 0.0051340116614450627 0.097555614129575113 0 0.0056727954709458019 0.097025735688661893 0 0.0046753010790272255 0.097682351600333228 0 0.0051340116614450627 0.097555614129575113 0 0.0047659404766256033 0.097095609385337941 0 0.0051340116614450627 0.097555614129575113 0 0.0047659404766256033 0.097095609385337941 0 0.0056727954709458019 0.097025735688661893 0 0.0047659404766256033 0.097095609385337941 0 0.0056727954709458019 0.097025735688661893 0 0.0055645839550354124 0.096116809272528719 0 0.0056727954709458019 0.097025735688661893 0 0.0055645839550354124 0.096116809272528719 0 0.0064798012592790612 0.096329451834850685 0 0.0047659404766256033 0.097095609385337941 0 0.0055645839550354124 0.096116809272528719 0 0.004210360520544942 0.096173038475227693 0 0.0066616352478368621 0.09706247851929968 0 0.0064798012592790612 0.096329451834850685 0 0.0078757835780742021 0.095557526133064633 0 0.0088958836278015176 0.097940845397639975 0 0.008774253858585929 0.097184488262670787 0 0.0079117468644839001 0.096537259469292341 0 0.007461650765766127 0.097726685558761087 0 0.0078757835780742021 0.095557526133064633 0 0.0056727954709458019 0.097025735688661893 0 0.0066616352478368621 0.09706247851929968 0 0.0064798012592790612 0.096329451834850685 0 0.0055645839550354124 0.096116809272528719 0 0.0064798012592790612 0.096329451834850685 0 0.0068080085725034847 0.095435569680612453 0 0.0093176236281810113 0.093189993089154058 0 0.0078757835780742021 0.095557526133064633 0 0.0074090091481246274 0.09435996458990295 0 0.0093176236281810113 0.093189993089154058 0 0.0079117468644839001 0.096537259469292341 0 0.0078757835780742021 0.095557526133064633 0 0.0078757835780742021 0.095557526133064633 0 0.0068080085725034847 0.095435569680612453 0 0.0074090091481246274 0.09435996458990295 0 0.0064798012592790612 0.096329451834850685 0 0.0078757835780742021 0.095557526133064633 0 0.0068080085725034847 0.095435569680612453 0 0.0068080085725034847 0.095435569680612453 0 0.0074090091481246274 0.09435996458990295 0 0.0062370063875171232 0.094580838686355126 0 0.0055645839550354124 0.096116809272528719 0 0.0049855875837664758 0.095054695537409417 0 0.004210360520544942 0.096173038475227693 0 0.0055645839550354124 0.096116809272528719 0 0.0062370063875171232 0.094580838686355126 0 0.0049855875837664758 0.095054695537409417 0 0.0055645839550354124 0.096116809272528719 0 0.0068080085725034847 0.095435569680612453 0 0.0062370063875171232 0.094580838686355126 0 0.0062370063875171232 0.094580838686355126 0 0.0049855875837664758 0.095054695537409417 0 0.0050640469703964932 0.093206628063483024 0 0.0049855875837664758 0.095054695537409417 0 0.0035949740609612884 0.094851997087487691 0 0.0050640469703964932 0.093206628063483024 0 0.0035949740609612884 0.094851997087487691 0 0.0030773732613709926 0.095825146046882914 0 0.0025710110767553102 0.09485479384948528 0 0.0035949740609612884 0.094851997087487691 0 0.0030773732613709926 0.095825146046882914 0 0.004210360520544942 0.096173038475227693 0 0.0049855875837664758 0.095054695537409417 0 0.0035949740609612884 0.094851997087487691 0 0.004210360520544942 0.096173038475227693 0 0.0035922610036056893 0.097459847888387324 0 0.0030773732613709926 0.095825146046882914 0 0.004210360520544942 0.096173038475227693 0 0.0035922610036056893 0.097459847888387324 0 0.0047659404766256033 0.097095609385337941 0 0.004210360520544942 0.096173038475227693 0 0.002820685444817918 0.09654680411777429 0 0.0011547636388135867 0.095975600087704782 0 0.0010463770651034782 0.096631294238249399 0 0.0028353163118141622 0.096732359913409768 0 0.0010667459804660645 0.094804974146030244 0 0.002820685444817918 0.09654680411777429 0 0.0013856387305817464 0.095720478064997977 0 0.0011547636388135867 0.095975600087704782 0 0.0035922610036056893 0.097459847888387324 0 0.0030773732613709926 0.095825146046882914 0 0.0014361245933870407 0.095401691284621476 0 0.002820685444817918 0.09654680411777429 0 0.0013856387305817464 0.095720478064997977 0 0.0010402850899825242 0.095301033290004319 0 0.0014361245933870407 0.095401691284621476 0 0.0025710110767553102 0.09485479384948528 0 0.0021878036103760734 0.092942028816560801 0 0.0030773732613709926 0.095825146046882914 0 0.0014361245933870407 0.095401691284621476 0 0.0025710110767553102 0.09485479384948528 0 0.0035949740609612884 0.094851997087487691 0 0.0025710110767553102 0.09485479384948528 0 0.0021878036103760734 0.092942028816560801 0 0.0014361245933870407 0.095401691284621476 0 0.0021878036103760734 0.092942028816560801 0 -0.00094265081259360054 0.09238642782358425 0 0.0035949740609612884 0.094851997087487691 0 0.0021878036103760734 0.092942028816560801 0 0.0050640469703964932 0.093206628063483024 0 0.0021878036103760734 0.092942028816560801 0 0.0050640469703964932 0.093206628063483024 0 0.0042802050072656243 0.089936747732606626 0 0.0021878036103760734 0.092942028816560801 0 0.00067462031853583824 0.089134337689771054 0 0.0042802050072656243 0.089936747732606626 0 0.0021878036103760734 0.092942028816560801 0 0.00067462031853583824 0.089134337689771054 0 -0.00094265081259360054 0.09238642782358425 0 0.0093176236281810113 0.093189993089154058 0 0.0069629905069280825 0.093091551216698765 0 0.007366951170822208 0.090991155982680788 0 0.0093176236281810113 0.093189993089154058 0 0.0074090091481246274 0.09435996458990295 0 0.0069629905069280825 0.093091551216698765 0 0.0074090091481246274 0.09435996458990295 0 0.0062370063875171232 0.094580838686355126 0 0.0069629905069280825 0.093091551216698765 0 0.0069629905069280825 0.093091551216698765 0 0.0050640469703964932 0.093206628063483024 0 0.007366951170822208 0.090991155982680788 0 0.0062370063875171232 0.094580838686355126 0 0.0069629905069280825 0.093091551216698765 0 0.0050640469703964932 0.093206628063483024 0 0.0050640469703964932 0.093206628063483024 0 0.007366951170822208 0.090991155982680788 0 0.0042802050072656243 0.089936747732606626 0 0.010843127474734707 0.089349391753258664 0 0.0093176236281810113 0.093189993089154058 0 0.007366951170822208 0.090991155982680788 0 0.010843127474734707 0.089349391753258664 0 0.007366951170822208 0.090991155982680788 0 0.0071200123701967355 0.088146433920655437 0 0.007366951170822208 0.090991155982680788 0 0.0071200123701967355 0.088146433920655437 0 0.0042802050072656243 0.089936747732606626 0 0.0071200123701967355 0.088146433920655437 0 0.0077262369862413647 0.08499978114940672 0 0.0031895973311095254 0.085000099027281104 0 0.012262614058995123 0.085000109315978165 0 0.010843127474734707 0.089349391753258664 0 0.0071200123701967355 0.088146433920655437 0 0.012262614058995123 0.085000109315978165 0 0.0071200123701967355 0.088146433920655437 0 0.0077262369862413647 0.08499978114940672 0 0.0071200123701967355 0.088146433920655437 0 0.0042802050072656243 0.089936747732606626 0 0.0031895973311095254 0.085000099027281104 0 0.00067462031853583824 0.089134337689771054 0 0.0042802050072656243 0.089936747732606626 0 0.0031895973311095254 0.085000099027281104 0 0.00067462031853583824 0.089134337689771054 0 0.0031895973311095254 0.085000099027281104 0 -0.0013470078823085523 0.084999829574422758 0 0.00067462031853583824 0.089134337689771054 0 -0.0013470078823085523 0.084999829574422758 0 -0.0034131921482381598 0.088857553009891732 0 -0.0035650909381877392 0.08847692813962979 0 -0.0058819305283885339 0.085002984974125687 0 -0.0013470078823085523 0.084999829574422758 0 -0.0034131921482381598 0.088857553009891732 0 -0.0058840786054713146 0.08499998187731661 0 -0.0039730701254449613 0.088377549984926321 0 -0.0058848482589592887 0.084999753215920626 0 -0.0071979259849090007 0.087413605805096842 0 -0.0058848482589592887 0.084999753215920626 0 -0.0088895142188535805 0.08499983878191722 0 -0.0071979259849090007 0.087413605805096842 0 -0.0088895142188535805 0.08499983878191722 0 -0.010077025485629549 0.087397567028782375 0 -0.011893943614168569 0.084999890885293986 0 -0.0088895142188535805 0.08499983878191722 0 -0.010077025485629549 0.087397567028782375 0 -0.0071979259849090007 0.087413605805096842 0 -0.010077025485629549 0.087397567028782375 0 -0.0084465694525663691 0.089300817911484545 0 -0.0071979259849090007 0.087413605805096842 0 -0.010077025485629549 0.087397567028782375 0 -0.0084465694525663691 0.089300817911484545 0 -0.010660163567826614 0.090434288307343819 0 -0.0039730701254449613 0.088377549984926321 0 -0.0071979259849090007 0.087413605805096842 0 -0.0057716043901298733 0.090525226991899216 0 -0.0084465694525663691 0.089300817911484545 0 -0.0071979259849090007 0.087413605805096842 0 -0.0057716043901298733 0.090525226991899216 0 -0.0057716043901298733 0.090525226991899216 0 -0.0083447913499475248 0.091292784385780659 0 -0.0068263898391416455 0.092972166308637208 0 -0.0084465694525663691 0.089300817911484545 0 -0.0057716043901298733 0.090525226991899216 0 -0.0083447913499475248 0.091292784385780659 0 -0.0083447913499475248 0.091292784385780659 0 -0.01012144349237753 0.092937380695539584 0 -0.010660163567826614 0.090434288307343819 0 -0.0084465694525663691 0.089300817911484545 0 -0.0083447913499475248 0.091292784385780659 0 -0.010660163567826614 0.090434288307343819 0 -0.0083447913499475248 0.091292784385780659 0 -0.01012144349237753 0.092937380695539584 0 -0.0068263898391416455 0.092972166308637208 0 -0.01012144349237753 0.092937380695539584 0 -0.0068263898391416455 0.092972166308637208 0 -0.0086799375067992245 0.095599960012766383 0 -0.0057716043901298733 0.090525226991899216 0 -0.0068263898391416455 0.092972166308637208 0 -0.004224761691220446 0.093234793582719661 0 -0.0068263898391416455 0.092972166308637208 0 -0.004224761691220446 0.093234793582719661 0 -0.0053461209244522476 0.094539721788034839 0 -0.0057716043901298733 0.090525226991899216 0 -0.004224761691220446 0.093234793582719661 0 -0.0016808384633171683 0.091748445394247868 0 0.0010667459804660645 0.094804974146030244 0 -0.0011936410154794953 0.09186054957554618 0 -0.004224761691220446 0.093234793582719661 0 -0.0016808384633171683 0.091748445394247868 0 -0.0019496266023830318 0.094274179910606284 0 0.0010402850899825242 0.095301033290004319 0 -0.0016808384633171683 0.091748445394247868 0 -0.0019496266023830318 0.094274179910606284 0 0.00067462031853583824 0.089134337689771054 0 -0.0034131921482381598 0.088857553009891732 0 -0.00094265081259360054 0.09238642782358425 0 -0.0035650909381877392 0.08847692813962979 0 -0.0011936410154794953 0.09186054957554618 0 -0.0039730701254449613 0.088377549984926321 0 -0.0057716043901298733 0.090525226991899216 0 -0.0016808384633171683 0.091748445394247868 0 -0.017111284356121359 0.088674666069098504 0 -0.019828531167779773 0.091307156782990909 0 -0.021415968983785616 0.088878430387873048 0 -0.019437528975543485 0.085000178928137451 0 -0.017111284356121359 0.088674666069098504 0 -0.021415968983785616 0.088878430387873048 0 -0.019445681342698664 0.08500048006440046 0 -0.025018934447235432 0.086912426656844802 0 -0.017018159498089873 0.085003634293132929 0 -0.017847537598968056 0.088389557177532163 0 -0.017016170372253572 0.084999973623664071 0 -0.016783124898604156 0.08889603071067366 0 -0.0147415039751568 0.087009720630139176 0 -0.019437528975543485 0.085000178928137451 0 -0.017017350948537346 0.08499973874111541 0 -0.017111284356121359 0.088674666069098504 0 -0.016783124898604156 0.08889603071067366 0 -0.0147415039751568 0.087009720630139176 0 -0.013234983498988238 0.089059677212213584 0 -0.016783124898604156 0.08889603071067366 0 -0.013234983498988238 0.089059677212213584 0 -0.015240423849317316 0.09069899279601211 0 -0.017016170372253572 0.084999973623664071 0 -0.0147415039751568 0.087009720630139176 0 -0.011895227721452335 0.084999973079339083 0 -0.011897620308014188 0.085002860032957428 0 -0.01392423604835006 0.088258600371975887 0 -0.0147415039751568 0.087009720630139176 0 -0.011895227721452335 0.084999973079339083 0 -0.013234983498988238 0.089059677212213584 0 -0.010077025485629549 0.087397567028782375 0 -0.011893943614168569 0.084999890885293986 0 -0.012438403268408921 0.088634181128646766 0 -0.010077025485629549 0.087397567028782375 0 -0.012438403268408921 0.088634181128646766 0 -0.010660163567826614 0.090434288307343819 0 -0.012438403268408921 0.088634181128646766 0 -0.010660163567826614 0.090434288307343819 0 -0.013359576157174161 0.092231636457619184 0 -0.01012144349237753 0.092937380695539584 0 -0.010660163567826614 0.090434288307343819 0 -0.013359576157174161 0.092231636457619184 0 -0.01012144349237753 0.092937380695539584 0 -0.013359576157174161 0.092231636457619184 0 -0.012582064337805182 0.094949341818946681 0 -0.014467234244950609 0.092862674515451438 0 -0.016599125799985345 0.09256313459557633 0 -0.016488771989024591 0.09606275219856826 0 -0.016487832840379822 0.090890093255803786 0 -0.019995362551572596 0.090601543361303147 0 -0.01392423604835006 0.088258600371975887 0 -0.016487832840379822 0.090890093255803786 0 -0.013234983498988238 0.089059677212213584 0 -0.014467234244950609 0.092862674515451438 0 -0.015240423849317316 0.09069899279601211 0 -0.014467234244950609 0.092862674515451438 0 -0.015240423849317316 0.09069899279601211 0 -0.016599125799985345 0.09256313459557633 0 -0.017111284356121359 0.088674666069098504 0 -0.017092088432268393 0.092159506209379613 0 -0.019828531167779773 0.091307156782990909 0 -0.017847537598968056 0.088389557177532163 0 -0.019140955159777883 0.090943696581864852 0 -0.016783124898604156 0.08889603071067366 0 -0.015240423849317316 0.09069899279601211 0 -0.016599125799985345 0.09256313459557633 0 -0.019140955159777883 0.090943696581864852 0 -0.021652456066025495 0.089776003477170144 0 -0.017092088432268393 0.092159506209379613 0 -0.020175843417391481 0.094131343842489612 0 -0.01700960444922171 0.095618707017522689 0 -0.017092088432268393 0.092159506209379613 0 -0.020175843417391481 0.094131343842489612 0 -0.019828531167779773 0.091307156782990909 0 -0.035564333263433993 0.084140479559788955 0 -0.035570571039608631 0.083797024016081384 0 -0.035155438692117687 0.083967897758021368 0 -0.035564333263433993 0.084140479559788955 0 -0.036012708133631298 0.083820821441071239 0 -0.035570571039608631 0.083797024016081384 0 -0.035502665412357366 0.084556614616187936 0 -0.035564333263433993 0.084140479559788955 0 -0.03515877803064698 0.084366326088121932 0 -0.035502665412357366 0.084556614616187936 0 -0.035564333263433993 0.084140479559788955 0 -0.035981742226395545 0.084329716911540717 0 -0.027273832247802141 0.088208180662652236 0 -0.021652456066025495 0.089776003477170144 0 -0.021652456066025495 0.089776003477170144 0 -0.019995362551572596 0.090601543361303147 0 -0.021534318129619166 0.091584759602157118 0 -0.021589022480750539 0.089813131156810361 0 -0.022036036813918563 0.091345986558142425 0 -0.035564333263433993 0.084140479559788955 0 -0.035981742226395545 0.084329716911540717 0 -0.036012708133631298 0.083820821441071239 0 -0.021652456066025495 0.089776003477170144 0 -0.022232490551931754 0.090503804268705482 0 -0.022232490551931754 0.090503804268705482 0 -0.019995362551572596 0.090601543361303147 0 -0.014504128472540881 0.097401399100479125 0 -0.013598689276341796 0.096257933411915297 0 -0.014034504092762787 0.095531203730057829 0 -0.014504128472540881 0.097401399100479125 0 -0.013152526313039108 0.097055221669031549 0 -0.013598689276341796 0.096257933411915297 0 -0.013152526313039108 0.097055221669031549 0 -0.012752540385803408 0.096063425150391055 0 -0.012216719482108545 0.096971632534176982 0 -0.013152526313039108 0.097055221669031549 0 -0.012216719482108545 0.096971632534176982 0 -0.012673923438821337 0.097509733240345772 0 -0.013152526313039108 0.097055221669031549 0 -0.012752540385803408 0.096063425150391055 0 -0.013598689276341796 0.096257933411915297 0 -0.012752540385803408 0.096063425150391055 0 -0.013598689276341796 0.096257933411915297 0 -0.013264305827154514 0.095834187559169726 0 -0.013598689276341796 0.096257933411915297 0 -0.013830814618620556 0.095642270913559466 0 -0.013264305827154514 0.095834187559169726 0 -0.014119153578172642 0.095534741725336256 0 -0.013830814618620556 0.095642270913559466 0 -0.012582064337805182 0.094949341818946681 0 -0.013359576157174161 0.092231636457619184 0 -0.014119153578172642 0.095534741725336256 0 -0.012582064337805182 0.094949341818946681 0 -0.014467234244950609 0.092862674515451438 0 -0.016488771989024591 0.09606275219856826 0 -0.015570690623147187 0.096497036579828291 0 -0.019995362551572596 0.090601543361303147 0 -0.019931743669531824 0.090636935833255314 0 -0.013598689276341796 0.096257933411915297 0 -0.014034504092762787 0.095531203730057829 0 -0.013830814618620556 0.095642270913559466 0 -0.012752540385803408 0.096063425150391055 0 -0.012582064337805182 0.094949341818946681 0 -0.013264305827154514 0.095834187559169726 0 -0.013830814618620556 0.095642270913559466 0 -0.012582064337805182 0.094949341818946681 0 -0.013264305827154514 0.095834187559169726 0 -0.012582064337805182 0.094949341818946681 0 -0.01125835572671763 0.095962351591574485 0 -0.012065941547486489 0.096148232301058192 0 -0.012582064337805182 0.094949341818946681 0 -0.01125835572671763 0.095962351591574485 0 -0.01000757215011404 0.095283209183824463 0 -0.01012144349237753 0.092937380695539584 0 -0.012582064337805182 0.094949341818946681 0 -0.0086799375067992245 0.095599960012766383 0 -0.010414692876494295 0.094915438945040662 0 -0.0086200408866186108 0.095023526874094918 0 -0.012752540385803408 0.096063425150391055 0 -0.012582064337805182 0.094949341818946681 0 -0.012065941547486489 0.096148232301058192 0 -0.01125835572671763 0.095962351591574485 0 -0.012065941547486489 0.096148232301058192 0 -0.011648696700553724 0.096811274178457904 0 -0.012065941547486489 0.096148232301058192 0 -0.012216719482108545 0.096971632534176982 0 -0.011648696700553724 0.096811274178457904 0 -0.012752540385803408 0.096063425150391055 0 -0.012065941547486489 0.096148232301058192 0 -0.012216719482108545 0.096971632534176982 0 -0.012216719482108545 0.096971632534176982 0 -0.011648696700553724 0.096811274178457904 0 -0.011733484335855984 0.097540405892418677 0 -0.01125835572671763 0.095962351591574485 0 -0.011648696700553724 0.096811274178457904 0 -0.010965430011148075 0.097433045356721509 0 -0.011648696700553724 0.096811274178457904 0 -0.011733484335855984 0.097540405892418677 0 -0.010965430011148075 0.097433045356721509 0 -0.011733484335855984 0.097540405892418677 0 -0.011928984674958797 0.098958330147016452 0 -0.010965430011148075 0.097433045356721509 0 -0.012216719482108545 0.096971632534176982 0 -0.012232247042716646 0.097964297969362513 0 -0.012673923438821337 0.097509733240345772 0 -0.011733484335855984 0.097540405892418677 0 -0.012232247042716646 0.097964297969362513 0 -0.011928984674958797 0.098958330147016452 0 -0.012216719482108545 0.096971632534176982 0 -0.011733484335855984 0.097540405892418677 0 -0.012232247042716646 0.097964297969362513 0 -0.012232247042716646 0.097964297969362513 0 -0.011928984674958797 0.098958330147016452 0 -0.012525594845436059 0.098435900678740515 0 -0.011928984674958797 0.098958330147016452 0 -0.012525594845436059 0.098435900678740515 0 -0.012852291207752751 0.098780197797176714 0 -0.0035658871571711773 0.097521110396477831 0 -0.0036724794708775091 0.098094940839483433 0 -0.002900456066203106 0.09812057172876526 0 -0.0036724794708775091 0.098094940839483433 0 -0.0036490007899678397 0.098550215342794983 0 -0.002900456066203106 0.09812057172876526 0 -0.0036490007899678397 0.098550215342794983 0 -0.0045464790515702732 0.098191124998956075 0 -0.0041722636725211159 0.098886702173642607 0 -0.0036724794708775091 0.098094940839483433 0 -0.0036490007899678397 0.098550215342794983 0 -0.0045464790515702732 0.098191124998956075 0 -0.010793560328879497 0.092225500456219911 0 -0.012429693707951408 0.092206012057733835 0 -0.0035658871571711773 0.097521110396477831 0 -0.0036724794708775091 0.098094940839483433 0 -0.0045464790515702732 0.098191124998956075 0 -0.0039688353288280659 0.09757289901291348 0 -0.0035658871571711773 0.097521110396477831 0 -0.0048188605409326471 0.098181555944377011 0 -0.01329867771270722 0.09942199007782157 0 -0.013694726089067891 0.098747333371794907 0 -0.012852291207752751 0.098780197797176714 0 -0.011928984674958797 0.098958330147016452 0 -0.01329867771270722 0.09942199007782157 0 -0.012852291207752751 0.098780197797176714 0 -0.011034411449756882 0.094716073871181083 0 -0.017843639160791229 0.092251474056415331 0 -0.011928984674958797 0.098958330147016452 0 -0.01329867771270722 0.09942199007782157 0 -0.01417368897679626 0.10056645437603959 0 -0.0039688353288280659 0.09757289901291348 0 -0.0048188605409326471 0.098181555944377011 0 -0.0061122700246470192 0.098832759049063051 0 -0.012429693707951408 0.092206012057733835 0 -0.017843639160791229 0.092251474056415331 0 -0.01329867771270722 0.09942199007782157 0 -0.013991136565756412 0.099762738638933007 0 -0.01417368897679626 0.10056645437603959 0 -0.013991136565756412 0.099762738638933007 0 -0.013694726089067891 0.098747333371794907 0 -0.014434418634565894 0.099063938969421603 0 -0.01329867771270722 0.09942199007782157 0 -0.013991136565756412 0.099762738638933007 0 -0.013694726089067891 0.098747333371794907 0 -0.013694726089067891 0.098747333371794907 0 -0.012852291207752751 0.098780197797176714 0 -0.013089547413776485 0.098040454098696911 0 -0.012525594845436059 0.098435900678740515 0 -0.012852291207752751 0.098780197797176714 0 -0.013089547413776485 0.098040454098696911 0 -0.012232247042716646 0.097964297969362513 0 -0.012673923438821337 0.097509733240345772 0 -0.013089547413776485 0.098040454098696911 0 -0.012232247042716646 0.097964297969362513 0 -0.012525594845436059 0.098435900678740515 0 -0.013089547413776485 0.098040454098696911 0 -0.013152526313039108 0.097055221669031549 0 -0.012673923438821337 0.097509733240345772 0 -0.013089547413776485 0.098040454098696911 0 -0.014504128472540881 0.097401399100479125 0 -0.013694726089067891 0.098747333371794907 0 -0.013089547413776485 0.098040454098696911 0 -0.014504128472540881 0.097401399100479125 0 -0.013152526313039108 0.097055221669031549 0 -0.013089547413776485 0.098040454098696911 0 -0.024222455233210906 0.090745737731801446 0 -0.024063538055892005 0.090194634845962018 0 -0.024236663946354493 0.090309563781829111 0 -0.022232490551931754 0.090503804268705482 0 -0.025336736763680947 0.089007495252810848 0 -0.014504128472540881 0.097401399100479125 0 -0.013694726089067891 0.098747333371794907 0 -0.014434418634565894 0.099063938969421603 0 -0.022232490551931754 0.090503804268705482 0 -0.020985751307422529 0.092465351410752739 0 -0.036012708133631298 0.083820821441071239 0 -0.035891702880274171 0.083310949446865554 0 -0.035652977966208241 0.083509093478159449 0 -0.020985751307422529 0.092465351410752739 0 -0.02018854712960625 0.091924162740204859 0 -0.024063538055892005 0.090194634845962018 0 -0.024236663946354493 0.090309563781829111 0 -0.024252686030951865 0.089864907173466138 0 -0.013991136565756412 0.099762738638933007 0 -0.014434418634565894 0.099063938969421603 0 -0.014393969411118515 0.10072909628259991 0 -0.013991136565756412 0.099762738638933007 0 -0.01417368897679626 0.10056645437603959 0 -0.014393969411118515 0.10072909628259991 0 -0.035533263888402153 0.08314246813893765 0 -0.035652977966208241 0.083509093478159449 0 -0.035249835992049242 0.083469048921271632 0 -0.035891702880274171 0.083310949446865554 0 -0.035533263888402153 0.08314246813893765 0 -0.035770257840635089 0.08279423078254175 0 -0.035891702880274171 0.083310949446865554 0 -0.035533263888402153 0.08314246813893765 0 -0.035652977966208241 0.083509093478159449 0 -0.036012708133631298 0.083820821441071239 0 -0.035652977966208241 0.083509093478159449 0 -0.035570571039608631 0.083797024016081384 0 -0.035652977966208241 0.083509093478159449 0 -0.035570571039608631 0.083797024016081384 0 -0.035249835992049242 0.083469048921271632 0 0.00010008489436230603 0.095734736376640095 0 0.000701943646848635 0.095436431835233024 0 -0.00042226897960423579 0.095185768725550735 0 0.00010008489436230603 0.095734736376640095 0 -0.00068351211185267941 0.096052066831300645 0 -0.00042226897960423579 0.095185768725550735 0 -0.00068351211185267941 0.096052066831300645 0 5.5977688104576576e-05 0.096314439499002202 0 -0.00093061231608619361 0.09691277470349835 0 0.00010008489436230603 0.095734736376640095 0 -0.00068351211185267941 0.096052066831300645 0 5.5977688104576576e-05 0.096314439499002202 0 0.00010008489436230603 0.095734736376640095 0 5.5977688104576576e-05 0.096314439499002202 0 0.00058867017560121609 0.095940189457803055 0 5.5977688104576576e-05 0.096314439499002202 0 0.00058867017560121609 0.095940189457803055 0 0.0010463770651034782 0.096631294238249399 0 0.0013856387305817464 0.095720478064997977 0 0.0011547636388135867 0.095975600087704782 0 0.000701943646848635 0.095436431835233024 0 0.0011547636388135867 0.095975600087704782 0 0.00058867017560121609 0.095940189457803055 0 0.0010463770651034782 0.096631294238249399 0 0.0011547636388135867 0.095975600087704782 0 0.00058867017560121609 0.095940189457803055 0 0.000701943646848635 0.095436431835233024 0 0.00010008489436230603 0.095734736376640095 0 0.00058867017560121609 0.095940189457803055 0 0.000701943646848635 0.095436431835233024 0 -0.0015025058381878194 0.096322128378021815 0 -0.0019496266023830318 0.094274179910606284 0 -0.0037085260440866438 0.095605490691685197 0 -0.001458952068192967 0.095499982975068926 0 -0.0023061640888284809 0.095400813545228974 0 0.0013856387305817464 0.095720478064997977 0 0.0010402850899825242 0.095301033290004319 0 -0.0015025058381878194 0.096322128378021815 0 0.0010402850899825242 0.095301033290004319 0 -0.0015025058381878194 0.096322128378021815 0 -0.0019496266023830318 0.094274179910606284 0 -0.0023061640888284809 0.095400813545228974 0 -0.0046503886611309487 0.095086062638778182 0 -0.0015025058381878194 0.096322128378021815 0 -0.0037085260440866438 0.095605490691685197 0 -0.0044536398265297818 0.096186577699585274 0 -0.004224761691220446 0.093234793582719661 0 -0.0019496266023830318 0.094274179910606284 0 -0.0037085260440866438 0.095605490691685197 0 -0.0037085260440866438 0.095605490691685197 0 -0.0044205986549212435 0.096133633739388533 0 -0.0053461209244522476 0.094539721788034839 0 -0.0046392503496250764 0.095090108657382627 0 -0.0046503886611309487 0.095086062638778182 0 -0.004224761691220446 0.093234793582719661 0 -0.0037085260440866438 0.095605490691685197 0 -0.0053461209244522476 0.094539721788034839 0 -0.0044205986549212435 0.096133633739388533 0 -0.0053461209244522476 0.094539721788034839 0 -0.0086799375067992245 0.095599960012766383 0 -0.0046503886611309487 0.095086062638778182 0 -0.0086200408866186108 0.095023526874094918 0 -0.0068263898391416455 0.092972166308637208 0 -0.0053461209244522476 0.094539721788034839 0 -0.0086799375067992245 0.095599960012766383 0 -0.01125835572671763 0.095962351591574485 0 -0.01000757215011404 0.095283209183824463 0 -0.0096329924584208151 0.097278089760214931 0 -0.01125835572671763 0.095962351591574485 0 -0.0096329924584208151 0.097278089760214931 0 -0.010965430011148075 0.097433045356721509 0 -0.0073614687253868083 0.095582803303414912 0 -0.01000757215011404 0.095283209183824463 0 -0.0096329924584208151 0.097278089760214931 0 -0.0046503886611309487 0.095086062638778182 0 -0.0072053419452512415 0.095300991332219656 0 -0.00068351211185267941 0.096052066831300645 0 -0.00042226897960423579 0.095185768725550735 0 -0.0021242080743030336 0.096324394848108855 0 -0.00068351211185267941 0.096052066831300645 0 -0.0021242080743030336 0.096324394848108855 0 -0.00093061231608619361 0.09691277470349835 0 -0.0021242080743030336 0.096324394848108855 0 -0.00093061231608619361 0.09691277470349835 0 -0.0020441855878880859 0.097570002969180655 0 -0.00093061231608619361 0.09691277470349835 0 -0.0020441855878880859 0.097570002969180655 0 -0.00089048101474370272 0.098007786945113376 0 -0.011928984674958797 0.098958330147016452 0 -0.0096329924584208151 0.097278089760214931 0 -0.010965430011148075 0.097433045356721509 0 -0.0039688353288280659 0.09757289901291348 0 -0.0035658871571711773 0.097521110396477831 0 -0.0021242080743030336 0.096324394848108855 0 -0.0035658871571711773 0.097521110396477831 0 -0.0021242080743030336 0.096324394848108855 0 -0.0020441855878880859 0.097570002969180655 0 -0.011034411449756882 0.094716073871181083 0 -0.0072053419452512415 0.095300991332219656 0 -0.0020441855878880859 0.097570002969180655 0 -0.002900456066203106 0.09812057172876526 0 -0.0019345044795732031 0.0987884267965084 0 -0.0035658871571711773 0.097521110396477831 0 -0.0020441855878880859 0.097570002969180655 0 -0.002900456066203106 0.09812057172876526 0 -0.002900456066203106 0.09812057172876526 0 -0.0019345044795732031 0.0987884267965084 0 -0.0029510648328817755 0.099019661332241243 0 -0.0036490007899678397 0.098550215342794983 0 -0.002900456066203106 0.09812057172876526 0 -0.0029510648328817755 0.099019661332241243 0 -0.0020441855878880859 0.097570002969180655 0 -0.00089048101474370272 0.098007786945113376 0 -0.0019345044795732031 0.0987884267965084 0 -0.00089048101474370272 0.098007786945113376 0 -0.0019345044795732031 0.0987884267965084 0 -0.00072573068132048208 0.099283629421981476 0 -0.00089048101474370272 0.098007786945113376 0 0.00037834884904301876 0.098481555075848159 0 -0.00072573068132048208 0.099283629421981476 0 -0.00089048101474370272 0.098007786945113376 0 0.00037834884904301876 0.098481555075848159 0 5.5589733728707592e-05 0.097250905577435279 0 -0.00093061231608619361 0.09691277470349835 0 -0.00089048101474370272 0.098007786945113376 0 5.5589733728707592e-05 0.097250905577435279 0 5.5977688104576576e-05 0.096314439499002202 0 -0.00093061231608619361 0.09691277470349835 0 5.5589733728707592e-05 0.097250905577435279 0 5.5977688104576576e-05 0.096314439499002202 0 5.5589733728707592e-05 0.097250905577435279 0 0.0010463770651034782 0.096631294238249399 0 5.5589733728707592e-05 0.097250905577435279 0 0.0010463770651034782 0.096631294238249399 0 0.001016623886500272 0.097501714722209892 0 0.0019518412794498365 0.097307544245875871 0 0.0010463770651034782 0.096631294238249399 0 0.001016623886500272 0.097501714722209892 0 0.0017731213734947099 0.098241156081013539 0 0.00037834884904301876 0.098481555075848159 0 0.001016623886500272 0.097501714722209892 0 0.0017731213734947099 0.098241156081013539 0 0.00037834884904301876 0.098481555075848159 0 0.0014885169711338856 0.099240302787649726 0 0.00037834884904301876 0.098481555075848159 0 5.5589733728707592e-05 0.097250905577435279 0 0.001016623886500272 0.097501714722209892 0 0.0019518412794498365 0.097307544245875871 0 0.0017731213734947099 0.098241156081013539 0 0.001016623886500272 0.097501714722209892 0 0.0025255863502179729 0.10041552640809873 0 0.0014885169711338856 0.099240302787649726 0 0.00059258009512205129 0.10021912511205364 0 0.00037834884904301876 0.098481555075848159 0 0.0014885169711338856 0.099240302787649726 0 0.00059258009512205129 0.10021912511205364 0 -0.00072573068132048208 0.099283629421981476 0 0.00059258009512205129 0.10021912511205364 0 -0.00085192836052624271 0.10052715936715564 0 0.00037834884904301876 0.098481555075848159 0 -0.00072573068132048208 0.099283629421981476 0 0.00059258009512205129 0.10021912511205364 0 0.00059258009512205129 0.10021912511205364 0 -0.00015295630022755648 0.10153853787716455 0 -0.00085192836052624271 0.10052715936715564 0 0.00059258009512205129 0.10021912511205364 0 0.0010322445888715462 0.1017961335013316 0 -0.00015295630022755648 0.10153853787716455 0 0.0025255863502179729 0.10041552640809873 0 0.00059258009512205129 0.10021912511205364 0 0.0010322445888715462 0.1017961335013316 0 0.0010322445888715462 0.1017961335013316 0 -0.00015295630022755648 0.10153853787716455 0 -0.00031963767312098349 0.10320853408015168 0 -0.00015295630022755648 0.10153853787716455 0 -0.00031963767312098349 0.10320853408015168 0 -0.0012173572152349799 0.10187830884048558 0 -0.00015295630022755648 0.10153853787716455 0 -0.0012173572152349799 0.10187830884048558 0 -0.00085192836052624271 0.10052715936715564 0 0.0075574118090612616 0.091795133392071057 0 0.0089980775514951414 0.094550743408447782 0 0.0092596398066195577 0.092329681910994721 0 0.0089980775514951414 0.094550743408447782 0 0.011019235514913924 0.092317240787495716 0 0.0092596398066195577 0.092329681910994721 0 0.0027067567623063385 0.09593201934619687 0 0.00056015540242881077 0.092845885347845283 0 -0.002490981757208775 0.10271814828043374 0 -0.0039847329532719028 0.10270521320563414 0 -0.0026827617945326798 0.10378119265246265 0 -0.002490981757208775 0.10271814828043374 0 -0.00160624440429484 0.10338453746610111 0 -0.0026827617945326798 0.10378119265246265 0 -0.00031963767312098349 0.10320853408015168 0 -0.0012173572152349799 0.10187830884048558 0 -0.00160624440429484 0.10338453746610111 0 -0.002490981757208775 0.10271814828043374 0 -0.0012173572152349799 0.10187830884048558 0 -0.00160624440429484 0.10338453746610111 0 -0.0012173572152349799 0.10187830884048558 0 -0.0023254425425993895 0.101638488775164 0 -0.002152452857879654 0.10056902149478761 0 -0.002490981757208775 0.10271814828043374 0 -0.0012173572152349799 0.10187830884048558 0 -0.0023254425425993895 0.101638488775164 0 -0.002490981757208775 0.10271814828043374 0 -0.0023254425425993895 0.101638488775164 0 -0.003368639862495562 0.10179104971849084 0 -0.0023254425425993895 0.101638488775164 0 -0.0033070808068072842 0.10077887793923168 0 -0.003368639862495562 0.10179104971849084 0 -0.0023254425425993895 0.101638488775164 0 -0.002152452857879654 0.10056902149478761 0 -0.0033070808068072842 0.10077887793923168 0 -0.002152452857879654 0.10056902149478761 0 -0.0030421506389220086 0.09996383101012056 0 -0.0023742160104326727 0.099621926840847114 0 -0.002152452857879654 0.10056902149478761 0 -0.0016238383923057092 0.099747556766001735 0 -0.0023742160104326727 0.099621926840847114 0 -0.002152452857879654 0.10056902149478761 0 -0.0030421506389220086 0.09996383101012056 0 -0.0033070808068072842 0.10077887793923168 0 -0.002152452857879654 0.10056902149478761 0 -0.00085192836052624271 0.10052715936715564 0 -0.0016238383923057092 0.099747556766001735 0 -0.0012173572152349799 0.10187830884048558 0 -0.002152452857879654 0.10056902149478761 0 -0.00085192836052624271 0.10052715936715564 0 -0.0019345044795732031 0.0987884267965084 0 -0.00072573068132048208 0.099283629421981476 0 -0.0016238383923057092 0.099747556766001735 0 -0.00072573068132048208 0.099283629421981476 0 -0.00085192836052624271 0.10052715936715564 0 -0.0016238383923057092 0.099747556766001735 0 -0.0019345044795732031 0.0987884267965084 0 -0.0016238383923057092 0.099747556766001735 0 -0.0023742160104326727 0.099621926840847114 0 -0.0030421506389220086 0.09996383101012056 0 -0.0023742160104326727 0.099621926840847114 0 -0.0029510648328817755 0.099019661332241243 0 -0.0019345044795732031 0.0987884267965084 0 -0.0023742160104326727 0.099621926840847114 0 -0.0029510648328817755 0.099019661332241243 0 -0.0036490007899678397 0.098550215342794983 0 -0.0029510648328817755 0.099019661332241243 0 -0.0037515170275094021 0.099294532796174451 0 -0.0030421506389220086 0.09996383101012056 0 -0.0029510648328817755 0.099019661332241243 0 -0.0037515170275094021 0.099294532796174451 0 -0.0030421506389220086 0.09996383101012056 0 -0.0037515170275094021 0.099294532796174451 0 -0.0039087207604078999 0.10000617025575805 0 -0.0037515170275094021 0.099294532796174451 0 -0.0047407906376116951 0.099512145329931412 0 -0.0039087207604078999 0.10000617025575805 0 -0.0037515170275094021 0.099294532796174451 0 -0.0041722636725211159 0.098886702173642607 0 -0.0047407906376116951 0.099512145329931412 0 -0.0036490007899678397 0.098550215342794983 0 -0.0037515170275094021 0.099294532796174451 0 -0.0041722636725211159 0.098886702173642607 0 -0.0045464790515702732 0.098191124998956075 0 -0.0041722636725211159 0.098886702173642607 0 -0.0047407906376116951 0.099512145329931412 0 -0.0047407906376116951 0.099512145329931412 0 -0.0057108465678584472 0.098964006644451791 0 -0.00561901024872021 0.10114522915039043 0 -0.0045464790515702732 0.098191124998956075 0 -0.0047407906376116951 0.099512145329931412 0 -0.0055442897103825878 0.098840297179388803 0 -0.0047407906376116951 0.099512145329931412 0 -0.0055442897103825878 0.098840297179388803 0 -0.0057108465678584472 0.098964006644451791 0 -0.0047407906376116951 0.099512145329931412 0 -0.0042696116505349354 0.10098205552148184 0 -0.00561901024872021 0.10114522915039043 0 -0.0047407906376116951 0.099512145329931412 0 -0.0042696116505349354 0.10098205552148184 0 -0.0039087207604078999 0.10000617025575805 0 -0.0042696116505349354 0.10098205552148184 0 -0.0033070808068072842 0.10077887793923168 0 -0.0039087207604078999 0.10000617025575805 0 -0.0030421506389220086 0.09996383101012056 0 -0.0033070808068072842 0.10077887793923168 0 -0.0039087207604078999 0.10000617025575805 0 -0.035770257840635089 0.08279423078254175 0 -0.035282505369552936 0.082580980108203098 0 -0.035356948205608842 0.082873767893382327 0 -0.035533263888402153 0.08314246813893765 0 -0.035770257840635089 0.08279423078254175 0 -0.035356948205608842 0.082873767893382327 0 -0.03691889595932122 0.08357018957554091 0 -0.037980686347859602 0.084278630313714284 0 -0.038087179217825534 0.081851294343002701 0 -0.024063538055892005 0.090194634845962018 0 -0.023909933378618568 0.089640549053735433 0 -0.024252686030951865 0.089864907173466138 0 -0.025336736763680947 0.089007495252810848 0 -0.02688215330777995 0.089944231529710789 0 -0.02688215330777995 0.089944231529710789 0 -0.02018854712960625 0.091924162740204859 0 -0.017843639160791229 0.092251474056415331 0 -0.02018854712960625 0.091924162740204859 0 -0.03691889595932122 0.08357018957554091 0 -0.037558104718797482 0.081925747898318885 0 -0.038087179217825534 0.081851294343002701 0 -0.03691889595932122 0.08357018957554091 0 -0.036727219333066122 0.082479235711823987 0 -0.037558104718797482 0.081925747898318885 0 -0.02018854712960625 0.091924162740204859 0 -0.02128124777387113 0.091357461717880228 0 -0.036727219333066122 0.082479235711823987 0 -0.036320884443536067 0.081762957354353918 0 -0.037558104718797482 0.081925747898318885 0 -0.036796342556150843 0.083468682964422239 0 -0.036056186676814123 0.082746746433206037 0 -0.035211426492984595 0.082327704153295683 0 -0.035770257840635089 0.08279423078254175 0 -0.035282505369552936 0.082580980108203098 0 -0.035211426492984595 0.082327704153295683 0 -0.02688215330777995 0.089944231529710789 0 -0.030464986192591449 0.088689138142420118 0 -0.03691889595932122 0.08357018957554091 0 -0.036727219333066122 0.082479235711823987 0 -0.036056186676814123 0.082746746433206037 0 -0.02688215330777995 0.089944231529710789 0 -0.028105480813131366 0.089677034806207992 0 -0.036727219333066122 0.082479235711823987 0 -0.036056186676814123 0.082746746433206037 0 -0.036320884443536067 0.081762957354353918 0 -0.036056186676814123 0.082746746433206037 0 -0.036320884443536067 0.081762957354353918 0 -0.035576012422400285 0.082051730089858735 0 -0.036564765327554989 0.081001102723156776 0 -0.036549247396303497 0.080130566111962107 0 -0.035474562981760986 0.081426919022031821 0 -0.036551553435035682 0.08164128511912111 0 -0.037153966165605852 0.081216896743370279 0 -0.037558104718797482 0.081925747898318885 0 -0.036564765327554989 0.081001102723156776 0 -0.036551553435035682 0.08164128511912111 0 -0.035474562981760986 0.081426919022031821 0 -0.039603543454409071 0.077351012602606184 0 -0.039054748613610399 0.077722035269901929 0 -0.036564765327554989 0.081001102723156776 0 -0.037153966165605852 0.081216896743370279 0 -0.037057119996111325 0.080591906030184388 0 -0.036564765327554989 0.081001102723156776 0 -0.036551553435035682 0.08164128511912111 0 -0.037153966165605852 0.081216896743370279 0 -0.037153966165605852 0.081216896743370279 0 -0.03768655168654219 0.080768299073808558 0 -0.037057119996111325 0.080591906030184388 0 -0.037153966165605852 0.081216896743370279 0 -0.037617944770136136 0.081436211010443654 0 -0.03768655168654219 0.080768299073808558 0 -0.037153966165605852 0.081216896743370279 0 -0.037558104718797482 0.081925747898318885 0 -0.037617944770136136 0.081436211010443654 0 -0.037558104718797482 0.081925747898318885 0 -0.037617944770136136 0.081436211010443654 0 -0.038087179217825534 0.081851294343002701 0 -0.037617944770136136 0.081436211010443654 0 -0.038087179217825534 0.081851294343002701 0 -0.03768655168654219 0.080768299073808558 0 -0.02128124777387113 0.091357461717880228 0 -0.021934069040136051 0.089982562659238638 0 -0.038087179217825534 0.081851294343002701 0 -0.03768655168654219 0.080768299073808558 0 -0.038094240639364549 0.079738649773748865 0 -0.03768655168654219 0.080768299073808558 0 -0.037363994565065971 0.080059593041143823 0 -0.038094240639364549 0.079738649773748865 0 -0.03768655168654219 0.080768299073808558 0 -0.037363994565065971 0.080059593041143823 0 -0.037057119996111325 0.080591906030184388 0 -0.036564765327554989 0.081001102723156776 0 -0.037057119996111325 0.080591906030184388 0 -0.036549247396303497 0.080130566111962107 0 -0.037363994565065971 0.080059593041143823 0 -0.037057119996111325 0.080591906030184388 0 -0.036549247396303497 0.080130566111962107 0 -0.037363994565065971 0.080059593041143823 0 -0.036549247396303497 0.080130566111962107 0 -0.037263528023220513 0.07927852872062198 0 -0.0042696116505349354 0.10098205552148184 0 -0.003368639862495562 0.10179104971849084 0 -0.0039847329532719028 0.10270521320563414 0 -0.0042696116505349354 0.10098205552148184 0 -0.0033070808068072842 0.10077887793923168 0 -0.003368639862495562 0.10179104971849084 0 -0.0042696116505349354 0.10098205552148184 0 -0.00561901024872021 0.10114522915039043 0 -0.0039847329532719028 0.10270521320563414 0 -0.00561901024872021 0.10114522915039043 0 -0.0039847329532719028 0.10270521320563414 0 -0.0055389485285646254 0.10327571033272182 0 -0.002490981757208775 0.10271814828043374 0 -0.003368639862495562 0.10179104971849084 0 -0.0039847329532719028 0.10270521320563414 0 -0.0039847329532719028 0.10270521320563414 0 -0.0035620551120465606 0.10502008655519274 0 -0.0055389485285646254 0.10327571033272182 0 -0.0039847329532719028 0.10270521320563414 0 -0.0035620551120465606 0.10502008655519274 0 -0.0026827617945326798 0.10378119265246265 0 -0.0054922598587541479 0.1053727789002802 0 -0.0035620551120465606 0.10502008655519274 0 -0.0055389485285646254 0.10327571033272182 0 -0.022906097595887812 0.080031266399402418 0 -0.011554191448386701 0.084235396384519809 0 -0.016039280692163978 0.075919369527138944 0 -0.015737905093139916 0.075807527480942175 0 -0.015873949091942462 0.075939623586704197 0 -0.037263528023220513 0.07927852872062198 0 -0.036512360529818245 0.07844330184854989 0 -0.035625240629330097 0.07907989470136971 0 -0.036549247396303497 0.080130566111962107 0 -0.037263528023220513 0.07927852872062198 0 -0.035530654262959843 0.079183256221267997 0 -0.039598010647722663 0.074784043120550411 0 -0.04554282068730324 0.073527271388126619 0 -0.037263528023220513 0.07927852872062198 0 -0.038094240639364549 0.079738649773748865 0 -0.037334175518490782 0.07841100390641037 0 -0.022906097595887812 0.080031266399402418 0 -0.021934069040136051 0.089982562659238638 0 -0.037363994565065971 0.080059593041143823 0 -0.037263528023220513 0.07927852872062198 0 -0.038094240639364549 0.079738649773748865 0 -0.038104844389732516 0.077869212935285065 0 -0.038094240639364549 0.079738649773748865 0 -0.037334175518490782 0.07841100390641037 0 -0.038104844389732516 0.077869212935285065 0 -0.037334175518490782 0.07841100390641037 0 -0.036856359711457905 0.077599714834283212 0 -0.037263528023220513 0.07927852872062198 0 -0.037334175518490782 0.07841100390641037 0 -0.036512360529818245 0.07844330184854989 0 -0.037334175518490782 0.07841100390641037 0 -0.036512360529818245 0.07844330184854989 0 -0.036856359711457905 0.077599714834283212 0 -0.036591597097976512 0.067172461400237471 0 -0.036275571823053833 0.065432634916463381 0 -0.034685793997999738 0.066740378246881851 0 -0.036512360529818245 0.07844330184854989 0 -0.036856359711457905 0.077599714834283212 0 -0.035643493568005301 0.077319814285003688 0 -0.038499549160960225 0.067610069478912072 0 -0.036591597097976512 0.067172461400237471 0 -0.038593872001923171 0.06521586281501926 0 -0.022906097595887812 0.080031266399402418 0 -0.035911048637620284 0.073038065532482682 0 -0.036275571823053833 0.065432634916463381 0 -0.038593872001923171 0.06521586281501926 0 -0.036545615963552415 0.063506576457535005 0 -0.036591597097976512 0.067172461400237471 0 -0.036275571823053833 0.065432634916463381 0 -0.038593872001923171 0.06521586281501926 0 -0.015737905093139916 0.075807527480942175 0 -0.015781099448932027 0.07603094598044513 0 -0.015432957121490756 0.076017152915690875 0 -0.015770765443364268 0.076158920007201564 0 -0.015781099448932027 0.07603094598044513 0 -0.015432957121490756 0.076017152915690875 0 -0.015770765443364268 0.076158920007201564 0 -0.01569493059459998 0.076295894914476095 0 -0.015432957121490756 0.076017152915690875 0 -0.015927282950689518 0.075948771950375915 0 -0.015937400723646654 0.075947088290359982 0 -0.015957779630385444 0.075946035596188163 0 -0.015927282950689518 0.075948771950375915 0 -0.015937400723646654 0.075947088290359982 0 -0.015873949091942462 0.075939623586704197 0 -0.013576873943193154 0.074296025535570326 0 -0.013607366380447052 0.074395606790697011 0 -0.015737905093139916 0.075807527480942175 0 -0.015873949091942462 0.075939623586704197 0 -0.015781099448932027 0.07603094598044513 0 -0.013576873943193154 0.074296025535570326 0 -0.013662812227960985 0.07442081705217983 0 -0.015781028331369327 0.076165923537437105 0 -0.015873949091942462 0.075939623586704197 0 -0.015781099448932027 0.07603094598044513 0 -0.022906097595887812 0.080031266399402418 0 -0.02543466783954575 0.071180150328166214 0 -0.016039280692163978 0.075919369527138944 0 -0.015954743123752977 0.075950871603383902 0 -0.015964601063420559 0.075946879331633091 0 -0.016039280692163978 0.075919369527138944 0 -0.015873949091942462 0.075939623586704197 0 -0.015954743123752977 0.075950871603383902 0 -0.015927282950689518 0.075948771950375915 0 -0.015954743123752977 0.075950871603383902 0 -0.015957779630385444 0.075946035596188163 0 -0.015927282950689518 0.075948771950375915 0 -0.015873949091942462 0.075939623586704197 0 -0.015954743123752977 0.075950871603383902 0 -0.015957779630385444 0.075946035596188163 0 -0.015964601063420559 0.075946879331633091 0 -0.015990855994612932 0.075899335156994041 0 -0.015954743123752977 0.075950871603383902 0 -0.015957779630385444 0.075946035596188163 0 -0.015964601063420559 0.075946879331633091 0 -0.010461839705478978 0.072401784294287647 0 -0.010045384680541994 0.071886547755402888 0 -0.011771562097174402 0.069853023276063728 0 -0.015957779630385444 0.075946035596188163 0 -0.015965016252655985 0.07593791003264741 0 -0.015990855994612932 0.075899335156994041 0 -0.014595228848402936 0.072975659665745526 0 -0.020457778542315549 0.069057452831922966 0 -0.015937400723646654 0.075947088290359982 0 -0.015957779630385444 0.075946035596188163 0 -0.015965016252655985 0.07593791003264741 0 -0.015388382530918817 0.075074462079236889 0 -0.015875152449892047 0.074142974897849975 0 -0.015438597682060242 0.073603222896753445 0 -0.013576873943193154 0.074296025535570326 0 -0.014595228848402936 0.072975659665745526 0 -0.013576873943193154 0.074296025535570326 0 -0.012287950153104439 0.074805680377300746 0 -0.012287950153104439 0.074805680377300746 0 -0.014595228848402936 0.072975659665745526 0 0.017200393938912907 0.085099410011133095 0 0.014675317723078953 0.084898088488240167 0 0.01569147142134663 0.0821305067138592 0 -0.012287950153104439 0.074805680377300746 0 -0.0047028331212793885 0.076273195593589027 0 0.017200393938912907 0.085099410011133095 0 0.014675317723078953 0.084898088488240167 0 0.015347118736106315 0.087420554972193559 0 -0.012287950153104439 0.074805680377300746 0 -0.0059282347720866985 0.079283066325880433 0 0.014675317723078953 0.084898088488240167 0 0.015347118736106315 0.087420554972193559 0 0.012524264640556908 0.086372263241025871 0 0.015347118736106315 0.087420554972193559 0 0.012524264640556908 0.086372263241025871 0 0.012469363041084194 0.088385530653196445 0 0.014675317723078953 0.084898088488240167 0 0.012524264640556908 0.086372263241025871 0 0.012604368155553939 0.083458274397731236 0 0.014675317723078953 0.084898088488240167 0 0.012604368155553939 0.083458274397731236 0 0.01569147142134663 0.0821305067138592 0 0.012604368155553939 0.083458274397731236 0 0.01060454507668261 0.085323016588688405 0 0.0094948376124900109 0.082884104031958006 0 0.012524264640556908 0.086372263241025871 0 0.012604368155553939 0.083458274397731236 0 0.01060454507668261 0.085323016588688405 0 0.0073220981731439818 0.083874347774470989 0 0.008381223437427969 0.086035606254313834 0 0.0094948376124900109 0.082884104031958006 0 0.01060454507668261 0.085323016588688405 0 0.008381223437427969 0.086035606254313834 0 0.0094948376124900109 0.082884104031958006 0 0.01060454507668261 0.085323016588688405 0 0.008381223437427969 0.086035606254313834 0 0.010429394606201861 0.088170023863587688 0 0.0078822335230458104 0.089367772213491986 0 0.008381223437427969 0.086035606254313834 0 0.010429394606201861 0.088170023863587688 0 0.012524264640556908 0.086372263241025871 0 0.01060454507668261 0.085323016588688405 0 0.010429394606201861 0.088170023863587688 0 0.012524264640556908 0.086372263241025871 0 0.010429394606201861 0.088170023863587688 0 0.012469363041084194 0.088385530653196445 0 0.010429394606201861 0.088170023863587688 0 0.012028173553423919 0.090001312336107128 0 0.012469363041084194 0.088385530653196445 0 0.010429394606201861 0.088170023863587688 0 0.012028173553423919 0.090001312336107128 0 0.0096198832090233846 0.090720723243833942 0 0.0078822335230458104 0.089367772213491986 0 0.010429394606201861 0.088170023863587688 0 0.0096198832090233846 0.090720723243833942 0 0.0075574118090612616 0.091795133392071057 0 0.0078822335230458104 0.089367772213491986 0 0.0096198832090233846 0.090720723243833942 0 0.0075574118090612616 0.091795133392071057 0 0.0092596398066195577 0.092329681910994721 0 0.0096198832090233846 0.090720723243833942 0 0.011019235514913924 0.092317240787495716 0 0.0092596398066195577 0.092329681910994721 0 0.0096198832090233846 0.090720723243833942 0 0.011019235514913924 0.092317240787495716 0 0.012028173553423919 0.090001312336107128 0 0.0096198832090233846 0.090720723243833942 0 -0.00031963767312098349 0.10320853408015168 0 -0.00160624440429484 0.10338453746610111 0 -0.0016075951618838783 0.10465236648535663 0 0.011019235514913924 0.092317240787495716 0 0.012028173553423919 0.090001312336107128 0 0.013265220292418606 0.089740811138671939 0 0.00056015540242881077 0.092845885347845283 0 -0.0033071131368105438 0.084875509363207313 0 -0.00160624440429484 0.10338453746610111 0 -0.0026827617945326798 0.10378119265246265 0 -0.0016075951618838783 0.10465236648535663 0 -0.015737905093139916 0.075807527480942175 0 -0.015432957121490756 0.076017152915690875 0 -0.015109703203785302 0.07569222833299355 0 -0.011554191448386701 0.084235396384519809 0 -0.0033071131368105438 0.084875509363207313 0 -0.0059282347720866985 0.079283066325880433 0 -0.0033071131368105438 0.084875509363207313 0 -0.0035620551120465606 0.10502008655519274 0 -0.0026827617945326798 0.10378119265246265 0 -0.0016075951618838783 0.10465236648535663 0 0.015347118736106315 0.087420554972193559 0 0.012469363041084194 0.088385530653196445 0 0.01346730673367167 0.089718960659384256 0 0.012028173553423919 0.090001312336107128 0 0.012469363041084194 0.088385530653196445 0 0.01346730673367167 0.089718960659384256 0 -0.0011727108410599949 0.084749683900643122 0 -0.0033071131368105438 0.084875509363207313 0 -0.057871324845516749 0.070830024562679464 0 -0.057480729685901358 0.07047586633413376 0 -0.057453805766826516 0.071185366545343798 0 -0.057871324845516749 0.070830024562679464 0 -0.058235950752243457 0.071027153741354182 0 -0.057453805766826516 0.071185366545343798 0 -0.057871324845516749 0.070830024562679464 0 -0.057480729685901358 0.07047586633413376 0 -0.058254881752191401 0.070639931429212086 0 -0.056988232607853059 0.070726995553319155 0 -0.057480729685901358 0.07047586633413376 0 -0.056620003286324778 0.070323164852200193 0 -0.056988232607853059 0.070726995553319155 0 -0.057453805766826516 0.071185366545343798 0 -0.056390209224937524 0.070922627537913965 0 -0.056988232607853059 0.070726995553319155 0 -0.057480729685901358 0.07047586633413376 0 -0.057453805766826516 0.071185366545343798 0 -0.056049124511466326 0.070189042398370885 0 -0.056711616218578308 0.07079506352809202 0 -0.05534013633270312 0.070750539351308511 0 -0.056667403869048748 0.07123998421304728 0 -0.055335916592540356 0.071561695375191345 0 -0.056049124511466326 0.070189042398370885 0 -0.056932805381167274 0.070152595818028005 0 -0.056711616218578308 0.07079506352809202 0 -0.056667403869048748 0.07123998421304728 0 -0.05724052151741213 0.071155803880268376 0 -0.057620182795915798 0.070328835255613356 0 -0.058274778348810702 0.069845222716441738 0 -0.057146157112277482 0.069433726192511661 0 -0.056711616218578308 0.07079506352809202 0 -0.057620182795915798 0.070328835255613356 0 -0.058254881752191401 0.070639931429212086 0 -0.056932805381167274 0.070152595818028005 0 -0.056711616218578308 0.07079506352809202 0 -0.057620182795915798 0.070328835255613356 0 -0.056932805381167274 0.070152595818028005 0 -0.057620182795915798 0.070328835255613356 0 -0.05699816750746553 0.069565753183938858 0 -0.056797473090360456 0.071431555541753108 0 -0.056887938410076014 0.071920323964529839 0 -0.058274778348810702 0.069845222716441738 0 -0.059167512742746814 0.070176777023197731 0 -0.058254881752191401 0.070639931429212086 0 -0.057620182795915798 0.070328835255613356 0 -0.058274778348810702 0.069845222716441738 0 -0.058254881752191401 0.070639931429212086 0 -0.059313337385837377 0.071175089628890936 0 -0.065342123841683836 0.069721628281376277 0 -0.059167512742746814 0.070176777023197731 0 -0.058973542608748424 0.070918434425881624 0 -0.058254881752191401 0.070639931429212086 0 -0.058973542608748424 0.070918434425881624 0 -0.058254881752191401 0.070639931429212086 0 -0.058235950752243457 0.071027153741354182 0 -0.058973542608748424 0.070918434425881624 0 -0.058235950752243457 0.071027153741354182 0 -0.058507910320749243 0.071468042145007474 0 -0.057871324845516749 0.070830024562679464 0 -0.058254881752191401 0.070639931429212086 0 -0.058235950752243457 0.071027153741354182 0 -0.058235950752243457 0.071027153741354182 0 -0.058507910320749243 0.071468042145007474 0 -0.057453805766826516 0.071185366545343798 0 -0.075517486491845934 0.04013067526747794 0 -0.075817186974362807 0.040531177427960557 0 -0.076217362415071502 0.040299510992117711 0 -0.058973542608748424 0.070918434425881624 0 -0.058507910320749243 0.071468042145007474 0 -0.059743879743294856 0.071689063276176856 0 -0.068399356470231043 0.054801298909367309 0 -0.076305902120633234 0.053874210329045075 0 -0.075517486491845934 0.04013067526747794 0 -0.075817186974362807 0.040531177427960557 0 -0.075474544570195437 0.040752983272444997 0 -0.075517486491845934 0.04013067526747794 0 -0.074974491849122277 0.040507974816304547 0 -0.075474544570195437 0.040752983272444997 0 -0.068399356470231043 0.054801298909367309 0 -0.066089328929804056 0.055815486058910894 0 -0.075517486491845934 0.04013067526747794 0 -0.074974491849122277 0.040507974816304547 0 -0.074795486321935195 0.039923640362228931 0 -0.074795486321935195 0.039923640362228931 0 -0.07435152695361992 0.040446470984584107 0 -0.073858136298810342 0.04013038009606415 0 -0.074974491849122277 0.040507974816304547 0 -0.074795486321935195 0.039923640362228931 0 -0.07435152695361992 0.040446470984584107 0 -0.066089328929804056 0.055815486058910894 0 -0.064203961191419578 0.057114401330025849 0 -0.074974491849122277 0.040507974816304547 0 -0.07435152695361992 0.040446470984584107 0 -0.074528277899345241 0.040821583780244496 0 -0.07435152695361992 0.040446470984584107 0 -0.074073360576521544 0.04071562633701762 0 -0.074528277899345241 0.040821583780244496 0 -0.073997882022494063 0.040478077848753825 0 -0.073800186690493555 0.04058305636249078 0 -0.073858136298810342 0.04013038009606415 0 -0.07435152695361992 0.040446470984584107 0 -0.074073360576521544 0.04071562633701762 0 -0.073997882022494063 0.040478077848753825 0 -0.074073360576521544 0.04071562633701762 0 -0.073997882022494063 0.040478077848753825 0 -0.073800186690493555 0.04058305636249078 0 -0.073800186690493555 0.04058305636249078 0 -0.073456997038088154 0.040617957178367275 0 -0.073858136298810342 0.04013038009606415 0 -0.07435152695361992 0.040446470984584107 0 -0.073997882022494063 0.040478077848753825 0 -0.073858136298810342 0.04013038009606415 0 -0.071642896976853651 0.042714224633615398 0 -0.072458047451494603 0.040451212058980897 0 -0.071533960481806214 0.040878677517137717 0 -0.071642896976853651 0.042714224633615398 0 -0.071533960481806214 0.040878677517137717 0 -0.070810708370206962 0.041569377391187726 0 -0.069735130994805342 0.041405503102292261 0 -0.071788931655560079 0.040248271025286698 0 -0.072458047451494603 0.040451212058980897 0 -0.070897805839450753 0.03977111134626652 0 -0.073320017896136791 0.039369571262082993 0 -0.071642896976853651 0.042714224633615398 0 -0.072458047451494603 0.040451212058980897 0 -0.073858136298810342 0.04013038009606415 0 -0.072458047451494603 0.040451212058980897 0 -0.071533960481806214 0.040878677517137717 0 -0.070897805839450753 0.03977111134626652 0 -0.072458047451494603 0.040451212058980897 0 -0.073858136298810342 0.04013038009606415 0 -0.073320017896136791 0.039369571262082993 0 -0.074795486321935195 0.039923640362228931 0 -0.073858136298810342 0.04013038009606415 0 -0.073320017896136791 0.039369571262082993 0 -0.036275571823053833 0.065432634916463381 0 -0.034693789789149554 0.064699718310481436 0 -0.034685793997999738 0.066740378246881851 0 -0.049813414291387352 0.059635368745835658 0 -0.047550747701776412 0.066081391157403677 0 -0.053742745303357986 0.056796452178180599 0 -0.051127645132785213 0.057102452300780468 0 -0.053691038441850358 0.065848086742085532 0 -0.070086546061940092 0.041283908925848434 0 -0.069342467232301114 0.042860426747238951 0 -0.06976236857182129 0.040617575597048504 0 -0.058130612547219483 0.052697787015691847 0 -0.055441710880203797 0.06196709494740419 0 -0.071642896976853651 0.042714224633615398 0 -0.069342467232301114 0.042860426747238951 0 -0.070810708370206962 0.041569377391187726 0 -0.070086546061940092 0.041283908925848434 0 -0.069342467232301114 0.042860426747238951 0 -0.070810708370206962 0.041569377391187726 0 -0.070897805839450753 0.03977111134626652 0 -0.06976236857182129 0.040617575597048504 0 -0.070073155641754259 0.038688878250312017 0 -0.051127645132785213 0.057102452300780468 0 -0.049972599536658162 0.065041876521755318 0 -0.053691038441850358 0.065848086742085532 0 -0.055441710880203797 0.06196709494740419 0 -0.061494201125888784 0.059793185011913642 0 -0.055234713729326368 0.070758955861230752 0 -0.055058462358052673 0.070734087274060775 0 -0.055185699037247578 0.070415265161085899 0 -0.071533960481806214 0.040878677517137717 0 -0.070689727262372021 0.040755616443804411 0 -0.070897805839450753 0.03977111134626652 0 -0.070086546061940092 0.041283908925848434 0 -0.070689727262372021 0.040755616443804411 0 -0.06976236857182129 0.040617575597048504 0 -0.071533960481806214 0.040878677517137717 0 -0.070810708370206962 0.041569377391187726 0 -0.070689727262372021 0.040755616443804411 0 -0.070086546061940092 0.041283908925848434 0 -0.070810708370206962 0.041569377391187726 0 -0.070689727262372021 0.040755616443804411 0 -0.070689727262372021 0.040755616443804411 0 -0.070897805839450753 0.03977111134626652 0 -0.06976236857182129 0.040617575597048504 0 -0.035911048637620284 0.073038065532482682 0 -0.047550747701776412 0.066081391157403677 0 -0.055441710880203797 0.06196709494740419 0 -0.047550747701776412 0.066081391157403677 0 -0.047550747701776412 0.066081391157403677 0 -0.04554282068730324 0.073527271388126619 0 -0.036512360529818245 0.07844330184854989 0 -0.035643493568005301 0.077319814285003688 0 -0.035625240629330097 0.07907989470136971 0 -0.055058462358052673 0.070734087274060775 0 -0.055185699037247578 0.070415265161085899 0 -0.055012245553567311 0.070123169770721527 0 -0.055234713729326368 0.070758955861230752 0 -0.055185699037247578 0.070415265161085899 0 -0.055287972586024317 0.070428366858711428 0 -0.061494201125888784 0.059793185011913642 0 -0.060947871786031449 0.061885901797116852 0 -0.055185699037247578 0.070415265161085899 0 -0.055318257418709653 0.070438830833348343 0 -0.055404412140961153 0.070216537932076314 0 -0.061281495134117722 0.059889691078177515 0 -0.061494201125888784 0.059793185011913642 0 -0.055319100069997212 0.070652599300808375 0 -0.055404412140961153 0.070216537932076314 0 -0.055790082224525681 0.070488209580610084 0 -0.04554282068730324 0.073527271388126619 0 -0.052744441678236817 0.072271800540842396 0 -0.055404412140961153 0.070216537932076314 0 -0.055012245553567311 0.070123169770721527 0 -0.055717259079423841 0.070191848315741948 0 -0.052580842186545636 0.070625227030777685 0 -0.053984395963406685 0.070709046416996713 0 -0.053309504610877273 0.070053090777860122 0 -0.055404412140961153 0.070216537932076314 0 -0.055790082224525681 0.070488209580610084 0 -0.055717259079423841 0.070191848315741948 0 -0.053984395963406685 0.070709046416996713 0 -0.053998842424370121 0.069865222676735464 0 -0.053309504610877273 0.070053090777860122 0 -0.055185699037247578 0.070415265161085899 0 -0.055404412140961153 0.070216537932076314 0 -0.055012245553567311 0.070123169770721527 0 -0.052580842186545636 0.070625227030777685 0 -0.052590068006373676 0.069616740869023905 0 -0.053309504610877273 0.070053090777860122 0 -0.04554282068730324 0.073527271388126619 0 -0.044615420788854096 0.074757272274083381 0 -0.056988232607853059 0.070726995553319155 0 -0.056390209224937524 0.070922627537913965 0 -0.056620003286324778 0.070323164852200193 0 -0.056390209224937524 0.070922627537913965 0 -0.0561582007023992 0.070472825273171155 0 -0.056620003286324778 0.070323164852200193 0 -0.070897805839450753 0.03977111134626652 0 -0.070073155641754259 0.038688878250312017 0 -0.073320017896136791 0.039369571262082993 0 -0.061494201125888784 0.059793185011913642 0 -0.064203961191419578 0.057114401330025849 0 -0.055319100069997212 0.070652599300808375 0 -0.056390209224937524 0.070922627537913965 0 -0.055790082224525681 0.070488209580610084 0 -0.055790082224525681 0.070488209580610084 0 -0.0561582007023992 0.070472825273171155 0 -0.055717259079423841 0.070191848315741948 0 -0.056390209224937524 0.070922627537913965 0 -0.055790082224525681 0.070488209580610084 0 -0.0561582007023992 0.070472825273171155 0 -0.052744441678236817 0.072271800540842396 0 -0.055335916592540356 0.071561695375191345 0 -0.053984395963406685 0.070709046416996713 0 -0.054541003925537415 0.070298194238323827 0 -0.05534013633270312 0.070750539351308511 0 -0.0561582007023992 0.070472825273171155 0 -0.055717259079423841 0.070191848315741948 0 -0.056620003286324778 0.070323164852200193 0 -0.053984395963406685 0.070709046416996713 0 -0.054541003925537415 0.070298194238323827 0 -0.053998842424370121 0.069865222676735464 0 -0.05534013633270312 0.070750539351308511 0 -0.055541430280967898 0.069863465361759677 0 -0.054823362406327195 0.069852926910888347 0 -0.054541003925537415 0.070298194238323827 0 -0.05534013633270312 0.070750539351308511 0 -0.054823362406327195 0.069852926910888347 0 -0.056049124511466326 0.070189042398370885 0 -0.05534013633270312 0.070750539351308511 0 -0.055541430280967898 0.069863465361759677 0 -0.055535462871484427 0.06921611188390181 0 -0.054823362406327195 0.069852926910888347 0 -0.054068151276283512 0.068890110719829117 0 -0.055541430280967898 0.069863465361759677 0 -0.055535462871484427 0.06921611188390181 0 -0.054823362406327195 0.069852926910888347 0 -0.054823362406327195 0.069852926910888347 0 -0.053998842424370121 0.069865222676735464 0 -0.054068151276283512 0.068890110719829117 0 -0.054541003925537415 0.070298194238323827 0 -0.054823362406327195 0.069852926910888347 0 -0.053998842424370121 0.069865222676735464 0 -0.055535462871484427 0.06921611188390181 0 -0.055216349778684851 0.06851225446489595 0 -0.056134153205628222 0.068645558297458845 0 -0.055535462871484427 0.06921611188390181 0 -0.054538969621455331 0.0690816676315852 0 -0.055216349778684851 0.06851225446489595 0 -0.053232086278230867 0.072839162449578512 0 -0.051452392528569625 0.073563484344047983 0 -0.036549247396303497 0.080130566111962107 0 -0.035530654262959843 0.079183256221267997 0 -0.035550091224453503 0.080185206303636458 0 -0.052590068006373676 0.069616740869023905 0 -0.053311196682765002 0.069408685947840179 0 -0.052586921241681586 0.068614521771361972 0 -0.036549247396303497 0.080130566111962107 0 -0.035550091224453503 0.080185206303636458 0 -0.035703381322545573 0.081146098688229834 0 -0.039517694871537543 0.079253051216394879 0 -0.042430189987915 0.076365919988506503 0 -0.053998842424370121 0.069865222676735464 0 -0.054068151276283512 0.068890110719829117 0 -0.053311196682765002 0.069408685947840179 0 -0.052590068006373676 0.069616740869023905 0 -0.053311196682765002 0.069408685947840179 0 -0.053309504610877273 0.070053090777860122 0 -0.053998842424370121 0.069865222676735464 0 -0.053311196682765002 0.069408685947840179 0 -0.053309504610877273 0.070053090777860122 0 -0.054538969621455331 0.0690816676315852 0 -0.053533745713115248 0.068771638456430903 0 -0.053531432522378332 0.068917886650167778 0 -0.054068151276283512 0.068890110719829117 0 -0.053311196682765002 0.069408685947840179 0 -0.052586921241681586 0.068614521771361972 0 -0.051452392528569625 0.073563484344047983 0 -0.043816400677923306 0.075848187090539296 0 -0.044615420788854096 0.074757272274083381 0 -0.043816400677923306 0.075848187090539296 0 -0.035550091224453503 0.080185206303636458 0 -0.035565907125851934 0.081118123859650351 0 -0.035703381322545573 0.081146098688229834 0 -0.036320884443536067 0.081762957354353918 0 -0.035239728364682615 0.081608648067761178 0 -0.035576012422400285 0.082051730089858735 0 -0.039603543454409071 0.077351012602606184 0 -0.042430189987915 0.076365919988506503 0 -0.04354623039477646 0.078341503694784334 0 -0.043577009085913936 0.072582767134457077 0 -0.047589401730876418 0.073365104305285964 0 -0.043316810465131909 0.076009656699996458 0 -0.042430189987915 0.076365919988506503 0 -0.043316810465131909 0.076009656699996458 0 -0.043816400677923306 0.075848187090539296 0 -0.043816400677923306 0.075848187090539296 0 -0.042430189987915 0.076365919988506503 0 -0.035074874381881879 0.081826545840124609 0 -0.035239728364682615 0.081608648067761178 0 -0.035576012422400285 0.082051730089858735 0 -0.054538969621455331 0.0690816676315852 0 -0.053533745713115248 0.068771638456430903 0 -0.054331735059614542 0.067830870077081218 0 -0.036056186676814123 0.082746746433206037 0 -0.035576012422400285 0.082051730089858735 0 -0.035211426492984595 0.082327704153295683 0 -0.043316810465131909 0.076009656699996458 0 -0.043077671219844745 0.076689194148809953 0 -0.035282505369552936 0.082580980108203098 0 -0.035211426492984595 0.082327704153295683 0 -0.035133890266493627 0.082375846519313123 0 -0.035074874381881879 0.081826545840124609 0 -0.035211426492984595 0.082327704153295683 0 -0.035133890266493627 0.082375846519313123 0 -0.035074874381881879 0.081826545840124609 0 -0.035576012422400285 0.082051730089858735 0 -0.035211426492984595 0.082327704153295683 0 -0.035282505369552936 0.082580980108203098 0 -0.035133890266493627 0.082375846519313123 0 -0.035100849958280014 0.082765115093163227 0 -0.035133890266493627 0.082375846519313123 0 -0.034714322185466148 0.082762495058663968 0 -0.035100849958280014 0.082765115093163227 0 -0.043316810465131909 0.076009656699996458 0 -0.045832747101480692 0.076832187310354266 0 -0.035133513332975999 0.082157099766196326 0 -0.035133890266493627 0.082375846519313123 0 -0.034714322185466148 0.082762495058663968 0 -0.034714322185466148 0.082762495058663968 0 -0.035100849958280014 0.082765115093163227 0 -0.035095417941467852 0.083084175767398377 0 -0.035533263888402153 0.08314246813893765 0 -0.035356948205608842 0.082873767893382327 0 -0.035095417941467852 0.083084175767398377 0 -0.035100849958280014 0.082765115093163227 0 -0.035356948205608842 0.082873767893382327 0 -0.035095417941467852 0.083084175767398377 0 -0.035282505369552936 0.082580980108203098 0 -0.035100849958280014 0.082765115093163227 0 -0.035356948205608842 0.082873767893382327 0 -0.054538969621455331 0.0690816676315852 0 -0.054331735059614542 0.067830870077081218 0 -0.055216349778684851 0.06851225446489595 0 -0.055216349778684851 0.06851225446489595 0 -0.055568932740400596 0.067800445095371323 0 -0.056134153205628222 0.068645558297458845 0 -0.054331735059614542 0.067830870077081218 0 -0.055216349778684851 0.06851225446489595 0 -0.055568932740400596 0.067800445095371323 0 -0.054331735059614542 0.067830870077081218 0 -0.055568932740400596 0.067800445095371323 0 -0.055075428733092756 0.066960170324745244 0 -0.052287062507896803 0.081506986936005693 0 -0.052380006208155298 0.081439038397129487 0 -0.052290788101818655 0.081381040266058968 0 -0.052287062507896803 0.081506986936005693 0 -0.052380006208155298 0.081439038397129487 0 -0.052458952211718965 0.081583006481484185 0 -0.052380006208155298 0.081439038397129487 0 -0.052662685308801922 0.081567734669372657 0 -0.052458952211718965 0.081583006481484185 0 -0.052542003050207328 0.081578503574822325 0 -0.052660009870059234 0.081678170173550876 0 -0.052473864214664108 0.081455430844141502 0 -0.052508976943153401 0.081634206784932911 0 -0.052588709022661918 0.081460405681825152 0 -0.052380006208155298 0.081439038397129487 0 -0.052473864214664108 0.081455430844141502 0 -0.052508976943153401 0.081634206784932911 0 -0.052548450857629908 0.081668834901605036 0 -0.052463011903835587 0.081750221046328064 0 -0.052627698582868129 0.081772625151962153 0 -0.052662685308801922 0.081567734669372657 0 -0.052548450857629908 0.081668834901605036 0 -0.052458952211718965 0.081583006481484185 0 -0.052662685308801922 0.081567734669372657 0 -0.052548450857629908 0.081668834901605036 0 -0.052627698582868129 0.081772625151962153 0 -0.052287062507896803 0.081506986936005693 0 -0.052458952211718965 0.081583006481484185 0 -0.052463011903835587 0.081750221046328064 0 -0.051732134683530891 0.076400631825945087 0 -0.054479781324783601 0.074717809395126705 0 -0.052548450857629908 0.081668834901605036 0 -0.052458952211718965 0.081583006481484185 0 -0.052463011903835587 0.081750221046328064 0 -0.055535462871484427 0.06921611188390181 0 -0.056134153205628222 0.068645558297458845 0 -0.05627176764527355 0.069403257600647209 0 -0.054479781324783601 0.074717809395126705 0 -0.056887938410076014 0.071920323964529839 0 -0.052463011903835587 0.081750221046328064 0 -0.052627698582868129 0.081772625151962153 0 -0.052624039751430603 0.081890175509650678 0 -0.052627698582868129 0.081772625151962153 0 -0.052624039751430603 0.081890175509650678 0 -0.052796332085736718 0.081833645084571485 0 -0.056887938410076014 0.071920323964529839 0 -0.056711042275083265 0.071731094869216805 0 -0.056932805381167274 0.070152595818028005 0 -0.05699816750746553 0.069565753183938858 0 -0.05627176764527355 0.069403257600647209 0 -0.056049124511466326 0.070189042398370885 0 -0.056932805381167274 0.070152595818028005 0 -0.05627176764527355 0.069403257600647209 0 -0.056134153205628222 0.068645558297458845 0 -0.056754179432925822 0.069572322851757309 0 -0.05627176764527355 0.069403257600647209 0 -0.056049124511466326 0.070189042398370885 0 -0.055541430280967898 0.069863465361759677 0 -0.05627176764527355 0.069403257600647209 0 -0.055541430280967898 0.069863465361759677 0 -0.055535462871484427 0.06921611188390181 0 -0.05627176764527355 0.069403257600647209 0 -0.065342123841683836 0.069721628281376277 0 -0.060215105187787096 0.075106145216421227 0 -0.0532918654081894 0.08267863139372307 0 -0.052927821763490153 0.082238271004859989 0 -0.053453779414802567 0.082325321637884197 0 -0.052791882048532142 0.081915319525474095 0 -0.053003184680574494 0.081930303607370164 0 -0.052796332085736718 0.081833645084571485 0 -0.059313337385837377 0.071175089628890936 0 -0.056887938410076014 0.071920323964529839 0 -0.052791882048532142 0.081915319525474095 0 -0.052624039751430603 0.081890175509650678 0 -0.052796332085736718 0.081833645084571485 0 -0.058645189204320936 0.076507034404129273 0 -0.060215105187787096 0.075106145216421227 0 -0.052627698582868129 0.081772625151962153 0 -0.052927821763490153 0.082238271004859989 0 -0.053048313364768986 0.081879271438956222 0 -0.052909870469642427 0.081890412490804379 0 -0.053107430735415441 0.082052975272983206 0 -0.052927821763490153 0.082238271004859989 0 -0.053048313364768986 0.081879271438956222 0 -0.053453779414802567 0.082325321637884197 0 -0.052735433225344006 0.081923071248240248 0 -0.052943093360164874 0.081700623832615213 0 -0.05326127021149852 0.081993622841486591 0 -0.052735433225344006 0.081923071248240248 0 -0.053453779414802567 0.082325321637884197 0 -0.05326127021149852 0.081993622841486591 0 -0.052735433225344006 0.081923071248240248 0 -0.052943093360164874 0.081700623832615213 0 -0.052686547157249658 0.08166422825898341 0 -0.052943093360164874 0.081700623832615213 0 -0.052686547157249658 0.08166422825898341 0 -0.052786233255090423 0.081602373815041984 0 -0.052943093360164874 0.081700623832615213 0 -0.052786233255090423 0.081602373815041984 0 -0.052999250386791062 0.08149050919338223 0 -0.052660009870059234 0.081678170173550876 0 -0.052909870469642427 0.081890412490804379 0 -0.052508976943153401 0.081634206784932911 0 -0.052735433225344006 0.081923071248240248 0 -0.052686547157249658 0.08166422825898341 0 -0.052662685308801922 0.081567734669372657 0 -0.052627698582868129 0.081772625151962153 0 -0.053048313364768986 0.081879271438956222 0 -0.052686547157249658 0.08166422825898341 0 -0.052588709022661918 0.081460405681825152 0 -0.052786233255090423 0.081602373815041984 0 -0.052508976943153401 0.081634206784932911 0 -0.052686547157249658 0.08166422825898341 0 -0.052588709022661918 0.081460405681825152 0 -0.052428294388814294 0.082135891769207048 0 -0.052506549905436621 0.082047462976050325 0 -0.053283170324343168 0.082275974522651216 0 -0.052786233255090423 0.081602373815041984 0 -0.052692157587326344 0.082475092937809857 0 -0.052786233255090423 0.081602373815041984 0 -0.052692157587326344 0.082475092937809857 0 -0.052549607008032524 0.081852234547783356 0 -0.052692157587326344 0.082475092937809857 0 -0.05183292559681367 0.083061017208322541 0 -0.052549607008032524 0.081852234547783356 0 -0.05183292559681367 0.083061017208322541 0 -0.052830730932823942 0.08402612207591742 0 -0.050120699437109721 0.08639724786292205 0 -0.05183292559681367 0.083061017208322541 0 -0.050120699437109721 0.08639724786292205 0 -0.051092712624803228 0.084759892842947743 0 -0.052692157587326344 0.082475092937809857 0 -0.05183292559681367 0.083061017208322541 0 -0.052830730932823942 0.08402612207591742 0 -0.052830730932823942 0.08402612207591742 0 -0.053489945644736865 0.083779130633485049 0 -0.053561801568188287 0.08469582035894499 0 -0.052830730932823942 0.08402612207591742 0 -0.053195748173803306 0.082950170126520367 0 -0.053489945644736865 0.083779130633485049 0 -0.052692157587326344 0.082475092937809857 0 -0.052830730932823942 0.08402612207591742 0 -0.053195748173803306 0.082950170126520367 0 -0.053283170324343168 0.082275974522651216 0 -0.052692157587326344 0.082475092937809857 0 -0.053195748173803306 0.082950170126520367 0 -0.052428294388814294 0.082135891769207048 0 -0.051742252134407744 0.08216472497875088 0 -0.052473864214664108 0.081455430844141502 0 -0.052588709022661918 0.081460405681825152 0 -0.052415321711273041 0.081348081896927271 0 -0.053283170324343168 0.082275974522651216 0 -0.053742884667827 0.08298082353140282 0 -0.053774195202093582 0.083031448488548321 0 -0.053283170324343168 0.082275974522651216 0 -0.053195748173803306 0.082950170126520367 0 -0.053742884667827 0.08298082353140282 0 -0.053742884667827 0.08298082353140282 0 -0.053774195202093582 0.083031448488548321 0 -0.053650875050934188 0.082767507715211477 0 -0.052415321711273041 0.081348081896927271 0 -0.052303588021421238 0.081342976660621305 0 -0.052230644481541071 0.081241238463613322 0 -0.051742252134407744 0.08216472497875088 0 -0.048770733369550248 0.081342656194704321 0 -0.052362678636335605 0.081376889507924502 0 -0.052303588021421238 0.081342976660621305 0 -0.052290788101818655 0.081381040266058968 0 -0.052362678636335605 0.081376889507924502 0 -0.052415321711273041 0.081348081896927271 0 -0.052303588021421238 0.081342976660621305 0 -0.052380006208155298 0.081439038397129487 0 -0.052362678636335605 0.081376889507924502 0 -0.052290788101818655 0.081381040266058968 0 -0.052380006208155298 0.081439038397129487 0 -0.052473864214664108 0.081455430844141502 0 -0.052415321711273041 0.081348081896927271 0 -0.052380006208155298 0.081439038397129487 0 -0.052362678636335605 0.081376889507924502 0 -0.052415321711273041 0.081348081896927271 0 -0.053774195202093582 0.083031448488548321 0 -0.052979892680730681 0.082638295640207846 0 -0.052518760838111307 0.082785159363965577 0 -0.052979892680730681 0.082638295640207846 0 -0.053403446450578096 0.082616897337091558 0 -0.053140747415498207 0.082443924126210294 0 -0.053774195202093582 0.083031448488548321 0 -0.052979892680730681 0.082638295640207846 0 -0.053403446450578096 0.082616897337091558 0 -0.053774195202093582 0.083031448488548321 0 -0.053403446450578096 0.082616897337091558 0 -0.053650875050934188 0.082767507715211477 0 -0.053403446450578096 0.082616897337091558 0 -0.053543417832254123 0.082462194695541835 0 -0.053650875050934188 0.082767507715211477 0 -0.053403446450578096 0.082616897337091558 0 -0.05329831382306801 0.082217911033936539 0 -0.053543417832254123 0.082462194695541835 0 -0.05329831382306801 0.082217911033936539 0 -0.053543417832254123 0.082462194695541835 0 -0.053799924221140966 0.082220666342840115 0 -0.053403446450578096 0.082616897337091558 0 -0.05329831382306801 0.082217911033936539 0 -0.053140747415498207 0.082443924126210294 0 -0.05329831382306801 0.082217911033936539 0 -0.053140747415498207 0.082443924126210294 0 -0.052872719970212693 0.082299503978081098 0 -0.052979892680730681 0.082638295640207846 0 -0.053140747415498207 0.082443924126210294 0 -0.052872719970212693 0.082299503978081098 0 -0.050113792835625039 0.084264189590286157 0 -0.049539683085209202 0.084838041150030991 0 -0.053742884667827 0.08298082353140282 0 -0.053489945644736865 0.083779130633485049 0 -0.054095101179700886 0.084242640220007242 0 -0.053742884667827 0.08298082353140282 0 -0.053650875050934188 0.082767507715211477 0 -0.053799924221140966 0.082220666342840115 0 -0.053195748173803306 0.082950170126520367 0 -0.053742884667827 0.08298082353140282 0 -0.053489945644736865 0.083779130633485049 0 -0.053543417832254123 0.082462194695541835 0 -0.053650875050934188 0.082767507715211477 0 -0.053799924221140966 0.082220666342840115 0 -0.053561801568188287 0.08469582035894499 0 -0.054095101179700886 0.084242640220007242 0 -0.054287714487178548 0.085468306479668951 0 -0.049539683085209202 0.084838041150030991 0 -0.047653819452290302 0.0871107703032966 0 -0.053489945644736865 0.083779130633485049 0 -0.053561801568188287 0.08469582035894499 0 -0.054095101179700886 0.084242640220007242 0 -0.050040694277036099 0.08731240475512364 0 -0.047653819452290302 0.0871107703032966 0 -0.053799924221140966 0.082220666342840115 0 -0.05328191915063922 0.081688209326868946 0 -0.053627984621513192 0.081148961047497234 0 -0.05329831382306801 0.082217911033936539 0 -0.05328191915063922 0.081688209326868946 0 -0.052778960852016214 0.081774977262381421 0 -0.05329831382306801 0.082217911033936539 0 -0.052872719970212693 0.082299503978081098 0 -0.052778960852016214 0.081774977262381421 0 -0.05329831382306801 0.082217911033936539 0 -0.053799924221140966 0.082220666342840115 0 -0.05328191915063922 0.081688209326868946 0 -0.05328191915063922 0.081688209326868946 0 -0.05286478169048129 0.081182148319651662 0 -0.052778960852016214 0.081774977262381421 0 -0.047653819452290302 0.0871107703032966 0 -0.044007438691573052 0.086628438626599108 0 -0.05286478169048129 0.081182148319651662 0 -0.053627984621513192 0.081148961047497234 0 -0.052672800922455069 0.080189664555896656 0 -0.05328191915063922 0.081688209326868946 0 -0.05286478169048129 0.081182148319651662 0 -0.053627984621513192 0.081148961047497234 0 -0.056672065807916477 0.088346785043492179 0 -0.053918169165025107 0.089309877808312427 0 -0.05727872441737681 0.092057891566594149 0 -0.054733303943955168 0.086243306591542182 0 -0.056672065807916477 0.088346785043492179 0 -0.053918169165025107 0.089309877808312427 0 -0.043495190881077055 0.089000150123580021 0 -0.047039281021021485 0.087607217593966003 0 -0.050120699437109721 0.08639724786292205 0 -0.046495712149282803 0.088908495479338462 0 -0.047006838109822022 0.088265161641009421 0 -0.047039281021021485 0.087607217593966003 0 -0.050120699437109721 0.08639724786292205 0 -0.049516935782440971 0.086693949437051152 0 -0.047039281021021485 0.087607217593966003 0 -0.046797691261174355 0.087313228559319861 0 -0.049516935782440971 0.086693949437051152 0 -0.053918169165025107 0.089309877808312427 0 -0.050120699437109721 0.08639724786292205 0 -0.052912625597265159 0.086503923615192879 0 -0.054733303943955168 0.086243306591542182 0 -0.053918169165025107 0.089309877808312427 0 -0.052912625597265159 0.086503923615192879 0 -0.052830730932823942 0.08402612207591742 0 -0.050120699437109721 0.08639724786292205 0 -0.052912625597265159 0.086503923615192879 0 -0.050428341531214727 0.087014223297641177 0 -0.050040694277036099 0.08731240475512364 0 -0.052830730932823942 0.08402612207591742 0 -0.054733303943955168 0.086243306591542182 0 -0.052912625597265159 0.086503923615192879 0 -0.035249835992049242 0.083469048921271632 0 -0.034968721817000017 0.083642114044997523 0 -0.035155438692117687 0.083967897758021368 0 -0.035570571039608631 0.083797024016081384 0 -0.035249835992049242 0.083469048921271632 0 -0.035155438692117687 0.083967897758021368 0 -0.035249835992049242 0.083469048921271632 0 -0.035095417941467852 0.083084175767398377 0 -0.034835698271369911 0.083309804614745422 0 -0.035533263888402153 0.08314246813893765 0 -0.035249835992049242 0.083469048921271632 0 -0.035095417941467852 0.083084175767398377 0 -0.034714322185466148 0.082762495058663968 0 -0.035095417941467852 0.083084175767398377 0 -0.034835698271369911 0.083309804614745422 0 -0.035249835992049242 0.083469048921271632 0 -0.034835698271369911 0.083309804614745422 0 -0.034968721817000017 0.083642114044997523 0 -0.034835698271369911 0.083309804614745422 0 -0.034968721817000017 0.083642114044997523 0 -0.034689211777485907 0.083568355941192093 0 -0.034968721817000017 0.083642114044997523 0 -0.034689211777485907 0.083568355941192093 0 -0.034699930108503467 0.083823377348887451 0 -0.034491739461473728 0.083704843880557656 0 -0.034689211777485907 0.083568355941192093 0 -0.034302222492835301 0.083325508119272612 0 -0.044893001560487492 0.081577983137396601 0 -0.048330479809583028 0.08026441111689829 0 -0.034491739461473728 0.083704843880557656 0 -0.034689211777485907 0.083568355941192093 0 -0.034699930108503467 0.083823377348887451 0 -0.044893001560487492 0.081577983137396601 0 -0.043664699350812755 0.081253244209035347 0 -0.034835698271369911 0.083309804614745422 0 -0.034689211777485907 0.083568355941192093 0 -0.034302222492835301 0.083325508119272612 0 -0.045832747101480692 0.076832187310354266 0 -0.048330479809583028 0.08026441111689829 0 -0.034714322185466148 0.082762495058663968 0 -0.034835698271369911 0.083309804614745422 0 -0.034302222492835301 0.083325508119272612 0 -0.052287062507896803 0.081506986936005693 0 -0.052170030747402119 0.08131311448974482 0 -0.052290788101818655 0.081381040266058968 0 -0.051732134683530891 0.076400631825945087 0 -0.048330479809583028 0.08026441111689829 0 -0.052170030747402119 0.08131311448974482 0 -0.05224007759559067 0.081308245804372944 0 -0.052230644481541071 0.081241238463613322 0 -0.052303588021421238 0.081342976660621305 0 -0.05224007759559067 0.081308245804372944 0 -0.052230644481541071 0.081241238463613322 0 -0.052170030747402119 0.08131311448974482 0 -0.052290788101818655 0.081381040266058968 0 -0.05224007759559067 0.081308245804372944 0 -0.052303588021421238 0.081342976660621305 0 -0.052290788101818655 0.081381040266058968 0 -0.05224007759559067 0.081308245804372944 0 -0.046722253610285862 0.081959015576405891 0 -0.046802228851582944 0.082098761827204145 0 -0.046860584851137373 0.082027675750431503 0 -0.052979892680730681 0.082638295640207846 0 -0.052735490385998715 0.082680530420779011 0 -0.052518760838111307 0.082785159363965577 0 -0.052979892680730681 0.082638295640207846 0 -0.052735490385998715 0.082680530420779011 0 -0.052688818246885531 0.082501972447863017 0 -0.052735490385998715 0.082680530420779011 0 -0.052518760838111307 0.082785159363965577 0 -0.052688818246885531 0.082501972447863017 0 -0.048330479809583028 0.08026441111689829 0 -0.048770733369550248 0.081342656194704321 0 -0.051645428079764778 0.082393274243671738 0 -0.052518760838111307 0.082785159363965577 0 -0.052315533557444734 0.082241904248642028 0 -0.044893001560487492 0.081577983137396601 0 -0.048770733369550248 0.081342656194704321 0 -0.052315533557444734 0.082241904248642028 0 -0.052872719970212693 0.082299503978081098 0 -0.052688818246885531 0.082501972447863017 0 -0.052518760838111307 0.082785159363965577 0 -0.052315533557444734 0.082241904248642028 0 -0.052688818246885531 0.082501972447863017 0 -0.052979892680730681 0.082638295640207846 0 -0.052872719970212693 0.082299503978081098 0 -0.052688818246885531 0.082501972447863017 0 -0.05286478169048129 0.081182148319651662 0 -0.052778960852016214 0.081774977262381421 0 -0.051893334627577885 0.081363015825989399 0 -0.052315533557444734 0.082241904248642028 0 -0.052778960852016214 0.081774977262381421 0 -0.051893334627577885 0.081363015825989399 0 -0.052315533557444734 0.082241904248642028 0 -0.052872719970212693 0.082299503978081098 0 -0.052778960852016214 0.081774977262381421 0 -0.051893334627577885 0.081363015825989399 0 -0.051554985499618476 0.0803519267809302 0 -0.052672800922455069 0.080189664555896656 0 -0.05286478169048129 0.081182148319651662 0 -0.051893334627577885 0.081363015825989399 0 -0.052672800922455069 0.080189664555896656 0 -0.051893334627577885 0.081363015825989399 0 -0.050928128278486487 0.081173865907026813 0 -0.051554985499618476 0.0803519267809302 0 -0.034509820800184506 0.083712343443813717 0 -0.034699930108503467 0.083823377348887451 0 -0.034754610590444407 0.084248240481374276 0 -0.044893001560487492 0.081577983137396601 0 -0.039847705879525464 0.083902125921304124 0 -0.051645428079764778 0.082393274243671738 0 -0.051893334627577885 0.081363015825989399 0 -0.050928128278486487 0.081173865907026813 0 -0.051645428079764778 0.082393274243671738 0 -0.052315533557444734 0.082241904248642028 0 -0.051893334627577885 0.081363015825989399 0 -0.03489429114499789 0.083920745008859737 0 -0.034754610590444407 0.084248240481374276 0 -0.035155438692117687 0.083967897758021368 0 -0.034699930108503467 0.083823377348887451 0 -0.03489429114499789 0.083920745008859737 0 -0.034754610590444407 0.084248240481374276 0 -0.034968721817000017 0.083642114044997523 0 -0.034699930108503467 0.083823377348887451 0 -0.03489429114499789 0.083920745008859737 0 -0.034968721817000017 0.083642114044997523 0 -0.03489429114499789 0.083920745008859737 0 -0.035155438692117687 0.083967897758021368 0 -0.034754610590444407 0.084248240481374276 0 -0.03515877803064698 0.084366326088121932 0 -0.03501838817878445 0.084788938223258392 0 -0.034754610590444407 0.084248240481374276 0 -0.03515877803064698 0.084366326088121932 0 -0.035155438692117687 0.083967897758021368 0 -0.035564333263433993 0.084140479559788955 0 -0.03515877803064698 0.084366326088121932 0 -0.035155438692117687 0.083967897758021368 0 -0.019828531167779773 0.091307156782990909 0 -0.023383904611823353 0.092622629929747041 0 -0.021415968983785616 0.088878430387873048 0 -0.032552847659229396 0.08610610031581338 0 -0.025018934447235432 0.086912426656844802 0 -0.024089041886676068 0.093691788491555017 0 -0.024284646462113275 0.090056208444564551 0 -0.021755393327386324 0.089330536233212424 0 -0.035502665412357366 0.084556614616187936 0 -0.03515877803064698 0.084366326088121932 0 -0.03501838817878445 0.084788938223258392 0 -0.020175843417391481 0.094131343842489612 0 -0.019828531167779773 0.091307156782990909 0 -0.023383904611823353 0.092622629929747041 0 -0.027273832247802141 0.088208180662652236 0 -0.032552847659229396 0.08610610031581338 0 -0.050928128278486487 0.081173865907026813 0 -0.050215675960658332 0.079929425792967232 0 -0.051554985499618476 0.0803519267809302 0 -0.039847705879525464 0.083902125921304124 0 -0.032552847659229396 0.08610610031581338 0 -0.032552847659229396 0.08610610031581338 0 -0.038079507996150515 0.087069000675684835 0 -0.024089041886676068 0.093691788491555017 0 -0.028739424533103072 0.091488374933803684 0 -0.024284646462113275 0.090056208444564551 0 -0.050215675960658332 0.079929425792967232 0 -0.051702026363898528 0.079228672107417381 0 -0.051554985499618476 0.0803519267809302 0 -0.051702026363898528 0.079228672107417381 0 -0.051554985499618476 0.0803519267809302 0 -0.052672800922455069 0.080189664555896656 0 -0.038079507996150515 0.087069000675684835 0 -0.044007438691573052 0.086628438626599108 0 -0.030569545780545115 0.091204747205778924 0 -0.032196574387011498 0.090431355735801647 0 -0.035282885667089765 0.095075118906649658 0 -0.041933466446930738 0.087559825864199858 0 -0.041145805367120425 0.085186933289114961 0 -0.043315867212475496 0.086963139596539576 0 -0.040097950836642172 0.085684406184163397 0 -0.041933466446930738 0.087559825864199858 0 -0.041145805367120425 0.085186933289114961 0 -0.038079507996150515 0.087069000675684835 0 -0.036231200961636206 0.088354575608421457 0 -0.036231200961636206 0.088354575608421457 0 -0.035812170595537762 0.088557371803814094 0 -0.030640000563423586 0.091050585993175961 0 -0.029814364081744836 0.08762708533459343 0 -0.031913052536058709 0.088446358522093135 0 -0.030640000563423586 0.091050585993175961 0 -0.032196574387011498 0.090431355735801647 0 -0.031913052536058709 0.088446358522093135 0 -0.029814364081744836 0.08762708533459343 0 -0.031913052536058709 0.088446358522093135 0 -0.03120693675313262 0.086418266194130455 0 -0.03120693675313262 0.086418266194130455 0 -0.028036862801952264 0.084999795672615605 0 -0.032686052303645276 0.084999081311214211 0 -0.029814364081744836 0.08762708533459343 0 -0.03120693675313262 0.086418266194130455 0 -0.028036862801952264 0.084999795672615605 0 -0.031913052536058709 0.088446358522093135 0 -0.03120693675313262 0.086418266194130455 0 -0.033938283227276787 0.086826573669699605 0 -0.029814364081744836 0.08762708533459343 0 -0.028036862801952264 0.084999795672615605 0 -0.026812853845087494 0.087768641768708883 0 -0.030640000563423586 0.091050585993175961 0 -0.029814364081744836 0.08762708533459343 0 -0.026812853845087494 0.087768641768708883 0 -0.028860834051057126 0.09163231845850342 0 -0.03065447085515572 0.090781954443319629 0 -0.02696665055890915 0.087798485973543755 0 -0.028860834051057126 0.09163231845850342 0 -0.02696665055890915 0.087798485973543755 0 -0.026198337023194539 0.088906761462774264 0 -0.036231200961636206 0.088354575608421457 0 -0.028700856904301856 0.086578551501793249 0 -0.038079507996150515 0.087069000675684835 0 -0.035056042575910752 0.086178233546427577 0 -0.028739424533103072 0.091488374933803684 0 -0.024284646462113275 0.090056208444564551 0 -0.026198337023194539 0.088906761462774264 0 -0.02696665055890915 0.087798485973543755 0 -0.026198337023194539 0.088906761462774264 0 -0.023796978132778958 0.087626461391779306 0 -0.024284646462113275 0.090056208444564551 0 -0.026198337023194539 0.088906761462774264 0 -0.023796978132778958 0.087626461391779306 0 -0.02696665055890915 0.087798485973543755 0 -0.023390853876897908 0.084999932720404403 0 -0.023796978132778958 0.087626461391779306 0 -0.028036862801952264 0.084999795672615605 0 -0.026812853845087494 0.087768641768708883 0 -0.023390779480219195 0.085000077398252077 0 -0.028700856904301856 0.086578551501793249 0 -0.0233966435774614 0.085000070604650993 0 -0.019438273265905543 0.08500001965830313 0 -0.023390853876897908 0.084999932720404403 0 -0.023796978132778958 0.087626461391779306 0 -0.019438273265905543 0.08500001965830313 0 -0.023796978132778958 0.087626461391779306 0 -0.021755393327386324 0.089330536233212424 0 -0.024284646462113275 0.090056208444564551 0 -0.023796978132778958 0.087626461391779306 0 -0.021755393327386324 0.089330536233212424 0 -0.041380513824842174 0.086999698992299757 0 -0.043181949762550652 0.087689587871378177 0 -0.039114761654582574 0.087322977583324607 0 -0.041380513824842174 0.086999698992299757 0 -0.044701415365980407 0.086987079982265639 0 -0.043181949762550652 0.087689587871378177 0 -0.044701415365980407 0.086987079982265639 0 -0.046797691261174355 0.087313228559319861 0 -0.043181949762550652 0.087689587871378177 0 -0.047039281021021485 0.087607217593966003 0 -0.046797691261174355 0.087313228559319861 0 -0.043181949762550652 0.087689587871378177 0 -0.044701415365980407 0.086987079982265639 0 -0.046797691261174355 0.087313228559319861 0 -0.047621865512413077 0.087008309686806548 0 -0.043495190881077055 0.089000150123580021 0 -0.047039281021021485 0.087607217593966003 0 -0.043181949762550652 0.087689587871378177 0 -0.043495190881077055 0.089000150123580021 0 -0.043181949762550652 0.087689587871378177 0 -0.03856783198579232 0.088549165980250089 0 -0.046495712149282803 0.088908495479338462 0 -0.042993170131367622 0.088402163296141867 0 -0.043766423963975613 0.089426141019905592 0 -0.041933466446930738 0.087559825864199858 0 -0.043315867212475496 0.086963139596539576 0 -0.047653819452290302 0.0871107703032966 0 -0.042993170131367622 0.088402163296141867 0 -0.036231200961636206 0.088354575608421457 0 -0.042993170131367622 0.088402163296141867 0 -0.042993170131367622 0.088402163296141867 0 -0.040694261199422495 0.087739577479436032 0 -0.032196574387011498 0.090431355735801647 0 -0.035282885667089765 0.095075118906649658 0 -0.034541587103894877 0.09100390426804765 0 -0.03856783198579232 0.088549165980250089 0 -0.036994920430955078 0.087422887869606919 0 -0.039114761654582574 0.087322977583324607 0 -0.043181949762550652 0.087689587871378177 0 -0.03856783198579232 0.088549165980250089 0 -0.039114761654582574 0.087322977583324607 0 -0.041380513824842174 0.086999698992299757 0 -0.039114761654582574 0.087322977583324607 0 -0.038616513388383747 0.086466120340829303 0 -0.039114761654582574 0.087322977583324607 0 -0.036887286822069099 0.086885210155714612 0 -0.038616513388383747 0.086466120340829303 0 -0.036887286822069099 0.086885210155714612 0 -0.038616513388383747 0.086466120340829303 0 -0.035984824202012107 0.086058988016222915 0 -0.036994920430955078 0.087422887869606919 0 -0.036887286822069099 0.086885210155714612 0 -0.033938283227276787 0.086826573669699605 0 -0.031913052536058709 0.088446358522093135 0 -0.034541587103894877 0.09100390426804765 0 -0.033938283227276787 0.086826573669699605 0 -0.040694261199422495 0.087739577479436032 0 -0.039830715893486066 0.087012619128061255 0 -0.032196574387011498 0.090431355735801647 0 -0.031913052536058709 0.088446358522093135 0 -0.034541587103894877 0.09100390426804765 0 -0.036994920430955078 0.087422887869606919 0 -0.039114761654582574 0.087322977583324607 0 -0.036887286822069099 0.086885210155714612 0 -0.036887286822069099 0.086885210155714612 0 -0.033938283227276787 0.086826573669699605 0 -0.035984824202012107 0.086058988016222915 0 -0.03120693675313262 0.086418266194130455 0 -0.033938283227276787 0.086826573669699605 0 -0.032686052303645276 0.084999081311214211 0 -0.033938283227276787 0.086826573669699605 0 -0.032686052303645276 0.084999081311214211 0 -0.035984824202012107 0.086058988016222915 0 -0.032686052303645276 0.084999081311214211 0 -0.035984824202012107 0.086058988016222915 0 -0.037332731884434055 0.0849986887082822 0 -0.038616513388383747 0.086466120340829303 0 -0.035984824202012107 0.086058988016222915 0 -0.037332731884434055 0.0849986887082822 0 -0.037332731884434055 0.0849986887082822 0 -0.041819270421624935 0.086228566450638464 0 -0.041978724169306779 0.084999151490640065 0 -0.038616513388383747 0.086466120340829303 0 -0.037332731884434055 0.0849986887082822 0 -0.041819270421624935 0.086228566450638464 0 -0.041380513824842174 0.086999698992299757 0 -0.044701415365980407 0.086987079982265639 0 -0.041819270421624935 0.086228566450638464 0 -0.041380513824842174 0.086999698992299757 0 -0.038616513388383747 0.086466120340829303 0 -0.041819270421624935 0.086228566450638464 0 -0.044701415365980407 0.086987079982265639 0 -0.041819270421624935 0.086228566450638464 0 -0.045866072680288451 0.086298578956126026 0 -0.041819270421624935 0.086228566450638464 0 -0.041978724169306779 0.084999151490640065 0 -0.045866072680288451 0.086298578956126026 0 -0.041978724169306779 0.084999151490640065 0 -0.046622901004343492 0.084996482900463702 0 -0.045866072680288451 0.086298578956126026 0 -0.046622901004343492 0.084996482900463702 0 -0.048196366553764032 0.085787034561077155 0 -0.045866072680288451 0.086298578956126026 0 -0.048196366553764032 0.085787034561077155 0 -0.045866072680288451 0.086298578956126026 0 -0.048736852139880056 0.086616995094641464 0 -0.044701415365980407 0.086987079982265639 0 -0.045866072680288451 0.086298578956126026 0 -0.047621865512413077 0.087008309686806548 0 -0.045866072680288451 0.086298578956126026 0 -0.048736852139880056 0.086616995094641464 0 -0.047621865512413077 0.087008309686806548 0 -0.048736852139880056 0.086616995094641464 0 -0.049538267972094374 0.086881954130286085 0 -0.047621865512413077 0.087008309686806548 0 -0.046797691261174355 0.087313228559319861 0 -0.047621865512413077 0.087008309686806548 0 -0.049516935782440971 0.086693949437051152 0 -0.049538267972094374 0.086881954130286085 0 -0.047621865512413077 0.087008309686806548 0 -0.049516935782440971 0.086693949437051152 0 -0.050398699597743443 0.086974826761651081 0 -0.052505521538956899 0.08711650389757046 0 -0.051466973534170034 0.087205167455545157 0 -0.052505521538956899 0.08711650389757046 0 -0.052221313105026514 0.087669868982052535 0 -0.051466973534170034 0.087205167455545157 0 -0.048736852139880056 0.086616995094641464 0 -0.049538267972094374 0.086881954130286085 0 -0.050398699597743443 0.086974826761651081 0 -0.049538267972094374 0.086881954130286085 0 -0.050398699597743443 0.086974826761651081 0 -0.051378206447258629 0.086410946048521273 0 -0.048196366553764032 0.085787034561077155 0 -0.048736852139880056 0.086616995094641464 0 -0.050217653217284004 0.086089645785021693 0 -0.048736852139880056 0.086616995094641464 0 -0.050398699597743443 0.086974826761651081 0 -0.050217653217284004 0.086089645785021693 0 -0.050398699597743443 0.086974826761651081 0 -0.050217653217284004 0.086089645785021693 0 -0.052505521538956899 0.08711650389757046 0 -0.050217653217284004 0.086089645785021693 0 -0.052402949454086765 0.085003760721955021 0 -0.052505521538956899 0.08711650389757046 0 -0.04984291295903364 0.086018779524494951 0 -0.052424896827840746 0.086805109256714585 0 -0.046622163548522805 0.085000053422861654 0 -0.050435409261216257 0.086934065032756622 0 -0.052217787938176011 0.084999327731291305 0 -0.050217653217284004 0.086089645785021693 0 -0.049674775774417493 0.084717881514304039 0 -0.052402949454086765 0.085003760721955021 0 -0.048196366553764032 0.085787034561077155 0 -0.050217653217284004 0.086089645785021693 0 -0.049674775774417493 0.084717881514304039 0 -0.046622901004343492 0.084996482900463702 0 -0.048196366553764032 0.085787034561077155 0 -0.049674775774417493 0.084717881514304039 0 -0.046626605917491099 0.085000412366686054 0 -0.04984291295903364 0.086018779524494951 0 -0.050435409261216257 0.086934065032756622 0 -0.052217787938176011 0.084999327731291305 0 -0.054242637833130602 0.087988277447955635 0 -0.052217787938176011 0.084999327731291305 0 -0.056863791602541132 0.087296320962777355 0 -0.059900341971345805 0.084998389571390331 0 -0.052217787938176011 0.084999327731291305 0 -0.056863791602541132 0.087296320962777355 0 -0.054242637833130602 0.087988277447955635 0 -0.056863791602541132 0.087296320962777355 0 -0.059900341971345805 0.084998389571390331 0 -0.061468107406558323 0.08905260842840787 0 -0.059900341971345805 0.084998389571390331 0 -0.061468107406558323 0.08905260842840787 0 -0.066750781121809294 0.088244853613581503 0 -0.062460846902754087 0.083385734455501237 0 -0.064314950257427464 0.087896409713232537 0 -0.067318041953331159 0.085440732426084451 0 -0.062460846902754087 0.083385734455501237 0 -0.059417403715845085 0.086978898931948392 0 -0.05685074197845727 0.087166866133848012 0 -0.056863791602541132 0.087296320962777355 0 -0.061468107406558323 0.08905260842840787 0 -0.05685074197845727 0.087166866133848012 0 -0.063438978372161323 0.086300197101920592 0 -0.061212602358803457 0.086667707929298732 0 -0.059417403715845085 0.086978898931948392 0 -0.064314950257427464 0.087896409713232537 0 -0.059578295493075563 0.089238467276589364 0 -0.057854123283951522 0.087766520361600597 0 -0.059417403715845085 0.086978898931948392 0 -0.057329602860217696 0.087293538053141384 0 -0.059417403715845085 0.086978898931948392 0 -0.05685074197845727 0.087166866133848012 0 -0.057329602860217696 0.087293538053141384 0 -0.057854123283951522 0.087766520361600597 0 -0.059417403715845085 0.086978898931948392 0 -0.059578295493075563 0.089238467276589364 0 -0.057854123283951522 0.087766520361600597 0 -0.05608933229650008 0.088264412296365197 0 -0.059578295493075563 0.089238467276589364 0 -0.062460846902754087 0.083385734455501237 0 -0.059417403715845085 0.086978898931948392 0 -0.064314950257427464 0.087896409713232537 0 -0.052402949454086765 0.085003760721955021 0 -0.054133028103871675 0.086657857839940844 0 -0.052505521538956899 0.08711650389757046 0 -0.052402949454086765 0.085003760721955021 0 -0.054133028103871675 0.086657857839940844 0 -0.056608454854337395 0.087116883581097274 0 -0.052424896827840746 0.086805109256714585 0 -0.053760196210530541 0.087270071522612694 0 -0.054133028103871675 0.086657857839940844 0 -0.055472004450082713 0.087102775290420292 0 -0.053874528839233229 0.087431606494911385 0 -0.056863791602541132 0.087296320962777355 0 -0.05685074197845727 0.087166866133848012 0 -0.056608454854337395 0.087116883581097274 0 -0.056863791602541132 0.087296320962777355 0 -0.054242637833130602 0.087988277447955635 0 -0.056608454854337395 0.087116883581097274 0 -0.05685074197845727 0.087166866133848012 0 -0.056410316380049605 0.087173277101133997 0 -0.057329602860217696 0.087293538053141384 0 -0.05685074197845727 0.087166866133848012 0 -0.056608454854337395 0.087116883581097274 0 -0.056410316380049605 0.087173277101133997 0 -0.054133028103871675 0.086657857839940844 0 -0.056608454854337395 0.087116883581097274 0 -0.055472004450082713 0.087102775290420292 0 -0.056410316380049605 0.087173277101133997 0 -0.055472004450082713 0.087102775290420292 0 -0.05615429550008804 0.087275121782918519 0 -0.056608454854337395 0.087116883581097274 0 -0.056410316380049605 0.087173277101133997 0 -0.055472004450082713 0.087102775290420292 0 -0.055472004450082713 0.087102775290420292 0 -0.055395726229805299 0.08750600749205735 0 -0.053874528839233229 0.087431606494911385 0 -0.055472004450082713 0.087102775290420292 0 -0.055395726229805299 0.08750600749205735 0 -0.05615429550008804 0.087275121782918519 0 -0.056410316380049605 0.087173277101133997 0 -0.057329602860217696 0.087293538053141384 0 -0.05615429550008804 0.087275121782918519 0 -0.057329602860217696 0.087293538053141384 0 -0.05615429550008804 0.087275121782918519 0 -0.056467685416133839 0.087569049357657316 0 -0.055395726229805299 0.08750600749205735 0 -0.05615429550008804 0.087275121782918519 0 -0.056467685416133839 0.087569049357657316 0 -0.057854123283951522 0.087766520361600597 0 -0.057329602860217696 0.087293538053141384 0 -0.056467685416133839 0.087569049357657316 0 -0.057854123283951522 0.087766520361600597 0 -0.056467685416133839 0.087569049357657316 0 -0.05608933229650008 0.088264412296365197 0 -0.055395726229805299 0.08750600749205735 0 -0.056467685416133839 0.087569049357657316 0 -0.05608933229650008 0.088264412296365197 0 -0.055395726229805299 0.08750600749205735 0 -0.05608933229650008 0.088264412296365197 0 -0.054027189806198132 0.08807134520711829 0 -0.055395726229805299 0.08750600749205735 0 -0.054027189806198132 0.08807134520711829 0 -0.053874528839233229 0.087431606494911385 0 -0.054027189806198132 0.08807134520711829 0 -0.053874528839233229 0.087431606494911385 0 -0.052221313105026514 0.087669868982052535 0 -0.054133028103871675 0.086657857839940844 0 -0.053874528839233229 0.087431606494911385 0 -0.052505521538956899 0.08711650389757046 0 -0.053874528839233229 0.087431606494911385 0 -0.052505521538956899 0.08711650389757046 0 -0.052221313105026514 0.087669868982052535 0 -0.054027189806198132 0.08807134520711829 0 -0.055140391429573742 0.089511262719149567 0 -0.051155937416214284 0.087697802504021191 0 -0.054027189806198132 0.08807134520711829 0 -0.052221313105026514 0.087669868982052535 0 -0.051155937416214284 0.087697802504021191 0 -0.05608933229650008 0.088264412296365197 0 -0.054027189806198132 0.08807134520711829 0 -0.055140391429573742 0.089511262719149567 0 -0.05608933229650008 0.088264412296365197 0 -0.055140391429573742 0.089511262719149567 0 -0.059578295493075563 0.089238467276589364 0 -0.046007577824934885 0.086344294737881827 0 -0.051155937416214284 0.087697802504021191 0 -0.046997022748180156 0.082991548415047217 0 -0.056648764200716635 0.083462610092976994 0 -0.054828425610314827 0.084111416321346069 0 -0.055140391429573742 0.089511262719149567 0 -0.056200464691288594 0.092853364197232668 0 -0.051155937416214284 0.087697802504021191 0 -0.055140391429573742 0.089511262719149567 0 -0.056200464691288594 0.092853364197232668 0 -0.059415345323182336 0.091882955611186298 0 -0.059578295493075563 0.089238467276589364 0 -0.059415345323182336 0.091882955611186298 0 -0.065072355815273597 0.091719234947959319 0 -0.064314950257427464 0.087896409713232537 0 -0.059578295493075563 0.089238467276589364 0 -0.065072355815273597 0.091719234947959319 0 -0.055140391429573742 0.089511262719149567 0 -0.059578295493075563 0.089238467276589364 0 -0.059415345323182336 0.091882955611186298 0 -0.056200464691288594 0.092853364197232668 0 -0.059415345323182336 0.091882955611186298 0 -0.061358492014323765 0.094972079748425225 0 -0.056648764200716635 0.083462610092976994 0 -0.066094403176488417 0.081581000150015653 0 -0.079672746903455563 0.078275702910547168 0 -0.078863935070883989 0.079401698339599175 0 -0.078323685905684434 0.077945833957498434 0 -0.066094403176488417 0.081581000150015653 0 -0.069501634918676281 0.082941114031624533 0 -0.059415345323182336 0.091882955611186298 0 -0.061358492014323765 0.094972079748425225 0 -0.065072355815273597 0.091719234947959319 0 -0.077126156298355952 0.077665948075058652 0 -0.077135837679637026 0.077655420658792912 0 -0.077129287179155959 0.077688678316618506 0 -0.066094403176488417 0.081581000150015653 0 -0.074037562129034673 0.081011537815419324 0 -0.077135837679637026 0.077655420658792912 0 -0.077147855163924139 0.077625944728466942 0 -0.077129287179155959 0.077688678316618506 0 -0.0411887381923247 0.085100254607670608 0 -0.044724327669166647 0.080545192935226495 0 -0.046997022748180156 0.082991548415047217 0 -0.077126156298355952 0.077665948075058652 0 -0.077135837679637026 0.077655420658792912 0 -0.077114836377244964 0.077650573430130362 0 -0.066094403176488417 0.081581000150015653 0 -0.063927792923847968 0.079395517084860798 0 -0.046007577824934885 0.086344294737881827 0 -0.0411887381923247 0.085100254607670608 0 -0.046997022748180156 0.082991548415047217 0 -0.063927792923847968 0.079395517084860798 0 -0.074567440514527447 0.077445304238985185 0 -0.072316693020836806 0.071791665583063421 0 -0.06907024087398772 0.070810110962124667 0 -0.069462061715019285 0.074494359880184408 0 -0.077135837679637026 0.077655420658792912 0 -0.077114836377244964 0.077650573430130362 0 -0.077147855163924139 0.077625944728466942 0 -0.069894863566922705 0.069695458660060244 0 -0.072316693020836806 0.071791665583063421 0 -0.077905973407301071 0.069152372732455211 0 -0.063927792923847968 0.079395517084860798 0 -0.064013274700621778 0.079279044211183577 0 -0.069894863566922705 0.069695458660060244 0 -0.072316693020836806 0.071791665583063421 0 -0.06907024087398772 0.070810110962124667 0 -0.051155937416214284 0.087697802504021191 0 -0.050221924012181951 0.082034674268119931 0 -0.046997022748180156 0.082991548415047217 0 -0.044724327669166647 0.080545192935226495 0 -0.050221924012181951 0.082034674268119931 0 -0.046997022748180156 0.082991548415047217 0 -0.063927792923847968 0.079395517084860798 0 -0.058725373746206289 0.078733766133841407 0 -0.06907024087398772 0.070810110962124667 0 -0.063777101383595547 0.074569243926548637 0 -0.069462061715019285 0.074494359880184408 0 -0.06963107328360299 0.070008325618471368 0 -0.060687924459757979 0.073747950787670338 0 -0.06907024087398772 0.070810110962124667 0 -0.060687924459757979 0.073747950787670338 0 -0.06907024087398772 0.070810110962124667 0 -0.063777101383595547 0.074569243926548637 0 -0.060687924459757979 0.073747950787670338 0 -0.063777101383595547 0.074569243926548637 0 -0.057683576890659227 0.077527088191162885 0 -0.051155937416214284 0.087697802504021191 0 -0.050221924012181951 0.082034674268119931 0 -0.053599869496856668 0.081547629697945684 0 -0.060687924459757979 0.073747950787670338 0 -0.057683576890659227 0.077527088191162885 0 -0.053599869496856668 0.081547629697945684 0 -0.058725373746206289 0.078733766133841407 0 -0.057775778104912981 0.079117933328473319 0 -0.053599869496856668 0.081547629697945684 0 -0.05425705593877031 0.080293352064881376 0 -0.052508181079331966 0.08252241136871373 0 -0.05425705593877031 0.080293352064881376 0 -0.053098620651690805 0.081239231120708771 0 -0.055054907395167739 0.079943848320656069 0 -0.057683576890659227 0.077527088191162885 0 -0.053599869496856668 0.081547629697945684 0 -0.05425705593877031 0.080293352064881376 0 -0.057683576890659227 0.077527088191162885 0 -0.05425705593877031 0.080293352064881376 0 -0.055054907395167739 0.079943848320656069 0 -0.05425705593877031 0.080293352064881376 0 -0.053098620651690805 0.081239231120708771 0 -0.052508181079331966 0.08252241136871373 0 -0.05183292559681367 0.083061017208322541 0 -0.053098620651690805 0.081239231120708771 0 -0.052508181079331966 0.08252241136871373 0 -0.05183292559681367 0.083061017208322541 0 -0.053098620651690805 0.081239231120708771 0 -0.052549607008032524 0.081852234547783356 0 -0.05183292559681367 0.083061017208322541 0 -0.052508181079331966 0.08252241136871373 0 -0.051092712624803228 0.084759892842947743 0 -0.053599869496856668 0.081547629697945684 0 -0.052508181079331966 0.08252241136871373 0 -0.05162517469886798 0.084728960307362391 0 -0.052508181079331966 0.08252241136871373 0 -0.05162517469886798 0.084728960307362391 0 -0.051092712624803228 0.084759892842947743 0 -0.050120699437109721 0.08639724786292205 0 -0.051092712624803228 0.084759892842947743 0 -0.049516935782440971 0.086693949437051152 0 -0.05162517469886798 0.084728960307362391 0 -0.051092712624803228 0.084759892842947743 0 -0.049516935782440971 0.086693949437051152 0 -0.05162517469886798 0.084728960307362391 0 -0.049516935782440971 0.086693949437051152 0 -0.051378206447258629 0.086410946048521273 0 -0.049538267972094374 0.086881954130286085 0 -0.049516935782440971 0.086693949437051152 0 -0.051378206447258629 0.086410946048521273 0 -0.050398699597743443 0.086974826761651081 0 -0.051378206447258629 0.086410946048521273 0 -0.051466973534170034 0.087205167455545157 0 -0.052221313105026514 0.087669868982052535 0 -0.051155937416214284 0.087697802504021191 0 -0.051762520527022488 0.086559001870961189 0 -0.051378206447258629 0.086410946048521273 0 -0.051466973534170034 0.087205167455545157 0 -0.051762520527022488 0.086559001870961189 0 -0.052221313105026514 0.087669868982052535 0 -0.051466973534170034 0.087205167455545157 0 -0.051762520527022488 0.086559001870961189 0 -0.051155937416214284 0.087697802504021191 0 -0.053599869496856668 0.081547629697945684 0 -0.051762520527022488 0.086559001870961189 0 -0.053599869496856668 0.081547629697945684 0 -0.05162517469886798 0.084728960307362391 0 -0.051378206447258629 0.086410946048521273 0 -0.053599869496856668 0.081547629697945684 0 -0.051378206447258629 0.086410946048521273 0 -0.051762520527022488 0.086559001870961189 0 -0.084994336082091837 0.08499613254862666 0 -0.078205723110851014 0.085244242414601629 0 -0.070479843285412749 0.084994188615477917 0 -0.084994336082091837 0.08499613254862666 0 -0.084899343510142097 0.082027240865370596 0 -0.08499510848270575 0.068032536897199333 0 -0.086788043845126048 0.076050920840224398 0 -0.084899343510142097 0.082027240865370596 0 -0.08499510848270575 0.068032536897199333 0 -0.086788043845126048 0.076050920840224398 0 -0.086397501324078058 0.078680831134826879 0 -0.084899343510142097 0.082027240865370596 0 -0.084994336082091837 0.08499613254862666 0 -0.084899343510142097 0.082027240865370596 0 -0.078205723110851014 0.085244242414601629 0 -0.079894750549348678 0.086364792383866143 0 -0.084899343510142097 0.082027240865370596 0 -0.078205723110851014 0.085244242414601629 0 -0.081888716294595557 0.081622322277678849 0 -0.082623891054077914 0.081667574818373181 0 -0.078205723110851014 0.085244242414601629 0 -0.074982976014696931 0.085837052187478086 0 -0.074176828509391529 0.085831237635740104 0 -0.081888716294595557 0.081622322277678849 0 -0.080629435396655666 0.081214178410042664 0 -0.079894750549348678 0.086364792383866143 0 -0.078205723110851014 0.085244242414601629 0 -0.074982976014696931 0.085837052187478086 0 -0.086788043845126048 0.076050920840224398 0 -0.086397501324078058 0.078680831134826879 0 -0.084450884680899216 0.075756762530987551 0 -0.086788043845126048 0.076050920840224398 0 -0.084450884680899216 0.075756762530987551 0 -0.083652858065201785 0.077340898004865752 0 -0.084450884680899216 0.075756762530987551 0 -0.080117839489752568 0.078764816219525996 0 -0.083652858065201785 0.077340898004865752 0 -0.080629435396655666 0.081214178410042664 0 -0.079911603308910437 0.080975352558471964 0 -0.084450884680899216 0.075756762530987551 0 -0.076946341666325649 0.079649249649758794 0 -0.080117839489752568 0.078764816219525996 0 -0.074982976014696931 0.085837052187478086 0 -0.076946341666325649 0.079649249649758794 0 -0.074982063765345677 0.084134992923533922 0 -0.076946341666325649 0.079649249649758794 0 -0.075740475594553755 0.082206496511568167 0 -0.074982063765345677 0.084134992923533922 0 -0.076946341666325649 0.079649249649758794 0 -0.075740475594553755 0.082206496511568167 0 -0.076749116208014417 0.080427811720994447 0 -0.076946341666325649 0.079649249649758794 0 -0.076749116208014417 0.080427811720994447 0 -0.077796470018879349 0.079534424360059724 0 -0.075740475594553755 0.082206496511568167 0 -0.074982063765345677 0.084134992923533922 0 -0.074368842751705216 0.084014576730751828 0 -0.074982063765345677 0.084134992923533922 0 -0.073079589506733419 0.086142646258278194 0 -0.074368842751705216 0.084014576730751828 0 -0.074982063765345677 0.084134992923533922 0 -0.074176828509391529 0.085831237635740104 0 -0.073079589506733419 0.086142646258278194 0 -0.074982976014696931 0.085837052187478086 0 -0.074982063765345677 0.084134992923533922 0 -0.074176828509391529 0.085831237635740104 0 -0.070479843285412749 0.084994188615477917 0 -0.073079589506733419 0.086142646258278194 0 -0.066750781121809294 0.088244853613581503 0 -0.078205723110851014 0.085244242414601629 0 -0.074176828509391529 0.085831237635740104 0 -0.070479843285412749 0.084994188615477917 0 -0.074176828509391529 0.085831237635740104 0 -0.070479843285412749 0.084994188615477917 0 -0.073079589506733419 0.086142646258278194 0 -0.059900341971345805 0.084998389571390331 0 -0.070479843285412749 0.084994188615477917 0 -0.066750781121809294 0.088244853613581503 0 -0.069339370505618822 0.085566550951198139 0 -0.067377201230909275 0.085750613744420556 0 -0.062460846902754087 0.083385734455501237 0 -0.067318041953331159 0.085440732426084451 0 -0.071574265154251124 0.082343171683562547 0 -0.067318041953331159 0.085440732426084451 0 -0.071574265154251124 0.082343171683562547 0 -0.070079071166524023 0.088124338976269409 0 -0.063438978372161323 0.086300197101920592 0 -0.067377201230909275 0.085750613744420556 0 -0.073079589506733419 0.086142646258278194 0 -0.071574265154251124 0.082343171683562547 0 -0.074368842751705216 0.084014576730751828 0 -0.071574265154251124 0.082343171683562547 0 -0.074368842751705216 0.084014576730751828 0 -0.070079071166524023 0.088124338976269409 0 -0.072562341326561211 0.082774368597742509 0 -0.071792973148539482 0.082898919807854188 0 -0.075740475594553755 0.082206496511568167 0 -0.076749116208014417 0.080427811720994447 0 -0.078143943828303683 0.080821749624931133 0 -0.075740475594553755 0.082206496511568167 0 -0.074368842751705216 0.084014576730751828 0 -0.078143943828303683 0.080821749624931133 0 -0.064314950257427464 0.087896409713232537 0 -0.070079071166524023 0.088124338976269409 0 -0.065072355815273597 0.091719234947959319 0 -0.064314950257427464 0.087896409713232537 0 -0.067318041953331159 0.085440732426084451 0 -0.070079071166524023 0.088124338976269409 0 -0.078143943828303683 0.080821749624931133 0 -0.078863935070883989 0.079401698339599175 0 -0.077622962351263453 0.079406629498872602 0 -0.071792973148539482 0.082898919807854188 0 -0.069501634918676281 0.082941114031624533 0 -0.076749116208014417 0.080427811720994447 0 -0.078143943828303683 0.080821749624931133 0 -0.077622962351263453 0.079406629498872602 0 -0.076749116208014417 0.080427811720994447 0 -0.077622962351263453 0.079406629498872602 0 -0.076776845726492821 0.078571284434037186 0 -0.077688766008031526 0.078587606222267986 0 -0.07699144116429682 0.07779249296837705 0 -0.076776845726492821 0.078571284434037186 0 -0.077622962351263453 0.079406629498872602 0 -0.077688766008031526 0.078587606222267986 0 -0.076776845726492821 0.078571284434037186 0 -0.078863935070883989 0.079401698339599175 0 -0.077688766008031526 0.078587606222267986 0 -0.078323685905684434 0.077945833957498434 0 -0.078863935070883989 0.079401698339599175 0 -0.077622962351263453 0.079406629498872602 0 -0.077688766008031526 0.078587606222267986 0 -0.077905973407301071 0.069152372732455211 0 -0.084272189152953841 0.069944323921766777 0 -0.083733894504811002 0.070257741832824683 0 -0.077147855163924139 0.077625944728466942 0 -0.077105467922254173 0.077639089196399988 0 -0.077115464628290664 0.077536515699197534 0 -0.074567440514527447 0.077445304238985185 0 -0.079949811019832798 0.076131043162754222 0 -0.077147855163924139 0.077625944728466942 0 -0.077129287179155959 0.077688678316618506 0 -0.077105467922254173 0.077639089196399988 0 -0.081608385770399985 0.07657301935150225 0 -0.079949811019832798 0.076131043162754222 0 -0.077105467922254173 0.077639089196399988 0 -0.07699144116429682 0.07779249296837705 0 -0.076816438471887905 0.077454770870882261 0 -0.082147341905431437 0.075307697060745055 0 -0.082210617973993899 0.075837867290523275 0 -0.081481079656642127 0.075634353110223054 0 -0.077105467922254173 0.077639089196399988 0 -0.076816438471887905 0.077454770870882261 0 -0.077115464628290664 0.077536515699197534 0 -0.077129287179155959 0.077688678316618506 0 -0.077105467922254173 0.077639089196399988 0 -0.07699144116429682 0.07779249296837705 0 -0.077688766008031526 0.078587606222267986 0 -0.078323685905684434 0.077945833957498434 0 -0.07699144116429682 0.07779249296837705 0 -0.074037562129034673 0.081011537815419324 0 -0.075413964089951449 0.08062951890823819 0 -0.081608385770399985 0.07657301935150225 0 -0.079529486694051216 0.078787907034376062 0 -0.07699144116429682 0.07779249296837705 0 -0.076816438471887905 0.077454770870882261 0 -0.076776845726492821 0.078571284434037186 0 -0.07913206893798487 0.080867057458580041 0 -0.078169790054407134 0.082599305911221735 0 -0.07793973484757924 0.079658762564949734 0 -0.081608385770399985 0.07657301935150225 0 -0.083259686694450594 0.075165049623847083 0 -0.088171291922094497 0.074928896761525601 0 -0.086857478067009594 0.074395134536552471 0 -0.088043460751810854 0.073586771594228245 0 -0.088171291922094497 0.074928896761525601 0 -0.086857478067009594 0.074395134536552471 0 -0.086896647456162865 0.075713232465343616 0 -0.086857478067009594 0.074395134536552471 0 -0.086896647456162865 0.075713232465343616 0 -0.08640389467161376 0.074697598015092528 0 -0.081608385770399985 0.07657301935150225 0 -0.082938830523841212 0.077153828005892308 0 -0.07913206893798487 0.080867057458580041 0 -0.078169790054407134 0.082599305911221735 0 -0.081011862260250936 0.081435752485191845 0 -0.07913206893798487 0.080867057458580041 0 -0.081011862260250936 0.081435752485191845 0 -0.07994085788818181 0.079795439310385755 0 -0.081011862260250936 0.081435752485191845 0 -0.07994085788818181 0.079795439310385755 0 -0.082333527786125654 0.078424857853786958 0 -0.07994085788818181 0.079795439310385755 0 -0.079494032558854136 0.079214953910403216 0 -0.082333527786125654 0.078424857853786958 0 -0.07913206893798487 0.080867057458580041 0 -0.07994085788818181 0.079795439310385755 0 -0.07793973484757924 0.079658762564949734 0 -0.07994085788818181 0.079795439310385755 0 -0.07793973484757924 0.079658762564949734 0 -0.079494032558854136 0.079214953910403216 0 -0.076749116208014417 0.080427811720994447 0 -0.07793973484757924 0.079658762564949734 0 -0.077796470018879349 0.079534424360059724 0 -0.078886973630853743 0.079320795355273241 0 -0.079529486694051216 0.078787907034376062 0 -0.07793973484757924 0.079658762564949734 0 -0.077796470018879349 0.079534424360059724 0 -0.079494032558854136 0.079214953910403216 0 -0.080117839489752568 0.078764816219525996 0 -0.079494032558854136 0.079214953910403216 0 -0.083652858065201785 0.077340898004865752 0 -0.076946341666325649 0.079649249649758794 0 -0.077796470018879349 0.079534424360059724 0 -0.080117839489752568 0.078764816219525996 0 -0.077796470018879349 0.079534424360059724 0 -0.080117839489752568 0.078764816219525996 0 -0.079494032558854136 0.079214953910403216 0 -0.079494032558854136 0.079214953910403216 0 -0.083652858065201785 0.077340898004865752 0 -0.082333527786125654 0.078424857853786958 0 -0.086788043845126048 0.076050920840224398 0 -0.085613046088300351 0.076095333613246829 0 -0.086942347218349564 0.074549867259352726 0 -0.086788043845126048 0.076050920840224398 0 -0.083652858065201785 0.077340898004865752 0 -0.085613046088300351 0.076095333613246829 0 -0.083652858065201785 0.077340898004865752 0 -0.085613046088300351 0.076095333613246829 0 -0.084804727812704636 0.076569976119456221 0 -0.084804727812704636 0.076569976119456221 0 -0.086942347218349564 0.074549867259352726 0 -0.085157000546930858 0.077024607108404045 0 -0.085613046088300351 0.076095333613246829 0 -0.084804727812704636 0.076569976119456221 0 -0.086942347218349564 0.074549867259352726 0 -0.086942347218349564 0.074549867259352726 0 -0.085157000546930858 0.077024607108404045 0 -0.084323759800054091 0.076696119235610621 0 -0.083652858065201785 0.077340898004865752 0 -0.084804727812704636 0.076569976119456221 0 -0.082333527786125654 0.078424857853786958 0 -0.084804727812704636 0.076569976119456221 0 -0.085157000546930858 0.077024607108404045 0 -0.082333527786125654 0.078424857853786958 0 -0.081011862260250936 0.081435752485191845 0 -0.085157000546930858 0.077024607108404045 0 -0.082333527786125654 0.078424857853786958 0 -0.086896647456162865 0.075713232465343616 0 -0.085958937233479818 0.075712658539653213 0 -0.08640389467161376 0.074697598015092528 0 -0.086896647456162865 0.075713232465343616 0 -0.085157000546930858 0.077024607108404045 0 -0.085958937233479818 0.075712658539653213 0 -0.082938830523841212 0.077153828005892308 0 -0.083501192044521347 0.077154867048804476 0 -0.085958937233479818 0.075712658539653213 0 -0.08640389467161376 0.074697598015092528 0 -0.086338073785461628 0.07420565080013336 0 -0.08640389467161376 0.074697598015092528 0 -0.086338073785461628 0.07420565080013336 0 -0.085943015421171859 0.073891943824956743 0 -0.086857478067009594 0.074395134536552471 0 -0.08640389467161376 0.074697598015092528 0 -0.085943015421171859 0.073891943824956743 0 -0.086338073785461628 0.07420565080013336 0 -0.084323759800054091 0.076696119235610621 0 -0.082834146915348156 0.070583235184865034 0 -0.085958937233479818 0.075712658539653213 0 -0.086338073785461628 0.07420565080013336 0 -0.084323759800054091 0.076696119235610621 0 -0.08658792465296028 0.069989521422924708 0 -0.08651165542548192 0.0665002108026959 0 -0.085157000546930858 0.077024607108404045 0 -0.085958937233479818 0.075712658539653213 0 -0.084323759800054091 0.076696119235610621 0 -0.086641277005415976 0.071336749018799953 0 -0.08658792465296028 0.069989521422924708 0 -0.086942347218349564 0.074549867259352726 0 -0.089029032816827294 0.067948663068459411 0 -0.08499510848270575 0.068032536897199333 0 -0.089029032816827294 0.067948663068459411 0 -0.08499510848270575 0.068032536897199333 0 -0.089280816206574964 0.063411846686812365 0 -0.086788043845126048 0.076050920840224398 0 -0.086942347218349564 0.074549867259352726 0 -0.08499510848270575 0.068032536897199333 0 -0.08499510848270575 0.068032536897199333 0 -0.084999085500638574 0.055326806658383333 0 -0.087157805380284017 0.0587335355650268 0 -0.084999085500638574 0.055326806658383333 0 -0.087157805380284017 0.0587335355650268 0 -0.086496720474985758 0.053091892699372631 0 -0.087157805380284017 0.0587335355650268 0 -0.087179396237278245 0.055769548335396477 0 -0.086496720474985758 0.053091892699372631 0 -0.087157805380284017 0.0587335355650268 0 -0.08898709445123848 0.059176649041098164 0 -0.087179396237278245 0.055769548335396477 0 -0.08499510848270575 0.068032536897199333 0 -0.087157805380284017 0.0587335355650268 0 -0.089280816206574964 0.063411846686812365 0 -0.087157805380284017 0.0587335355650268 0 -0.08898709445123848 0.059176649041098164 0 -0.089280816206574964 0.063411846686812365 0 -0.083999031466026358 0.061508572006374614 0 -0.082834146915348156 0.070583235184865034 0 -0.089591923851004188 0.063186136052310077 0 -0.083999031466026358 0.061508572006374614 0 -0.089591923851004188 0.063186136052310077 0 -0.08731659395958713 0.058530673471739118 0 -0.086338073785461628 0.07420565080013336 0 -0.082834146915348156 0.070583235184865034 0 -0.089591923851004188 0.063186136052310077 0 -0.086557002730100446 0.062452600313453357 0 -0.08651165542548192 0.0665002108026959 0 -0.085669690984372798 0.073188125927975703 0 -0.085943015421171859 0.073891943824956743 0 -0.084330878470541576 0.072816599449677888 0 -0.086137810441421853 0.069951916317283452 0 -0.086204897498373526 0.067077639550995799 0 -0.086857478067009594 0.074395134536552471 0 -0.085669690984372798 0.073188125927975703 0 -0.085943015421171859 0.073891943824956743 0 -0.086338073785461628 0.07420565080013336 0 -0.085943015421171859 0.073891943824956743 0 -0.084330878470541576 0.072816599449677888 0 -0.085669690984372798 0.073188125927975703 0 -0.084330878470541576 0.072816599449677888 0 -0.085443168928414567 0.071600549706446331 0 -0.082183096837000813 0.068375732702072825 0 -0.08573428464337049 0.068954973226245581 0 -0.085443168928414567 0.071600549706446331 0 -0.089591923851004188 0.063186136052310077 0 -0.08731659395958713 0.058530673471739118 0 -0.088769944682284885 0.055089321107345914 0 -0.084330878470541576 0.072816599449677888 0 -0.082183096837000813 0.068375732702072825 0 -0.085443168928414567 0.071600549706446331 0 -0.086204897498373526 0.067077639550995799 0 -0.086055359634913342 0.062731117403813777 0 -0.086557002730100446 0.062452600313453357 0 -0.086621182489195842 0.060423086721021368 0 -0.083999031466026358 0.061508572006374614 0 -0.08731659395958713 0.058530673471739118 0 -0.087179396237278245 0.055769548335396477 0 -0.08731659395958713 0.058530673471739118 0 -0.087179396237278245 0.055769548335396477 0 -0.088769944682284885 0.055089321107345914 0 -0.087179396237278245 0.055769548335396477 0 -0.087645943071617646 0.054434993599842996 0 -0.086496720474985758 0.053091892699372631 0 -0.087179396237278245 0.055769548335396477 0 -0.088769944682284885 0.055089321107345914 0 -0.087645943071617646 0.054434993599842996 0 -0.082183096837000813 0.068375732702072825 0 -0.085324895486274477 0.065906741343631295 0 -0.085751518324715031 0.06167072913976672 0 -0.082183096837000813 0.068375732702072825 0 -0.08573428464337049 0.068954973226245581 0 -0.085324895486274477 0.065906741343631295 0 -0.08573428464337049 0.068954973226245581 0 -0.087456656307979941 0.068897634680798681 0 -0.086710319177719819 0.064678415476902257 0 -0.08573428464337049 0.068954973226245581 0 -0.085324895486274477 0.065906741343631295 0 -0.086710319177719819 0.064678415476902257 0 -0.085324895486274477 0.065906741343631295 0 -0.086710319177719819 0.064678415476902257 0 -0.085751518324715031 0.06167072913976672 0 -0.087456656307979941 0.068897634680798681 0 -0.08807424350105085 0.065773932845608354 0 -0.086710319177719819 0.064678415476902257 0 -0.087456656307979941 0.068897634680798681 0 -0.088825434603179057 0.069746014887299784 0 -0.08807424350105085 0.065773932845608354 0 -0.088825434603179057 0.069746014887299784 0 -0.089340104076686008 0.066376824947799132 0 -0.08807424350105085 0.065773932845608354 0 -0.087456656307979941 0.068897634680798681 0 -0.087393967251579455 0.071370995847911289 0 -0.088825434603179057 0.069746014887299784 0 -0.08573428464337049 0.068954973226245581 0 -0.087456656307979941 0.068897634680798681 0 -0.087027149665993439 0.071455249749494465 0 -0.087456656307979941 0.068897634680798681 0 -0.087393967251579455 0.071370995847911289 0 -0.087027149665993439 0.071455249749494465 0 -0.087393967251579455 0.071370995847911289 0 -0.087027149665993439 0.071455249749494465 0 -0.086510053566188683 0.072198332042134925 0 -0.08573428464337049 0.068954973226245581 0 -0.087027149665993439 0.071455249749494465 0 -0.085443168928414567 0.071600549706446331 0 -0.087027149665993439 0.071455249749494465 0 -0.085443168928414567 0.071600549706446331 0 -0.08635587782352129 0.072508453610776541 0 -0.085669690984372798 0.073188125927975703 0 -0.085443168928414567 0.071600549706446331 0 -0.08635587782352129 0.072508453610776541 0 -0.086857478067009594 0.074395134536552471 0 -0.085669690984372798 0.073188125927975703 0 -0.088043460751810854 0.073586771594228245 0 -0.085669690984372798 0.073188125927975703 0 -0.08635587782352129 0.072508453610776541 0 -0.08716962542859695 0.073565358554681368 0 -0.084898351413288997 0.075022332734583946 0 -0.083259686694450594 0.075165049623847083 0 -0.087027149665993439 0.071455249749494465 0 -0.08635587782352129 0.072508453610776541 0 -0.08716962542859695 0.073565358554681368 0 -0.087027149665993439 0.071455249749494465 0 -0.086797613185833261 0.071517955108415118 0 -0.086510053566188683 0.072198332042134925 0 -0.084191441772498057 0.072953813758567271 0 -0.083259686694450594 0.075165049623847083 0 -0.086797613185833261 0.071517955108415118 0 -0.086510053566188683 0.072198332042134925 0 -0.085542625877759862 0.072225269328977437 0 -0.086510053566188683 0.072198332042134925 0 -0.085642177029028169 0.072784555016755778 0 -0.085542625877759862 0.072225269328977437 0 -0.085642177029028169 0.072784555016755778 0 -0.08403572694109801 0.073609059994677276 0 -0.086242087871183579 0.072850090630111428 0 -0.085642177029028169 0.072784555016755778 0 -0.085542625877759862 0.072225269328977437 0 -0.08403572694109801 0.073609059994677276 0 -0.086797613185833261 0.071517955108415118 0 -0.085542625877759862 0.072225269328977437 0 -0.084501669531794069 0.071264090946030492 0 -0.083259686694450594 0.075165049623847083 0 -0.079949811019832798 0.076131043162754222 0 -0.086797613185833261 0.071517955108415118 0 -0.084501669531794069 0.071264090946030492 0 -0.084126328744074316 0.070203382139070986 0 -0.085542625877759862 0.072225269328977437 0 -0.084501669531794069 0.071264090946030492 0 -0.08335897836705046 0.072546331734359037 0 -0.077905973407301071 0.069152372732455211 0 -0.080489216124387822 0.071679668564372787 0 -0.083733894504811002 0.070257741832824683 0 -0.080489216124387822 0.071679668564372787 0 -0.083733894504811002 0.070257741832824683 0 -0.082845028218721598 0.071723458930609454 0 -0.084501669531794069 0.071264090946030492 0 -0.083733894504811002 0.070257741832824683 0 -0.082845028218721598 0.071723458930609454 0 -0.084501669531794069 0.071264090946030492 0 -0.084126328744074316 0.070203382139070986 0 -0.083733894504811002 0.070257741832824683 0 -0.079949811019832798 0.076131043162754222 0 -0.079982631188970685 0.076107793160310661 0 -0.084501669531794069 0.071264090946030492 0 -0.082845028218721598 0.071723458930609454 0 -0.08335897836705046 0.072546331734359037 0 -0.082845028218721598 0.071723458930609454 0 -0.081873279367135593 0.072515662894332533 0 -0.08335897836705046 0.072546331734359037 0 -0.080489216124387822 0.071679668564372787 0 -0.082845028218721598 0.071723458930609454 0 -0.081873279367135593 0.072515662894332533 0 -0.080489216124387822 0.071679668564372787 0 -0.081873279367135593 0.072515662894332533 0 -0.080880648416213424 0.073867446488128777 0 -0.081873279367135593 0.072515662894332533 0 -0.08335897836705046 0.072546331734359037 0 -0.080880648416213424 0.073867446488128777 0 -0.08335897836705046 0.072546331734359037 0 -0.08403572694109801 0.073609059994677276 0 -0.080880648416213424 0.073867446488128777 0 -0.085542625877759862 0.072225269328977437 0 -0.08335897836705046 0.072546331734359037 0 -0.08403572694109801 0.073609059994677276 0 -0.08403572694109801 0.073609059994677276 0 -0.080982717720331193 0.07528637248276733 0 -0.080880648416213424 0.073867446488128777 0 -0.08403572694109801 0.073609059994677276 0 -0.082936650960791225 0.076044886775184353 0 -0.080982717720331193 0.07528637248276733 0 -0.08403572694109801 0.073609059994677276 0 -0.082936650960791225 0.076044886775184353 0 -0.086242087871183579 0.072850090630111428 0 -0.082936650960791225 0.076044886775184353 0 -0.086242087871183579 0.072850090630111428 0 -0.088825434603179057 0.069746014887299784 0 -0.087393967251579455 0.071370995847911289 0 -0.086242087871183579 0.072850090630111428 0 -0.088825434603179057 0.069746014887299784 0 -0.087393967251579455 0.071370995847911289 0 -0.086510053566188683 0.072198332042134925 0 -0.086242087871183579 0.072850090630111428 0 -0.086510053566188683 0.072198332042134925 0 -0.085642177029028169 0.072784555016755778 0 -0.086242087871183579 0.072850090630111428 0 -0.085438891372483963 0.07461119048769134 0 -0.088825434603179057 0.069746014887299784 0 -0.089873477775771399 0.069679314111509599 0 -0.088825434603179057 0.069746014887299784 0 -0.089873477775771399 0.069679314111509599 0 -0.089340104076686008 0.066376824947799132 0 -0.081684714404490766 0.075461822508261236 0 -0.084119691396174576 0.074862504577105082 0 -0.089873477775771399 0.069679314111509599 0 -0.095461678480368142 0.065117222151751877 0 -0.098411938688829942 0.068031988169619348 0 -0.085438891372483963 0.07461119048769134 0 -0.089873477775771399 0.069679314111509599 0 -0.081725946563720286 0.079299227016598389 0 -0.086544868789310822 0.072254064558519016 0 -0.086866039754141589 0.072994610224527773 0 -0.095461678480368142 0.065117222151751877 0 -0.091337443742631447 0.063132893739689513 0 -0.094249895888028776 0.060620628637406845 0 -0.089873477775771399 0.069679314111509599 0 -0.095461678480368142 0.065117222151751877 0 -0.091337443742631447 0.063132893739689513 0 -0.089873477775771399 0.069679314111509599 0 -0.089340104076686008 0.066376824947799132 0 -0.091337443742631447 0.063132893739689513 0 -0.089340104076686008 0.066376824947799132 0 -0.091337443742631447 0.063132893739689513 0 -0.089039058010832714 0.062183022428177984 0 -0.093804846047089524 0.05689766207453209 0 -0.088636953592515721 0.053855004527265313 0 -0.091337443742631447 0.063132893739689513 0 -0.089596186817046286 0.056360373815064577 0 -0.089039058010832714 0.062183022428177984 0 -0.091337443742631447 0.063132893739689513 0 -0.094249895888028776 0.060620628637406845 0 -0.089596186817046286 0.056360373815064577 0 -0.092012535638599013 0.053700634144200836 0 -0.092592503027033771 0.048192070235426029 0 -0.088937538150063 0.047151504837615016 0 -0.092012535638599013 0.053700634144200836 0 -0.092592503027033771 0.048192070235426029 0 -0.096448850938727154 0.051202519879338555 0 -0.092592503027033771 0.048192070235426029 0 -0.09628007628959831 0.044907889332692415 0 -0.089602062235688937 0.04331259833409163 0 -0.092592503027033771 0.048192070235426029 0 -0.088937538150063 0.047151504837615016 0 -0.089602062235688937 0.04331259833409163 0 -0.092012535638599013 0.053700634144200836 0 -0.088937538150063 0.047151504837615016 0 -0.087668266315096374 0.050129538195479904 0 -0.088937538150063 0.047151504837615016 0 -0.087043669118066019 0.046979110906759922 0 -0.087958905419821973 0.042773580139130365 0 -0.088937538150063 0.047151504837615016 0 -0.087668266315096374 0.050129538195479904 0 -0.087043669118066019 0.046979110906759922 0 -0.087043669118066019 0.046979110906759922 0 -0.085393368623949181 0.05000703749125656 0 -0.08506027584539344 0.046434702037416418 0 -0.089596186817046286 0.056360373815064577 0 -0.085393368623949181 0.05000703749125656 0 -0.08690422444870459 0.055150007388208432 0 -0.088636953592515721 0.053855004527265313 0 -0.086081315277771783 0.052303400128615195 0 -0.087668266315096374 0.050129538195479904 0 -0.087043669118066019 0.046979110906759922 0 -0.085393368623949181 0.05000703749125656 0 -0.085393368623949181 0.05000703749125656 0 -0.08690422444870459 0.055150007388208432 0 -0.085522693148446724 0.053078359544445466 0 -0.08690422444870459 0.055150007388208432 0 -0.086382508468856242 0.056563130660377388 0 -0.085522693148446724 0.053078359544445466 0 -0.086382508468856242 0.056563130660377388 0 -0.086075410185527348 0.055497150198087868 0 -0.085522693148446724 0.053078359544445466 0 -0.086382508468856242 0.056563130660377388 0 -0.086081244755090963 0.057438701066102028 0 -0.086743262714202837 0.059678620376635211 0 -0.086382508468856242 0.056563130660377388 0 -0.086081244755090963 0.057438701066102028 0 -0.086075410185527348 0.055497150198087868 0 -0.086382508468856242 0.056563130660377388 0 -0.087641998922649317 0.058620387597031594 0 -0.086743262714202837 0.059678620376635211 0 -0.08690422444870459 0.055150007388208432 0 -0.086382508468856242 0.056563130660377388 0 -0.087641998922649317 0.058620387597031594 0 -0.089596186817046286 0.056360373815064577 0 -0.08690422444870459 0.055150007388208432 0 -0.087641998922649317 0.058620387597031594 0 -0.089596186817046286 0.056360373815064577 0 -0.087641998922649317 0.058620387597031594 0 -0.089039058010832714 0.062183022428177984 0 -0.087641998922649317 0.058620387597031594 0 -0.087496133471095958 0.062473556232759034 0 -0.089039058010832714 0.062183022428177984 0 -0.087496133471095958 0.062473556232759034 0 -0.089039058010832714 0.062183022428177984 0 -0.08807424350105085 0.065773932845608354 0 -0.089340104076686008 0.066376824947799132 0 -0.089039058010832714 0.062183022428177984 0 -0.08807424350105085 0.065773932845608354 0 -0.087496133471095958 0.062473556232759034 0 -0.08807424350105085 0.065773932845608354 0 -0.086710319177719819 0.064678415476902257 0 -0.087496133471095958 0.062473556232759034 0 -0.086710319177719819 0.064678415476902257 0 -0.086743262714202837 0.059678620376635211 0 -0.086710319177719819 0.064678415476902257 0 -0.085751518324715031 0.06167072913976672 0 -0.086743262714202837 0.059678620376635211 0 -0.086081244755090963 0.057438701066102028 0 -0.085751518324715031 0.06167072913976672 0 -0.086743262714202837 0.059678620376635211 0 -0.087641998922649317 0.058620387597031594 0 -0.087496133471095958 0.062473556232759034 0 -0.086743262714202837 0.059678620376635211 0 -0.088769944682284885 0.055089321107345914 0 -0.087645943071617646 0.054434993599842996 0 -0.085470179249385242 0.056136077066696016 0 -0.086055359634913342 0.062731117403813777 0 -0.086025772167682715 0.060240086951333538 0 -0.082183096837000813 0.068375732702072825 0 -0.085751518324715031 0.06167072913976672 0 -0.085470179249385242 0.056136077066696016 0 -0.087645943071617646 0.054434993599842996 0 -0.086983002816249433 0.054468424429521115 0 -0.085470179249385242 0.056136077066696016 0 -0.086081244755090963 0.057438701066102028 0 -0.085751518324715031 0.06167072913976672 0 -0.085470179249385242 0.056136077066696016 0 -0.087645943071617646 0.054434993599842996 0 -0.08714090522301475 0.053124178027195497 0 -0.086496720474985758 0.053091892699372631 0 -0.087645943071617646 0.054434993599842996 0 -0.08714090522301475 0.053124178027195497 0 -0.086983002816249433 0.054468424429521115 0 -0.08694652778126756 0.053680461126123749 0 -0.0875999515020882 0.05103791197513647 0 -0.086810274409885119 0.050044807989086101 0 -0.08714090522301475 0.053124178027195497 0 -0.08694652778126756 0.053680461126123749 0 -0.086810274409885119 0.050044807989086101 0 -0.08714090522301475 0.053124178027195497 0 -0.086983002816249433 0.054468424429521115 0 -0.08694652778126756 0.053680461126123749 0 -0.08694652778126756 0.053680461126123749 0 -0.086075410185527348 0.055497150198087868 0 -0.0875999515020882 0.05103791197513647 0 -0.086983002816249433 0.054468424429521115 0 -0.08694652778126756 0.053680461126123749 0 -0.085470179249385242 0.056136077066696016 0 -0.08694652778126756 0.053680461126123749 0 -0.085470179249385242 0.056136077066696016 0 -0.086075410185527348 0.055497150198087868 0 -0.086081244755090963 0.057438701066102028 0 -0.085470179249385242 0.056136077066696016 0 -0.086075410185527348 0.055497150198087868 0 -0.086732958303772034 0.049952605874403762 0 -0.086559836167083501 0.047219849714908592 0 -0.085393368623949181 0.05000703749125656 0 -0.085522693148446724 0.053078359544445466 0 -0.082804831237742071 0.048714425646758826 0 -0.086075410185527348 0.055497150198087868 0 -0.090361201004169611 0.046898455970630769 0 -0.0875999515020882 0.05103791197513647 0 -0.086075410185527348 0.055497150198087868 0 -0.085522693148446724 0.053078359544445466 0 -0.082804831237742071 0.048714425646758826 0 -0.085393368623949181 0.05000703749125656 0 -0.082804831237742071 0.048714425646758826 0 -0.08506027584539344 0.046434702037416418 0 -0.090361201004169611 0.046898455970630769 0 -0.087758441819517474 0.046970838729844672 0 -0.089196950671771219 0.04077159348986787 0 -0.090361201004169611 0.046898455970630769 0 -0.087758441819517474 0.046970838729844672 0 -0.0875999515020882 0.05103791197513647 0 -0.087758441819517474 0.046970838729844672 0 -0.0875999515020882 0.05103791197513647 0 -0.086810274409885119 0.050044807989086101 0 -0.086810274409885119 0.050044807989086101 0 -0.086782122890580321 0.044285642421300883 0 -0.084995778735004662 0.045911926845487283 0 -0.087758441819517474 0.046970838729844672 0 -0.086810274409885119 0.050044807989086101 0 -0.086782122890580321 0.044285642421300883 0 -0.084999085500638574 0.055326806658383333 0 -0.084995778735004662 0.045911926845487283 0 -0.086496720474985758 0.053091892699372631 0 -0.086810274409885119 0.050044807989086101 0 -0.084995778735004662 0.045911926845487283 0 -0.086496720474985758 0.053091892699372631 0 -0.08714090522301475 0.053124178027195497 0 -0.086810274409885119 0.050044807989086101 0 -0.086496720474985758 0.053091892699372631 0 -0.05481206471150054 0.082338897600331404 0 -0.054208310073268005 0.082102019624629485 0 -0.054385377235115648 0.081563836239520265 0 -0.082204855293813217 0.07073022547755102 0 -0.080510621077761343 0.070669849134448348 0 -0.082204855293813217 0.07073022547755102 0 -0.085858698230610667 0.073535623444096643 0 -0.055044301709951261 0.083229316756627647 0 -0.061045653752633613 0.083370316818309267 0 -0.058061291204643831 0.081908386084796503 0 -0.11979132198542432 0.071578007545036043 0 -0.11128707559306103 0.069722514914711153 0 -0.11648349459280694 0.067224914496386415 0 -0.11128707559306103 0.069722514914711153 0 -0.11648349459280694 0.067224914496386415 0 -0.11384938769094496 0.062834011538419554 0 -0.11743211583411975 0.063868011865220467 0 -0.11648349459280694 0.067224914496386415 0 -0.11384938769094496 0.062834011538419554 0 -0.11743211583411975 0.063868011865220467 0 -0.11648349459280694 0.067224914496386415 0 -0.12105479450537007 0.064721987230103403 0 -0.11979132198542432 0.071578007545036043 0 -0.11648349459280694 0.067224914496386415 0 -0.12105479450537007 0.064721987230103403 0 -0.082204855293813217 0.07073022547755102 0 -0.084527015849740511 0.070911079629753862 0 -0.054283182977289908 0.082107407681593886 0 -0.05407023234425213 0.082464901011019914 0 -0.054065394053175377 0.082258738857235503 0 -0.05407023234425213 0.082464901011019914 0 -0.053960540993333327 0.082496307554222617 0 -0.053959876532734742 0.082389774652565667 0 -0.053960540993333327 0.082496307554222617 0 -0.053772579943990248 0.08238574306489034 0 -0.053642848119448659 0.082575233519945654 0 -0.053960540993333327 0.082496307554222617 0 -0.053772579943990248 0.08238574306489034 0 -0.053959876532734742 0.082389774652565667 0 -0.053772579943990248 0.08238574306489034 0 -0.053901538606344446 0.082289025118567879 0 -0.053959876532734742 0.082389774652565667 0 -0.053772579943990248 0.08238574306489034 0 -0.053901538606344446 0.082289025118567879 0 -0.05363962209862902 0.082222685566714637 0 -0.053901538606344446 0.082289025118567879 0 -0.053959876532734742 0.082389774652565667 0 -0.054065394053175377 0.082258738857235503 0 -0.05407023234425213 0.082464901011019914 0 -0.053959876532734742 0.082389774652565667 0 -0.054065394053175377 0.082258738857235503 0 -0.0532918654081894 0.08267863139372307 0 -0.053453779414802567 0.082325321637884197 0 -0.053642848119448659 0.082575233519945654 0 -0.053772579943990248 0.08238574306489034 0 -0.053453779414802567 0.082325321637884197 0 -0.053642848119448659 0.082575233519945654 0 -0.053772579943990248 0.08238574306489034 0 -0.053453779414802567 0.082325321637884197 0 -0.05363962209862902 0.082222685566714637 0 -0.053453779414802567 0.082325321637884197 0 -0.05363962209862902 0.082222685566714637 0 -0.05326127021149852 0.081993622841486591 0 -0.05363962209862902 0.082222685566714637 0 -0.05326127021149852 0.081993622841486591 0 -0.053618203244750237 0.082026398748396331 0 -0.05326127021149852 0.081993622841486591 0 -0.053618203244750237 0.082026398748396331 0 -0.053339652088176447 0.081752780750156337 0 -0.054065394053175377 0.082258738857235503 0 -0.053919121842633116 0.08216465560864647 0 -0.054208310073268005 0.082102019624629485 0 -0.054283182977289908 0.082107407681593886 0 -0.054065394053175377 0.082258738857235503 0 -0.054208310073268005 0.082102019624629485 0 -0.053901538606344446 0.082289025118567879 0 -0.054065394053175377 0.082258738857235503 0 -0.053919121842633116 0.08216465560864647 0 -0.053901538606344446 0.082289025118567879 0 -0.05363962209862902 0.082222685566714637 0 -0.053919121842633116 0.08216465560864647 0 -0.05363962209862902 0.082222685566714637 0 -0.053919121842633116 0.08216465560864647 0 -0.053618203244750237 0.082026398748396331 0 -0.053845273237141472 0.081818192747004637 0 -0.053618203244750237 0.082026398748396331 0 -0.053339652088176447 0.081752780750156337 0 -0.053919121842633116 0.08216465560864647 0 -0.053845273237141472 0.081818192747004637 0 -0.053618203244750237 0.082026398748396331 0 -0.053919121842633116 0.08216465560864647 0 -0.053845273237141472 0.081818192747004637 0 -0.054208310073268005 0.082102019624629485 0 -0.053845273237141472 0.081818192747004637 0 -0.054208310073268005 0.082102019624629485 0 -0.054385377235115648 0.081563836239520265 0 -0.053845273237141472 0.081818192747004637 0 -0.054385377235115648 0.081563836239520265 0 -0.053772289763572179 0.08116967515052588 0 -0.053845273237141472 0.081818192747004637 0 -0.053772289763572179 0.08116967515052588 0 -0.053339652088176447 0.081752780750156337 0 -0.054385377235115648 0.081563836239520265 0 -0.053772289763572179 0.08116967515052588 0 -0.055355061059777062 0.080848649319832974 0 -0.052943093360164874 0.081700623832615213 0 -0.05326127021149852 0.081993622841486591 0 -0.053339652088176447 0.081752780750156337 0 -0.053772289763572179 0.08116967515052588 0 -0.053339652088176447 0.081752780750156337 0 -0.052999250386791062 0.08149050919338223 0 -0.052943093360164874 0.081700623832615213 0 -0.053339652088176447 0.081752780750156337 0 -0.052999250386791062 0.08149050919338223 0 -0.053098620651690805 0.081239231120708771 0 -0.052549607008032524 0.081852234547783356 0 -0.052999250386791062 0.08149050919338223 0 -0.052786233255090423 0.081602373815041984 0 -0.052549607008032524 0.081852234547783356 0 -0.052999250386791062 0.08149050919338223 0 -0.053098620651690805 0.081239231120708771 0 -0.053772289763572179 0.08116967515052588 0 -0.052999250386791062 0.08149050919338223 0 -0.053098620651690805 0.081239231120708771 0 -0.053772289763572179 0.08116967515052588 0 -0.055054907395167739 0.079943848320656069 0 -0.055054907395167739 0.079943848320656069 0 -0.055355061059777062 0.080848649319832974 0 -0.057772801912091443 0.079326575110647543 0 -0.053772289763572179 0.08116967515052588 0 -0.055054907395167739 0.079943848320656069 0 -0.055355061059777062 0.080848649319832974 0 -0.082204855293813217 0.07073022547755102 0 -0.078901259525975487 0.075264353751678725 0 -0.05481206471150054 0.082338897600331404 0 -0.054385377235115648 0.081563836239520265 0 -0.055355061059777062 0.080848649319832974 0 -0.055044301709951261 0.083229316756627647 0 -0.058061291204643831 0.081908386084796503 0 -0.055355061059777062 0.080848649319832974 0 -0.058061291204643831 0.081908386084796503 0 -0.057772801912091443 0.079326575110647543 0 -0.064126230254211519 0.077186112791824246 0 -0.058061291204643831 0.081908386084796503 0 -0.055355061059777062 0.080848649319832974 0 -0.057772801912091443 0.079326575110647543 0 -0.057683576890659227 0.077527088191162885 0 -0.055054907395167739 0.079943848320656069 0 -0.057772801912091443 0.079326575110647543 0 -0.057683576890659227 0.077527088191162885 0 -0.057772801912091443 0.079326575110647543 0 -0.064126230254211519 0.077186112791824246 0 -0.063777101383595547 0.074569243926548637 0 -0.057683576890659227 0.077527088191162885 0 -0.064126230254211519 0.077186112791824246 0 -0.063777101383595547 0.074569243926548637 0 -0.064126230254211519 0.077186112791824246 0 -0.069462061715019285 0.074494359880184408 0 -0.07114061522015791 0.074703805282530983 0 -0.075420588066380106 0.075316175683948328 0 -0.064126230254211519 0.077186112791824246 0 -0.074313398270201086 0.075478282252196008 0 -0.067757616607404828 0.079145261598425387 0 -0.064126230254211519 0.077186112791824246 0 -0.069462061715019285 0.074494359880184408 0 -0.073830306097207435 0.078055819049859532 0 -0.061045653752633613 0.083370316818309267 0 -0.058061291204643831 0.081908386084796503 0 -0.064126230254211519 0.077186112791824246 0 -0.061045653752633613 0.083370316818309267 0 -0.064126230254211519 0.077186112791824246 0 -0.067757616607404828 0.079145261598425387 0 -0.072316693020836806 0.071791665583063421 0 -0.077905973407301071 0.069152372732455211 0 -0.075919450203558045 0.073303057502748473 0 -0.080489216124387822 0.071679668564372787 0 -0.075919450203558045 0.073303057502748473 0 -0.080880648416213424 0.073867446488128777 0 -0.077905973407301071 0.069152372732455211 0 -0.080489216124387822 0.071679668564372787 0 -0.075919450203558045 0.073303057502748473 0 -0.069462061715019285 0.074494359880184408 0 -0.075919450203558045 0.073303057502748473 0 -0.073830306097207435 0.078055819049859532 0 -0.072316693020836806 0.071791665583063421 0 -0.069462061715019285 0.074494359880184408 0 -0.075919450203558045 0.073303057502748473 0 -0.075919450203558045 0.073303057502748473 0 -0.073830306097207435 0.078055819049859532 0 -0.080880648416213424 0.073867446488128777 0 -0.073830306097207435 0.078055819049859532 0 -0.080982717720331193 0.07528637248276733 0 -0.080880648416213424 0.073867446488128777 0 -0.085438891372483963 0.07461119048769134 0 -0.07610048046658649 0.078659607420920069 0 -0.081725946563720286 0.079299227016598389 0 -0.081684714404490766 0.075461822508261236 0 -0.075420588066380106 0.075316175683948328 0 -0.082936650960791225 0.076044886775184353 0 -0.073830306097207435 0.078055819049859532 0 -0.080982717720331193 0.07528637248276733 0 -0.085438891372483963 0.07461119048769134 0 -0.074313398270201086 0.075478282252196008 0 -0.07610048046658649 0.078659607420920069 0 -0.074313398270201086 0.075478282252196008 0 -0.07610048046658649 0.078659607420920069 0 -0.067757616607404828 0.079145261598425387 0 -0.07610048046658649 0.078659607420920069 0 -0.081725946563720286 0.079299227016598389 0 -0.069913612771786204 0.082894829929885533 0 -0.086866039754141589 0.072994610224527773 0 -0.086426797647417633 0.073751762379217309 0 -0.10143699859183454 0.066153190044920929 0 -0.098411938688829942 0.068031988169619348 0 -0.10373732471016764 0.067960286374801657 0 -0.085858698230610667 0.073535623444096643 0 -0.086426797647417633 0.073751762379217309 0 -0.061045653752633613 0.083370316818309267 0 -0.067757616607404828 0.079145261598425387 0 -0.069913612771786204 0.082894829929885533 0 -0.07610048046658649 0.078659607420920069 0 -0.067757616607404828 0.079145261598425387 0 -0.069913612771786204 0.082894829929885533 0 -0.10143699859183454 0.066153190044920929 0 -0.10373732471016764 0.067960286374801657 0 -0.10640600419709785 0.063506370655369182 0 -0.11128707559306103 0.069722514914711153 0 -0.10373732471016764 0.067960286374801657 0 -0.10640600419709785 0.063506370655369182 0 -0.11128707559306103 0.069722514914711153 0 -0.10640600419709785 0.063506370655369182 0 -0.11384938769094496 0.062834011538419554 0 -0.10640600419709785 0.063506370655369182 0 -0.11044257129569762 0.058304679500354381 0 -0.11384938769094496 0.062834011538419554 0 -0.10640600419709785 0.063506370655369182 0 -0.10503467248498265 0.056438935718757563 0 -0.11044257129569762 0.058304679500354381 0 -0.10640600419709785 0.063506370655369182 0 -0.10503467248498265 0.056438935718757563 0 -0.098029617775356903 0.058042226738582108 0 -0.10349929936219261 0.061718370311805881 0 -0.099778868959693387 0.06000075106359283 0 -0.10503467248498265 0.056438935718757563 0 -0.10048897922953616 0.053159320559814253 0 -0.10339993688119925 0.050292141242331098 0 -0.10503467248498265 0.056438935718757563 0 -0.11044257129569762 0.058304679500354381 0 -0.11014471022147423 0.052860659543855257 0 -0.10503467248498265 0.056438935718757563 0 -0.11014471022147423 0.052860659543855257 0 -0.10339993688119925 0.050292141242331098 0 -0.095461678480368142 0.065117222151751877 0 -0.094249895888028776 0.060620628637406845 0 -0.10066607658338729 0.063161796093841524 0 -0.095461678480368142 0.065117222151751877 0 -0.098411938688829942 0.068031988169619348 0 -0.10066607658338729 0.063161796093841524 0 -0.10143699859183454 0.066153190044920929 0 -0.098411938688829942 0.068031988169619348 0 -0.10066607658338729 0.063161796093841524 0 -0.10143699859183454 0.066153190044920929 0 -0.10640600419709785 0.063506370655369182 0 -0.10066607658338729 0.063161796093841524 0 -0.098029617775356903 0.058042226738582108 0 -0.10048897922953616 0.053159320559814253 0 -0.096448850938727154 0.051202519879338555 0 -0.10503467248498265 0.056438935718757563 0 -0.098029617775356903 0.058042226738582108 0 -0.10048897922953616 0.053159320559814253 0 -0.092012535638599013 0.053700634144200836 0 -0.098029617775356903 0.058042226738582108 0 -0.096448850938727154 0.051202519879338555 0 -0.093804846047089524 0.05689766207453209 0 -0.099778868959693387 0.06000075106359283 0 -0.10048897922953616 0.053159320559814253 0 -0.096448850938727154 0.051202519879338555 0 -0.099901499017543444 0.049237131134086634 0 -0.10048897922953616 0.053159320559814253 0 -0.099901499017543444 0.049237131134086634 0 -0.10339993688119925 0.050292141242331098 0 -0.099901499017543444 0.049237131134086634 0 -0.10247037778177387 0.047009999285102133 0 -0.09628007628959831 0.044907889332692415 0 -0.091674284558965466 0.044400802218995956 0 -0.090638202331379342 0.043522268530977563 0 -0.092592503027033771 0.048192070235426029 0 -0.096448850938727154 0.051202519879338555 0 -0.09628007628959831 0.044907889332692415 0 -0.096448850938727154 0.051202519879338555 0 -0.099901499017543444 0.049237131134086634 0 -0.09628007628959831 0.044907889332692415 0 -0.10324161607512621 0.058999885769454578 0 -0.10298604408688464 0.057571711703763746 0 -0.10497014918922212 0.050332585814220301 0 -0.10339993688119925 0.050292141242331098 0 -0.10538439219170714 0.048945505223077786 0 -0.099901499017543444 0.049237131134086634 0 -0.10339993688119925 0.050292141242331098 0 -0.10247037778177387 0.047009999285102133 0 -0.10339993688119925 0.050292141242331098 0 -0.10247037778177387 0.047009999285102133 0 -0.10538439219170714 0.048945505223077786 0 -0.083179145969136351 0.038800812094926737 0 -0.080662910212177211 0.0383013622755446 0 -0.081875934641226361 0.039914668575881475 0 -0.091674284558965466 0.044400802218995956 0 -0.091477243842537151 0.046074335505385783 0 -0.10538439219170714 0.048945505223077786 0 -0.10568576789149926 0.049841983786196066 0 -0.10561468921519254 0.049885279897683432 0 -0.080662910212177211 0.0383013622755446 0 -0.078619676444028813 0.038049882928367529 0 -0.079266958513359978 0.03915703156985291 0 -0.091477243842537151 0.046074335505385783 0 -0.08862445577195531 0.049011160338932866 0 -0.078619676444028813 0.038049882928367529 0 -0.077951257628531251 0.039177468084064505 0 -0.079266958513359978 0.03915703156985291 0 -0.10568576789149926 0.049841983786196066 0 -0.10564884722566877 0.049940103612115878 0 -0.10557275129230043 0.049987076055920149 0 -0.10568576789149926 0.049841983786196066 0 -0.10564884722566877 0.049940103612115878 0 -0.10561468921519254 0.049885279897683432 0 -0.10563943813581433 0.050028207919379938 0 -0.10561468921519254 0.049885279897683432 0 -0.10556419628269735 0.050177036932455323 0 -0.10564884722566877 0.049940103612115878 0 -0.10563943813581433 0.050028207919379938 0 -0.10561468921519254 0.049885279897683432 0 -0.10564884722566877 0.049940103612115878 0 -0.10563943813581433 0.050028207919379938 0 -0.10563341484511224 0.050018176126777919 0 -0.10497014918922212 0.050332585814220301 0 -0.10538439219170714 0.048945505223077786 0 -0.10561468921519254 0.049885279897683432 0 -0.10497014918922212 0.050332585814220301 0 -0.10561468921519254 0.049885279897683432 0 -0.10556419628269735 0.050177036932455323 0 -0.10324161607512621 0.058999885769454578 0 -0.10053862072812608 0.062528613210610484 0 -0.11044257129569762 0.058304679500354381 0 -0.11014471022147423 0.052860659543855257 0 -0.11630397993475707 0.05545137258383058 0 -0.11630397993475707 0.05545137258383058 0 -0.11836097785904945 0.06067591533174415 0 -0.12229828837348861 0.057807119442786159 0 -0.10563943813581433 0.050028207919379938 0 -0.10556419628269735 0.050177036932455323 0 -0.10566152543325148 0.05010035831014864 0 -0.10053862072812608 0.062528613210610484 0 -0.086166996047606123 0.06659204559023936 0 -0.10563943813581433 0.050028207919379938 0 -0.10566152543325148 0.05010035831014864 0 -0.10563341484511224 0.050018176126777919 0 -0.12105479450537007 0.064721987230103403 0 -0.11836097785904945 0.06067591533174415 0 -0.12229828837348861 0.057807119442786159 0 -0.11743211583411975 0.063868011865220467 0 -0.12105479450537007 0.064721987230103403 0 -0.11836097785904945 0.06067591533174415 0 -0.11743211583411975 0.063868011865220467 0 -0.11836097785904945 0.06067591533174415 0 -0.11384938769094496 0.062834011538419554 0 -0.11630397993475707 0.05545137258383058 0 -0.11836097785904945 0.06067591533174415 0 -0.11384938769094496 0.062834011538419554 0 -0.11044257129569762 0.058304679500354381 0 -0.11630397993475707 0.05545137258383058 0 -0.11384938769094496 0.062834011538419554 0 -0.0532918654081894 0.08267863139372307 0 -0.053642848119448659 0.082575233519945654 0 -0.053843254180766326 0.082892658770989003 0 -0.065342123841683836 0.069721628281376277 0 -0.077420503925325179 0.06737192780439151 0 -0.053960540993333327 0.082496307554222617 0 -0.054051474831408257 0.082472904311395354 0 -0.054065053331820254 0.082485466135781282 0 -0.074139115029858024 0.073103854779432514 0 -0.077420503925325179 0.06737192780439151 0 -0.053960540993333327 0.082496307554222617 0 -0.053642848119448659 0.082575233519945654 0 -0.053843254180766326 0.082892658770989003 0 -0.084527015849740511 0.070911079629753862 0 -0.086166996047606123 0.06659204559023936 0 -0.05407023234425213 0.082464901011019914 0 -0.053960540993333327 0.082496307554222617 0 -0.054065053331820254 0.082485466135781282 0 -0.077420503925325179 0.06737192780439151 0 -0.077183057007511019 0.063691754271955461 0 -0.077420503925325179 0.06737192780439151 0 -0.086166996047606123 0.06659204559023936 0 -0.10566152543325148 0.05010035831014864 0 -0.10563341484511224 0.050018176126777919 0 -0.10557275129230043 0.049987076055920149 0 -0.10527395657632853 0.050762097802661277 0 -0.1057854071737903 0.050475578377428346 0 -0.10555587507852728 0.050116259517430269 0 -0.10564249561614604 0.050927801503545513 0 -0.10527395657632853 0.050762097802661277 0 -0.1057854071737903 0.050475578377428346 0 -0.086166996047606123 0.06659204559023936 0 -0.090565255254070512 0.057364275160956581 0 -0.077183057007511019 0.063691754271955461 0 -0.079956032428003865 0.063929636599062242 0 -0.065342123841683836 0.069721628281376277 0 -0.077183057007511019 0.063691754271955461 0 -0.071153233280086367 0.067718835672467989 0 -0.073947078505598743 0.068724955984572358 0 -0.073543454375489731 0.070285679588840466 0 -0.059167512742746814 0.070176777023197731 0 -0.058973542608748424 0.070918434425881624 0 -0.059935749043899721 0.070964272232009185 0 -0.077183057007511019 0.063691754271955461 0 -0.076305902120633234 0.053874210329045075 0 -0.058973542608748424 0.070918434425881624 0 -0.059935749043899721 0.070964272232009185 0 -0.059743879743294856 0.071689063276176856 0 -0.10568576789149926 0.049841983786196066 0 -0.10549952121360857 0.050080003744888142 0 -0.10557275129230043 0.049987076055920149 0 -0.10548995367713712 0.050103402896971856 0 -0.10549952121360857 0.050080003744888142 0 -0.10555587507852728 0.050116259517430269 0 -0.08862445577195531 0.049011160338932866 0 -0.076305902120633234 0.053874210329045075 0 -0.10527395657632853 0.050762097802661277 0 -0.10555587507852728 0.050116259517430269 0 -0.10557275129230043 0.049987076055920149 0 -0.10564884722566877 0.049940103612115878 0 -0.10563341484511224 0.050018176126777919 0 -0.10557275129230043 0.049987076055920149 0 -0.10549952121360857 0.050080003744888142 0 -0.10555587507852728 0.050116259517430269 0 -0.10557275129230043 0.049987076055920149 0 -0.078619676444028813 0.038049882928367529 0 -0.076797058661503742 0.037801396892187512 0 -0.077951257628531251 0.039177468084064505 0 -0.076305902120633234 0.053874210329045075 0 -0.077370377370476917 0.042870793543259719 0 -0.076797058661503742 0.037801396892187512 0 -0.076335093371750123 0.039658246794369967 0 -0.077951257628531251 0.039177468084064505 0 -0.075817186974362807 0.040531177427960557 0 -0.076217362415071502 0.040299510992117711 0 -0.076046076023268405 0.04093142872307344 0 -0.076335093371750123 0.039658246794369967 0 -0.077951257628531251 0.039177468084064505 0 -0.077882822185971312 0.040269442605228731 0 -0.077882822185971312 0.040269442605228731 0 -0.077199933665343112 0.041149370693421339 0 -0.078556530626519475 0.041193298098699996 0 -0.076335093371750123 0.039658246794369967 0 -0.077882822185971312 0.040269442605228731 0 -0.077199933665343112 0.041149370693421339 0 -0.076335093371750123 0.039658246794369967 0 -0.077199933665343112 0.041149370693421339 0 -0.075943200296357871 0.041466360242447702 0 -0.077199933665343112 0.041149370693421339 0 -0.076712425440533985 0.042067739464277235 0 -0.075943200296357871 0.041466360242447702 0 -0.077199933665343112 0.041149370693421339 0 -0.077871927622628095 0.041802325145778703 0 -0.076712425440533985 0.042067739464277235 0 -0.077199933665343112 0.041149370693421339 0 -0.077871927622628095 0.041802325145778703 0 -0.078556530626519475 0.041193298098699996 0 -0.077871927622628095 0.041802325145778703 0 -0.076712425440533985 0.042067739464277235 0 -0.078239939508283077 0.042570491712006851 0 -0.076712425440533985 0.042067739464277235 0 -0.075943200296357871 0.041466360242447702 0 -0.075845491633423454 0.042063230292285099 0 -0.076712425440533985 0.042067739464277235 0 -0.075845491633423454 0.042063230292285099 0 -0.075722228872546135 0.042438540666023282 0 -0.079767872251871888 0.042658807408494349 0 -0.078848847310084638 0.041985809451283954 0 -0.079880253979891819 0.041418255260624995 0 -0.077871927622628095 0.041802325145778703 0 -0.078848847310084638 0.041985809451283954 0 -0.078239939508283077 0.042570491712006851 0 -0.079767872251871888 0.042658807408494349 0 -0.078848847310084638 0.041985809451283954 0 -0.078239939508283077 0.042570491712006851 0 -0.078848847310084638 0.041985809451283954 0 -0.078556530626519475 0.041193298098699996 0 -0.079880253979891819 0.041418255260624995 0 -0.077871927622628095 0.041802325145778703 0 -0.078848847310084638 0.041985809451283954 0 -0.078556530626519475 0.041193298098699996 0 -0.079767872251871888 0.042658807408494349 0 -0.079880253979891819 0.041418255260624995 0 -0.081309940417418333 0.042261193311609879 0 -0.079880253979891819 0.041418255260624995 0 -0.07892399336213124 0.0401847286176861 0 -0.080337721170765805 0.040055185222973598 0 -0.079880253979891819 0.041418255260624995 0 -0.080337721170765805 0.040055185222973598 0 -0.081543020710636072 0.041215399647971551 0 -0.078556530626519475 0.041193298098699996 0 -0.079880253979891819 0.041418255260624995 0 -0.07892399336213124 0.0401847286176861 0 -0.077882822185971312 0.040269442605228731 0 -0.078556530626519475 0.041193298098699996 0 -0.07892399336213124 0.0401847286176861 0 -0.077951257628531251 0.039177468084064505 0 -0.07892399336213124 0.0401847286176861 0 -0.079266958513359978 0.03915703156985291 0 -0.077951257628531251 0.039177468084064505 0 -0.077882822185971312 0.040269442605228731 0 -0.07892399336213124 0.0401847286176861 0 -0.07892399336213124 0.0401847286176861 0 -0.079266958513359978 0.03915703156985291 0 -0.080337721170765805 0.040055185222973598 0 -0.080662910212177211 0.0383013622755446 0 -0.079266958513359978 0.03915703156985291 0 -0.080337721170765805 0.040055185222973598 0 -0.080662910212177211 0.0383013622755446 0 -0.080337721170765805 0.040055185222973598 0 -0.081875934641226361 0.039914668575881475 0 -0.083179145969136351 0.038800812094926737 0 -0.081875934641226361 0.039914668575881475 0 -0.08398865036232471 0.041201783276664475 0 -0.081875934641226361 0.039914668575881475 0 -0.081543020710636072 0.041215399647971551 0 -0.08398865036232471 0.041201783276664475 0 -0.081543020710636072 0.041215399647971551 0 -0.08398865036232471 0.041201783276664475 0 -0.082784984925320992 0.042097069633610262 0 -0.080337721170765805 0.040055185222973598 0 -0.081875934641226361 0.039914668575881475 0 -0.081543020710636072 0.041215399647971551 0 -0.086254792956284895 0.040031057386027712 0 -0.08398865036232471 0.041201783276664475 0 -0.086822553621071497 0.042110608979877444 0 -0.083179145969136351 0.038800812094926737 0 -0.086254792956284895 0.040031057386027712 0 -0.08398865036232471 0.041201783276664475 0 -0.086822553621071497 0.042110608979877444 0 -0.085845418267759391 0.043354774069352182 0 -0.088617962924147045 0.042821998797826187 0 -0.08398865036232471 0.041201783276664475 0 -0.086822553621071497 0.042110608979877444 0 -0.085845418267759391 0.043354774069352182 0 -0.08398865036232471 0.041201783276664475 0 -0.085845418267759391 0.043354774069352182 0 -0.082784984925320992 0.042097069633610262 0 -0.085845418267759391 0.043354774069352182 0 -0.082784984925320992 0.042097069633610262 0 -0.082911101009239013 0.042838554513159884 0 -0.085672753602000454 0.04105577715132256 0 -0.082911101009239013 0.042838554513159884 0 -0.084921500285873655 0.043698477796483982 0 -0.086030282397851376 0.042354520150357053 0 -0.085061743097882461 0.042669908288755054 0 -0.085672753602000454 0.04105577715132256 0 -0.08631104407236069 0.042186865171738766 0 -0.084921500285873655 0.043698477796483982 0 -0.081543020710636072 0.041215399647971551 0 -0.081309940417418333 0.042261193311609879 0 -0.082784984925320992 0.042097069633610262 0 -0.079880253979891819 0.041418255260624995 0 -0.081543020710636072 0.041215399647971551 0 -0.081309940417418333 0.042261193311609879 0 -0.081309940417418333 0.042261193311609879 0 -0.082784984925320992 0.042097069633610262 0 -0.082911101009239013 0.042838554513159884 0 -0.081309940417418333 0.042261193311609879 0 -0.082911101009239013 0.042838554513159884 0 -0.081017882468360822 0.043279032521457129 0 -0.079767872251871888 0.042658807408494349 0 -0.081309940417418333 0.042261193311609879 0 -0.081017882468360822 0.043279032521457129 0 -0.081017882468360822 0.043279032521457129 0 -0.081967634965479569 0.043885416341894197 0 -0.081308973488056199 0.044411619137371718 0 -0.082911101009239013 0.042838554513159884 0 -0.081017882468360822 0.043279032521457129 0 -0.081967634965479569 0.043885416341894197 0 -0.079112614802562042 0.044326927783142483 0 -0.078900876197790293 0.044206384002637954 0 -0.081967634965479569 0.043885416341894197 0 -0.081308973488056199 0.044411619137371718 0 -0.08166493056436798 0.043757918410625506 0 -0.081017882468360822 0.043279032521457129 0 -0.081308973488056199 0.044411619137371718 0 -0.079486173967908372 0.043494730307040978 0 -0.081168579790199438 0.044294145479695402 0 -0.079294438674493456 0.044261486551226026 0 -0.079963904570320959 0.043769853948031297 0 -0.081168579790199438 0.044294145479695402 0 -0.08166493056436798 0.043757918410625506 0 -0.079963904570320959 0.043769853948031297 0 -0.082646684983497323 0.042707120556805096 0 -0.082815076170782848 0.04179567012107243 0 -0.08631104407236069 0.042186865171738766 0 -0.084921500285873655 0.043698477796483982 0 -0.087218093278574507 0.042451940706504127 0 -0.081967634965479569 0.043885416341894197 0 -0.081168579790199438 0.044294145479695402 0 -0.08166493056436798 0.043757918410625506 0 -0.082383448477117968 0.042989491951319445 0 -0.082646684983497323 0.042707120556805096 0 -0.082911101009239013 0.042838554513159884 0 -0.081967634965479569 0.043885416341894197 0 -0.084921500285873655 0.043698477796483982 0 -0.076360366155339685 0.044489830176696325 0 -0.076803519081536029 0.04441579958344944 0 -0.076547536169000716 0.044563169094677467 0 -0.078900876197790293 0.044206384002637954 0 -0.078535278069427325 0.044145807226080379 0 -0.076360366155339685 0.044489830176696325 0 -0.076803519081536029 0.04441579958344944 0 -0.077112503805869814 0.043957696604337487 0 -0.076803519081536029 0.04441579958344944 0 -0.076968751193197543 0.044675999200411452 0 -0.076547536169000716 0.044563169094677467 0 -0.076360366155339685 0.044489830176696325 0 -0.076547536169000716 0.044563169094677467 0 -0.076176101056071907 0.04452838248590163 0 -0.076547536169000716 0.044563169094677467 0 -0.076176101056071907 0.04452838248590163 0 -0.076708542962422327 0.045267279289795286 0 -0.07783153203278699 0.042137004457362306 0 -0.077916185569034513 0.040699456774153639 0 -0.076176101056071907 0.04452838248590163 0 -0.074449611122794621 0.042958825048892049 0 -0.075866099387492253 0.042436090169633497 0 -0.07716707765528931 0.045031075961285361 0 -0.077154869404306076 0.045327358283464618 0 -0.076708542962422327 0.045267279289795286 0 -0.076968751193197543 0.044675999200411452 0 -0.076547536169000716 0.044563169094677467 0 -0.076708542962422327 0.045267279289795286 0 -0.076968751193197543 0.044675999200411452 0 -0.07716707765528931 0.045031075961285361 0 -0.076708542962422327 0.045267279289795286 0 -0.077004828828548061 0.044991896329470801 0 -0.077027884848418049 0.044123611341892612 0 -0.078972422570250597 0.044521331303776369 0 -0.079112614802562042 0.044326927783142483 0 -0.079161403261389332 0.044361188973956113 0 -0.077004828828548061 0.044991896329470801 0 -0.076176101056071907 0.04452838248590163 0 -0.077027884848418049 0.044123611341892612 0 -0.077004828828548061 0.044991896329470801 0 -0.076360366155339685 0.044489830176696325 0 -0.076176101056071907 0.04452838248590163 0 -0.077027884848418049 0.044123611341892612 0 -0.077537357025058262 0.043213734593238087 0 -0.075866099387492253 0.042436090169633497 0 -0.076176101056071907 0.04452838248590163 0 -0.077027884848418049 0.044123611341892612 0 -0.075866099387492253 0.042436090169633497 0 -0.077027884848418049 0.044123611341892612 0 -0.078972422570250597 0.044521331303776369 0 -0.077537357025058262 0.043213734593238087 0 -0.078972422570250597 0.044521331303776369 0 -0.078781359735805717 0.044095142072422121 0 -0.078617562840017377 0.043244811084503065 0 -0.078972422570250597 0.044521331303776369 0 -0.078617562840017377 0.043244811084503065 0 -0.077537357025058262 0.043213734593238087 0 -0.078972422570250597 0.044521331303776369 0 -0.078283928840535047 0.04404172357725393 0 -0.078191214778471699 0.043398505936933687 0 -0.078972422570250597 0.044521331303776369 0 -0.078781359735805717 0.044095142072422121 0 -0.078283928840535047 0.04404172357725393 0 -0.078501617564116832 0.044138874684693678 0 -0.078781359735805717 0.044095142072422121 0 -0.078283928840535047 0.04404172357725393 0 -0.078501617564116832 0.044138874684693678 0 -0.078781359735805717 0.044095142072422121 0 -0.079309637026818036 0.043361846671207439 0 -0.071586444797074419 0.039808204120142014 0 -0.071345965008669895 0.040043859423328734 0 -0.069167438390417807 0.037624669313540617 0 -0.078501617564116832 0.044138874684693678 0 -0.077709667051011691 0.044496905901880941 0 -0.079309637026818036 0.043361846671207439 0 -0.07449431652397602 0.041171317973602496 0 -0.074004391114862747 0.039854712215206124 0 -0.072167044805184169 0.038887660446515329 0 -0.073026307226182599 0.038033348475158747 0 -0.071586444797074419 0.039808204120142014 0 -0.074211977660180201 0.038428258002883298 0 -0.074643028198208977 0.040473591122219092 0 -0.071586444797074419 0.039808204120142014 0 -0.075258900206879434 0.042765918413273631 0 -0.074643028198208977 0.040473591122219092 0 -0.071586444797074419 0.039808204120142014 0 -0.071345965008669895 0.040043859423328734 0 -0.075258900206879434 0.042765918413273631 0 -0.07449431652397602 0.041171317973602496 0 -0.074743566761976812 0.041687046540244639 0 -0.077709667051011691 0.044496905901880941 0 -0.078283928840535047 0.04404172357725393 0 -0.075258900206879434 0.042765918413273631 0 -0.078501617564116832 0.044138874684693678 0 -0.077709667051011691 0.044496905901880941 0 -0.078283928840535047 0.04404172357725393 0 -0.078283928840535047 0.04404172357725393 0 -0.075258900206879434 0.042765918413273631 0 -0.078191214778471699 0.043398505936933687 0 -0.075258900206879434 0.042765918413273631 0 -0.076704687584900302 0.042582113192459997 0 -0.078191214778471699 0.043398505936933687 0 -0.075258900206879434 0.042765918413273631 0 -0.076704687584900302 0.042582113192459997 0 -0.075722228872546135 0.042438540666023282 0 -0.076712425440533985 0.042067739464277235 0 -0.076704687584900302 0.042582113192459997 0 -0.075722228872546135 0.042438540666023282 0 -0.076712425440533985 0.042067739464277235 0 -0.076704687584900302 0.042582113192459997 0 -0.078239939508283077 0.042570491712006851 0 -0.076704687584900302 0.042582113192459997 0 -0.078239939508283077 0.042570491712006851 0 -0.078191214778471699 0.043398505936933687 0 -0.078239939508283077 0.042570491712006851 0 -0.079486173967908372 0.043494730307040978 0 -0.078191214778471699 0.043398505936933687 0 -0.079767872251871888 0.042658807408494349 0 -0.081017882468360822 0.043279032521457129 0 -0.079486173967908372 0.043494730307040978 0 -0.079767872251871888 0.042658807408494349 0 -0.078239939508283077 0.042570491712006851 0 -0.079486173967908372 0.043494730307040978 0 -0.078972422570250597 0.044521331303776369 0 -0.079486173967908372 0.043494730307040978 0 -0.078191214778471699 0.043398505936933687 0 -0.081308973488056199 0.044411619137371718 0 -0.078972422570250597 0.044521331303776369 0 -0.079486173967908372 0.043494730307040978 0 -0.084995778735004662 0.045911926845487283 0 -0.084998490168386454 0.033736923817650998 0 -0.086766571686536925 0.039378038098060821 0 -0.085000849958315736 0.033730428725312657 0 -0.086114081272033557 0.034596311731256733 0 -0.085000048081424515 0.033727266753367409 0 -0.088121510939241712 0.032573462039314299 0 -0.086645868698363659 0.031421637282642613 0 -0.086400345220661492 0.036468906029036109 0 -0.086766571686536925 0.039378038098060821 0 -0.086675962291706765 0.038540786081258653 0 -0.084998490168386454 0.033736923817650998 0 -0.086400345220661492 0.036468906029036109 0 -0.086766571686536925 0.039378038098060821 0 -0.086782122890580321 0.044285642421300883 0 -0.084995778735004662 0.045911926845487283 0 -0.086766571686536925 0.039378038098060821 0 -0.086782122890580321 0.044285642421300883 0 -0.086766571686536925 0.039378038098060821 0 -0.089196950671771219 0.04077159348986787 0 -0.086766571686536925 0.039378038098060821 0 -0.089196950671771219 0.04077159348986787 0 -0.086675962291706765 0.038540786081258653 0 -0.086371990149731348 0.043508391473457794 0 -0.086273991071353764 0.041705662421644793 0 -0.087758441819517474 0.046970838729844672 0 -0.086782122890580321 0.044285642421300883 0 -0.089196950671771219 0.04077159348986787 0 -0.082804831237742071 0.048714425646758826 0 -0.08506027584539344 0.046434702037416418 0 -0.083756246617838509 0.042692339286177355 0 -0.086559836167083501 0.047219849714908592 0 -0.086371990149731348 0.043508391473457794 0 -0.08506027584539344 0.046434702037416418 0 -0.083756246617838509 0.042692339286177355 0 -0.086231110377247386 0.044426705217541752 0 -0.083756246617838509 0.042692339286177355 0 -0.086029676023993112 0.040174390270890398 0 -0.08649159422922896 0.042025967782171748 0 -0.083756246617838509 0.042692339286177355 0 -0.08649159422922896 0.042025967782171748 0 -0.086231110377247386 0.044426705217541752 0 -0.086435056668752799 0.040119095543749345 0 -0.086029676023993112 0.040174390270890398 0 -0.086687424615940409 0.040726443924126006 0 -0.086435056668752799 0.040119095543749345 0 -0.086384029962233683 0.039624719685361534 0 -0.086643100328639658 0.040050632071362072 0 -0.086435056668752799 0.040119095543749345 0 -0.086029676023993112 0.040174390270890398 0 -0.086384029962233683 0.039624719685361534 0 -0.086029676023993112 0.040174390270890398 0 -0.086384029962233683 0.039624719685361534 0 -0.086417292540586263 0.039180638363544483 0 -0.086029676023993112 0.040174390270890398 0 -0.086675962291706765 0.038540786081258653 0 -0.086417292540586263 0.039180638363544483 0 -0.083756246617838509 0.042692339286177355 0 -0.086029676023993112 0.040174390270890398 0 -0.086675962291706765 0.038540786081258653 0 -0.086400345220661492 0.036468906029036109 0 -0.086675962291706765 0.038540786081258653 0 -0.086524170257917365 0.038834391798078655 0 -0.086114081272033557 0.034596311731256733 0 -0.087096801395922491 0.035457426771621642 0 -0.088121510939241712 0.032573462039314299 0 -0.090078424253599298 0.031592696900815342 0 -0.090574798953167529 0.031783801308524311 0 -0.086675962291706765 0.038540786081258653 0 -0.086524170257917365 0.038834391798078655 0 -0.086417292540586263 0.039180638363544483 0 -0.090078424253599298 0.031592696900815342 0 -0.090574798953167529 0.031783801308524311 0 -0.090591953043384479 0.031120344385169071 0 -0.090574798953167529 0.031783801308524311 0 -0.090591953043384479 0.031120344385169071 0 -0.091469566538215474 0.031079306559560652 0 -0.086524170257917365 0.038834391798078655 0 -0.086522506596477353 0.039443170914774367 0 -0.086627010805828186 0.039889148924570988 0 -0.087096801395922491 0.035457426771621642 0 -0.086192513841938531 0.03658069505585345 0 -0.090574798953167529 0.031783801308524311 0 -0.091469566538215474 0.031079306559560652 0 -0.093402100751829142 0.031311152585685689 0 -0.086600487089951925 0.039768687773580128 0 -0.086522506596477353 0.039443170914774367 0 -0.086626828023562016 0.039842569169912197 0 -0.086522506596477353 0.039443170914774367 0 -0.086626828023562016 0.039842569169912197 0 -0.086627010805828186 0.039889148924570988 0 -0.086600487089951925 0.039768687773580128 0 -0.086545885913711124 0.039713209385671105 0 -0.086522506596477353 0.039443170914774367 0 -0.086545885913711124 0.039713209385671105 0 -0.086384029962233683 0.039624719685361534 0 -0.086522506596477353 0.039443170914774367 0 -0.086545885913711124 0.039713209385671105 0 -0.086384029962233683 0.039624719685361534 0 -0.086643100328639658 0.040050632071362072 0 -0.086600487089951925 0.039768687773580128 0 -0.086545885913711124 0.039713209385671105 0 -0.086686229955260388 0.039950136688551241 0 -0.086384029962233683 0.039624719685361534 0 -0.086417292540586263 0.039180638363544483 0 -0.086522506596477353 0.039443170914774367 0 -0.086524170257917365 0.038834391798078655 0 -0.086417292540586263 0.039180638363544483 0 -0.086522506596477353 0.039443170914774367 0 -0.08672272657298713 0.039808493278630779 0 -0.087174741789503685 0.04041349836044103 0 -0.087676981613828642 0.040952906451706836 0 -0.086192513841938531 0.03658069505585345 0 -0.083153318617602653 0.040023233278488161 0 -0.087035729652943816 0.040343793215766005 0 -0.087174741789503685 0.04041349836044103 0 -0.087302583564190961 0.040628051571121364 0 -0.087035729652943816 0.040343793215766005 0 -0.087302583564190961 0.040628051571121364 0 -0.08700693238313173 0.040477294733085201 0 -0.087035729652943816 0.040343793215766005 0 -0.08683966346050459 0.04016434806665313 0 -0.08700693238313173 0.040477294733085201 0 -0.086643100328639658 0.040050632071362072 0 -0.08683966346050459 0.04016434806665313 0 -0.08700693238313173 0.040477294733085201 0 -0.086545885913711124 0.039713209385671105 0 -0.086643100328639658 0.040050632071362072 0 -0.086686229955260388 0.039950136688551241 0 -0.086643100328639658 0.040050632071362072 0 -0.086686229955260388 0.039950136688551241 0 -0.08683966346050459 0.04016434806665313 0 -0.086686229955260388 0.039950136688551241 0 -0.08683966346050459 0.04016434806665313 0 -0.086831097872937857 0.04002264018997799 0 -0.087035729652943816 0.040343793215766005 0 -0.08683966346050459 0.04016434806665313 0 -0.086831097872937857 0.04002264018997799 0 -0.086831097872937857 0.04002264018997799 0 -0.08672272657298713 0.039808493278630779 0 -0.087174741789503685 0.04041349836044103 0 -0.086600487089951925 0.039768687773580128 0 -0.086686229955260388 0.039950136688551241 0 -0.08668644894575557 0.039907884706309328 0 -0.086600487089951925 0.039768687773580128 0 -0.08668644894575557 0.039907884706309328 0 -0.086626828023562016 0.039842569169912197 0 -0.086686229955260388 0.039950136688551241 0 -0.086831097872937857 0.04002264018997799 0 -0.08668644894575557 0.039907884706309328 0 -0.086831097872937857 0.04002264018997799 0 -0.086720228556874029 0.039901568960372079 0 -0.08672272657298713 0.039808493278630779 0 -0.08668644894575557 0.039907884706309328 0 -0.086720228556874029 0.039901568960372079 0 -0.086626828023562016 0.039842569169912197 0 -0.086831097872937857 0.04002264018997799 0 -0.08668644894575557 0.039907884706309328 0 -0.086720228556874029 0.039901568960372079 0 -0.086185857139354477 0.036598706878746133 0 -0.086192513841938531 0.03658069505585345 0 -0.086720228556874029 0.039901568960372079 0 -0.086626828023562016 0.039842569169912197 0 -0.08672272657298713 0.039808493278630779 0 -0.087035729652943816 0.040343793215766005 0 -0.086831097872937857 0.04002264018997799 0 -0.087174741789503685 0.04041349836044103 0 -0.087174741789503685 0.04041349836044103 0 -0.087445305057778963 0.040743041477769637 0 -0.087676981613828642 0.040952906451706836 0 -0.087174741789503685 0.04041349836044103 0 -0.087445305057778963 0.040743041477769637 0 -0.087302583564190961 0.040628051571121364 0 -0.087577829336064825 0.040943153162863899 0 -0.087617832276478735 0.041169492385051937 0 -0.087676981613828642 0.040952906451706836 0 -0.087445305057778963 0.040743041477769637 0 -0.087577829336064825 0.040943153162863899 0 -0.087676981613828642 0.040952906451706836 0 -0.087577829336064825 0.040943153162863899 0 -0.087517595502330084 0.040938976868279214 0 -0.087680425133304596 0.041164295856415255 0 -0.087302583564190961 0.040628051571121364 0 -0.087517595502330084 0.040938976868279214 0 -0.08700693238313173 0.040477294733085201 0 -0.087445305057778963 0.040743041477769637 0 -0.087577829336064825 0.040943153162863899 0 -0.087302583564190961 0.040628051571121364 0 -0.087577829336064825 0.040943153162863899 0 -0.087302583564190961 0.040628051571121364 0 -0.087517595502330084 0.040938976868279214 0 -0.087517595502330084 0.040938976868279214 0 -0.087603625513848246 0.041359077470243685 0 -0.08700693238313173 0.040477294733085201 0 -0.087517595502330084 0.040938976868279214 0 -0.087603625513848246 0.041359077470243685 0 -0.087680425133304596 0.041164295856415255 0 -0.087603625513848246 0.041359077470243685 0 -0.08700693238313173 0.040477294733085201 0 -0.086687424615940409 0.040726443924126006 0 -0.087603625513848246 0.041359077470243685 0 -0.086687424615940409 0.040726443924126006 0 -0.08649159422922896 0.042025967782171748 0 -0.086435056668752799 0.040119095543749345 0 -0.086643100328639658 0.040050632071362072 0 -0.086687424615940409 0.040726443924126006 0 -0.086643100328639658 0.040050632071362072 0 -0.08700693238313173 0.040477294733085201 0 -0.086687424615940409 0.040726443924126006 0 -0.086029676023993112 0.040174390270890398 0 -0.086687424615940409 0.040726443924126006 0 -0.08649159422922896 0.042025967782171748 0 -0.08649159422922896 0.042025967782171748 0 -0.086231110377247386 0.044426705217541752 0 -0.087958905419821973 0.042773580139130365 0 -0.087043669118066019 0.046979110906759922 0 -0.08506027584539344 0.046434702037416418 0 -0.086231110377247386 0.044426705217541752 0 -0.087043669118066019 0.046979110906759922 0 -0.086231110377247386 0.044426705217541752 0 -0.087958905419821973 0.042773580139130365 0 -0.087603625513848246 0.041359077470243685 0 -0.08649159422922896 0.042025967782171748 0 -0.087958905419821973 0.042773580139130365 0 -0.087958905419821973 0.042773580139130365 0 -0.089602062235688937 0.04331259833409163 0 -0.088617962924147045 0.042821998797826187 0 -0.087603625513848246 0.041359077470243685 0 -0.087958905419821973 0.042773580139130365 0 -0.087733758115354749 0.041043144808638549 0 -0.087311891270047098 0.042247141941695196 0 -0.087152850087345177 0.042130869474132658 0 -0.088937538150063 0.047151504837615016 0 -0.087958905419821973 0.042773580139130365 0 -0.089602062235688937 0.04331259833409163 0 -0.090638202331379342 0.043522268530977563 0 -0.089844283772938238 0.043283765440681715 0 -0.086254792956284895 0.040031057386027712 0 -0.086822553621071497 0.042110608979877444 0 -0.089602062235688937 0.04331259833409163 0 -0.086822553621071497 0.042110608979877444 0 -0.089602062235688937 0.04331259833409163 0 -0.088617962924147045 0.042821998797826187 0 -0.085672753602000454 0.04105577715132256 0 -0.087733758115354749 0.041043144808638549 0 -0.087188569699876428 0.041553676275472386 0 -0.086030282397851376 0.042354520150357053 0 -0.087152850087345177 0.042130869474132658 0 -0.087603625513848246 0.041359077470243685 0 -0.087733758115354749 0.041043144808638549 0 -0.087680425133304596 0.041164295856415255 0 -0.087733758115354749 0.041043144808638549 0 -0.087680425133304596 0.041164295856415255 0 -0.087188569699876428 0.041553676275472386 0 -0.087680425133304596 0.041164295856415255 0 -0.087512887686794091 0.041540602590402792 0 -0.087188569699876428 0.041553676275472386 0 -0.087577829336064825 0.040943153162863899 0 -0.087680425133304596 0.041164295856415255 0 -0.087617832276478735 0.041169492385051937 0 -0.087680425133304596 0.041164295856415255 0 -0.087617832276478735 0.041169492385051937 0 -0.087512887686794091 0.041540602590402792 0 -0.087617832276478735 0.041169492385051937 0 -0.087512887686794091 0.041540602590402792 0 -0.087676981613828642 0.040952906451706836 0 -0.085672753602000454 0.04105577715132256 0 -0.08631104407236069 0.042186865171738766 0 -0.087188569699876428 0.041553676275472386 0 -0.08631104407236069 0.042186865171738766 0 -0.087188569699876428 0.041553676275472386 0 -0.087218093278574507 0.042451940706504127 0 -0.087512887686794091 0.041540602590402792 0 -0.087188569699876428 0.041553676275472386 0 -0.087218093278574507 0.042451940706504127 0 -0.078535278069427325 0.044145807226080379 0 -0.078317345011165773 0.044157374270842216 0 -0.079294438674493456 0.044261486551226026 0 -0.079963904570320959 0.043769853948031297 0 -0.078188356429360936 0.043976655358210444 0 -0.077112503805869814 0.043957696604337487 0 -0.078188356429360936 0.043976655358210444 0 -0.07766633258467745 0.044151755515041621 0 -0.087512887686794091 0.041540602590402792 0 -0.087218093278574507 0.042451940706504127 0 -0.087676981613828642 0.040952906451706836 0 -0.082815076170782848 0.04179567012107243 0 -0.083153318617602653 0.040023233278488161 0 -0.079294438674493456 0.044261486551226026 0 -0.078188356429360936 0.043976655358210444 0 -0.077744995875738201 0.044040355311877062 0 -0.078188356429360936 0.043976655358210444 0 -0.07766633258467745 0.044151755515041621 0 -0.077926146511712105 0.044100133669652583 0 -0.078188356429360936 0.043976655358210444 0 -0.077926146511712105 0.044100133669652583 0 -0.077937174659461803 0.044004116648662599 0 -0.07766633258467745 0.044151755515041621 0 -0.077926146511712105 0.044100133669652583 0 -0.077675007276183775 0.044360515755815753 0 -0.077926146511712105 0.044100133669652583 0 -0.077675007276183775 0.044360515755815753 0 -0.077949843584832423 0.04463861248800452 0 -0.07766633258467745 0.044151755515041621 0 -0.077675007276183775 0.044360515755815753 0 -0.077291198429252375 0.044400041145058536 0 -0.077112503805869814 0.043957696604337487 0 -0.07766633258467745 0.044151755515041621 0 -0.077291198429252375 0.044400041145058536 0 -0.076803519081536029 0.04441579958344944 0 -0.077112503805869814 0.043957696604337487 0 -0.077291198429252375 0.044400041145058536 0 -0.076803519081536029 0.04441579958344944 0 -0.076968751193197543 0.044675999200411452 0 -0.077291198429252375 0.044400041145058536 0 -0.076968751193197543 0.044675999200411452 0 -0.077291198429252375 0.044400041145058536 0 -0.077465370795805955 0.044693305368274081 0 -0.076968751193197543 0.044675999200411452 0 -0.077465370795805955 0.044693305368274081 0 -0.07716707765528931 0.045031075961285361 0 -0.077675007276183775 0.044360515755815753 0 -0.077291198429252375 0.044400041145058536 0 -0.077465370795805955 0.044693305368274081 0 -0.077465370795805955 0.044693305368274081 0 -0.07716707765528931 0.045031075961285361 0 -0.077565217568859979 0.04523764705313655 0 -0.07716707765528931 0.045031075961285361 0 -0.077565217568859979 0.04523764705313655 0 -0.077154869404306076 0.045327358283464618 0 -0.077465370795805955 0.044693305368274081 0 -0.077949843584832423 0.04463861248800452 0 -0.077565217568859979 0.04523764705313655 0 -0.084263674277398184 0.020586255571935198 0 -0.084454765776202922 0.02297341685964507 0 -0.083049563818506658 0.022507704204267509 0 -0.081953116925201908 0.0333479983525371 0 -0.079747057048320275 0.033619146410940173 0 -0.077675007276183775 0.044360515755815753 0 -0.077465370795805955 0.044693305368274081 0 -0.077949843584832423 0.04463861248800452 0 -0.084263674277398184 0.020586255571935198 0 -0.08570923639701182 0.022017338314694931 0 -0.084454765776202922 0.02297341685964507 0 -0.08570923639701182 0.022017338314694931 0 -0.086562471763527202 0.02008239566801583 0 -0.087727653672956263 0.021441942101085607 0 -0.084263674277398184 0.020586255571935198 0 -0.08570923639701182 0.022017338314694931 0 -0.086562471763527202 0.02008239566801583 0 -0.084263674277398184 0.020586255571935198 0 -0.086562471763527202 0.02008239566801583 0 -0.085437475127495208 0.018719413646978766 0 -0.085763457212664207 0.028185709463815635 0 -0.08445825276383731 0.033865369623470767 0 -0.093260471609425938 0.02616983705153263 0 -0.095110548792122357 0.028433022515411702 0 -0.092799292393535723 0.028017607608297503 0 -0.095110548792122357 0.028433022515411702 0 -0.093244958423127203 0.029528543775632382 0 -0.092799292393535723 0.028017607608297503 0 -0.077926146511712105 0.044100133669652583 0 -0.077949843584832423 0.04463861248800452 0 -0.077996794111844112 0.044136359623308113 0 -0.081953116925201908 0.0333479983525371 0 -0.08445825276383731 0.033865369623470767 0 -0.077949843584832423 0.04463861248800452 0 -0.07816124826435103 0.044143710045696859 0 -0.077996794111844112 0.044136359623308113 0 -0.08445825276383731 0.033865369623470767 0 -0.08443722931128704 0.035223111216898098 0 -0.078205355869025342 0.043888897951155428 0 -0.07788224827024752 0.044049953685312435 0 -0.077744995875738201 0.044040355311877062 0 -0.07816124826435103 0.044143710045696859 0 -0.077996794111844112 0.044136359623308113 0 -0.07788224827024752 0.044049953685312435 0 -0.077926146511712105 0.044100133669652583 0 -0.077996794111844112 0.044136359623308113 0 -0.07788224827024752 0.044049953685312435 0 -0.077926146511712105 0.044100133669652583 0 -0.07788224827024752 0.044049953685312435 0 -0.077937174659461803 0.044004116648662599 0 -0.078188356429360936 0.043976655358210444 0 -0.077937174659461803 0.044004116648662599 0 -0.077744995875738201 0.044040355311877062 0 -0.07788224827024752 0.044049953685312435 0 -0.077937174659461803 0.044004116648662599 0 -0.077744995875738201 0.044040355311877062 0 -0.086192513841938531 0.03658069505585345 0 -0.08445825276383731 0.033865369623470767 0 -0.078205355869025342 0.043888897951155428 0 -0.07801865025097128 0.044192258306531063 0 -0.07788224827024752 0.044049953685312435 0 -0.093402100751829142 0.031311152585685689 0 -0.095110548792122357 0.028433022515411702 0 -0.093244958423127203 0.029528543775632382 0 -0.093402100751829142 0.031311152585685689 0 -0.093244958423127203 0.029528543775632382 0 -0.092718862429965201 0.030265219063845675 0 -0.091323030422839929 0.029781272344616045 0 -0.092235742913542501 0.029453756166181018 0 -0.091986167882040976 0.030544109744553415 0 -0.091323030422839929 0.029781272344616045 0 -0.090582768531658878 0.029660566199426339 0 -0.0912290833364931 0.028748031540247951 0 -0.091323030422839929 0.029781272344616045 0 -0.092235742913542501 0.029453756166181018 0 -0.0912290833364931 0.028748031540247951 0 -0.093244958423127203 0.029528543775632382 0 -0.092235742913542501 0.029453756166181018 0 -0.092799292393535723 0.028017607608297503 0 -0.093244958423127203 0.029528543775632382 0 -0.092235742913542501 0.029453756166181018 0 -0.092718862429965201 0.030265219063845675 0 -0.093402100751829142 0.031311152585685689 0 -0.092718862429965201 0.030265219063845675 0 -0.091986167882040976 0.030544109744553415 0 -0.091469566538215474 0.031079306559560652 0 -0.093402100751829142 0.031311152585685689 0 -0.091986167882040976 0.030544109744553415 0 -0.092235742913542501 0.029453756166181018 0 -0.092718862429965201 0.030265219063845675 0 -0.091986167882040976 0.030544109744553415 0 -0.091469566538215474 0.031079306559560652 0 -0.091986167882040976 0.030544109744553415 0 -0.090872990364634837 0.030549929252178292 0 -0.091323030422839929 0.029781272344616045 0 -0.091986167882040976 0.030544109744553415 0 -0.090872990364634837 0.030549929252178292 0 -0.090078424253599298 0.031592696900815342 0 -0.090591953043384479 0.031120344385169071 0 -0.089861563728425617 0.03009258820911484 0 -0.090591953043384479 0.031120344385169071 0 -0.091469566538215474 0.031079306559560652 0 -0.090872990364634837 0.030549929252178292 0 -0.090078424253599298 0.031592696900815342 0 -0.089861563728425617 0.03009258820911484 0 -0.087455641458694874 0.028863916057980353 0 -0.090591953043384479 0.031120344385169071 0 -0.090872990364634837 0.030549929252178292 0 -0.089861563728425617 0.03009258820911484 0 -0.090872990364634837 0.030549929252178292 0 -0.089861563728425617 0.03009258820911484 0 -0.090582768531658878 0.029660566199426339 0 -0.091323030422839929 0.029781272344616045 0 -0.090872990364634837 0.030549929252178292 0 -0.090582768531658878 0.029660566199426339 0 -0.089861563728425617 0.03009258820911484 0 -0.090582768531658878 0.029660566199426339 0 -0.089527893434379155 0.028725240676457695 0 -0.090582768531658878 0.029660566199426339 0 -0.089527893434379155 0.028725240676457695 0 -0.0912290833364931 0.028748031540247951 0 -0.089527893434379155 0.028725240676457695 0 -0.091140756192547981 0.026861321651543396 0 -0.089357683785688161 0.025649052126098644 0 -0.089527893434379155 0.028725240676457695 0 -0.091140756192547981 0.026861321651543396 0 -0.0912290833364931 0.028748031540247951 0 -0.093260471609425938 0.02616983705153263 0 -0.091140756192547981 0.026861321651543396 0 -0.092799292393535723 0.028017607608297503 0 -0.091140756192547981 0.026861321651543396 0 -0.0912290833364931 0.028748031540247951 0 -0.092799292393535723 0.028017607608297503 0 -0.092235742913542501 0.029453756166181018 0 -0.0912290833364931 0.028748031540247951 0 -0.092799292393535723 0.028017607608297503 0 -0.093260471609425938 0.02616983705153263 0 -0.091140756192547981 0.026861321651543396 0 -0.091177014044314025 0.024023703075410352 0 -0.085763457212664207 0.028185709463815635 0 -0.086709310055360186 0.025920051152339477 0 -0.087727653672956263 0.021441942101085607 0 -0.089041116430714079 0.022892364346371562 0 -0.086963818111554889 0.022634620199778768 0 -0.08570923639701182 0.022017338314694931 0 -0.087727653672956263 0.021441942101085607 0 -0.086963818111554889 0.022634620199778768 0 -0.086709310055360186 0.025920051152339477 0 -0.087022573467659306 0.02533216919851318 0 -0.091177014044314025 0.024023703075410352 0 -0.089260124051132636 0.023930838127754095 0 -0.089041116430714079 0.022892364346371562 0 -0.091177014044314025 0.024023703075410352 0 -0.089260124051132636 0.023930838127754095 0 -0.089357683785688161 0.025649052126098644 0 -0.091140756192547981 0.026861321651543396 0 -0.091177014044314025 0.024023703075410352 0 -0.089357683785688161 0.025649052126098644 0 -0.089357683785688161 0.025649052126098644 0 -0.087297897714325196 0.026508325002122798 0 -0.087815362505755404 0.024151320890745235 0 -0.089260124051132636 0.023930838127754095 0 -0.089357683785688161 0.025649052126098644 0 -0.087815362505755404 0.024151320890745235 0 -0.089260124051132636 0.023930838127754095 0 -0.087815362505755404 0.024151320890745235 0 -0.088209286149424249 0.022480034757007026 0 -0.087815362505755404 0.024151320890745235 0 -0.085001603756152316 0.023093109139985885 0 -0.088209286149424249 0.022480034757007026 0 -0.085002409543012025 0.023088578203412188 0 -0.08724593666844177 0.021740490744813802 0 -0.087297897714325196 0.026508325002122798 0 -0.087815362505755404 0.024151320890745235 0 -0.085001603756152316 0.023093109139985885 0 -0.087297897714325196 0.026508325002122798 0 -0.085001603756152316 0.023093109139985885 0 -0.084998624998590788 0.026429964502514586 0 -0.087297897714325196 0.026508325002122798 0 -0.084998624998590788 0.026429964502514586 0 -0.087455641458694874 0.028863916057980353 0 -0.085000035432323442 0.026432494701485138 0 -0.087951869412230085 0.029571492265904404 0 -0.084999808615565442 0.030080312645646499 0 -0.085002282832651543 0.026434634877806343 0 -0.087397839916539724 0.028760761798130852 0 -0.089527893434379155 0.028725240676457695 0 -0.087297897714325196 0.026508325002122798 0 -0.087455641458694874 0.028863916057980353 0 -0.089527893434379155 0.028725240676457695 0 -0.089357683785688161 0.025649052126098644 0 -0.087297897714325196 0.026508325002122798 0 -0.088688250000893892 0.029997726075053393 0 -0.087397839916539724 0.028760761798130852 0 -0.089861563728425617 0.03009258820911484 0 -0.089527893434379155 0.028725240676457695 0 -0.087455641458694874 0.028863916057980353 0 -0.088121510939241712 0.032573462039314299 0 -0.090078424253599298 0.031592696900815342 0 -0.087951869412230085 0.029571492265904404 0 -0.088121510939241712 0.032573462039314299 0 -0.087951869412230085 0.029571492265904404 0 -0.086645868698363659 0.031421637282642613 0 -0.085000048081424515 0.033727266753367409 0 -0.086645868698363659 0.031421637282642613 0 -0.084999808615565442 0.030080312645646499 0 -0.087951869412230085 0.029571492265904404 0 -0.086645868698363659 0.031421637282642613 0 -0.084999808615565442 0.030080312645646499 0 -0.087413257273488504 0.012771217141995132 0 -0.085000168511612503 0.012078587369522014 0 -0.088235819706407148 0.01070243382814365 0 -0.085003353120076425 0.012076498003872676 0 -0.088110496409419689 0.010519977478524985 0 -0.087413257273488504 0.012771217141995132 0 -0.08967930349923077 0.010603968139898919 0 -0.088235819706407148 0.01070243382814365 0 -0.08740538316326607 0.013061053380711975 0 -0.089828139608243318 0.012679217640825797 0 -0.08967930349923077 0.010603968139898919 0 -0.08740538316326607 0.013061053380711975 0 -0.089828139608243318 0.012679217640825797 0 -0.089017465117865416 0.014293182568970239 0 -0.086960142880647892 0.013414648905599251 0 -0.087990782076927537 0.012298390520485272 0 -0.08740538316326607 0.013061053380711975 0 -0.089017465117865416 0.014293182568970239 0 -0.087998415972753263 0.016145838049216221 0 -0.089017465117865416 0.014293182568970239 0 -0.087998415972753263 0.016145838049216221 0 -0.091027991124137411 0.016947778187802864 0 -0.08740538316326607 0.013061053380711975 0 -0.08499999086098399 0.015547832811670855 0 -0.087998415972753263 0.016145838049216221 0 -0.086960142880647892 0.013414648905599251 0 -0.08500229245738547 0.015544887712984276 0 -0.087413257273488504 0.012771217141995132 0 -0.085000168511612503 0.012078587369522014 0 -0.084999883751378943 0.015546937066551619 0 -0.084999892915971931 0.019318100289245344 0 -0.088130352105012064 0.019964329105922354 0 -0.087998415972753263 0.016145838049216221 0 -0.08499999086098399 0.015547832811670855 0 -0.084999892915971931 0.019318100289245344 0 -0.087998415972753263 0.016145838049216221 0 -0.085000021396441652 0.023089352618972395 0 -0.084999892915971931 0.019318100289245344 0 -0.088130352105012064 0.019964329105922354 0 -0.088130352105012064 0.019964329105922354 0 -0.087998415972753263 0.016145838049216221 0 -0.091027991124137411 0.016947778187802864 0 -0.08724593666844177 0.021740490744813802 0 -0.088778272112155582 0.02082583364797146 0 -0.089193296455439483 0.024366844280822374 0 -0.089041116430714079 0.022892364346371562 0 -0.087375116327852803 0.023782147866248361 0 -0.088209286149424249 0.022480034757007026 0 -0.089193296455439483 0.024366844280822374 0 -0.089041116430714079 0.022892364346371562 0 -0.089260124051132636 0.023930838127754095 0 -0.088209286149424249 0.022480034757007026 0 -0.089041116430714079 0.022892364346371562 0 -0.089041116430714079 0.022892364346371562 0 -0.086963818111554889 0.022634620199778768 0 -0.087375116327852803 0.023782147866248361 0 -0.089193296455439483 0.024366844280822374 0 -0.087375116327852803 0.023782147866248361 0 -0.086943852770706098 0.027819155134375457 0 -0.088778272112155582 0.02082583364797146 0 -0.089099337022127717 0.020447778736676261 0 -0.089017465117865416 0.014293182568970239 0 -0.091027991124137411 0.016947778187802864 0 -0.090989790452010416 0.013863382631301571 0 -0.091027991124137411 0.016947778187802864 0 -0.093697184693267904 0.014191803776424306 0 -0.090989790452010416 0.013863382631301571 0 -0.089828139608243318 0.012679217640825797 0 -0.089017465117865416 0.014293182568970239 0 -0.090989790452010416 0.013863382631301571 0 -0.089828139608243318 0.012679217640825797 0 -0.090989790452010416 0.013863382631301571 0 -0.092111155140815221 0.01168789715997072 0 -0.089828139608243318 0.012679217640825797 0 -0.092111155140815221 0.01168789715997072 0 -0.08967930349923077 0.010603968139898919 0 -0.093697184693267904 0.014191803776424306 0 -0.090989790452010416 0.013863382631301571 0 -0.092111155140815221 0.01168789715997072 0 -0.093697184693267904 0.014191803776424306 0 -0.092111155140815221 0.01168789715997072 0 -0.096286637774763761 0.011661352072897771 0 -0.086943852770706098 0.027819155134375457 0 -0.083821545350444948 0.031143637329262133 0 -0.082716350394380508 0.027698599734128467 0 -0.089099337022127717 0.020447778736676261 0 -0.088263446208795657 0.020145941994319658 0 -0.083821545350444948 0.031143637329262133 0 -0.082716350394380508 0.027698599734128467 0 -0.081104707103212659 0.030160661960654641 0 -0.086943852770706098 0.027819155134375457 0 -0.082716350394380508 0.027698599734128467 0 -0.084111051368441478 0.02432093610196177 0 -0.085540264633542792 0.026893987928923748 0 -0.084360007240392415 0.027571286399941688 0 -0.087375116327852803 0.023782147866248361 0 -0.086943852770706098 0.027819155134375457 0 -0.084111051368441478 0.02432093610196177 0 -0.086963818111554889 0.022634620199778768 0 -0.087375116327852803 0.023782147866248361 0 -0.085603187133251837 0.024077015478807397 0 -0.08570923639701182 0.022017338314694931 0 -0.086963818111554889 0.022634620199778768 0 -0.085603187133251837 0.024077015478807397 0 -0.08570923639701182 0.022017338314694931 0 -0.085603187133251837 0.024077015478807397 0 -0.084454765776202922 0.02297341685964507 0 -0.084360007240392415 0.027571286399941688 0 -0.081665659069480007 0.029669709379317757 0 -0.085603187133251837 0.024077015478807397 0 -0.084454765776202922 0.02297341685964507 0 -0.083777791575054897 0.024355443338012518 0 -0.082716350394380508 0.027698599734128467 0 -0.084111051368441478 0.02432093610196177 0 -0.080736206784071396 0.024873259364971527 0 -0.083777791575054897 0.024355443338012518 0 -0.082773797574226038 0.023823548511658039 0 -0.081825775857535366 0.024485609651313134 0 -0.080736206784071396 0.024873259364971527 0 -0.076969188408156919 0.025118371692891748 0 -0.079375176601987563 0.028067735833432399 0 -0.081665659069480007 0.029669709379317757 0 -0.07710264476754132 0.03390719212120314 0 -0.084454765776202922 0.02297341685964507 0 -0.083777791575054897 0.024355443338012518 0 -0.082773797574226038 0.023823548511658039 0 -0.084454765776202922 0.02297341685964507 0 -0.082773797574226038 0.023823548511658039 0 -0.083049563818506658 0.022507704204267509 0 -0.077565217568859979 0.04523764705313655 0 -0.077154869404306076 0.045327358283464618 0 -0.077188516552444367 0.045811524914790479 0 -0.082773797574226038 0.023823548511658039 0 -0.083049563818506658 0.022507704204267509 0 -0.081825775857535366 0.024485609651313134 0 -0.079747057048320275 0.033619146410940173 0 -0.07710264476754132 0.03390719212120314 0 -0.077154869404306076 0.045327358283464618 0 -0.077188516552444367 0.045811524914790479 0 -0.076708542962422327 0.045267279289795286 0 -0.073137390502362815 0.041371157804232485 0 -0.073215278563937281 0.04124785410270719 0 -0.074122347394443747 0.041887770049110033 0 -0.077117677242648022 0.025346041037201214 0 -0.076941575242039026 0.02561084126882876 0 -0.077201109742508239 0.026889346721858144 0 -0.07710264476754132 0.03390719212120314 0 -0.07649253214029747 0.034494659714345205 0 -0.076941575242039026 0.02561084126882876 0 -0.077201109742508239 0.026889346721858144 0 -0.074686076161377304 0.029434010629678702 0 -0.07710264476754132 0.03390719212120314 0 -0.076439645490146535 0.03161669675525898 0 -0.077117677242648022 0.025346041037201214 0 -0.077201109742508239 0.026889346721858144 0 -0.079375176601987563 0.028067735833432399 0 -0.077182971026005201 0.028455746264484608 0 -0.077310415669972432 0.029731123363599996 0 -0.074686076161377304 0.029434010629678702 0 -0.077201109742508239 0.026889346721858144 0 -0.077182971026005201 0.028455746264484608 0 -0.074686076161377304 0.029434010629678702 0 -0.079375176601987563 0.028067735833432399 0 -0.07919239581507137 0.029943257349357988 0 -0.077310415669972432 0.029731123363599996 0 -0.077182971026005201 0.028455746264484608 0 -0.079375176601987563 0.028067735833432399 0 -0.077310415669972432 0.029731123363599996 0 -0.077201109742508239 0.026889346721858144 0 -0.077182971026005201 0.028455746264484608 0 -0.079375176601987563 0.028067735833432399 0 -0.082716350394380508 0.027698599734128467 0 -0.080736206784071396 0.024873259364971527 0 -0.079375176601987563 0.028067735833432399 0 -0.082716350394380508 0.027698599734128467 0 -0.079375176601987563 0.028067735833432399 0 -0.081104707103212659 0.030160661960654641 0 -0.079375176601987563 0.028067735833432399 0 -0.07919239581507137 0.029943257349357988 0 -0.081104707103212659 0.030160661960654641 0 -0.07919239581507137 0.029943257349357988 0 -0.081104707103212659 0.030160661960654641 0 -0.079006205872152124 0.031725551545718648 0 -0.083913677017153895 0.025612432270650062 0 -0.084647161385897327 0.024804435694390246 0 -0.077310415669972432 0.029731123363599996 0 -0.078920605984309736 0.032514059160205479 0 -0.075598791477967719 0.032625263649240829 0 -0.07919239581507137 0.029943257349357988 0 -0.077310415669972432 0.029731123363599996 0 -0.079006205872152124 0.031725551545718648 0 -0.07623335364000948 0.034196224647106005 0 -0.077721529324383323 0.034989203821238907 0 -0.07502906989679356 0.035283049103780967 0 -0.07623335364000948 0.034196224647106005 0 -0.078920605984309736 0.032514059160205479 0 -0.077721529324383323 0.034989203821238907 0 -0.07623335364000948 0.034196224647106005 0 -0.078920605984309736 0.032514059160205479 0 -0.075598791477967719 0.032625263649240829 0 -0.081104707103212659 0.030160661960654641 0 -0.079006205872152124 0.031725551545718648 0 -0.080671086727220481 0.034060783914055016 0 -0.078920605984309736 0.032514059160205479 0 -0.080424889649048759 0.034819058195940125 0 -0.077721529324383323 0.034989203821238907 0 -0.084647161385897327 0.024804435694390246 0 -0.085466709441951658 0.019890243413694945 0 -0.085466709441951658 0.019890243413694945 0 -0.079482808620164977 0.02173141901522643 0 -0.085424642225312902 0.011902925693470975 0 -0.083652623061658382 0.013501906742795671 0 -0.085238421270616177 0.013515566657217265 0 -0.077721529324383323 0.034989203821238907 0 -0.07723738010172615 0.037581798429556446 0 -0.07502906989679356 0.035283049103780967 0 -0.080424889649048759 0.034819058195940125 0 -0.077721529324383323 0.034989203821238907 0 -0.07723738010172615 0.037581798429556446 0 -0.083652623061658382 0.013501906742795671 0 -0.083290466470955463 0.014901574391817139 0 -0.084723412592513175 0.014995048745754811 0 -0.082640490333125316 0.016164885923714567 0 -0.083290466470955463 0.014901574391817139 0 -0.084723412592513175 0.014995048745754811 0 -0.081155355019041114 0.0060446780317584608 0 -0.089893458839870322 0.0070089607750319785 0 -0.10495627455700222 -0.00017812103563343492 0 -0.10190604974124498 -0.00089564657057387867 0 -0.10133337856761504 0.0019145054282598206 0 -0.099680198013063701 -8.7478918939954314e-05 0 -0.10133337856761504 0.0019145054282598206 0 -0.098371133770293065 0.0014822093406395083 0 -0.10190604974124498 -0.00089564657057387867 0 -0.099680198013063701 -8.7478918939954314e-05 0 -0.10133337856761504 0.0019145054282598206 0 -0.084723412592513175 0.014995048745754811 0 -0.085238421270616177 0.013515566657217265 0 -0.086787428425994975 0.013827300916447374 0 -0.083652623061658382 0.013501906742795671 0 -0.084723412592513175 0.014995048745754811 0 -0.085238421270616177 0.013515566657217265 0 -0.089893458839870322 0.0070089607750319785 0 -0.091052910515521002 0.010203650378931258 0 -0.10133337856761504 0.0019145054282598206 0 -0.09777546818866889 0.0039696730535697727 0 -0.098371133770293065 0.0014822093406395083 0 -0.09777546818866889 0.0039696730535697727 0 -0.098371133770293065 0.0014822093406395083 0 -0.096317560151918863 0.0018619796969590692 0 -0.096786229863006765 -0.0012336167657163739 0 -0.098371133770293065 0.0014822093406395083 0 -0.096317560151918863 0.0018619796969590692 0 -0.091052910515521002 0.010203650378931258 0 -0.0930068041643555 0.0083735332511253122 0 -0.09791901033278437 0.0041489982927913026 0 -0.094752606700404515 0.0060140499767661676 0 -0.09454024094100659 0.0035364834332556436 0 -0.09791901033278437 0.0041489982927913026 0 -0.096317560151918863 0.0018619796969590692 0 -0.09454024094100659 0.0035364834332556436 0 -0.091052910515521002 0.010203650378931258 0 -0.091272059103576608 0.0087525605562156564 0 -0.09675853156383675 0.0062649037860845668 0 -0.096182252856453182 0.0088519950917260136 0 -0.094029149546393173 0.0077849330794212534 0 -0.096182252856453182 0.0088519950917260136 0 -0.094018117417750763 0.0098282708735886928 0 -0.094029149546393173 0.0077849330794212534 0 -0.085466709441951658 0.019890243413694945 0 -0.091052910515521002 0.010203650378931258 0 -0.085424642225312902 0.011902925693470975 0 -0.085238421270616177 0.013515566657217265 0 -0.086787428425994975 0.013827300916447374 0 -0.098834891554385781 0.0092546654406759059 0 -0.09675853156383675 0.0062649037860845668 0 -0.096182252856453182 0.0088519950917260136 0 -0.083821545350444948 0.031143637329262133 0 -0.081104707103212659 0.030160661960654641 0 -0.080671086727220481 0.034060783914055016 0 -0.088263446208795657 0.020145941994319658 0 -0.085466709441951658 0.019890243413694945 0 -0.096286637774763761 0.011661352072897771 0 -0.098834891554385781 0.0092546654406759059 0 -0.096182252856453182 0.0088519950917260136 0 -0.096286637774763761 0.011661352072897771 0 -0.096182252856453182 0.0088519950917260136 0 -0.094018117417750763 0.0098282708735886928 0 -0.092111155140815221 0.01168789715997072 0 -0.096286637774763761 0.011661352072897771 0 -0.094018117417750763 0.0098282708735886928 0 -0.092111155140815221 0.01168789715997072 0 -0.094018117417750763 0.0098282708735886928 0 -0.091212553522949075 0.0092712630109991357 0 -0.092111155140815221 0.01168789715997072 0 -0.091212553522949075 0.0092712630109991357 0 -0.08967930349923077 0.010603968139898919 0 -0.091603481177792795 0.0079604756927287024 0 -0.091991938895863781 0.0040415417097597155 0 -0.088639947358898172 0.0054161726892811022 0 -0.091032742378953438 0.0091081560035289853 0 -0.0930068041643555 0.0083735332511253122 0 -0.094018117417750763 0.0098282708735886928 0 -0.091212553522949075 0.0092712630109991357 0 -0.094029149546393173 0.0077849330794212534 0 -0.091603481177792795 0.0079604756927287024 0 -0.094752606700404515 0.0060140499767661676 0 -0.091991938895863781 0.0040415417097597155 0 -0.094752606700404515 0.0060140499767661676 0 -0.09454024094100659 0.0035364834332556436 0 -0.091991938895863781 0.0040415417097597155 0 -0.093083182835637421 6.5380517053980117e-05 0 -0.096317560151918863 0.0018619796969590692 0 -0.09454024094100659 0.0035364834332556436 0 -0.093083182835637421 6.5380517053980117e-05 0 -0.09454024094100659 0.0035364834332556436 0 -0.091991938895863781 0.0040415417097597155 0 -0.09307943887260367 -0.00011996992274388144 0 -0.089675030553032498 0.0010462249823673441 0 -0.093083182835637421 6.5380517053980117e-05 0 -0.091991938895863781 0.0040415417097597155 0 -0.089255154622502136 0.0013373928963695161 0 -0.091991938895863781 0.0040415417097597155 0 -0.089255154622502136 0.0013373928963695161 0 -0.088639947358898172 0.0054161726892811022 0 -0.089255154622502136 0.0013373928963695161 0 -0.085300900068491975 0.002565657745910391 0 -0.088639947358898172 0.0054161726892811022 0 -0.085000006052126501 -0.0025870435660185517 0 -0.086850746080874924 0.00037919646598306793 0 -0.084999971657599899 0.002301343461884505 0 -0.089335128974143196 0.0010598223247153453 0 -0.086850746080874924 0.00037919646598306793 0 -0.085300900068491975 0.002565657745910391 0 -0.089675030553032498 0.0010462249823673441 0 -0.087748549128909489 0.0017033772528440585 0 -0.086850746080874924 0.00037919646598306793 0 -0.085300900068491975 0.002565657745910391 0 -0.084999971657599899 0.002301343461884505 0 -0.085300900068491975 0.002565657745910391 0 -0.084999971657599899 0.002301343461884505 0 -0.084999932060812702 0.0071895356739811274 0 -0.085300900068491975 0.002565657745910391 0 -0.084999932060812702 0.0071895356739811274 0 -0.088639947358898172 0.0054161726892811022 0 -0.084999932060812702 0.0071895356739811274 0 -0.088639947358898172 0.0054161726892811022 0 -0.088356265060051065 0.0099972329694074068 0 -0.091603481177792795 0.0079604756927287024 0 -0.088639947358898172 0.0054161726892811022 0 -0.088356265060051065 0.0099972329694074068 0 -0.091212553522949075 0.0092712630109991357 0 -0.08967930349923077 0.010603968139898919 0 -0.088235819706407148 0.01070243382814365 0 -0.091032742378953438 0.0091081560035289853 0 -0.088110496409419689 0.010519977478524985 0 -0.084999964849589077 0.012077788445043945 0 -0.084999932060812702 0.0071895356739811274 0 -0.088356265060051065 0.0099972329694074068 0 -0.069088048429257462 0.034351678314606116 0 -0.067956800738534828 0.034140102340611649 0 -0.067886263460708626 0.035720001091383756 0 -0.069088048429257462 0.034351678314606116 0 -0.06994264073747794 0.035702725627549961 0 -0.067886263460708626 0.035720001091383756 0 -0.067956800738534828 0.034140102340611649 0 -0.067886263460708626 0.035720001091383756 0 -0.066808353491278338 0.034062833626461349 0 -0.073274137063638986 0.037987310076634688 0 -0.072200725222665615 0.0356465399809665 0 -0.067956800738534828 0.034140102340611649 0 -0.066808353491278338 0.034062833626461349 0 -0.067410077023783155 0.032926399758330227 0 -0.067956800738534828 0.034140102340611649 0 -0.06839822515597993 0.033690219366805586 0 -0.067410077023783155 0.032926399758330227 0 -0.06839822515597993 0.033690219366805586 0 -0.069143716993961213 0.033342727539283211 0 -0.067410077023783155 0.032926399758330227 0 -0.069088048429257462 0.034351678314606116 0 -0.067956800738534828 0.034140102340611649 0 -0.06839822515597993 0.033690219366805586 0 -0.069088048429257462 0.034351678314606116 0 -0.06839822515597993 0.033690219366805586 0 -0.069143716993961213 0.033342727539283211 0 -0.068889704631157428 0.032912697393916418 0 -0.069620067713949782 0.033145204864701627 0 -0.069088048429257462 0.034351678314606116 0 -0.069143716993961213 0.033342727539283211 0 -0.070690855791517251 0.033613775608616669 0 -0.070690855791517251 0.033613775608616669 0 -0.06994264073747794 0.035702725627549961 0 -0.071726054038728101 0.035818611833812297 0 -0.069088048429257462 0.034351678314606116 0 -0.070690855791517251 0.033613775608616669 0 -0.06994264073747794 0.035702725627549961 0 -0.06994264073747794 0.035702725627549961 0 -0.07102257030656374 0.037378047001446833 0 -0.069167438390417807 0.037624669313540617 0 -0.06994264073747794 0.035702725627549961 0 -0.071726054038728101 0.035818611833812297 0 -0.07102257030656374 0.037378047001446833 0 -0.071586444797074419 0.039808204120142014 0 -0.07102257030656374 0.037378047001446833 0 -0.072337042472248189 0.037737999038032814 0 -0.071726054038728101 0.035818611833812297 0 -0.07102257030656374 0.037378047001446833 0 -0.072337042472248189 0.037737999038032814 0 -0.071586444797074419 0.039808204120142014 0 -0.07102257030656374 0.037378047001446833 0 -0.069167438390417807 0.037624669313540617 0 -0.078781359735805717 0.044095142072422121 0 -0.079309637026818036 0.043361846671207439 0 -0.078617562840017377 0.043244811084503065 0 -0.079309637026818036 0.043361846671207439 0 -0.079279522007685871 0.041048930611303172 0 -0.078617562840017377 0.043244811084503065 0 -0.074004391114862747 0.039854712215206124 0 -0.073274137063638986 0.037987310076634688 0 -0.06994264073747794 0.035702725627549961 0 -0.069167438390417807 0.037624669313540617 0 -0.067886263460708626 0.035720001091383756 0 -0.079279522007685871 0.041048930611303172 0 -0.078617562840017377 0.043244811084503065 0 -0.077605930734959513 0.041715334726378145 0 -0.078617562840017377 0.043244811084503065 0 -0.077537357025058262 0.043213734593238087 0 -0.077605930734959513 0.041715334726378145 0 -0.077537357025058262 0.043213734593238087 0 -0.077605930734959513 0.041715334726378145 0 -0.075866099387492253 0.042436090169633497 0 -0.076054187239314591 0.040693544058225041 0 -0.077605930734959513 0.041715334726378145 0 -0.075866099387492253 0.042436090169633497 0 -0.076054187239314591 0.040693544058225041 0 -0.077605930734959513 0.041715334726378145 0 -0.077013030649786915 0.039532248331013063 0 -0.079279522007685871 0.041048930611303172 0 -0.077605930734959513 0.041715334726378145 0 -0.077013030649786915 0.039532248331013063 0 -0.07710264476754132 0.03390719212120314 0 -0.077916185569034513 0.040699456774153639 0 -0.073137390502362815 0.041371157804232485 0 -0.074449611122794621 0.042958825048892049 0 -0.074122347394443747 0.041887770049110033 0 -0.074449611122794621 0.042958825048892049 0 -0.075866099387492253 0.042436090169633497 0 -0.074122347394443747 0.041887770049110033 0 -0.075866099387492253 0.042436090169633497 0 -0.074793355890003854 0.041048378299254368 0 -0.074122347394443747 0.041887770049110033 0 -0.076054187239314591 0.040693544058225041 0 -0.075866099387492253 0.042436090169633497 0 -0.074793355890003854 0.041048378299254368 0 -0.074630138188405235 0.037760361386640108 0 -0.074291390064827309 0.037123958786753106 0 -0.07649253214029747 0.034494659714345205 0 -0.074291390064827309 0.037123958786753106 0 -0.073215278563937281 0.04124785410270719 0 -0.074793355890003854 0.041048378299254368 0 -0.074122347394443747 0.041887770049110033 0 -0.068501415580007829 0.04165986151366359 0 -0.072237468817408293 0.041212472648886563 0 -0.070628543995505361 0.038097708108874501 0 -0.07649253214029747 0.034494659714345205 0 -0.074723226655434433 0.034523965784223024 0 -0.076054187239314591 0.040693544058225041 0 -0.072237468817408293 0.041212472648886563 0 -0.074142251288256383 0.039063256870250515 0 -0.070628543995505361 0.038097708108874501 0 -0.074142251288256383 0.039063256870250515 0 -0.073005828591917676 0.036954980933422032 0 -0.072237468817408293 0.041212472648886563 0 -0.070628543995505361 0.038097708108874501 0 -0.074142251288256383 0.039063256870250515 0 -0.070628543995505361 0.038097708108874501 0 -0.073005828591917676 0.036954980933422032 0 -0.073087164278599404 0.034131310888080496 0 -0.074142251288256383 0.039063256870250515 0 -0.073005828591917676 0.036954980933422032 0 -0.075221945107165858 0.037240966994836672 0 -0.073764553442019862 0.035572049804400888 0 -0.073005828591917676 0.036954980933422032 0 -0.075221945107165858 0.037240966994836672 0 -0.073764553442019862 0.035572049804400888 0 -0.073005828591917676 0.036954980933422032 0 -0.073087164278599404 0.034131310888080496 0 -0.074723226655434433 0.034523965784223024 0 -0.074329245400703375 0.034440742282251031 0 -0.077310415669972432 0.029731123363599996 0 -0.074686076161377304 0.029434010629678702 0 -0.075598791477967719 0.032625263649240829 0 -0.074686076161377304 0.029434010629678702 0 -0.075598791477967719 0.032625263649240829 0 -0.073087164278599404 0.034131310888080496 0 -0.079279522007685871 0.041048930611303172 0 -0.077013030649786915 0.039532248331013063 0 -0.078329670023622233 0.03782389626641091 0 -0.076054187239314591 0.040693544058225041 0 -0.074142251288256383 0.039063256870250515 0 -0.077013030649786915 0.039532248331013063 0 -0.074142251288256383 0.039063256870250515 0 -0.077013030649786915 0.039532248331013063 0 -0.075221945107165858 0.037240966994836672 0 -0.075221945107165858 0.037240966994836672 0 -0.078329670023622233 0.03782389626641091 0 -0.076045422628765472 0.034030276320415026 0 -0.073764553442019862 0.035572049804400888 0 -0.075221945107165858 0.037240966994836672 0 -0.074577793866614256 0.035215149201537628 0 -0.072200725222665615 0.0356465399809665 0 -0.070658899190755783 0.032718535824775866 0 -0.077013030649786915 0.039532248331013063 0 -0.075221945107165858 0.037240966994836672 0 -0.078329670023622233 0.03782389626641091 0 -0.070658899190755783 0.032718535824775866 0 -0.0682305770805616 0.03255741758420528 0 -0.065142044928594378 0.032070128675138018 0 -0.066091987887607159 0.031553585092772958 0 -0.066710642160400624 0.032476433198992016 0 -0.066808353491278338 0.034062833626461349 0 -0.065732670264674276 0.032521025152563748 0 -0.067410077023783155 0.032926399758330227 0 -0.070658899190755783 0.032718535824775866 0 -0.071814111638674932 0.032328768177770029 0 -0.075221945107165858 0.037240966994836672 0 -0.074577793866614256 0.035215149201537628 0 -0.076045422628765472 0.034030276320415026 0 -0.074577793866614256 0.035215149201537628 0 -0.076045422628765472 0.034030276320415026 0 -0.073573435899476014 0.034224466722654029 0 -0.070546242729279285 0.032521593431619422 0 -0.070803076297689491 0.032875195766228472 0 -0.071159722792467142 0.032667877586746927 0 -0.065142044928594378 0.032070128675138018 0 -0.064582469559231012 0.031288745147866087 0 -0.066091987887607159 0.031553585092772958 0 -0.070940099853257554 0.0313950477587931 0 -0.068416110537549396 0.031246478624846648 0 -0.066468166702774917 0.030050952503781446 0 -0.067050430608034464 0.029716317648021361 0 -0.066584089588418938 0.029584204301716009 0 -0.070658899190755783 0.032718535824775866 0 -0.070940099853257554 0.0313950477587931 0 -0.064582469559231012 0.031288745147866087 0 -0.066091987887607159 0.031553585092772958 0 -0.065772518025804722 0.030578505429998144 0 -0.066091987887607159 0.031553585092772958 0 -0.065772518025804722 0.030578505429998144 0 -0.066716399648605498 0.030864408704499576 0 -0.075598791477967719 0.032625263649240829 0 -0.074312850551243453 0.034061063446698785 0 -0.073087164278599404 0.034131310888080496 0 -0.07623335364000948 0.034196224647106005 0 -0.074312850551243453 0.034061063446698785 0 -0.07502906989679356 0.035283049103780967 0 -0.07623335364000948 0.034196224647106005 0 -0.075598791477967719 0.032625263649240829 0 -0.074312850551243453 0.034061063446698785 0 -0.074312850551243453 0.034061063446698785 0 -0.073273060233098597 0.034183407724325952 0 -0.07502906989679356 0.035283049103780967 0 -0.076045422628765472 0.034030276320415026 0 -0.073331744114709496 0.033848225439616651 0 -0.073573435899476014 0.034224466722654029 0 -0.074312850551243453 0.034061063446698785 0 -0.073583179247674269 0.034114875138208545 0 -0.073273060233098597 0.034183407724325952 0 -0.073583179247674269 0.034114875138208545 0 -0.073273060233098597 0.034183407724325952 0 -0.073573435899476014 0.034224466722654029 0 -0.073273060233098597 0.034183407724325952 0 -0.073331744114709496 0.033848225439616651 0 -0.073573435899476014 0.034224466722654029 0 -0.07182380599330361 0.032329035653890087 0 -0.071814111638674932 0.032328768177770029 0 -0.074312850551243453 0.034061063446698785 0 -0.073583179247674269 0.034114875138208545 0 -0.073087164278599404 0.034131310888080496 0 -0.073583179247674269 0.034114875138208545 0 -0.073087164278599404 0.034131310888080496 0 -0.073573435899476014 0.034224466722654029 0 -0.073764553442019862 0.035572049804400888 0 -0.073087164278599404 0.034131310888080496 0 -0.073573435899476014 0.034224466722654029 0 -0.073764553442019862 0.035572049804400888 0 -0.074577793866614256 0.035215149201537628 0 -0.073573435899476014 0.034224466722654029 0 -0.073273060233098597 0.034183407724325952 0 -0.073013693103810298 0.034300944079279562 0 -0.07502906989679356 0.035283049103780967 0 -0.070940099853257554 0.0313950477587931 0 -0.071814111638674932 0.032328768177770029 0 -0.070960727981431451 0.035707978738154761 0 -0.0726736032306525 0.034712547999509367 0 -0.072517479409074673 0.035835641533729694 0 -0.070960727981431451 0.035707978738154761 0 -0.072517479409074673 0.035835641533729694 0 -0.072949841945907132 0.036969955682235829 0 -0.070960727981431451 0.035707978738154761 0 -0.072949841945907132 0.036969955682235829 0 -0.07256481831723631 0.037923587271936246 0 -0.070940099853257554 0.0313950477587931 0 -0.073328524768886766 0.026604847036533954 0 -0.072517479409074673 0.035835641533729694 0 -0.072949841945907132 0.036969955682235829 0 -0.073486081621381552 0.035952105250746443 0 -0.0726736032306525 0.034712547999509367 0 -0.072517479409074673 0.035835641533729694 0 -0.073486081621381552 0.035952105250746443 0 -0.07723738010172615 0.037581798429556446 0 -0.074649920105732806 0.036797592123208635 0 -0.07502906989679356 0.035283049103780967 0 -0.0726736032306525 0.034712547999509367 0 -0.073486081621381552 0.035952105250746443 0 -0.07502906989679356 0.035283049103780967 0 -0.071814111638674932 0.032328768177770029 0 -0.072844484380493194 0.03279515902008754 0 -0.073486081621381552 0.035952105250746443 0 -0.074649920105732806 0.036797592123208635 0 -0.07502906989679356 0.035283049103780967 0 -0.072949841945907132 0.036969955682235829 0 -0.073486081621381552 0.035952105250746443 0 -0.074649920105732806 0.036797592123208635 0 -0.079482808620164977 0.02173141901522643 0 -0.077270709043957719 0.017011513816087061 0 -0.07723738010172615 0.037581798429556446 0 -0.074617703346763417 0.038219345829082624 0 -0.074206421028800443 0.0402175721264686 0 -0.07723738010172615 0.037581798429556446 0 -0.074649920105732806 0.036797592123208635 0 -0.074617703346763417 0.038219345829082624 0 -0.083652623061658382 0.013501906742795671 0 -0.083290466470955463 0.014901574391817139 0 -0.081868536256407221 0.015107807521322307 0 -0.072949841945907132 0.036969955682235829 0 -0.074649920105732806 0.036797592123208635 0 -0.074617703346763417 0.038219345829082624 0 -0.074617703346763417 0.038219345829082624 0 -0.072560741092185854 0.037948411734526358 0 -0.074206421028800443 0.0402175721264686 0 -0.073328524768886766 0.026604847036533954 0 -0.071206624078785918 0.023602733751558368 0 -0.066106387237965081 0.029548382132902635 0 -0.066325816700031265 0.02895567302746601 0 -0.066584089588418938 0.029584204301716009 0 -0.073328524768886766 0.026604847036533954 0 -0.077270709043957719 0.017011513816087061 0 -0.072949841945907132 0.036969955682235829 0 -0.074617703346763417 0.038219345829082624 0 -0.072560741092185854 0.037948411734526358 0 -0.073103228712614821 0.027356610737228917 0 -0.073328524768886766 0.026604847036533954 0 -0.07119984273823303 0.017847839315389937 0 -0.077270709043957719 0.017011513816087061 0 -0.072421534652217082 0.019220830189285693 0 -0.072377068492719993 0.019530160832477918 0 -0.07206163857932997 0.019570008547377178 0 -0.072259901187657835 0.019855190502213526 0 -0.072377068492719993 0.019530160832477918 0 -0.07206163857932997 0.019570008547377178 0 -0.082640490333125316 0.016164885923714567 0 -0.083290466470955463 0.014901574391817139 0 -0.081868536256407221 0.015107807521322307 0 -0.074992848045320137 0.010693232021361432 0 -0.077297297364735645 0.0098380642664416349 0 -0.075735388938403689 0.0076886648019657746 0 -0.081155355019041114 0.0060446780317584608 0 -0.077270709043957719 0.017011513816087061 0 -0.068416110537549396 0.031246478624846648 0 -0.068109809904729993 0.030651460301292809 0 -0.067050430608034464 0.029716317648021361 0 -0.067254246490396283 0.029219916828562936 0 -0.067653084951367307 0.029401245963796088 0 -0.067050430608034464 0.029716317648021361 0 -0.066816249358921748 0.029196144587227465 0 -0.067254246490396283 0.029219916828562936 0 -0.067050430608034464 0.029716317648021361 0 -0.066584089588418938 0.029584204301716009 0 -0.066816249358921748 0.029196144587227465 0 -0.066325816700031265 0.02895567302746601 0 -0.066584089588418938 0.029584204301716009 0 -0.066816249358921748 0.029196144587227465 0 -0.066468166702774917 0.030050952503781446 0 -0.066106387237965081 0.029548382132902635 0 -0.066584089588418938 0.029584204301716009 0 -0.066325816700031265 0.02895567302746601 0 -0.066816249358921748 0.029196144587227465 0 -0.066678069123179182 0.028817539991213094 0 -0.066547681783884718 0.028344928392820722 0 -0.066325816700031265 0.02895567302746601 0 -0.066678069123179182 0.028817539991213094 0 -0.066816249358921748 0.029196144587227465 0 -0.066678069123179182 0.028817539991213094 0 -0.067050022978044563 0.028766717133305378 0 -0.067050022978044563 0.028766717133305378 0 -0.067254246490396283 0.029219916828562936 0 -0.067796372600301982 0.028802086914632149 0 -0.066816249358921748 0.029196144587227465 0 -0.067050022978044563 0.028766717133305378 0 -0.067254246490396283 0.029219916828562936 0 -0.067796372600301982 0.028802086914632149 0 -0.068303051728567529 0.029138601204463058 0 -0.067653084951367307 0.029401245963796088 0 -0.067254246490396283 0.029219916828562936 0 -0.067796372600301982 0.028802086914632149 0 -0.067653084951367307 0.029401245963796088 0 -0.068631098939873583 0.028617741923147578 0 -0.067796372600301982 0.028802086914632149 0 -0.068303051728567529 0.029138601204463058 0 -0.068255036907356612 0.030342206648489394 0 -0.068109809904729993 0.030651460301292809 0 -0.068303051728567529 0.029138601204463058 0 -0.067015553393441146 0.029845771337964202 0 -0.068866103933361317 0.030767525448167372 0 -0.065772518025804722 0.030578505429998144 0 -0.067015553393441146 0.029845771337964202 0 -0.066716399648605498 0.030864408704499576 0 -0.067015553393441146 0.029845771337964202 0 -0.066716399648605498 0.030864408704499576 0 -0.067629826818534355 0.031459771780829912 0 -0.066091987887607159 0.031553585092772958 0 -0.066716399648605498 0.030864408704499576 0 -0.067629826818534355 0.031459771780829912 0 -0.067015553393441146 0.029845771337964202 0 -0.067629826818534355 0.031459771780829912 0 -0.068866103933361317 0.030767525448167372 0 -0.067629826818534355 0.031459771780829912 0 -0.068093930986535656 0.032795389323591474 0 -0.068866103933361317 0.030767525448167372 0 -0.068889704631157428 0.032912697393916418 0 -0.0682305770805616 0.03255741758420528 0 -0.068425965610255532 0.031530961124415141 0 -0.068828803320416382 0.030326450635011434 0 -0.068327781488659797 0.032950825921617265 0 -0.068093930986535656 0.032795389323591474 0 -0.066710642160400624 0.032476433198992016 0 -0.067629826818534355 0.031459771780829912 0 -0.068093930986535656 0.032795389323591474 0 -0.066710642160400624 0.032476433198992016 0 -0.066091987887607159 0.031553585092772958 0 -0.067629826818534355 0.031459771780829912 0 -0.066710642160400624 0.032476433198992016 0 -0.070690855791517251 0.033613775608616669 0 -0.069627180208469558 0.031857468372046824 0 -0.071384179537765491 0.031424396483916178 0 -0.068327781488659797 0.032950825921617265 0 -0.070690855791517251 0.033613775608616669 0 -0.069627180208469558 0.031857468372046824 0 -0.068093930986535656 0.032795389323591474 0 -0.069627180208469558 0.031857468372046824 0 -0.068812161975531166 0.030253268613428769 0 -0.068327781488659797 0.032950825921617265 0 -0.068093930986535656 0.032795389323591474 0 -0.069627180208469558 0.031857468372046824 0 -0.069627180208469558 0.031857468372046824 0 -0.068812161975531166 0.030253268613428769 0 -0.070296075496982552 0.030282305375795147 0 -0.069627180208469558 0.031857468372046824 0 -0.070296075496982552 0.030282305375795147 0 -0.071384179537765491 0.031424396483916178 0 -0.070296075496982552 0.030282305375795147 0 -0.071319528685882996 0.029240561960454322 0 -0.071384179537765491 0.031424396483916178 0 -0.070296075496982552 0.030282305375795147 0 -0.069492991261179277 0.027651041717392078 0 -0.071319528685882996 0.029240561960454322 0 -0.068303051728567529 0.029138601204463058 0 -0.068866103933361317 0.030767525448167372 0 -0.069376139150750527 0.028988167439755155 0 -0.068812161975531166 0.030253268613428769 0 -0.070296075496982552 0.030282305375795147 0 -0.069492991261179277 0.027651041717392078 0 -0.068828803320416382 0.030326450635011434 0 -0.069490933835298391 0.028288062446297672 0 -0.068631098939873583 0.028617741923147578 0 -0.068303051728567529 0.029138601204463058 0 -0.069376139150750527 0.028988167439755155 0 -0.069492991261179277 0.027651041717392078 0 -0.071443364592164244 0.02762267680783001 0 -0.071319528685882996 0.029240561960454322 0 -0.070993694410524152 0.026374451171349209 0 -0.069492991261179277 0.027651041717392078 0 -0.071443364592164244 0.02762267680783001 0 -0.071443364592164244 0.02762267680783001 0 -0.072469143474212114 0.027414597537064288 0 -0.07257311613971075 0.028896645899985619 0 -0.07182299386287383 0.026328532069969306 0 -0.071443364592164244 0.02762267680783001 0 -0.072469143474212114 0.027414597537064288 0 -0.073196852652130023 0.026456773552573917 0 -0.072469143474212114 0.027414597537064288 0 -0.073673940373263261 0.028241728753097974 0 -0.072469143474212114 0.027414597537064288 0 -0.07257311613971075 0.028896645899985619 0 -0.073673940373263261 0.028241728753097974 0 -0.07257311613971075 0.028896645899985619 0 -0.073630710178401795 0.029749857948019716 0 -0.073673940373263261 0.028241728753097974 0 -0.07257311613971075 0.028896645899985619 0 -0.073630710178401795 0.029749857948019716 0 -0.072865266079309585 0.030933214812435002 0 -0.071443364592164244 0.02762267680783001 0 -0.07257311613971075 0.028896645899985619 0 -0.071319528685882996 0.029240561960454322 0 -0.07257311613971075 0.028896645899985619 0 -0.071319528685882996 0.029240561960454322 0 -0.072865266079309585 0.030933214812435002 0 -0.073196852652130023 0.026456773552573917 0 -0.075169487226930426 0.027474294476849407 0 -0.073673940373263261 0.028241728753097974 0 -0.075169487226930426 0.027474294476849407 0 -0.073673940373263261 0.028241728753097974 0 -0.075059462761771958 0.029431208976953331 0 -0.073630710178401795 0.029749857948019716 0 -0.073673940373263261 0.028241728753097974 0 -0.075059462761771958 0.029431208976953331 0 -0.075059462761771958 0.029431208976953331 0 -0.076481636933364489 0.030119249716382839 0 -0.076837838842591294 0.0287656772821103 0 -0.075169487226930426 0.027474294476849407 0 -0.075059462761771958 0.029431208976953331 0 -0.076837838842591294 0.0287656772821103 0 -0.074866512731761883 0.031624812749684428 0 -0.077193460456023266 0.031723340251238914 0 -0.076481636933364489 0.030119249716382839 0 -0.075059462761771958 0.029431208976953331 0 -0.074866512731761883 0.031624812749684428 0 -0.076481636933364489 0.030119249716382839 0 -0.073630710178401795 0.029749857948019716 0 -0.075059462761771958 0.029431208976953331 0 -0.074866512731761883 0.031624812749684428 0 -0.073630710178401795 0.029749857948019716 0 -0.074866512731761883 0.031624812749684428 0 -0.072865266079309585 0.030933214812435002 0 -0.074866512731761883 0.031624812749684428 0 -0.073097063915056562 0.032662079357132494 0 -0.074546971303939252 0.03330909303382306 0 -0.074866512731761883 0.031624812749684428 0 -0.076736970694213438 0.033518927759313678 0 -0.077193460456023266 0.031723340251238914 0 -0.074866512731761883 0.031624812749684428 0 -0.074546971303939252 0.03330909303382306 0 -0.076736970694213438 0.033518927759313678 0 -0.070690855791517251 0.033613775608616669 0 -0.071384179537765491 0.031424396483916178 0 -0.073097063915056562 0.032662079357132494 0 -0.071319528685882996 0.029240561960454322 0 -0.071384179537765491 0.031424396483916178 0 -0.072865266079309585 0.030933214812435002 0 -0.074866512731761883 0.031624812749684428 0 -0.072865266079309585 0.030933214812435002 0 -0.073097063915056562 0.032662079357132494 0 -0.071384179537765491 0.031424396483916178 0 -0.072865266079309585 0.030933214812435002 0 -0.073097063915056562 0.032662079357132494 0 -0.070690855791517251 0.033613775608616669 0 -0.073097063915056562 0.032662079357132494 0 -0.072904845847144198 0.034529976823726986 0 -0.070690855791517251 0.033613775608616669 0 -0.071726054038728101 0.035818611833812297 0 -0.072904845847144198 0.034529976823726986 0 -0.071726054038728101 0.035818611833812297 0 -0.072904845847144198 0.034529976823726986 0 -0.073496068618997976 0.036235723967985509 0 -0.072904845847144198 0.034529976823726986 0 -0.074946882768266138 0.034846929960641412 0 -0.073496068618997976 0.036235723967985509 0 -0.073097063915056562 0.032662079357132494 0 -0.072904845847144198 0.034529976823726986 0 -0.074546971303939252 0.03330909303382306 0 -0.072904845847144198 0.034529976823726986 0 -0.074546971303939252 0.03330909303382306 0 -0.074946882768266138 0.034846929960641412 0 -0.075538674062540362 0.035315644812733769 0 -0.076272566926234006 0.034537316798314795 0 -0.074546971303939252 0.03330909303382306 0 -0.074946882768266138 0.034846929960641412 0 -0.076736970694213438 0.033518927759313678 0 -0.077013465690148608 0.036078940706980575 0 -0.075812004660034654 0.035629159818303419 0 -0.076736970694213438 0.033518927759313678 0 -0.075538674062540362 0.035315644812733769 0 -0.074318187526623142 0.036655279305927553 0 -0.075812004660034654 0.035629159818303419 0 -0.076220572162344125 0.037286168583812812 0 -0.075078557691095352 0.03722831976516814 0 -0.077013465690148608 0.036078940706980575 0 -0.076220572162344125 0.037286168583812812 0 -0.077929102997758584 0.037774882341866253 0 -0.077013465690148608 0.036078940706980575 0 -0.075812004660034654 0.035629159818303419 0 -0.076220572162344125 0.037286168583812812 0 -0.076220572162344125 0.037286168583812812 0 -0.077929102997758584 0.037774882341866253 0 -0.076758435915934675 0.038742330670254226 0 -0.076220572162344125 0.037286168583812812 0 -0.075623266801887398 0.039157462977172687 0 -0.076758435915934675 0.038742330670254226 0 -0.076220572162344125 0.037286168583812812 0 -0.075078557691095352 0.03722831976516814 0 -0.075623266801887398 0.039157462977172687 0 -0.074211977660180201 0.038428258002883298 0 -0.075078557691095352 0.03722831976516814 0 -0.075623266801887398 0.039157462977172687 0 -0.073026307226182599 0.038033348475158747 0 -0.074318187526623142 0.036655279305927553 0 -0.071726054038728101 0.035818611833812297 0 -0.072337042472248189 0.037737999038032814 0 -0.073496068618997976 0.036235723967985509 0 -0.079826041464641437 0.036526806006414662 0 -0.080060280949582438 0.037891036417573826 0 -0.079165925202851012 0.037442702175015864 0 -0.079826041464641437 0.036526806006414662 0 -0.081288983496190154 0.036488027779766542 0 -0.080060280949582438 0.037891036417573826 0 -0.058475475424989064 0.030811964549165474 0 -0.063588382799582316 0.029756231115738316 0 -0.080808776061866261 0.036804288799975896 0 -0.080677866087992614 0.037140264794676463 0 -0.080060280949582438 0.037891036417573826 0 -0.042314952285071865 0.035159597822331856 0 -0.042953489297629731 0.034335925242257481 0 -0.043968870876866302 0.035803104453791396 0 -0.058475475424989064 0.030811964549165474 0 -0.052292836595163268 0.029135379263703989 0 -0.052457716184127048 0.026503315412793643 0 -0.053124948231344636 0.025646330258028087 0 -0.052715404062816357 0.025569363059758276 0 -0.042314952285071865 0.035159597822331856 0 -0.042302955084071822 0.036426998864533391 0 -0.043968870876866302 0.035803104453791396 0 -0.080808776061866261 0.036804288799975896 0 -0.080677866087992614 0.037140264794676463 0 -0.080811072590078886 0.037396353430948416 0 -0.058475475424989064 0.030811964549165474 0 -0.060242279436183856 0.035247946272817847 0 -0.060575664575740769 0.03553388585126975 0 -0.060242279436183856 0.035247946272817847 0 -0.080850049565327875 0.037410613086051987 0 -0.080060280949582438 0.037891036417573826 0 -0.080874858418107279 0.039289559183394614 0 -0.059821993853114069 0.038045617973436245 0 -0.060493982855984035 0.039258667988237815 0 -0.059814222279631298 0.03978524211521775 0 -0.080677866087992614 0.037140264794676463 0 -0.080850049565327875 0.037410613086051987 0 -0.080060280949582438 0.037891036417573826 0 -0.042302955084071822 0.036426998864533391 0 -0.043968870876866302 0.035803104453791396 0 -0.043735787615299261 0.039046390927762013 0 -0.060242279436183856 0.035247946272817847 0 -0.055965292865926115 0.037741763366729179 0 -0.060242279436183856 0.035247946272817847 0 -0.065500141116515698 0.039047357410131711 0 -0.080060280949582438 0.037891036417573826 0 -0.079165925202851012 0.037442702175015864 0 -0.079481576220813102 0.038907030375129797 0 -0.079165925202851012 0.037442702175015864 0 -0.077929102997758584 0.037774882341866253 0 -0.079481576220813102 0.038907030375129797 0 -0.077013465690148608 0.036078940706980575 0 -0.077929102997758584 0.037774882341866253 0 -0.078552115325172589 0.03580073450628557 0 -0.079165925202851012 0.037442702175015864 0 -0.077929102997758584 0.037774882341866253 0 -0.078552115325172589 0.03580073450628557 0 -0.079826041464641437 0.036526806006414662 0 -0.079165925202851012 0.037442702175015864 0 -0.078552115325172589 0.03580073450628557 0 -0.079826041464641437 0.036526806006414662 0 -0.078552115325172589 0.03580073450628557 0 -0.079883290968195714 0.034694721940798014 0 -0.078552115325172589 0.03580073450628557 0 -0.078546825894877367 0.03323341682358194 0 -0.079883290968195714 0.034694721940798014 0 -0.077013465690148608 0.036078940706980575 0 -0.078552115325172589 0.03580073450628557 0 -0.076736970694213438 0.033518927759313678 0 -0.078552115325172589 0.03580073450628557 0 -0.076736970694213438 0.033518927759313678 0 -0.078546825894877367 0.03323341682358194 0 -0.078546825894877367 0.03323341682358194 0 -0.079883290968195714 0.034694721940798014 0 -0.079757239162611654 0.032230302498000227 0 -0.079883290968195714 0.034694721940798014 0 -0.081324747548359486 0.033606336530810299 0 -0.079757239162611654 0.032230302498000227 0 -0.079826041464641437 0.036526806006414662 0 -0.081288983496190154 0.036488027779766542 0 -0.079883290968195714 0.034694721940798014 0 -0.081288983496190154 0.036488027779766542 0 -0.079883290968195714 0.034694721940798014 0 -0.081324747548359486 0.033606336530810299 0 -0.052457716184127048 0.026503315412793643 0 -0.052715404062816357 0.025569363059758276 0 -0.052475740706571398 0.022255297121719957 0 -0.058475475424989064 0.030811964549165474 0 -0.059488128431072387 0.027063985979808056 0 -0.052715404062816357 0.025569363059758276 0 -0.052475740706571398 0.022255297121719957 0 -0.054659003397990694 0.023627454123034051 0 -0.053118576863915787 0.025642615530205803 0 -0.052715404062816357 0.025569363059758276 0 -0.054659003397990694 0.023627454123034051 0 -0.052292836595163268 0.029135379263703989 0 -0.052293746545554548 0.029123039607258268 0 -0.052475740706571398 0.022255297121719957 0 -0.054350672709830898 0.019835381428302611 0 -0.054419340360581596 0.021834691845269961 0 -0.052475740706571398 0.022255297121719957 0 -0.052512930385839547 0.018042766757808779 0 -0.054350672709830898 0.019835381428302611 0 -0.081324747548359486 0.033606336530810299 0 -0.079757239162611654 0.032230302498000227 0 -0.080937215553988029 0.03035701905534589 0 -0.059488128431072387 0.027063985979808056 0 -0.054458969218421999 0.018595450886687719 0 -0.079757239162611654 0.032230302498000227 0 -0.079214866916965831 0.030477182535486758 0 -0.078585403588757957 0.031392040623410493 0 -0.079757239162611654 0.032230302498000227 0 -0.079214866916965831 0.030477182535486758 0 -0.080937215553988029 0.03035701905534589 0 -0.079214866916965831 0.030477182535486758 0 -0.080937215553988029 0.03035701905534589 0 -0.078927081974314459 0.02859485708344902 0 -0.038607487238058721 -0.0016298892231482538 0 -0.038468738931284101 -0.0019310493582549843 0 -0.039737641903492882 -0.0010951258486145211 0 -0.054322128732872475 0.017891637262642691 0 -0.054458969218421999 0.018595450886687719 0 -0.038607487238058721 -0.0016298892231482538 0 -0.038185964351554538 -0.0011098220014129762 0 -0.038136993503391586 -0.0014408544132940167 0 -0.038607487238058721 -0.0016298892231482538 0 -0.038575904777226576 -0.0016179727790880749 0 -0.038136993503391586 -0.0014408544132940167 0 -0.054458969218421999 0.018595450886687719 0 -0.046748114042360317 0.014751188641962116 0 -0.038575904777226576 -0.0016179727790880749 0 -0.038017550518811061 -0.0019342251196740492 0 -0.038136993503391586 -0.0014408544132940167 0 -0.076736970694213438 0.033518927759313678 0 -0.078546825894877367 0.03323341682358194 0 -0.077193460456023266 0.031723340251238914 0 -0.078546825894877367 0.03323341682358194 0 -0.077193460456023266 0.031723340251238914 0 -0.078585403588757957 0.031392040623410493 0 -0.078546825894877367 0.03323341682358194 0 -0.079757239162611654 0.032230302498000227 0 -0.078585403588757957 0.031392040623410493 0 -0.077193460456023266 0.031723340251238914 0 -0.078585403588757957 0.031392040623410493 0 -0.077902824914150196 0.029912160547044007 0 -0.079214866916965831 0.030477182535486758 0 -0.078585403588757957 0.031392040623410493 0 -0.077902824914150196 0.029912160547044007 0 -0.077193460456023266 0.031723340251238914 0 -0.077902824914150196 0.029912160547044007 0 -0.076481636933364489 0.030119249716382839 0 -0.077902824914150196 0.029912160547044007 0 -0.076481636933364489 0.030119249716382839 0 -0.076837838842591294 0.0287656772821103 0 -0.077902824914150196 0.029912160547044007 0 -0.076837838842591294 0.0287656772821103 0 -0.078927081974314459 0.02859485708344902 0 -0.079214866916965831 0.030477182535486758 0 -0.077902824914150196 0.029912160547044007 0 -0.078927081974314459 0.02859485708344902 0 -0.077220244664769705 0.027018843511165559 0 -0.076837838842591294 0.0287656772821103 0 -0.078927081974314459 0.02859485708344902 0 -0.0639154873324983 0.017622066342147819 0 -0.059626802176486762 0.016827211084658227 0 -0.052304820312192565 0.0046266194464087765 0 -0.042619552759112639 -0.0015001586739501744 0 -0.043190667448147632 0.0033130649165183179 0 -0.077220244664769705 0.027018843511165559 0 -0.075169487226930426 0.027474294476849407 0 -0.076837838842591294 0.0287656772821103 0 -0.038001304974828683 -0.00053129171119687909 0 -0.039737641903492882 -0.0010951258486145211 0 -0.038071912356343232 0.00048683299449689253 0 -0.038001304974828683 -0.00053129171119687909 0 -0.038597681035097794 -0.0011342702904437729 0 -0.039737641903492882 -0.0010951258486145211 0 -0.038607487238058721 -0.0016298892231482538 0 -0.038185964351554538 -0.0011098220014129762 0 -0.038597681035097794 -0.0011342702904437729 0 -0.038001304974828683 -0.00053129171119687909 0 -0.038185964351554538 -0.0011098220014129762 0 -0.038597681035097794 -0.0011342702904437729 0 -0.038607487238058721 -0.0016298892231482538 0 -0.038597681035097794 -0.0011342702904437729 0 -0.039737641903492882 -0.0010951258486145211 0 -0.054458969218421999 0.018595450886687719 0 -0.059626802176486762 0.016827211084658227 0 -0.042619552759112639 -0.0015001586739501744 0 -0.039737641903492882 -0.0010951258486145211 0 -0.038071912356343232 0.00048683299449689253 0 -0.038468738931284101 -0.0019310493582549843 0 -0.042619552759112639 -0.0015001586739501744 0 -0.039737641903492882 -0.0010951258486145211 0 -0.042619552759112639 -0.0015001586739501744 0 -0.043190667448147632 0.0033130649165183179 0 -0.038071912356343232 0.00048683299449689253 0 -0.038001304974828683 -0.00053129171119687909 0 -0.038071912356343232 0.00048683299449689253 0 -0.037716574011617231 -0.00069057233495935125 0 -0.038001304974828683 -0.00053129171119687909 0 -0.037716574011617231 -0.00069057233495935125 0 -0.037859030326807597 -0.00064497005596386833 0 -0.038001304974828683 -0.00053129171119687909 0 -0.037778587437514596 -0.00070520348166529245 0 -0.037859030326807597 -0.00064497005596386833 0 -0.038001304974828683 -0.00053129171119687909 0 -0.038185964351554538 -0.0011098220014129762 0 -0.037778587437514596 -0.00070520348166529245 0 -0.037859030326807597 -0.00064497005596386833 0 -0.038249408698380206 -0.00055813185069553746 0 -0.038107561543265452 -0.00037236462181129161 0 -0.037778587437514596 -0.00070520348166529245 0 -0.037859030326807597 -0.00064497005596386833 0 -0.038107561543265452 -0.00037236462181129161 0 -0.038249408698380206 -0.00055813185069553746 0 -0.03839805785661736 -0.00031892117037520321 0 -0.038107561543265452 -0.00037236462181129161 0 -0.037859030326807597 -0.00064497005596386833 0 -0.038119798667812337 -0.00094486966434336546 0 -0.038249408698380206 -0.00055813185069553746 0 -0.037716574011617231 -0.00069057233495935125 0 -0.037859030326807597 -0.00064497005596386833 0 -0.038119798667812337 -0.00094486966434336546 0 -0.038119798667812337 -0.00094486966434336546 0 -0.038619132242002377 -0.00087472506224239323 0 -0.038249408698380206 -0.00055813185069553746 0 -0.038619132242002377 -0.00087472506224239323 0 -0.038955007591836996 -0.00025039466138375937 0 -0.038548702539085059 -0.00047888035952303265 0 -0.038619132242002377 -0.00087472506224239323 0 -0.038249408698380206 -0.00055813185069553746 0 -0.038548702539085059 -0.00047888035952303265 0 -0.038619132242002377 -0.00087472506224239323 0 -0.038955007591836996 -0.00025039466138375937 0 -0.039609988841735624 -0.0013620334074572605 0 -0.038955007591836996 -0.00025039466138375937 0 -0.039609988841735624 -0.0013620334074572605 0 -0.039897500742153938 0.00087181322808964649 0 -0.038955007591836996 -0.00025039466138375937 0 -0.037555942159309755 0.0020281146690804708 0 -0.039897500742153938 0.00087181322808964649 0 -0.040931242014250552 0.0032630489214417109 0 -0.040931447190880543 0.0051711324099327771 0 -0.038955007591836996 -0.00025039466138375937 0 -0.03839805785661736 -0.00031892117037520321 0 -0.038408073981615262 -0.00012999790875027481 0 -0.038955007591836996 -0.00025039466138375937 0 -0.038548702539085059 -0.00047888035952303265 0 -0.03839805785661736 -0.00031892117037520321 0 -0.038249408698380206 -0.00055813185069553746 0 -0.038548702539085059 -0.00047888035952303265 0 -0.03839805785661736 -0.00031892117037520321 0 -0.038955007591836996 -0.00025039466138375937 0 -0.037555942159309755 0.0020281146690804708 0 -0.036372347361720049 0.0023482326271470062 0 -0.03839805785661736 -0.00031892117037520321 0 -0.038408073981615262 -0.00012999790875027481 0 -0.038265209304944585 -0.00021098286573310702 0 -0.037555942159309755 0.0020281146690804708 0 -0.036372347361720049 0.0023482326271470062 0 -0.037530385653557152 0.0046655754546932474 0 -0.032298340733416094 0.011204271947869463 0 -0.034974148362441046 0.0041138975401465048 0 -0.037555942159309755 0.0020281146690804708 0 -0.039781185163838162 0.0048070232216963077 0 -0.039897500742153938 0.00087181322808964649 0 -0.033274518513220518 0.0084658753491564185 0 -0.032298340733416094 0.011204271947869463 0 -0.041149171234461185 0.0061902434101757334 0 -0.037530385653557152 0.0046655754546932474 0 -0.037420519787292071 0.0065849162638872702 0 -0.037555942159309755 0.0020281146690804708 0 -0.041149171234461185 0.0061902434101757334 0 -0.037530385653557152 0.0046655754546932474 0 -0.036372347361720049 0.0023482326271470062 0 -0.037530385653557152 0.0046655754546932474 0 -0.03565410102053513 0.0067052301334360213 0 -0.037530385653557152 0.0046655754546932474 0 -0.037420519787292071 0.0065849162638872702 0 -0.03565410102053513 0.0067052301334360213 0 -0.038036249161514574 0.0004052823048165698 0 -0.038143101829580542 -6.1991716891860636e-05 0 -0.03787646607232837 -3.2551572184322127e-05 0 -0.041643151449428213 0.011347999522158746 0 -0.039288389981125903 0.0041153541080931576 0 -0.036372347361720049 0.0023482326271470062 0 -0.03565410102053513 0.0067052301334360213 0 -0.032972586310313717 0.006548709087804052 0 -0.037416554833847114 -0.0021547000108346741 0 -0.037652353324029275 -0.001951504107619177 0 -0.037552059380290576 -0.0016309116921094165 0 -0.040931447190880543 0.0051711324099327771 0 -0.041643151449428213 0.011347999522158746 0 -0.038408073981615262 -0.00012999790875027481 0 -0.038036249161514574 0.0004052823048165698 0 -0.038143101829580542 -6.1991716891860636e-05 0 -0.037416554833847114 -0.0021547000108346741 0 -0.037652353324029275 -0.001951504107619177 0 -0.037537366925005769 -0.0023126241275104741 0 -0.054350672709830898 0.019835381428302611 0 -0.054419340360581596 0.021834691845269961 0 -0.056186800380767503 0.021624977250606567 0 -0.046748114042360317 0.014751188641962116 0 -0.042498976451166785 0.015753403474439199 0 -0.038017550518811061 -0.0019342251196740492 0 -0.037652353324029275 -0.001951504107619177 0 -0.037537366925005769 -0.0023126241275104741 0 -0.038017550518811061 -0.0019342251196740492 0 -0.037652353324029275 -0.001951504107619177 0 -0.037552059380290576 -0.0016309116921094165 0 -0.037778587437514596 -0.00070520348166529245 0 -0.038136993503391586 -0.0014408544132940167 0 -0.037552059380290576 -0.0016309116921094165 0 -0.038728899121862601 0.0023905202264670549 0 -0.039288389981125903 0.0041153541080931576 0 -0.038017550518811061 -0.0019342251196740492 0 -0.038136993503391586 -0.0014408544132940167 0 -0.037552059380290576 -0.0016309116921094165 0 -0.038185964351554538 -0.0011098220014129762 0 -0.037778587437514596 -0.00070520348166529245 0 -0.038136993503391586 -0.0014408544132940167 0 -0.037778587437514596 -0.00070520348166529245 0 -0.038107561543265452 -0.00037236462181129161 0 -0.03787646607232837 -3.2551572184322127e-05 0 -0.038265209304944585 -0.00021098286573310702 0 -0.038107561543265452 -0.00037236462181129161 0 -0.038143101829580542 -6.1991716891860636e-05 0 -0.03839805785661736 -0.00031892117037520321 0 -0.038265209304944585 -0.00021098286573310702 0 -0.038107561543265452 -0.00037236462181129161 0 -0.038408073981615262 -0.00012999790875027481 0 -0.038265209304944585 -0.00021098286573310702 0 -0.038143101829580542 -6.1991716891860636e-05 0 -0.038107561543265452 -0.00037236462181129161 0 -0.038143101829580542 -6.1991716891860636e-05 0 -0.03787646607232837 -3.2551572184322127e-05 0 -0.042908376236234544 0.0053221686141420475 0 -0.04007228731481307 0.0056378398481814829 0 -0.040969689139101928 0.0024924486028589246 0 -0.04007228731481307 0.0056378398481814829 0 -0.040969689139101928 0.0024924486028589246 0 -0.038502083176755894 0.0040217494387800711 0 -0.040969689139101928 0.0024924486028589246 0 -0.038724114661483823 0.0018165807471946344 0 -0.038502083176755894 0.0040217494387800711 0 -0.04007228731481307 0.0056378398481814829 0 -0.038502083176755894 0.0040217494387800711 0 -0.038232964836834277 0.0066244809217125512 0 -0.038502083176755894 0.0040217494387800711 0 -0.035764278505808669 0.0055339011259011228 0 -0.038232964836834277 0.0066244809217125512 0 -0.038502083176755894 0.0040217494387800711 0 -0.035764278505808669 0.0055339011259011228 0 -0.035761671990157 0.0027405299058185801 0 -0.035764278505808669 0.0055339011259011228 0 -0.035761671990157 0.0027405299058185801 0 -0.034433403136881709 0.0038408708733312443 0 -0.0378155103525602 0.002268239238434288 0 -0.037157281944574655 0.001717052864155985 0 -0.038011346858776399 0.00019977342186599519 0 -0.038724114661483823 0.0018165807471946344 0 -0.03752686067889166 0.0023253790397177719 0 -0.038724114661483823 0.0018165807471946344 0 -0.038502083176755894 0.0040217494387800711 0 -0.03752686067889166 0.0023253790397177719 0 -0.035761671990157 0.0027405299058185801 0 -0.033151788852430815 0.0014312003805298588 0 -0.034433403136881709 0.0038408708733312443 0 -0.033151788852430815 0.0014312003805298588 0 -0.034433403136881709 0.0038408708733312443 0 -0.033064687226455315 0.0056455454985403566 0 -0.037157281944574655 0.001717052864155985 0 -0.036418203116732786 0.00073039645276544364 0 -0.036418203116732786 0.00073039645276544364 0 -0.034974148362441046 0.0041138975401465048 0 -0.035764278505808669 0.0055339011259011228 0 -0.034433403136881709 0.0038408708733312443 0 -0.033064687226455315 0.0056455454985403566 0 -0.035764278505808669 0.0055339011259011228 0 -0.033064687226455315 0.0056455454985403566 0 -0.034841495431805675 0.0076772321365174345 0 -0.033058935426597325 0.0095716718581369889 0 -0.033064687226455315 0.0056455454985403566 0 -0.034841495431805675 0.0076772321365174345 0 -0.033058935426597325 0.0095716718581369889 0 -0.034841495431805675 0.0076772321365174345 0 -0.036074561911049421 0.0097621347743824024 0 -0.036074561911049421 0.0097621347743824024 0 -0.036711221142980713 0.0078640042189448457 0 -0.038339438621051963 0.008911835906345273 0 -0.034841495431805675 0.0076772321365174345 0 -0.036074561911049421 0.0097621347743824024 0 -0.036711221142980713 0.0078640042189448457 0 -0.035764278505808669 0.0055339011259011228 0 -0.034841495431805675 0.0076772321365174345 0 -0.036711221142980713 0.0078640042189448457 0 -0.035764278505808669 0.0055339011259011228 0 -0.036711221142980713 0.0078640042189448457 0 -0.038232964836834277 0.0066244809217125512 0 -0.036711221142980713 0.0078640042189448457 0 -0.038232964836834277 0.0066244809217125512 0 -0.038339438621051963 0.008911835906345273 0 -0.038232964836834277 0.0066244809217125512 0 -0.038339438621051963 0.008911835906345273 0 -0.039486924830906156 0.0075691198527511987 0 -0.04007228731481307 0.0056378398481814829 0 -0.038232964836834277 0.0066244809217125512 0 -0.039486924830906156 0.0075691198527511987 0 -0.036074561911049421 0.0097621347743824024 0 -0.038339438621051963 0.008911835906345273 0 -0.037686448458931029 0.011392263396315867 0 -0.038339438621051963 0.008911835906345273 0 -0.040002089118696377 0.0085455382096979501 0 -0.039486924830906156 0.0075691198527511987 0 -0.038339438621051963 0.008911835906345273 0 -0.040002089118696377 0.0085455382096979501 0 -0.039421571912710958 0.010569144871749155 0 -0.040002089118696377 0.0085455382096979501 0 -0.040654361841320201 0.0078024688125518478 0 -0.039486924830906156 0.0075691198527511987 0 -0.042908376236234544 0.0053221686141420475 0 -0.04007228731481307 0.0056378398481814829 0 -0.040654361841320201 0.0078024688125518478 0 -0.040407110511941666 0.0083222636727275177 0 -0.040002089118696377 0.0085455382096979501 0 -0.040654361841320201 0.0078024688125518478 0 -0.04007228731481307 0.0056378398481814829 0 -0.040654361841320201 0.0078024688125518478 0 -0.039486924830906156 0.0075691198527511987 0 -0.041380306837414733 0.011676257322069323 0 -0.039424640268643382 0.01242741667733085 0 -0.040126593793116255 0.014388707712762114 0 -0.037740099046113314 0.011637613093371758 0 -0.038245780826780575 0.010704507055718519 0 -0.041380306837414733 0.011676257322069323 0 -0.040002089118696377 0.0085455382096979501 0 -0.039421571912710958 0.010569144871749155 0 -0.041380306837414733 0.011676257322069323 0 -0.039424640268643382 0.01242741667733085 0 -0.039421571912710958 0.010569144871749155 0 -0.039424640268643382 0.01242741667733085 0 -0.039421571912710958 0.010569144871749155 0 -0.037686448458931029 0.011392263396315867 0 -0.038339438621051963 0.008911835906345273 0 -0.039421571912710958 0.010569144871749155 0 -0.037686448458931029 0.011392263396315867 0 -0.039424640268643382 0.01242741667733085 0 -0.037137066248928437 0.01438222396993331 0 -0.040126593793116255 0.014388707712762114 0 -0.039424640268643382 0.01242741667733085 0 -0.037686448458931029 0.011392263396315867 0 -0.037137066248928437 0.01438222396993331 0 -0.024350322912273251 0.023189566734069057 0 -0.024691101878312961 0.027028052929800334 0 -0.027400851973060737 0.027023907199382732 0 -0.037686448458931029 0.011392263396315867 0 -0.035185752329908421 0.012030994533612645 0 -0.037137066248928437 0.01438222396993331 0 -0.031494069172204174 0.016290757053614061 0 -0.031867468524419025 0.020870223724523001 0 -0.036074561911049421 0.0097621347743824024 0 -0.037686448458931029 0.011392263396315867 0 -0.035185752329908421 0.012030994533612645 0 -0.032298340733416094 0.011204271947869463 0 -0.031494069172204174 0.016290757053614061 0 -0.033058935426597325 0.0095716718581369889 0 -0.036074561911049421 0.0097621347743824024 0 -0.035185752329908421 0.012030994533612645 0 -0.02128399658815245 0.019330854258633803 0 -0.024350322912273251 0.023189566734069057 0 -0.021096268114663079 0.023932755390238512 0 -0.024350322912273251 0.023189566734069057 0 -0.02263702515080307 0.026303660670787845 0 -0.021096268114663079 0.023932755390238512 0 -0.024350322912273251 0.023189566734069057 0 -0.02263702515080307 0.026303660670787845 0 -0.024691101878312961 0.027028052929800334 0 -0.02263702515080307 0.026303660670787845 0 -0.021096268114663079 0.023932755390238512 0 -0.020921576416699589 0.028739120051783622 0 -0.02263702515080307 0.026303660670787845 0 -0.023008602305525983 0.028906701201809191 0 -0.024691101878312961 0.027028052929800334 0 -0.02263702515080307 0.026303660670787845 0 -0.023008602305525983 0.028906701201809191 0 -0.020921576416699589 0.028739120051783622 0 -0.029650746043819936 0.026403598625804794 0 -0.031121419978105105 0.026368295627924403 0 -0.023008602305525983 0.028906701201809191 0 -0.024160570147763422 0.031959646242966509 0 -0.020933904842527162 0.02873730448448121 0 -0.028311161049145227 0.028755225861365665 0 -0.031121419978105105 0.026368295627924403 0 -0.023008602305525983 0.028906701201809191 0 -0.024160570147763422 0.031959646242966509 0 -0.025763328285034939 0.029571514856916836 0 -0.024026937949947022 0.032223652111042451 0 -0.020727952709023223 0.029009314220044342 0 -0.020515063430808448 0.034655135167330806 0 -0.024160570147763422 0.031959646242966509 0 -0.025763328285034939 0.029571514856916836 0 -0.027463753195693875 0.032245608065945952 0 -0.025763328285034939 0.029571514856916836 0 -0.024691101878312961 0.027028052929800334 0 -0.027400851973060737 0.027023907199382732 0 -0.023008602305525983 0.028906701201809191 0 -0.025763328285034939 0.029571514856916836 0 -0.024691101878312961 0.027028052929800334 0 -0.031867468524419025 0.020870223724523001 0 -0.031837935076936955 0.025325550526974352 0 -0.037137066248928437 0.01438222396993331 0 -0.038999200873141064 0.016717180012781351 0 -0.040126593793116255 0.014388707712762114 0 -0.025763328285034939 0.029571514856916836 0 -0.027400851973060737 0.027023907199382732 0 -0.030492662158588136 0.030873426372848796 0 -0.025763328285034939 0.029571514856916836 0 -0.027463753195693875 0.032245608065945952 0 -0.030492662158588136 0.030873426372848796 0 -0.027463753195693875 0.032245608065945952 0 -0.030492662158588136 0.030873426372848796 0 -0.029579196585595283 0.033650539116162753 0 -0.041509460598015552 0.016863824577380847 0 -0.038999200873141064 0.016717180012781351 0 -0.040126593793116255 0.014388707712762114 0 -0.041509460598015552 0.016863824577380847 0 -0.040831229922402776 0.019053781937168623 0 -0.038999200873141064 0.016717180012781351 0 -0.040945456086160875 0.016665616723261716 0 -0.041709077135653583 0.020896524584663925 0 -0.041531794070435023 0.023416533105793981 0 -0.04137062104570418 0.024853384682077578 0 -0.040506984447479757 0.022301762200580763 0 -0.042030108163141996 0.023912237761375185 0 -0.041531794070435023 0.023416533105793981 0 -0.04137062104570418 0.024853384682077578 0 -0.042030108163141996 0.023912237761375185 0 -0.041531794070435023 0.023416533105793981 0 -0.042221595902867413 0.022596069207247157 0 -0.044233233743033798 0.022970206084385603 0 -0.043181879008827063 0.024286822369301509 0 -0.042221595902867413 0.022596069207247157 0 -0.042030108163141996 0.023912237761375185 0 -0.043181879008827063 0.024286822369301509 0 -0.042221595902867413 0.022596069207247157 0 -0.052292836595163268 0.029135379263703989 0 -0.047535463047128454 0.022679531040134551 0 -0.047535463047128454 0.022679531040134551 0 -0.042498976451166785 0.015753403474439199 0 -0.042030108163141996 0.023912237761375185 0 -0.043181879008827063 0.024286822369301509 0 -0.042143992591260858 0.025592985736002955 0 -0.054659003397990694 0.023627454123034051 0 -0.054419340360581596 0.021834691845269961 0 -0.056186800380767503 0.021624977250606567 0 -0.052475740706571398 0.022255297121719957 0 -0.054659003397990694 0.023627454123034051 0 -0.054419340360581596 0.021834691845269961 0 -0.041643151449428213 0.011347999522158746 0 -0.042498976451166785 0.015753403474439199 0 -0.041643151449428213 0.011347999522158746 0 -0.040945456086160875 0.016665616723261716 0 -0.042498976451166785 0.015753403474439199 0 -0.040945456086160875 0.016665616723261716 0 -0.042030108163141996 0.023912237761375185 0 -0.042143992591260858 0.025592985736002955 0 -0.04137062104570418 0.024853384682077578 0 -0.040248904045936645 0.017984741842870654 0 -0.041135204454612613 0.016849140871465766 0 -0.039284239454372274 0.015069444336572334 0 -0.03565410102053513 0.0067052301334360213 0 -0.032972586310313717 0.006548709087804052 0 -0.03383587592247457 0.0092035396675288015 0 -0.03565410102053513 0.0067052301334360213 0 -0.03383587592247457 0.0092035396675288015 0 -0.037221514678558817 0.0094242819944578508 0 -0.037420519787292071 0.0065849162638872702 0 -0.03565410102053513 0.0067052301334360213 0 -0.037221514678558817 0.0094242819944578508 0 -0.032298340733416094 0.011204271947869463 0 -0.031603314352861289 0.017933690784012749 0 -0.041149171234461185 0.0061902434101757334 0 -0.037221514678558817 0.0094242819944578508 0 -0.041000898087234748 0.011005174788614189 0 -0.041149171234461185 0.0061902434101757334 0 -0.037420519787292071 0.0065849162638872702 0 -0.037221514678558817 0.0094242819944578508 0 -0.037221514678558817 0.0094242819944578508 0 -0.041000898087234748 0.011005174788614189 0 -0.037156057852541301 0.012474115842907503 0 -0.041000898087234748 0.011005174788614189 0 -0.037156057852541301 0.012474115842907503 0 -0.040502491412448438 0.01577406158384782 0 -0.03383587592247457 0.0092035396675288015 0 -0.037221514678558817 0.0094242819944578508 0 -0.037156057852541301 0.012474115842907503 0 -0.040945456086160875 0.016665616723261716 0 -0.036655954727237816 0.020511897633307803 0 -0.041164222763173566 0.024395222507327344 0 -0.039881986929045495 0.023183527323142133 0 -0.040506984447479757 0.022301762200580763 0 -0.039881986929045495 0.023183527323142133 0 -0.040249030693196269 0.022198393037751191 0 -0.038530466346620516 0.021935049618303015 0 -0.039881986929045495 0.023183527323142133 0 -0.040506984447479757 0.022301762200580763 0 -0.040249030693196269 0.022198393037751191 0 -0.026119132395431951 0.030014558431868864 0 -0.028549999526453668 0.031679670699986957 0 -0.031395663527615081 0.030886271505034927 0 -0.036655954727237816 0.020511897633307803 0 -0.032235410670497198 0.026298686464443506 0 -0.041000898087234748 0.011005174788614189 0 -0.040809965785000339 0.016075393245727224 0 -0.040502491412448438 0.01577406158384782 0 -0.031603314352861289 0.017933690784012749 0 -0.031121419978105105 0.026368295627924403 0 -0.038372581561089684 0.031564181355845246 0 -0.032235410670497198 0.026298686464443506 0 -0.028549999526453668 0.031679670699986957 0 -0.031769013136249233 0.031247197908363705 0 -0.031395663527615081 0.030886271505034927 0 -0.031121419978105105 0.026368295627924403 0 -0.032235410670497198 0.026298686464443506 0 -0.031121419978105105 0.026368295627924403 0 -0.027153323584145274 0.035977679180568094 0 -0.028549999526453668 0.031679670699986957 0 -0.031769013136249233 0.031247197908363705 0 -0.029197609161435416 0.03532036720052463 0 -0.031769013136249233 0.031247197908363705 0 -0.029197609161435416 0.03532036720052463 0 -0.03150825543096189 0.038357300595628252 0 -0.026119132395431951 0.030014558431868864 0 -0.028549999526453668 0.031679670699986957 0 -0.025896473832973631 0.036328327396230438 0 -0.038372581561089684 0.031564181355845246 0 -0.037183888733478367 0.037461592925615753 0 -0.028549999526453668 0.031679670699986957 0 -0.029197609161435416 0.03532036720052463 0 -0.025896473832973631 0.036328327396230438 0 -0.04865220610557304 0.035442724452204345 0 -0.046229991113073764 0.037356034342072818 0 -0.048562487977373656 0.038949808852283545 0 -0.04865220610557304 0.035442724452204345 0 -0.046229991113073764 0.037356034342072818 0 -0.045811054524924143 0.034867588425611135 0 -0.038372581561089684 0.031564181355845246 0 -0.044568828960264491 0.029998323032180623 0 -0.041531794070435023 0.023416533105793981 0 -0.040506984447479757 0.022301762200580763 0 -0.042221595902867413 0.022596069207247157 0 -0.040506984447479757 0.022301762200580763 0 -0.040249030693196269 0.022198393037751191 0 -0.042221595902867413 0.022596069207247157 0 -0.042953489297629731 0.034335925242257481 0 -0.045811054524924143 0.034867588425611135 0 -0.043968870876866302 0.035803104453791396 0 -0.052292836595163268 0.029135379263703989 0 -0.044568828960264491 0.029998323032180623 0 -0.046229991113073764 0.037356034342072818 0 -0.045811054524924143 0.034867588425611135 0 -0.043968870876866302 0.035803104453791396 0 -0.046229991113073764 0.037356034342072818 0 -0.043968870876866302 0.035803104453791396 0 -0.043735787615299261 0.039046390927762013 0 -0.043735787615299261 0.039046390927762013 0 -0.045179004118875335 0.041709837861798639 0 -0.04657069555320429 0.040236855571466799 0 -0.055965292865926115 0.037741763366729179 0 -0.053806342983769559 0.040596575930710227 0 -0.046229991113073764 0.037356034342072818 0 -0.043735787615299261 0.039046390927762013 0 -0.04657069555320429 0.040236855571466799 0 -0.060493982855984035 0.039258667988237815 0 -0.061146801902478086 0.040456922220051254 0 -0.060277869674512041 0.040545788576050859 0 -0.061146801902478086 0.040456922220051254 0 -0.06082731842347789 0.041309128214538963 0 -0.060277869674512041 0.040545788576050859 0 -0.047057444992840709 0.042331714397221568 0 -0.04657069555320429 0.040236855571466799 0 -0.04848528934577595 0.042503065260179183 0 -0.045179004118875335 0.041709837861798639 0 -0.047057444992840709 0.042331714397221568 0 -0.04665868538661095 0.044389569115850694 0 -0.045179004118875335 0.041709837861798639 0 -0.047057444992840709 0.042331714397221568 0 -0.04657069555320429 0.040236855571466799 0 -0.046229991113073764 0.037356034342072818 0 -0.04657069555320429 0.040236855571466799 0 -0.048562487977373656 0.038949808852283545 0 -0.025896473832973631 0.036328327396230438 0 -0.028262304049055862 0.038999076256565172 0 -0.025665215302721072 0.042671145076150808 0 -0.037183888733478367 0.037461592925615753 0 -0.035985101784941825 0.042727083089864414 0 -0.04657069555320429 0.040236855571466799 0 -0.048562487977373656 0.038949808852283545 0 -0.04848528934577595 0.042503065260179183 0 -0.029197609161435416 0.03532036720052463 0 -0.025896473832973631 0.036328327396230438 0 -0.028262304049055862 0.038999076256565172 0 -0.029197609161435416 0.03532036720052463 0 -0.028262304049055862 0.038999076256565172 0 -0.03150825543096189 0.038357300595628252 0 -0.027153323584145274 0.035977679180568094 0 -0.024084996988954169 0.043280570721276279 0 -0.03150825543096189 0.038357300595628252 0 -0.028791118363829624 0.042373425317033579 0 -0.031231590995521617 0.045500539518348253 0 -0.020515063430808448 0.034655135167330806 0 -0.020605047030062263 0.039755043346395173 0 -0.021217691724669238 0.039163657370793456 0 -0.028262304049055862 0.038999076256565172 0 -0.03150825543096189 0.038357300595628252 0 -0.028791118363829624 0.042373425317033579 0 -0.028262304049055862 0.038999076256565172 0 -0.028791118363829624 0.042373425317033579 0 -0.025665215302721072 0.042671145076150808 0 -0.047057444992840709 0.042331714397221568 0 -0.04848528934577595 0.042503065260179183 0 -0.048345568648024709 0.043002616577517909 0 -0.04848528934577595 0.042503065260179183 0 -0.048345568648024709 0.043002616577517909 0 -0.048226201014214799 0.046855562359588571 0 -0.035985101784941825 0.042727083089864414 0 -0.034159993964520782 0.04832526253219703 0 -0.048345568648024709 0.043002616577517909 0 -0.047804707042055028 0.045189612900306243 0 -0.048226201014214799 0.046855562359588571 0 -0.025665215302721072 0.042671145076150808 0 -0.028005312510673355 0.045788250376371464 0 -0.025446697221558071 0.049030844086359583 0 -0.028791118363829624 0.042373425317033579 0 -0.025665215302721072 0.042671145076150808 0 -0.028005312510673355 0.045788250376371464 0 -0.028791118363829624 0.042373425317033579 0 -0.028005312510673355 0.045788250376371464 0 -0.031231590995521617 0.045500539518348253 0 -0.028005312510673355 0.045788250376371464 0 -0.031231590995521617 0.045500539518348253 0 -0.028541327025525733 0.04900219598984841 0 -0.020605047030062263 0.039755043346395173 0 -0.021249786332176199 0.040003840774278071 0 -0.020941678895075724 0.04062762759211596 0 -0.024084996988954169 0.043280570721276279 0 -0.01947585769100103 0.05596492309270077 0 -0.031231590995521617 0.045500539518348253 0 -0.028541327025525733 0.04900219598984841 0 -0.030944199804577154 0.05263715057281363 0 -0.028541327025525733 0.04900219598984841 0 -0.027904953899116985 0.051994345868969873 0 -0.030944199804577154 0.05263715057281363 0 -0.047804707042055028 0.045189612900306243 0 -0.048226201014214799 0.046855562359588571 0 -0.047639210407906259 0.046008514060122574 0 -0.048226201014214799 0.046855562359588571 0 -0.047413257674957299 0.046847902595596402 0 -0.047639210407906259 0.046008514060122574 0 -0.028005312510673355 0.045788250376371464 0 -0.028541327025525733 0.04900219598984841 0 -0.025446697221558071 0.049030844086359583 0 -0.028541327025525733 0.04900219598984841 0 -0.02692251255561743 0.050777011406067205 0 -0.027904953899116985 0.051994345868969873 0 -0.028541327025525733 0.04900219598984841 0 -0.025446697221558071 0.049030844086359583 0 -0.02692251255561743 0.050777011406067205 0 -0.047299217959328378 0.047603987938735458 0 -0.046375771978023117 0.04773398412409597 0 -0.04734724444048595 0.048702048507290256 0 -0.047413257674957299 0.046847902595596402 0 -0.046375771978023117 0.04773398412409597 0 -0.046612929173313292 0.045441475021851779 0 -0.046375771978023117 0.04773398412409597 0 -0.044683806028421293 0.047180628159695391 0 -0.046612929173313292 0.045441475021851779 0 -0.047299217959328378 0.047603987938735458 0 -0.047413257674957299 0.046847902595596402 0 -0.046375771978023117 0.04773398412409597 0 -0.048226201014214799 0.046855562359588571 0 -0.047299217959328378 0.047603987938735458 0 -0.04734724444048595 0.048702048507290256 0 -0.048226201014214799 0.046855562359588571 0 -0.047299217959328378 0.047603987938735458 0 -0.047413257674957299 0.046847902595596402 0 -0.047413257674957299 0.046847902595596402 0 -0.047639210407906259 0.046008514060122574 0 -0.046200213160078767 0.044785471725764116 0 -0.05151127842155942 0.043380658111639089 0 -0.051816953407364003 0.043083599663728114 0 -0.046375771978023117 0.04773398412409597 0 -0.044683806028421293 0.047180628159695391 0 -0.045717191618337275 0.048613356419746435 0 -0.055185462951098503 0.044760098979787583 0 -0.051816953407364003 0.043083599663728114 0 -0.060803026684191352 0.042482952675533495 0 -0.06082731842347789 0.041309128214538963 0 -0.061788960194710328 0.041633974928804968 0 -0.061146801902478086 0.040456922220051254 0 -0.06082731842347789 0.041309128214538963 0 -0.061788960194710328 0.041633974928804968 0 -0.060803026684191352 0.042482952675533495 0 -0.06082731842347789 0.041309128214538963 0 -0.060114684859925903 0.041413956901026415 0 -0.053806342983769559 0.040596575930710227 0 -0.051816953407364003 0.043083599663728114 0 -0.048345568648024709 0.043002616577517909 0 -0.047804707042055028 0.045189612900306243 0 -0.046200213160078767 0.044785471725764116 0 -0.047057444992840709 0.042331714397221568 0 -0.048345568648024709 0.043002616577517909 0 -0.04665868538661095 0.044389569115850694 0 -0.05082236426706567 0.043631855006491284 0 -0.051816953407364003 0.043083599663728114 0 -0.047804707042055028 0.045189612900306243 0 -0.047639210407906259 0.046008514060122574 0 -0.046200213160078767 0.044785471725764116 0 -0.029083077524735216 0.029320886030072182 0 -0.025774690937678979 0.033662661067024008 0 -0.020751220995018214 0.041229495592926213 0 -0.021378673226848974 0.040771493990980991 0 -0.021054542677079173 0.040758016975111319 0 -0.026393477262359032 0.029741599256221822 0 -0.021747420094938907 0.036379988871363338 0 -0.02456992364285452 0.038325195326824144 0 -0.023021992192849963 0.038534760520933596 0 -0.023151278617438976 0.039276871288890118 0 -0.02456992364285452 0.038325195326824144 0 -0.024329146131757674 0.038026855324366282 0 -0.023021992192849963 0.038534760520933596 0 -0.029083077524735216 0.029320886030072182 0 -0.031837935076936955 0.025325550526974352 0 -0.03365637967284827 0.034768115714206869 0 -0.030492662158588136 0.030873426372848796 0 -0.029579196585595283 0.033650539116162753 0 -0.03365637967284827 0.034768115714206869 0 -0.029579196585595283 0.033650539116162753 0 -0.029514719235844106 0.036296788695791414 0 -0.029579196585595283 0.033650539116162753 0 -0.027398390154844444 0.035301025843905917 0 -0.029514719235844106 0.036296788695791414 0 -0.027463753195693875 0.032245608065945952 0 -0.029579196585595283 0.033650539116162753 0 -0.027398390154844444 0.035301025843905917 0 -0.023021992192849963 0.038534760520933596 0 -0.021837390237927513 0.039044878208595063 0 -0.023151278617438976 0.039276871288890118 0 -0.027398390154844444 0.035301025843905917 0 -0.029514719235844106 0.036296788695791414 0 -0.025310244671174046 0.037824707741664083 0 -0.025774690937678979 0.033662661067024008 0 -0.02354776714866318 0.035942307291297687 0 -0.025310244671174046 0.037824707741664083 0 -0.024409799971434921 0.035004300464705186 0 -0.022744875214506348 0.036625337182998159 0 -0.027398390154844444 0.035301025843905917 0 -0.025310244671174046 0.037824707741664083 0 -0.024409799971434921 0.035004300464705186 0 -0.024026937949947022 0.032223652111042451 0 -0.027398390154844444 0.035301025843905917 0 -0.024409799971434921 0.035004300464705186 0 -0.024160570147763422 0.031959646242966509 0 -0.027463753195693875 0.032245608065945952 0 -0.027398390154844444 0.035301025843905917 0 -0.028311161049145227 0.028755225861365665 0 -0.02856847415735312 0.030467749530298228 0 -0.024026937949947022 0.032223652111042451 0 -0.020515063430808448 0.034655135167330806 0 -0.024409799971434921 0.035004300464705186 0 -0.020515063430808448 0.034655135167330806 0 -0.024409799971434921 0.035004300464705186 0 -0.022744875214506348 0.036625337182998159 0 -0.020515063430808448 0.034655135167330806 0 -0.022744875214506348 0.036625337182998159 0 -0.021217691724669238 0.039163657370793456 0 -0.025310244671174046 0.037824707741664083 0 -0.022744875214506348 0.036625337182998159 0 -0.021217691724669238 0.039163657370793456 0 -0.021837390237927513 0.039044878208595063 0 -0.021217691724669238 0.039163657370793456 0 -0.02153483362162404 0.039561248382569553 0 -0.02153483362162404 0.039561248382569553 0 -0.021249786332176199 0.040003840774278071 0 -0.021811383582965707 0.040088416386414936 0 -0.02354776714866318 0.035942307291297687 0 -0.022484393418743042 0.036750454831021878 0 -0.020605047030062263 0.039755043346395173 0 -0.021217691724669238 0.039163657370793456 0 -0.021249786332176199 0.040003840774278071 0 -0.021217691724669238 0.039163657370793456 0 -0.02153483362162404 0.039561248382569553 0 -0.021249786332176199 0.040003840774278071 0 -0.021249786332176199 0.040003840774278071 0 -0.021449436021309051 0.040306401273133542 0 -0.021811383582965707 0.040088416386414936 0 -0.021249786332176199 0.040003840774278071 0 -0.021449436021309051 0.040306401273133542 0 -0.020941678895075724 0.04062762759211596 0 -0.021811383582965707 0.040088416386414936 0 -0.021658226906672733 0.040192389551331503 0 -0.021490139229701697 0.040277914862389602 0 -0.021449436021309051 0.040306401273133542 0 -0.021811383582965707 0.040088416386414936 0 -0.021648042684536371 0.040250225184285157 0 -0.021811383582965707 0.040088416386414936 0 -0.021648042684536371 0.040250225184285157 0 -0.021658226906672733 0.040192389551331503 0 -0.021648042684536371 0.040250225184285157 0 -0.021658226906672733 0.040192389551331503 0 -0.021621974495606242 0.04020146901663206 0 -0.021837390237927513 0.039044878208595063 0 -0.021811383582965707 0.040088416386414936 0 -0.023151278617438976 0.039276871288890118 0 -0.021837390237927513 0.039044878208595063 0 -0.02153483362162404 0.039561248382569553 0 -0.021811383582965707 0.040088416386414936 0 -0.021124449046760092 0.037739798502359846 0 -0.021747420094938907 0.036379988871363338 0 -0.021811383582965707 0.040088416386414936 0 -0.021414966786951383 0.040477142363521887 0 -0.021490139229701697 0.040277914862389602 0 -0.021811383582965707 0.040088416386414936 0 -0.021378673226848974 0.040771493990980991 0 -0.021414966786951383 0.040477142363521887 0 -0.021414966786951383 0.040477142363521887 0 -0.021490139229701697 0.040277914862389602 0 -0.021170315483932309 0.040444692464256513 0 -0.021658226906672733 0.040192389551331503 0 -0.021455306934187474 0.040187255020257037 0 -0.021490139229701697 0.040277914862389602 0 -0.021658226906672733 0.040192389551331503 0 -0.021621974495606242 0.04020146901663206 0 -0.021455306934187474 0.040187255020257037 0 -0.021455306934187474 0.040187255020257037 0 -0.021490139229701697 0.040277914862389602 0 -0.021222402102696745 0.040244601213793064 0 -0.021490139229701697 0.040277914862389602 0 -0.021222402102696745 0.040244601213793064 0 -0.021170315483932309 0.040444692464256513 0 -0.021222402102696745 0.040244601213793064 0 -0.020955454472513936 0.040329865112309196 0 -0.021170315483932309 0.040444692464256513 0 -0.021455306934187474 0.040187255020257037 0 -0.021222402102696745 0.040244601213793064 0 -0.020969863723974413 0.039970428031978936 0 -0.021222402102696745 0.040244601213793064 0 -0.020955454472513936 0.040329865112309196 0 -0.020969863723974413 0.039970428031978936 0 -0.020839306782020509 0.040656206285226551 0 -0.020955454472513936 0.040329865112309196 0 -0.021170315483932309 0.040444692464256513 0 -0.021414966786951383 0.040477142363521887 0 -0.021170315483932309 0.040444692464256513 0 -0.021054542677079173 0.040758016975111319 0 -0.021378673226848974 0.040771493990980991 0 -0.021414966786951383 0.040477142363521887 0 -0.021054542677079173 0.040758016975111319 0 -0.020839306782020509 0.040656206285226551 0 -0.021170315483932309 0.040444692464256513 0 -0.021054542677079173 0.040758016975111319 0 -0.020839306782020509 0.040656206285226551 0 -0.020790983151444547 0.040884569138867781 0 -0.021054542677079173 0.040758016975111319 0 0.0064115782298163927 0.077644436445189854 0 0.0085137587514513974 0.076996202083477808 0 0.0082576470407980333 0.078761206567682512 0 0.0085137587514513974 0.076996202083477808 0 0.0082576470407980333 0.078761206567682512 0 0.010908933091192587 0.079025366492452093 0 0.0058383715549386074 0.077007624800899635 0 0.0057139145245121608 0.076481488388987065 0 0.0064197152613909162 0.076634473409556383 0 0.0058383715549386074 0.077007624800899635 0 0.0064197152613909162 0.076634473409556383 0 0.006494828393647469 0.076787013917364408 0 -0.0069028890241173285 0.057281351825143954 0 -0.0061404864299216544 0.062494225159493592 0 0.0042920534620286988 0.071104310906283788 0 -0.004124253045418789 0.066323483853674453 0 -0.021455306934187474 0.040187255020257037 0 -0.020969863723974413 0.039970428031978936 0 -0.021661797148455123 0.040185372268435861 0 -0.021621974495606242 0.04020146901663206 0 -0.021455306934187474 0.040187255020257037 0 -0.021661797148455123 0.040185372268435861 0 0.0085137587514513974 0.076996202083477808 0 0.01258220118555216 0.076116274102810882 0 0.010908933091192587 0.079025366492452093 0 -0.004124253045418789 0.066323483853674453 0 -0.0028087878801196899 0.072937136493676918 0 0.01258220118555216 0.076116274102810882 0 0.014155726728410921 0.079122849347956756 0 0.010908933091192587 0.079025366492452093 0 -0.01436040106306879 0.064794764664471136 0 -0.012537888078256688 0.064405077030118107 0 -0.013068732459702975 0.067312224120203379 0 -0.0061404864299216544 0.062494225159493592 0 -0.01292153688376237 0.060914059049075625 0 -0.021648042684536371 0.040250225184285157 0 -0.021661797148455123 0.040185372268435861 0 -0.021462846669244324 0.040560958467507173 0 -0.0029948511800907667 0.063266839536463018 0 -0.0042898167771552222 0.060801899725992078 0 -0.010173013653700184 0.062037808130234448 0 -0.0061404864299216544 0.062494225159493592 0 -0.004124253045418789 0.066323483853674453 0 -0.021648042684536371 0.040250225184285157 0 -0.021621974495606242 0.04020146901663206 0 -0.021661797148455123 0.040185372268435861 0 -0.021449436021309051 0.040306401273133542 0 -0.021648042684536371 0.040250225184285157 0 -0.021462846669244324 0.040560958467507173 0 -0.004124253045418789 0.066323483853674453 0 -0.01292153688376237 0.060914059049075625 0 -0.015033022142904492 0.059212102935392211 0 -0.020202966149158678 0.060288840407643922 0 -0.020272346641499947 0.058305845625286935 0 -0.012537888078256688 0.064405077030118107 0 -0.011516031480312973 0.066205855212010792 0 -0.010290746991427506 0.064788769934737714 0 -0.01292153688376237 0.060914059049075625 0 -0.019247804677381002 0.058698921278643311 0 -0.01292153688376237 0.060914059049075625 0 -0.01947585769100103 0.05596492309270077 0 -0.021449436021309051 0.040306401273133542 0 -0.021462846669244324 0.040560958467507173 0 -0.020941678895075724 0.04062762759211596 0 -0.012537888078256688 0.064405077030118107 0 -0.011516031480312973 0.066205855212010792 0 -0.013068732459702975 0.067312224120203379 0 -0.011771562097174402 0.069853023276063728 0 -0.013068732459702975 0.067312224120203379 0 -0.010162164843978397 0.068323163549573865 0 -0.011516031480312973 0.066205855212010792 0 -0.013068732459702975 0.067312224120203379 0 -0.010162164843978397 0.068323163549573865 0 -0.0047028331212793885 0.076273195593589027 0 -0.0028087878801196899 0.072937136493676918 0 0.012604368155553939 0.083458274397731236 0 0.01569147142134663 0.0821305067138592 0 0.01309009302419162 0.081122979402698872 0 0.012604368155553939 0.083458274397731236 0 0.01309009302419162 0.081122979402698872 0 0.011074677240670421 0.081435958999915653 0 0.014155726728410921 0.079122849347956756 0 0.01309009302419162 0.081122979402698872 0 0.010908933091192587 0.079025366492452093 0 0.01569147142134663 0.0821305067138592 0 0.014155726728410921 0.079122849347956756 0 0.01309009302419162 0.081122979402698872 0 0.010908933091192587 0.079025366492452093 0 0.011074677240670421 0.081435958999915653 0 0.0087731854647546872 0.080466513908577952 0 0.01309009302419162 0.081122979402698872 0 0.010908933091192587 0.079025366492452093 0 0.011074677240670421 0.081435958999915653 0 0.012604368155553939 0.083458274397731236 0 0.011074677240670421 0.081435958999915653 0 0.0094948376124900109 0.082884104031958006 0 0.0064591027061904312 0.081613410674291981 0 0.0094948376124900109 0.082884104031958006 0 0.0087731854647546872 0.080466513908577952 0 0.011074677240670421 0.081435958999915653 0 0.0094948376124900109 0.082884104031958006 0 0.0087731854647546872 0.080466513908577952 0 0.0082576470407980333 0.078761206567682512 0 0.010908933091192587 0.079025366492452093 0 0.0087731854647546872 0.080466513908577952 0 0.0067256650854809847 0.079710332821739519 0 0.0082576470407980333 0.078761206567682512 0 0.0087731854647546872 0.080466513908577952 0 -0.03906937478102418 0.055998870567415072 0 -0.030747950834142355 0.055718728171401104 0 -0.03906937478102418 0.055998870567415072 0 -0.026818172404317109 0.064557638814669693 0 -0.029641337710132547 0.057496506731212774 0 -0.031063400016072898 0.057309936211803261 0 -0.030994089913211696 0.059214057256595717 0 -0.035751101233205351 0.061655753063715582 0 -0.036904239019900233 0.060566750493502373 0 -0.036948219250240312 0.06185407632783118 0 -0.044153831178194693 0.051464368462549814 0 -0.044108819583602035 0.050546887129812569 0 -0.045442696309943333 0.050242539391361099 0 -0.045155237207397697 0.054764533129809882 0 -0.03906937478102418 0.055998870567415072 0 -0.044108819583602035 0.050546887129812569 0 -0.045515696036854687 0.050212788301191191 0 -0.044678130768256649 0.049162416210240464 0 -0.040547862544898207 0.05535864333228814 0 -0.03906937478102418 0.055998870567415072 0 -0.044683806028421293 0.047180628159695391 0 -0.044678130768256649 0.049162416210240464 0 -0.042902307730895817 0.048813114632431175 0 -0.03906937478102418 0.055998870567415072 0 -0.03928679702630121 0.055472359084260361 0 -0.044683806028421293 0.047180628159695391 0 -0.044678130768256649 0.049162416210240464 0 -0.045717191618337275 0.048613356419746435 0 -0.045549544593052708 0.050284001904112752 0 -0.044678130768256649 0.049162416210240464 0 -0.045717191618337275 0.048613356419746435 0 -0.045205349890578589 0.050691015866098497 0 -0.04734724444048595 0.048702048507290256 0 -0.048021867827353688 0.050276777504496085 0 -0.046375771978023117 0.04773398412409597 0 -0.045717191618337275 0.048613356419746435 0 -0.04734724444048595 0.048702048507290256 0 -0.045549544593052708 0.050284001904112752 0 -0.045717191618337275 0.048613356419746435 0 -0.04734724444048595 0.048702048507290256 0 -0.03906937478102418 0.055998870567415072 0 -0.042616186431051507 0.052741637077548975 0 -0.02692251255561743 0.050777011406067205 0 -0.027904953899116985 0.051994345868969873 0 -0.025262981330746403 0.055333630572128076 0 -0.048226201014214799 0.046855562359588571 0 -0.04734724444048595 0.048702048507290256 0 -0.048021867827353688 0.050276777504496085 0 -0.034159993964520782 0.04832526253219703 0 -0.030747950834142355 0.055718728171401104 0 -0.025446697221558071 0.049030844086359583 0 -0.02692251255561743 0.050777011406067205 0 -0.025262981330746403 0.055333630572128076 0 -0.019247804677381002 0.058698921278643311 0 -0.030747950834142355 0.055718728171401104 0 -0.027904953899116985 0.051994345868969873 0 -0.03083503874474551 0.054359103921067242 0 -0.025262981330746403 0.055333630572128076 0 -0.027904953899116985 0.051994345868969873 0 -0.030890743636912545 0.052639600697138342 0 -0.03083503874474551 0.054359103921067242 0 -0.021342059102731164 0.056007378188222601 0 -0.01947585769100103 0.05596492309270077 0 -0.01947585769100103 0.05596492309270077 0 -0.019247804677381002 0.058698921278643311 0 -0.019247804677381002 0.058698921278643311 0 -0.016747452025121526 0.065931480472495738 0 -0.022595776356097337 0.058635660320009941 0 -0.020299118171927179 0.061674510368253416 0 -0.022417011472673987 0.063592614502322342 0 -0.011516031480312973 0.066205855212010792 0 -0.010290746991427506 0.064788769934737714 0 -0.010162164843978397 0.068323163549573865 0 -0.022595776356097337 0.058635660320009941 0 -0.01868657799711362 0.059312680631414622 0 -0.020299118171927179 0.061674510368253416 0 -0.01868657799711362 0.059312680631414622 0 -0.020299118171927179 0.061674510368253416 0 -0.018531549067456146 0.063929770407020289 0 -0.030747950834142355 0.055718728171401104 0 -0.026818172404317109 0.064557638814669693 0 -0.020299118171927179 0.061674510368253416 0 -0.018531549067456146 0.063929770407020289 0 -0.022417011472673987 0.063592614502322342 0 -0.010045384680541994 0.071886547755402888 0 -0.011771562097174402 0.069853023276063728 0 -0.010162164843978397 0.068323163549573865 0 -0.014595228848402936 0.072975659665745526 0 -0.016747452025121526 0.065931480472495738 0 -0.022223014746698772 0.068553709792666298 0 -0.022417011472673987 0.063592614502322342 0 -0.020377237147397996 0.066240519373885379 0 -0.02543466783954575 0.071180150328166214 0 -0.026818172404317109 0.064557638814669693 0 -0.018531549067456146 0.063929770407020289 0 -0.022417011472673987 0.063592614502322342 0 -0.020377237147397996 0.066240519373885379 0 -0.015964601063420559 0.075946879331633091 0 -0.015978002418024086 0.07582824566213342 0 -0.015990855994612932 0.075899335156994041 0 -0.026818172404317109 0.064557638814669693 0 -0.020457778542315549 0.069057452831922966 0 -0.038593872001923171 0.06521586281501926 0 -0.03868079490562621 0.062812418960422459 0 -0.036545615963552415 0.063506576457535005 0 -0.036904239019900233 0.060566750493502373 0 -0.03868079490562621 0.062812418960422459 0 -0.036948219250240312 0.06185407632783118 0 -0.03868079490562621 0.062812418960422459 0 -0.036948219250240312 0.06185407632783118 0 -0.036545615963552415 0.063506576457535005 0 -0.035751101233205351 0.061655753063715582 0 -0.036948219250240312 0.06185407632783118 0 -0.036545615963552415 0.063506576457535005 0 -0.035751101233205351 0.061655753063715582 0 -0.036545615963552415 0.063506576457535005 0 -0.034707573693263619 0.062646874947003259 0 -0.036275571823053833 0.065432634916463381 0 -0.034693789789149554 0.064699718310481436 0 -0.036545615963552415 0.063506576457535005 0 -0.053742745303357986 0.056796452178180599 0 -0.051127645132785213 0.057102452300780468 0 -0.052269594346347051 0.049155650831983706 0 -0.034693789789149554 0.064699718310481436 0 -0.036545615963552415 0.063506576457535005 0 -0.034707573693263619 0.062646874947003259 0 -0.049813414291387352 0.059635368745835658 0 -0.054414031909572107 0.050801260397277288 0 -0.053742745303357986 0.056796452178180599 0 -0.052269594346347051 0.049155650831983706 0 -0.053777573323546525 0.047735936493413476 0 -0.058130612547219483 0.052697787015691847 0 -0.059622735892714419 0.047853599874271527 0 -0.069735130994805342 0.041405503102292261 0 -0.059622735892714419 0.047853599874271527 0 -0.073456997038088154 0.040617957178367275 0 -0.072736628740104156 0.041156149794782583 0 -0.073338521840262128 0.04114865805303726 0 -0.071642896976853651 0.042714224633615398 0 -0.069342467232301114 0.042860426747238951 0 -0.068962722728130699 0.045240718730965898 0 -0.073128082002028513 0.041339430375386052 0 -0.072931544198023057 0.041551617118480336 0 -0.073457954575083736 0.041508429074281643 0 -0.073128082002028513 0.041339430375386052 0 -0.072736628740104156 0.041156149794782583 0 -0.073338521840262128 0.04114865805303726 0 -0.073128082002028513 0.041339430375386052 0 -0.072931544198023057 0.041551617118480336 0 -0.072736628740104156 0.041156149794782583 0 -0.059622735892714419 0.047853599874271527 0 -0.062508524329704898 0.043866974615091273 0 -0.054414031909572107 0.050801260397277288 0 -0.05804431468112168 0.047148295589411089 0 -0.072500211569446721 0.041490868824525302 0 -0.072452417725170873 0.041556060359447859 0 -0.072539653753306912 0.041870633788577298 0 -0.044153831178194693 0.051464368462549814 0 -0.042969789771594838 0.052599474590156813 0 -0.042940400223282077 0.050743888358831632 0 -0.072931544198023057 0.041551617118480336 0 -0.072736628740104156 0.041156149794782583 0 -0.072555348595378363 0.041922001736308834 0 -0.059622735892714419 0.047853599874271527 0 -0.054414031909572107 0.050801260397277288 0 -0.045155237207397697 0.054764533129809882 0 -0.054414031909572107 0.050801260397277288 0 -0.072500211569446721 0.041490868824525302 0 -0.072555348595378363 0.041922001736308834 0 -0.072539653753306912 0.041870633788577298 0 -0.044108819583602035 0.050546887129812569 0 -0.042940400223282077 0.050743888358831632 0 -0.042902307730895817 0.048813114632431175 0 -0.044153831178194693 0.051464368462549814 0 -0.044108819583602035 0.050546887129812569 0 -0.042940400223282077 0.050743888358831632 0 -0.072555348595378363 0.041922001736308834 0 -0.072539653753306912 0.041870633788577298 0 -0.072521411553233744 0.042403321351979786 0 -0.072931544198023057 0.041551617118480336 0 -0.073242713439512719 0.041828499227801075 0 -0.073457954575083736 0.041508429074281643 0 -0.072931544198023057 0.041551617118480336 0 -0.072555348595378363 0.041922001736308834 0 -0.073242713439512719 0.041828499227801075 0 -0.072555348595378363 0.041922001736308834 0 -0.073242713439512719 0.041828499227801075 0 -0.072521411553233744 0.042403321351979786 0 -0.073242713439512719 0.041828499227801075 0 -0.073264610624187668 0.04240945638538518 0 -0.072637114040304471 0.042298544745852332 0 -0.067401426293041536 0.041320251641774039 0 -0.061751458663522878 0.044513951424822298 0 -0.044108819583602035 0.050546887129812569 0 -0.044678130768256649 0.049162416210240464 0 -0.042902307730895817 0.048813114632431175 0 -0.05804431468112168 0.047148295589411089 0 -0.061751458663522878 0.044513951424822298 0 -0.073939408867816067 0.041899611046189757 0 -0.074573029196281032 0.042216516507099879 0 -0.073864139907359225 0.04251448092836644 0 -0.073242713439512719 0.041828499227801075 0 -0.073264610624187668 0.04240945638538518 0 -0.073939408867816067 0.041899611046189757 0 -0.073264610624187668 0.04240945638538518 0 -0.073939408867816067 0.041899611046189757 0 -0.073864139907359225 0.04251448092836644 0 -0.073242713439512719 0.041828499227801075 0 -0.073939408867816067 0.041899611046189757 0 -0.073457954575083736 0.041508429074281643 0 -0.073939408867816067 0.041899611046189757 0 -0.073875897331284926 0.041343057005549598 0 -0.073457954575083736 0.041508429074281643 0 -0.073939408867816067 0.041899611046189757 0 -0.073875897331284926 0.041343057005549598 0 -0.074374718248782598 0.041466293436494606 0 -0.073875897331284926 0.041343057005549598 0 -0.074186624340741802 0.041074467231929333 0 -0.074374718248782598 0.041466293436494606 0 -0.073875897331284926 0.041343057005549598 0 -0.073457954575083736 0.041508429074281643 0 -0.073338521840262128 0.04114865805303726 0 -0.073875897331284926 0.041343057005549598 0 -0.073338521840262128 0.04114865805303726 0 -0.0737333650167111 0.040931378859596856 0 -0.073128082002028513 0.041339430375386052 0 -0.073457954575083736 0.041508429074281643 0 -0.073338521840262128 0.04114865805303726 0 -0.073456997038088154 0.040617957178367275 0 -0.073338521840262128 0.04114865805303726 0 -0.0737333650167111 0.040931378859596856 0 -0.073800186690493555 0.04058305636249078 0 -0.073456997038088154 0.040617957178367275 0 -0.0737333650167111 0.040931378859596856 0 -0.073875897331284926 0.041343057005549598 0 -0.0737333650167111 0.040931378859596856 0 -0.074186624340741802 0.041074467231929333 0 -0.074073360576521544 0.04071562633701762 0 -0.073800186690493555 0.04058305636249078 0 -0.0737333650167111 0.040931378859596856 0 -0.074073360576521544 0.04071562633701762 0 -0.0737333650167111 0.040931378859596856 0 -0.074186624340741802 0.041074467231929333 0 -0.074073360576521544 0.04071562633701762 0 -0.074186624340741802 0.041074467231929333 0 -0.074528277899345241 0.040821583780244496 0 -0.074186624340741802 0.041074467231929333 0 -0.074528277899345241 0.040821583780244496 0 -0.074603394872746989 0.041175833619924863 0 -0.074528277899345241 0.040821583780244496 0 -0.074990579784444428 0.040990557147812683 0 -0.074603394872746989 0.041175833619924863 0 -0.074974491849122277 0.040507974816304547 0 -0.074528277899345241 0.040821583780244496 0 -0.074990579784444428 0.040990557147812683 0 -0.074974491849122277 0.040507974816304547 0 -0.074990579784444428 0.040990557147812683 0 -0.075474544570195437 0.040752983272444997 0 -0.074899481141937632 0.041448864134853533 0 -0.075430677438948962 0.041248161990681695 0 -0.075254096432550835 0.041714407476189 0 -0.074990579784444428 0.040990557147812683 0 -0.074899481141937632 0.041448864134853533 0 -0.074603394872746989 0.041175833619924863 0 -0.074990579784444428 0.040990557147812683 0 -0.074899481141937632 0.041448864134853533 0 -0.075430677438948962 0.041248161990681695 0 -0.074899481141937632 0.041448864134853533 0 -0.074374718248782598 0.041466293436494606 0 -0.074603394872746989 0.041175833619924863 0 -0.074186624340741802 0.041074467231929333 0 -0.074374718248782598 0.041466293436494606 0 -0.074603394872746989 0.041175833619924863 0 -0.076046076023268405 0.04093142872307344 0 -0.075474544570195437 0.040752983272444997 0 -0.075430677438948962 0.041248161990681695 0 -0.075817186974362807 0.040531177427960557 0 -0.076046076023268405 0.04093142872307344 0 -0.075474544570195437 0.040752983272444997 0 -0.074990579784444428 0.040990557147812683 0 -0.075474544570195437 0.040752983272444997 0 -0.075430677438948962 0.041248161990681695 0 -0.076046076023268405 0.04093142872307344 0 -0.075430677438948962 0.041248161990681695 0 -0.075943200296357871 0.041466360242447702 0 -0.077370377370476917 0.042870793543259719 0 -0.07716721656600467 0.04181235606672995 0 -0.075943200296357871 0.041466360242447702 0 -0.075441350251218384 0.042113328901275414 0 -0.075845491633423454 0.042063230292285099 0 -0.075430677438948962 0.041248161990681695 0 -0.075943200296357871 0.041466360242447702 0 -0.075254096432550835 0.041714407476189 0 -0.075943200296357871 0.041466360242447702 0 -0.075254096432550835 0.041714407476189 0 -0.075441350251218384 0.042113328901275414 0 -0.075441350251218384 0.042113328901275414 0 -0.075845491633423454 0.042063230292285099 0 -0.075643725293834049 0.042323358215119129 0 -0.075254096432550835 0.041714407476189 0 -0.075441350251218384 0.042113328901275414 0 -0.075110287048216332 0.042048498655651141 0 -0.073939408867816067 0.041899611046189757 0 -0.074374718248782598 0.041466293436494606 0 -0.074722679196068634 0.041837134934353343 0 -0.074899481141937632 0.041448864134853533 0 -0.074374718248782598 0.041466293436494606 0 -0.074722679196068634 0.041837134934353343 0 -0.074899481141937632 0.041448864134853533 0 -0.075254096432550835 0.041714407476189 0 -0.074722679196068634 0.041837134934353343 0 -0.075254096432550835 0.041714407476189 0 -0.074722679196068634 0.041837134934353343 0 -0.075110287048216332 0.042048498655651141 0 -0.075110287048216332 0.042048498655651141 0 -0.074573029196281032 0.042216516507099879 0 -0.075351176642001777 0.042234664671435933 0 -0.075441350251218384 0.042113328901275414 0 -0.075110287048216332 0.042048498655651141 0 -0.075351176642001777 0.042234664671435933 0 -0.074722679196068634 0.041837134934353343 0 -0.075110287048216332 0.042048498655651141 0 -0.074573029196281032 0.042216516507099879 0 -0.073939408867816067 0.041899611046189757 0 -0.074722679196068634 0.041837134934353343 0 -0.074573029196281032 0.042216516507099879 0 -0.077130689602426125 0.042127289981660203 0 -0.075351176642001777 0.042234664671435933 0 -0.076242301086345873 0.0415457545834058 0 -0.074573029196281032 0.042216516507099879 0 -0.074388575964547468 0.042756480067984208 0 -0.075351176642001777 0.042234664671435933 0 -0.075401697255071523 0.041647203730279747 0 -0.075401131047324405 0.041823449401674588 0 -0.075351176642001777 0.042234664671435933 0 -0.075353025490780837 0.04203789981645259 0 -0.076242301086345873 0.0415457545834058 0 -0.075353025490780837 0.04203789981645259 0 -0.076242301086345873 0.0415457545834058 0 -0.075974063244559117 0.040331700330895566 0 -0.075824340302879045 0.0416274548679645 0 -0.076185611413754337 0.040704735106692119 0 -0.075952976906944483 0.042363267149041983 0 -0.075931282922723886 0.041762933844625712 0 -0.076679234784431907 0.040944217632496921 0 -0.076242301086345873 0.0415457545834058 0 -0.075974063244559117 0.040331700330895566 0 -0.077531033986187436 0.040544436398522857 0 -0.077130689602426125 0.042127289981660203 0 -0.076242301086345873 0.0415457545834058 0 -0.077531033986187436 0.040544436398522857 0 -0.075845491633423454 0.042063230292285099 0 -0.075722228872546135 0.042438540666023282 0 -0.075643725293834049 0.042323358215119129 0 -0.075722228872546135 0.042438540666023282 0 -0.075643725293834049 0.042323358215119129 0 -0.075631854199198253 0.04223592545356096 0 -0.075704734874014273 0.041873680924852871 0 -0.075824340302879045 0.0416274548679645 0 -0.075441350251218384 0.042113328901275414 0 -0.075952976906944483 0.042363267149041983 0 -0.075643725293834049 0.042323358215119129 0 -0.075441350251218384 0.042113328901275414 0 -0.075351176642001777 0.042234664671435933 0 -0.075353025490780837 0.04203789981645259 0 -0.075952976906944483 0.042363267149041983 0 -0.075643725293834049 0.042323358215119129 0 -0.075631854199198253 0.04223592545356096 0 -0.075931282922723886 0.041762933844625712 0 -0.075631854199198253 0.04223592545356096 0 -0.075557493967022729 0.041404069663161146 0 -0.075952976906944483 0.042363267149041983 0 -0.075931282922723886 0.041762933844625712 0 -0.075631854199198253 0.04223592545356096 0 -0.075258900206879434 0.042765918413273631 0 -0.075722228872546135 0.042438540666023282 0 -0.075631854199198253 0.04223592545356096 0 -0.075258900206879434 0.042765918413273631 0 -0.075631854199198253 0.04223592545356096 0 -0.075557493967022729 0.041404069663161146 0 -0.075258900206879434 0.042765918413273631 0 -0.074643028198208977 0.040473591122219092 0 -0.075557493967022729 0.041404069663161146 0 -0.074643028198208977 0.040473591122219092 0 -0.075557493967022729 0.041404069663161146 0 -0.075623266801887398 0.039157462977172687 0 -0.075557493967022729 0.041404069663161146 0 -0.075623266801887398 0.039157462977172687 0 -0.076679234784431907 0.040944217632496921 0 -0.075931282922723886 0.041762933844625712 0 -0.075557493967022729 0.041404069663161146 0 -0.076679234784431907 0.040944217632496921 0 -0.074211977660180201 0.038428258002883298 0 -0.074643028198208977 0.040473591122219092 0 -0.075623266801887398 0.039157462977172687 0 -0.075974063244559117 0.040331700330895566 0 -0.076758435915934675 0.038742330670254226 0 -0.077531033986187436 0.040544436398522857 0 -0.076185611413754337 0.040704735106692119 0 -0.076434448286588352 0.039994683626250596 0 -0.075623266801887398 0.039157462977172687 0 -0.076679234784431907 0.040944217632496921 0 -0.076758435915934675 0.038742330670254226 0 -0.077929102997758584 0.037774882341866253 0 -0.076758435915934675 0.038742330670254226 0 -0.078258224471715598 0.03932581586698608 0 -0.076758435915934675 0.038742330670254226 0 -0.078258224471715598 0.03932581586698608 0 -0.077531033986187436 0.040544436398522857 0 -0.078258224471715598 0.03932581586698608 0 -0.077531033986187436 0.040544436398522857 0 -0.079361787456009358 0.040231595609046523 0 -0.077929102997758584 0.037774882341866253 0 -0.078258224471715598 0.03932581586698608 0 -0.079481576220813102 0.038907030375129797 0 -0.078258224471715598 0.03932581586698608 0 -0.079361787456009358 0.040231595609046523 0 -0.079481576220813102 0.038907030375129797 0 -0.079361787456009358 0.040231595609046523 0 -0.079481576220813102 0.038907030375129797 0 -0.080874858418107279 0.039289559183394614 0 -0.080060280949582438 0.037891036417573826 0 -0.079481576220813102 0.038907030375129797 0 -0.080874858418107279 0.039289559183394614 0 -0.060493982855984035 0.039258667988237815 0 -0.059814222279631298 0.03978524211521775 0 -0.060277869674512041 0.040545788576050859 0 -0.065500141116515698 0.039047357410131711 0 -0.067510818130481362 0.040956841569926475 0 -0.059814222279631298 0.03978524211521775 0 -0.060277869674512041 0.040545788576050859 0 -0.059818726531489071 0.041490336398901553 0 -0.079361787456009358 0.040231595609046523 0 -0.080874858418107279 0.039289559183394614 0 -0.080838335933702307 0.041189457653387468 0 -0.067510818130481362 0.040956841569926475 0 -0.074501755071175804 0.041112653252342569 0 -0.079361787456009358 0.040231595609046523 0 -0.080838335933702307 0.041189457653387468 0 -0.079006333325952166 0.041654871415181628 0 -0.060803026684191352 0.042482952675533495 0 -0.060114684859925903 0.041413956901026415 0 -0.059822426346715647 0.041489474252781273 0 -0.06082731842347789 0.041309128214538963 0 -0.060277869674512041 0.040545788576050859 0 -0.060114684859925903 0.041413956901026415 0 -0.060277869674512041 0.040545788576050859 0 -0.060114684859925903 0.041413956901026415 0 -0.059818726531489071 0.041490336398901553 0 -0.067227519620659607 0.041014433367117256 0 -0.067510818130481362 0.040956841569926475 0 -0.061751458663522878 0.044513951424822298 0 -0.067510818130481362 0.040956841569926475 0 -0.055185462951098503 0.044760098979787583 0 -0.061751458663522878 0.044513951424822298 0 -0.060803026684191352 0.042482952675533495 0 -0.059817653796743864 0.043333155863968159 0 -0.059822426346715647 0.041489474252781273 0 -0.073264610624187668 0.04240945638538518 0 -0.072616808014044881 0.043219604327335556 0 -0.073478902235567106 0.043010621687755303 0 -0.073264610624187668 0.04240945638538518 0 -0.072637114040304471 0.042298544745852332 0 -0.072616808014044881 0.043219604327335556 0 -0.073264610624187668 0.04240945638538518 0 -0.073864139907359225 0.04251448092836644 0 -0.073478902235567106 0.043010621687755303 0 -0.074388575964547468 0.042756480067984208 0 -0.073864139907359225 0.04251448092836644 0 -0.073478902235567106 0.043010621687755303 0 -0.075401697255071523 0.041647203730279747 0 -0.074501755071175804 0.041112653252342569 0 -0.074573029196281032 0.042216516507099879 0 -0.074388575964547468 0.042756480067984208 0 -0.073864139907359225 0.04251448092836644 0 -0.077130689602426125 0.042127289981660203 0 -0.077531033986187436 0.040544436398522857 0 -0.079006333325952166 0.041654871415181628 0 -0.077531033986187436 0.040544436398522857 0 -0.079361787456009358 0.040231595609046523 0 -0.079006333325952166 0.041654871415181628 0 
</DataArray>
</PointData>
<CellData Scalars="region_id,cross_section_updated," Vectors="" Tensors="stress,">
<DataArray type="Float64" Name="region_id" format="ascii">
5 5 6 5 5 5 5 6 5 5 5 5 5 5 5 5 5 5 5 5 6 5 5 5 5 6 5 5 5 5 5 5 5 6 5 5 5 5 5 5 5 5 6 5 5 5 5 5 5 5 5 5 5 5 6 6 5 5 5 5 5 5 5 5 6 5 5 5 5 5 5 5 5 5 5 5 5 5 5 5 5 5 5 5 5 5 5 6 5 5 5 5 5 5 5 5 5 5 5 6 5 5 5 6 5 5 5 5 5 5 5 5 5 5 5 5 5 5 5 5 5 5 5 5 5 5 5 5 5 5 5 5 5 5 5 5 5 5 5 5 5 5 5 5 5 5 5 5 5 6 5 6 5 5 5 5 5 5 5 5 5 5 5 5 5 5 5 5 5 5 5 5 5 5 5 5 5 5 6 5 5 6 5 6 5 5 5 5 5 5 5 5 5 5 5 5 5 5 6 5 6 5 5 5 5 5 5 5 6 5 6 5 5 5 5 5 5 6 5 5 6 5 5 5 5 5 5 6 6 5 5 6 5 6 5 6 6 5 5 5 6 5 5 5 5 5 5 5 5 5 5 5 5 5 6 5 5 5 5 5 5 5 6 5 5 5 5 5 5 5 6 5 5 5 5 6 5 5 5 5 5 5 6 5 5 5 6 5 5 5 5 5 5 5 6 5 5 5 5 5 5 6 5 5 5 5 5 5 6 5 5 5 5 5 5 5 6 5 5 5 5 5 5 5 5 5 5 5 5 5 5 5 5 5 5 5 5 5 6 6 5 5 5 5 5 6 5 5 5 5 5 5 5 6 5 6 5 5 5 6 5 5 5 6 5 6 5 5 5 5 5 5 5 6 5 5 5 5 5 5 5 6 5 5 5 6 5 5 5 5 5 5 5 5 5 5 5 5 5 5 5 5 5 5 5 5 5 5 5 5 5 5 5 5 5 5 5 5 6 5 5 5 5 5 5 5 5 5 5 5 5 5 5 5 5 5 5 5 5 5 5 5 5 5 5 5 5 5 5 5 5 6 5 5 5 5 5 5 5 5 5 5 5 5 5 5 5 5 5 5 5 5 6 5 5 5 5 5 5 5 6 5 5 5 5 5 6 5 5 6 5 6 5 5 5 5 6 5 5 6 5 5 5 5 5 5 6 5 5 5 5 5 5 5 5 5 5 5 5 5 5 5 5 5 5 5 6 5 5 5 5 5 5 5 5 5 5 5 6 6 5 5 5 5 5 5 5 5 5 5 5 5 5 5 5 5 5 5 5 5 5 6 5 6 6 5 5 6 5 5 5 5 5 5 5 5 5 5 5 5 5 6 5 5 5 5 5 5 5 6 6 5 5 5 5 5 5 5 5 6 6 5 5 5 6 5 5 5 5 5 5 5 5 5 5 5 5 5 5 5 5 5 5 5 5 5 5 5 5 5 5 5 5 5 5 5 5 5 5 5 6 5 5 6 5 5 5 5 6 5 5 5 6 5 5 5 6 5 5 6 5 5 5 5 5 5 5 5 5 5 5 5 5 5 5 5 5 5 5 5 5 6 5 5 5 6 5 5 5 5 5 6 5 5 5 5 5 5 6 5 5 5 5 5 5 5 5 5 5 5 5 5 5 5 5 5 5 6 5 5 5 5 5 5 5 5 5 5 5 5 5 5 5 5 5 5 5 5 5 6 5 5 5 5 5 5 5 5 5 5 5 5 5 5 5 6 5 5 5 5 5 5 5 5 5 5 5 5 5 5 5 5 5 5 6 5 5 5 5 5 5 5 6 5 5 5 5 5 5 5 5 5 5 5 5 5 5 5 5 5 5 5 5 5 6 5 5 5 5 5 5 5 5 5 6 5 5 5 5 5 5 5 5 6 5 5 5 5 5 5 5 5 5 5 5 5 5 5 5 5 5 5 5 6 5 5 5 5 5 6 5 5 5 6 5 5 5 5 5 5 6 5 5 5 5 5 5 5 5 5 5 6 5 5 5 5 5 5 5 5 5 5 5 5 6 5 6 5 5 5 5 5 5 5 6 5 6 5 5 5 5 5 5 5 5 5 5 5 5 5 5 5 5 5 5 5 5 5 5 5 5 5 5 5 5 5 5 5 5 5 5 5 5 5 5 5 5 5 5 5 5 5 6 6 5 5 6 5 5 5 5 5 5 5 5 5 5 5 5 5 5 5 5 6 5 5 5 5 6 5 5 6 5 5 5 5 5 5 6 5 6 5 5 6 5 5 5 5 5 5 5 5 5 5 6 5 5 5 5 5 6 6 5 5 5 5 6 5 5 6 5 6 5 5 5 5 5 6 5 5 6 5 5 5 5 5 5 5 5 5 5 5 5 6 5 5 5 5 5 5 5 5 5 5 5 5 5 5 5 6 5 6 5 6 6 5 6 5 5 6 5 5 5 5 5 5 6 5 6 5 5 6 5 5 5 6 5 5 6 5 5 5 5 5 6 5 5 6 5 5 5 5 5 6 5 6 5 5 6 5 5 6 5 5 5 5 5 5 5 5 6 5 5 5 5 5 5 5 5 5 5 6 5 5 5 5 6 5 5 6 5 5 5 5 5 6 5 5 5 5 5 6 5 6 5 5 5 5 5 5 6 5 5 5 5 5 5 5 5 6 6 6 5 5 5 5 6 5 6 5 5 5 6 6 5 5 5 6 5 5 5 6 5 6 5 6 6 5 6 5 5 5 5 6 5 5 5 6 5 6 5 6 5 5 5 5 5 5 5 6 5 5 5 5 6 5 5 5 5 5 5 5 5 6 5 6 6 5 5 5 6 5 5 5 5 6 6 5 5 6 6 5 5 5 5 5 6 5 5 5 5 5 5 5 5 6 5 6 5 5 5 5 5 5 5 5 5 5 5 5 5 5 5 5 5 6 5 5 5 5 5 5 5 5 5 5 5 5 5 5 5 5 5 5 5 5 5 5 5 5 5 6 5 6 5 5 5 5 5 6 6 5 5 5 5 6 6 5 6 5 5 6 5 5 6 5 5 5 5 6 6 5 5 5 5 5 5 5 5 6 5 5 6 5 5 5 6 5 5 6 5 5 5 5 5 5 6 5 5 5 5 5 5 6 5 5 5 5 5 6 5 5 6 6 5 5 6 5 5 6 5 5 5 5 5 5 5 5 5 5 5 5 6 5 6 5 5 6 5 5 5 5 5 5 6 5 5 5 6 6 6 5 5 5 6 6 5 6 6 5 5 6 5 5 6 5 6 5 6 5 5 5 6 6 5 5 6 6 6 6 5 5 5 6 6 5 5 6 6 6 5 6 6 5 5 6 5 6 6 5 6 5 5 6 5 6 6 5 5 5 5 6 6 5 5 6 5 5 5 6 5 5 5 5 5 5 5 5 5 5 5 5 5 5 5 5 5 5 5 5 5 5 5 5 5 5 5 5 5 5 5 5 5 5 5 5 5 5 5 5 5 5 5 5 5 5 5 5 5 5 5 5 5 5 5 5 5 5 6 5 6 5 5 5 5 5 5 5 5 5 5 5 5 5 5 6 5 5 5 5 5 5 5 5 5 5 6 5 5 5 5 5 5 5 5 5 5 5 5 5 5 5 5 5 5 5 5 5 5 5 5 5 5 5 5 5 5 5 5 5 5 5 5 5 5 5 5 5 5 5 5 5 5 6 5 5 5 6 5 6 5 5 5 5 5 6 5 6 5 5 5 5 5 5 5 5 5 5 5 5 5 5 5 5 5 5 5 5 5 5 5 5 5 6 5 5 5 5 5 5 6 5 6 5 5 5 6 5 5 6 5 5 5 5 5 5 5 5 5 5 5 5 5 5 5 5 5 5 5 5 5 5 5 5 5 5 5 5 5 5 5 5 5 5 5 5 5 6 5 6 5 5 5 5 5 5 5 5 5 5 6 5 5 5 5 5 5 5 5 5 5 5 5 5 5 5 5 5 6 5 5 5 6 6 5 6 5 5 5 5 5 5 5 5 6 5 5 5 5 6 5 5 5 5 5 5 5 6 5 5 6 5 6 5 5 6 5 5 6 6 5 5 5 5 5 5 5 5 5 5 5 5 5 5 5 6 5 6 5 5 5 6 5 6 5 5 5 5 5 5 5 5 5 5 5 5 6 5 6 5 5 5 5 5 5 5 5 6 5 5 6 5 5 5 6 6 5 5 5 5 5 5 5 5 5 5 5 5 5 5 5 5 5 5 5 5 5 6 5 5 5 5 5 6 5 6 5 5 5 5 6 5 5 6 5 5 5 5 5 6 5 5 5 5 6 5 5 5 5 5 5 5 6 5 5 5 6 5 5 5 5 5 5 5 5 5 5 5 6 5 5 5 5 5 5 5 5 6 5 5 5 5 5 5 6 5 5 5 5 5 5 6 5 5 5 5 5 5 5 5 5 5 5 6 5 5 5 6 5 5 5 6 5 6 5 5 5 5 5 5 6 5 5 5 5 5 5 5 5 5 5 5 5 5 5 5 6 5 5 5 5 5 6 5 5 5 5 5 5 5 5 6 5 5 5 5 5 5 5 5 5 5 5 5 5 5 5 5 6 5 5 5 5 6 5 5 5 5 5 5 5 5 5 5 5 5 5 5 5 5 5 5 5 5 5 5 5 5 5 5 6 5 5 5 6 5 6 5 5 5 5 6 5 6 5 5 5 5 5 6 5 5 5 5 5 5 5 5 5 6 5 5 5 5 5 5 5 5 5 5 5 5 5 5 5 5 5 5 5 5 5 5 5 5 6 6 5 5 5 5 5 6 5 5 5 6 5 5 5 6 5 5 6 5 6 5 5 5 5 6 5 5 5 5 6 6 5 5 5 5 5 5 5 5 5 5 5 5 6 5 5 5 5 6 5 5 5 5 5 6 5 5 6 5 5 5 5 5 5 5 5 5 5 5 5 5 5 5 5 6 5 5 6 5 5 5 6 5 5 5 5 5 5 5 5 5 5 5 6 5 5 5 5 5 5 5 5 5 5 5 5 5 5 5 5 6 5 5 6 5 6 5 5 6 5 6 5 6 5 5 5 5 5 5 5 5 5 5 5 5 5 6 5 6 6 5 5 6 6 5 5 6 6 5 5 5 6 5 6 5 5 6 5 5 5 5 6 6 5 6 5 5 6 6 5 5 6 5 5 5 6 5 5 5 6 6 6 5 5 6 5 6 6 5 5 5 5 5 5 5 5 5 5 5 6 6 5 6 5 6 5 6 5 5 5 6 5 5 5 5 5 6 5 5 5 5 5 5 5 5 5 5 5 5 5 5 5 5 5 5 5 5 5 5 5 5 6 5 5 5 5 5 5 5 5 5 5 5 5 5 5 5 5 5 5 6 5 5 5 5 5 5 5 5 5 5 5 6 5 5 5 5 5 6 5 5 5 5 5 5 5 5 5 5 5 5 5 5 6 5 5 5 5 5 5 5 5 5 5 5 5 5 5 6 5 6 5 5 5 5 6 5 5 5 5 5 5 5 5 5 5 5 5 6 5 6 5 5 5 5 6 5 5 5 5 5 5 5 6 5 5 5 5 5 5 5 6 5 5 5 6 5 6 5 5 5 5 5 5 5 5 5 6 5 5 5 5 5 5 5 5 5 5 5 5 5 5 5 5 5 5 5 5 5 5 5 5 5 5 5 5 5 5 5 5 5 5 5 5 5 5 5 5 5 5 5 6 5 5 6 5 5 5 5 5 5 5 5 5 5 6 5 5 5 5 5 6 5 5 6 5 5 5 5 5 5 6 5 5 5 5 6 5 5 6 5 6 5 5 5 5 5 5 5 5 5 5 5 6 5 6 5 5 5 5 6 5 5 5 5 5 5 5 5 5 5 5 5 5 5 5 5 5 5 5 5 5 6 5 5 5 5 6 5 5 5 5 5 5 5 6 5 5 5 5 5 6 5 5 5 6 5 5 5 6 5 5 6 5 5 5 6 5 5 6 5 5 5 5 5 5 5 5 5 5 5 5 5 5 5 5 5 5 5 5 5 5 5 5 5 5 5 5 5 5 5 6 5 5 5 5 5 5 5 5 5 5 5 6 5 5 5 5 5 5 5 5 5 5 5 5 5 5 5 6 6 5 5 5 6 5 5 5 5 6 5 5 6 5 5 5 5 5 5 5 5 5 5 5 5 5 6 6 5 5 5 5 5 5 5 5 5 5 5 6 5 5 6 5 5 5 5 5 5 5 5 5 5 5 5 5 5 5 5 5 5 5 6 5 5 5 6 5 5 5 5 5 6 5 5 5 5 5 5 5 5 5 5 5 5 5 5 5 5 5 5 5 5 6 5 5 6 5 5 5 5 5 5 5 5 5 5 5 5 5 5 5 5 5 5 5 6 5 5 5 5 5 5 5 5 5 5 5 5 5 5 5 5 5 5 5 5 5 5 5 5 5 5 5 5 5 5 5 5 6 5 5 5 5 5 5 6 5 5 5 5 5 6 5 5 5 5 6 5 5 5 5 5 5 5 5 5 5 5 5 5 5 5 5 5 5 5 5 5 5 6 5 5 5 5 5 5 5 6 5 5 6 5 5 6 5 5 5 5 5 5 6 5 5 5 5 5 5 5 5 5 5 6 5 6 5 5 5 5 5 5 5 5 6 5 5 6 5 5 5 6 5 5 5 6 5 5 5 6 6 5 5 6 5 5 6 5 5 6 5 5 5 5 5 5 5 5 5 6 5 5 5 6 5 5 5 6 5 5 5 6 5 6 5 5 6 5 5 5 5 5 5 5 5 6 5 5 6 5 5 5 5 5 5 5 5 5 5 5 5 5 6 5 6 5 5 5 6 6 5 6 5 5 5 5 6 5 6 5 5 5 5 5 5 5 5 5 6 5 5 5 5 5 5 5 5 5 5 5 5 5 5 5 5 5 5 5 5 5 5 5 5 5 5 5 5 6 5 5 5 5 5 5 6 5 5 5 5 5 5 6 5 5 5 5 5 5 6 5 5 5 6 5 5 5 6 5 5 6 5 5 5 5 5 5 6 5 5 5 6 6 5 5 5 5 5 5 5 5 5 5 5 5 5 5 5 5 5 6 5 5 5 5 5 5 5 6 5 5 5 5 5 6 5 5 5 5 5 6 5 5 6 5 5 5 5 6 5 5 5 5 5 5 6 5 6 5 6 6 5 6 5 5 5 6 5 5 5 5 5 6 5 5 5 6 5 5 5 5 6 6 6 5 5 5 5 6 6 5 6 5 5 5 5 5 5 6 5 6 5 5 6 5 5 5 6 5 5 6 5 5 5 5 5 5 5 5 5 5 5 5 6 5 5 5 5 6 5 5 5 5 6 5 5 5 5 5 5 5 5 5 6 6 6 5 5 5 6 6 5 5 6 5 6 5 5 5 5 5 5 5 6 5 5 5 5 5 5 5 5 5 5 5 5 5 5 5 5 6 5 5 5 5 5 5 5 5 5 6 5 5 6 5 6 5 6 5 5 6 5 5 5 6 6 5 5 6 5 5 5 6 5 5 5 5 6 5 5 5 5 5 5 5 5 5 5 5 6 6 5 5 5 5 5 5 5 5 5 5 5 5 5 5 5 5 5 5 5 5 5 5 5 5 5 5 5 5 5 5 5 5 6 5 5 5 5 5 5 5 5 5 5 5 5 5 5 5 5 5 5 5 6 5 5 5 5 5 5 6 6 5 5 6 6 5 5 5 6 5 5 5 5 5 5 5 5 5 5 5 5 5 5 5 5 5 5 5 5 5 5 5 6 5 6 5 6 5 5 5 5 5 5 6 5 6 6 5 5 6 5 5 5 5 5 5 6 6 5 5 6 6 5 5 6 6 5 5 5 5 5 5 5 5 6 5 5 5 5 5 6 5 5 6 5 5 5 6 5 5 5 5 5 5 5 5 5 5 5 5 5 5 5 5 5 5 5 5 5 5 5 5 5 5 5 5 5 5 5 5 5 5 6 5 5 6 5 6 6 5 5 5 5 5 5 5 5 5 6 5 5 5 5 5 6 5 5 5 5 5 5 5 6 5 5 5 5 5 5 5 5 6 5 5 5 5 5 6 5 5 5 5 5 5 5 5 5 5 5 5 5 5 5 5 5 5 5 5 5 5 5 5 5 5 5 5 5 5 6 6 5 5 5 5 5 5 5 6 5 5 5 6 5 6 5 5 5 5 5 5 5 5 5 5 5 5 5 5 5 5 5 5 5 5 5 6 5 5 5 5 5 5 6 5 5 5 5 5 5 5 6 5 5 6 5 5 5 5 5 5 6 5 5 5 6 5 5 6 6 5 5 5 5 5 5 5 5 5 5 5 5 5 5 5 5 5 5 5 5 5 5 5 5 5 5 5 5 6 5 5 5 5 5 5 5 5 5 5 5 5 5 5 5 5 5 5 5 6 5 5 5 6 6 5 5 5 5 5 6 5 5 5 6 5 5 5 5 5 6 5 5 5 5 5 5 5 5 5 5 5 5 5 5 5 5 5 5 5 5 5 6 5 5 5 5 5 5 6 5 5 5 5 5 5 5 5 5 5 5 5 6 5 5 5 5 6 5 6 5 5 5 5 5 5 5 5 5 5 5 5 5 6 5 5 5 5 5 6 5 5 5 5 5 5 6 5 5 5 5 5 5 5 5 5 5 5 5 6 5 5 6 5 5 6 5 5 6 5 5 5 5 5 5 5 5 5 5 6 5 5 5 5 5 5 5 5 6 5 5 5 6 5 5 5 6 5 5 6 5 5 5 6 5 5 5 5 5 6 5 6 5 5 5 5 6 6 5 5 5 6 5 5 5 5 6 5 5 5 5 5 5 5 5 5 5 5 5 5 5 5 6 5 5 6 6 5 5 5 5 6 5 5 5 5 5 5 6 5 5 5 5 5 5 6 5 5 5 5 5 5 5 5 6 5 5 5 5 5 5 5 5 5 5 6 5 5 6 5 5 6 5 5 5 5 5 6 6 5 5 6 6 5 6 5 6 5 6 6 5 5 6 5 6 5 6 5 6 5 6 5 5 6 5 6 5 6 5 5 5 5 5 5 6 5 5 5 6 5 5 5 5 5 5 5 5 5 6 5 5 6 5 6 5 6 5 5 5 6 6 5 5 5 5 5 5 5 5 5 5 5 6 5 5 5 5 5 6 5 5 5 5 5 5 5 5 5 5 5 5 5 5 5 5 5 6 5 5 5 5 5 5 6 5 5 5 6 5 5 6 5 5 5 6 5 6 6 5 5 5 5 5 5 5 5 5 6 5 5 5 5 5 5 5 6 5 6 5 6 5 5 5 5 5 5 5 5 5 5 5 5 5 5 5 5 5 5 5 5 5 5 5 5 5 5 5 5 5 5 5 5 5 5 5 5 5 6 5 5 6 6 5 5 5 5 6 5 5 5 5 5 6 5 5 6 6 5 5 5 5 5 5 6 5 6 5 5 6 6 5 6 5 5 5 6 5 5 5 5 6 5 5 5 6 5 5 6 6 5 5 5 6 5 5 5 5 6 5 5 6 5 5 5 6 5 5 6 5 5 5 6 5 6 5 5 6 5 5 6 6 5 5 6 5 6 6 5 5 5 5 6 5 5 5 5 6 5 5 5 5 5 5 5 5 5 5 5 5 6 5 5 5 5 6 5 6 5 5 5 5 5 6 6 6 5 5 5 5 5 5 5 5 6 5 5 5 5 5 5 6 5 5 5 5 6 5 5 5 5 5 5 5 5 5 5 5 5 5 5 5 5 5 5 6 5 6 5 5 6 6 5 6 5 5 6 5 6 5 6 5 6 5 5 5 5 6 5 5 5 6 5 5 5 5 5 5 5 5 5 5 5 5 5 5 5 5 5 5 5 5 5 5 5 5 5 6 5 5 5 5 5 6 5 5 5 5 5 5 5 5 5 5 5 6 5 5 5 5 5 6 5 5 6 6 5 5 5 6 5 5 6 6 5 6 5 5 5 5 5 5 5 5 5 5 5 5 5 5 5 5 6 5 5 5 5 6 5 5 5 5 5 5 5 5 6 6 5 5 6 5 5 5 5 5 5 5 5 5 6 6 5 5 6 5 5 5 6 5 5 5 5 5 5 5 5 5 5 5 5 5 5 5 5 5 5 5 5 5 5 5 5 5 5 6 5 5 5 5 5 5 5 5 5 5 5 5 5 5 5 5 5 5 5 5 6 5 5 5 6 6 5 5 5 6 5 5 6 5 5 5 5 5 6 5 6 5 5 5 5 5 5 5 5 6 5 5 5 6 5 5 6 5 6 5 5 5 6 5 5 5 6 5 5 5 5 5 5 5 5 5 5 5 5 5 5 5 5 5 6 5 5 5 5 5 5 5 5 5 6 5 5 5 5 5 5 5 5 6 5 5 5 5 5 5 5 5 5 5 5 5 5 6 5 5 5 6 5 5 5 5 5 5 5 5 5 5 5 5 5 5 5 5 5 5 5 6 5 5 5 6 5 6 5 5 5 6 5 5 5 6 6 5 5 5 5 5 5 5 5 5 5 5 5 5 5 5 5 5 5 5 5 5 5 6 5 5 5 5 6 5 5 5 5 6 5 5 5 5 5 5 5 6 5 5 5 5 6 5 5 5 5 5 5 6 5 5 5 5 5 5 6 5 5 5 6 5 5 5 5 5 5 5 5 5 6 5 5 5 5 5 5 6 5 5 5 5 5 5 5 5 5 5 5 6 5 5 6 5 5 5 5 5 6 5 5 6 5 5 5 5 5 5 5 6 6 5 5 5 5 6 5 5 5 5 5 5 6 5 5 5 5 5 5 5 5 5 5 6 5 5 5 5 5 5 5 5 5 5 5 5 6 5 6 5 5 5 6 5 5 6 5 5 5 5 6 5 5 5 5 5 6 5 5 5 5 5 5 5 5 6 5 5 5 5 6 5 5 5 5 5 5 5 6 5 5 5 5 5 5 5 5 5 5 6 5 5 5 6 5 6 5 5 5 5 5 5 6 5 6 5 6 5 5 5 5 6 5 5 5 5 5 5 5 5 5 5 5 5 5 5 6 5 6 5 5 5 5 5 5 5 6 5 5 5 5 5 5 5 5 5 5 5 5 5 6 5 5 5 5 6 5 5 5 5 5 5 5 5 5 5 5 5 5 5 5 5 5 5 5 5 5 5 5 5 6 5 5 5 5 6 5 5 5 6 5 5 6 5 5 6 5 5 5 5 5 5 5 5 5 5 5 5 5 5 5 6 5 5 6 5 5 5 5 5 5 5 6 5 5 5 5 5 6 5 5 5 6 5 5 5 6 5 5 5 5 5 5 5 6 5 5 5 6 5 6 6 5 5 5 5 5 6 5 5 5 5 5 5 5 5 5 5 6 5 5 5 5 5 5 5 5 5 5 5 5 5 5 5 5 5 5 5 5 5 5 5 5 5 5 5 5 5 5 5 5 5 5 5 5 5 6 5 5 5 5 5 5 5 5 5 5 5 5 5 5 5 5 6 5 5 5 5 5 5 5 5 5 6 5 5 5 5 5 5 5 6 5 5 5 5 5 5 5 5 5 5 5 5 5 5 5 5 5 5 5 5 5 6 5 5 5 5 5 5 5 5 5 5 5 5 5 5 5 5 5 6 5 5 5 5 5 5 5 5 5 5 5 5 5 5 5 5 5 5 5 5 5 5 5 5 5 5 5 5 5 5 5 5 5 5 5 5 5 5 5 5 5 5 5 5 5 5 6 5 5 5 5 5 5 5 5 5 5 5 5 5 6 5 6 5 5 5 5 5 6 5 5 5 5 5 6 6 5 5 5 5 5 5 5 5 5 5 5 5 5 5 5 5 5 6 6 5 5 5 5 5 5 6 5 6 5 5 5 5 5 5 5 5 5 6 5 5 5 5 5 5 5 5 5 5 5 5 5 5 5 5 5 5 5 6 5 5 5 5 5 6 5 6 5 5 5 5 5 5 5 6 5 5 5 6 5 5 5 6 5 5 6 5 5 5 6 5 5 6 5 6 5 6 5 5 6 5 5 5 5 5 5 5 5 5 5 5 5 5 5 5 5 5 5 5 5 5 6 5 6 5 5 5 5 5 5 5 6 5 5 5 5 5 5 5 5 5 5 5 5 5 5 5 5 5 5 5 6 5 5 5 6 5 5 5 5 5 5 5 5 5 5 6 5 5 5 5 6 5 5 6 5 5 5 5 5 6 5 5 5 5 6 5 6 5 5 6 5 5 5 5 5 5 5 6 5 5 6 5 6 5 5 5 5 5 5 5 5 5 5 5 5 5 5 5 5 5 5 6 5 5 5 5 5 5 5 6 5 5 5 5 6 5 5 5 5 5 5 5 5 5 6 5 5 5 5 6 5 5 5 5 5 5 5 5 5 5 5 5 6 5 5 5 5 5 5 5 5 5 6 5 5 5 5 5 5 5 5 5 5 5 5 6 5 5 6 5 5 5 5 5 5 5 5 5 6 6 6 5 5 5 6 5 5 5 5 5 5 6 5 5 5 6 6 5 5 5 5 5 5 5 5 5 5 5 5 6 5 5 5 6 6 5 5 5 5 5 6 5 5 5 5 6 5 5 5 5 6 5 5 5 5 5 6 6 6 5 5 5 6 6 5 5 5 5 5 5 5 5 5 6 6 5 5 5 6 6 5 5 5 5 5 5 5 5 5 5 5 5 5 5 5 5 5 6 5 6 5 5 5 5 6 5 5 5 5 5 5 5 6 5 5 5 5 5 5 5 6 5 5 6 5 6 6 5 5 5 6 6 5 5 5 6 6 5 5 5 5 5 5 5 5 5 5 6 5 5 5 5 5 5 5 6 5 5 5 5 6 5 5 5 5 5 5 6 5 5 5 5 6 5 6 5 5 5 5 5 5 5 5 5 5 5 5 5 5 6 5 5 5 5 5 5 5 6 5 5 5 5 6 5 5 5 6 5 5 5 5 5 5 5 5 5 5 5 5 5 5 5 5 5 5 5 5 5 5 6 5 6 5 5 6 5 5 5 6 5 5 6 5 5 5 5 5 5 5 5 5 5 5 5 5 5 5 5 5 5 5 5 6 6 6 5 5 5 5 5 5 5 5 5 5 5 5 5 6 5 5 5 6 5 5 6 5 5 5 5 6 5 5 6 6 5 5 5 5 6 5 5 6 5 6 5 5 5 5 5 5 5 5 5 5 5 5 6 5 5 5 5 5 5 5 6 5 6 5 5 5 5 6 5 5 5 5 5 5 5 5 5 5 5 5 5 5 5 5 5 5 5 5 5 5 5 6 5 5 5 6 5 6 5 5 5 6 5 5 5 5 5 6 5 5 6 5 5 5 5 5 5 5 5 6 5 5 5 5 5 6 5 5 5 5 5 5 5 5 5 5 5 5 5 5 6 5 5 5 5 6 5 5 5 5 5 5 5 5 5 5 5 5 6 5 5 5 5 6 5 5 5 5 5 5 5 5 5 5 5 5 5 6 5 5 6 5 5 5 6 5 5 5 5 5 5 5 5 5 5 5 5 5 6 6 5 6 6 5 5 5 6 6 5 6 5 6 5 6 5 5 5 6 5 6 5 5 5 5 6 5 5 5 5 5 5 6 5 5 5 5 5 6 5 5 6 5 5 6 5 5 6 5 5 5 5 5 6 5 6 5 5 5 5 5 5 5 5 5 5 5 5 5 6 5 5 6 5 5 5 5 5 5 5 5 5 6 5 5 5 5 5 5 5 5 5 6 5 5 6 5 6 5 5 5 5 5 5 5 6 5 5 5 5 5 5 5 6 5 6 5 5 6 5 5 5 6 5 5 5 5 6 5 5 5 5 5 6 5 5 5 5 5 5 5 5 5 5 5 5 5 5 5 5 5 5 5 5 5 6 5 5 6 5 5 5 6 5 5 5 5 6 5 5 5 5 5 5 5 5 5 5 5 5 5 5 5 5 5 5 5 5 5 5 5 6 5 5 5 5 5 5 6 5 5 5 5 5 5 5 5 5 5 5 5 5 6 5 6 5 5 6 5 5 5 5 6 6 5 6 5 6 5 5 5 5 5 6 5 5 6 6 5 5 5 5 5 6 5 5 6 5 5 5 5 5 5 5 5 6 6 5 5 5 6 5 6 5 5 5 5 5 6 5 6 5 5 5 5 5 6 6 5 5 5 5 6 5 5 5 5 6 5 5 5 5 5 5 5 5 5 5 5 5 5 5 5 5 5 6 5 5 6 5 5 5 6 5 5 5 5 5 5 5 5 5 5 5 5 5 5 5 5 5 5 5 6 5 5 5 5 5 5 5 5 5 5 5 5 5 5 6 6 5 5 5 6 5 5 5 5 5 6 5 5 5 5 5 5 5 5 5 5 5 6 5 5 6 5 5 5 5 5 5 5 5 5 5 6 5 5 5 6 5 6 5 6 5 5 5 6 6 5 6 5 5 6 5 5 6 6 5 5 5 6 5 5 6 5 6 5 5 5 6 5 5 6 6 5 6 5 5 6 5 6 5 5 5 5 5 5 5 5 5 6 5 5 5 5 5 6 5 5 5 5 5 5 5 5 5 5 6 5 5 5 5 6 6 5 5 6 5 6 5 5 5 5 5 6 5 5 6 5 6 5 5 5 5 5 5 5 6 5 5 5 5 5 5 5 5 5 6 5 6 5 6 5 6 5 5 5 5 6 5 5 5 5 5 6 6 5 5 5 5 5 5 6 5 5 5 5 5 6 5 5 5 5 6 5 5 6 5 6 5 5 5 6 5 6 5 5 6 6 6 5 5 5 5 5 5 6 6 6 5 5 5 5 6 5 6 5 6 5 5 5 5 5 5 6 5 5 5 5 5 5 5 5 5 5 5 5 5 5 5 5 5 5 5 5 5 5 5 5 5 5 5 5 5 5 5 5 5 5 5 5 5 5 5 5 5 5 5 5 5 5 5 5 5 6 5 5 5 6 6 5 5 5 5 5 5 5 5 5 5 5 5 5 5 5 5 5 5 5 6 5 5 5 5 5 5 5 6 5 5 6 5 5 6 5 5 6 5 6 5 5 6 5 5 5 6 5 6 5 6 6 5 5 5 6 6 5 5 6 5 5 6 5 5 5 5 5 5 5 5 5 5 5 5 6 5 5 5 5 6 5 5 5 5 6 5 5 5 5 5 5 5 5 5 6 5 6 5 5 5 5 6 5 5 5 6 5 5 5 5 5 5 6 5 5 6 5 5 5 6 5 5 5 5 5 5 5 6 5 5 5 5 5 6 5 5 5 5 5 5 5 5 5 5 5 5 5 5 5 6 5 5 5 5 5 6 5 5 6 5 6 5 5 5 5 6 6 5 5 6 5 5 5 5 5 5 5 5 5 5 5 6 5 6 5 5 5 5 5 6 5 5 5 6 5 5 5 6 5 5 5 5 5 5 5 5 5 5 5 5 5 6 5 5 5 5 5 5 5 6 5 6 5 5 5 5 5 5 5 6 6 5 5 5 5 5 5 5 5 5 6 5 5 5 5 5 5 6 6 6 5 6 5 5 5 5 5 5 6 5 6 5 6 5 6 5 5 5 5 5 5 6 5 5 6 5 5 5 5 6 5 5 5 5 5 5 5 5 5 5 5 5 5 5 5 5 5 5 5 5 5 6 5 6 5 5 5 5 5 5 5 5 5 5 5 5 5 5 5 5 5 5 5 5 5 5 5 5 5 5 5 5 5 5 5 5 5 5 5 5 5 5 5 5 5 5 5 5 5 5 5 5 5 5 5 5 5 5 5 5 5 5 6 5 5 5 5 5 5 5 5 5 5 5 5 5 5 5 5 5 5 5 5 5 5 5 6 5 5 5 6 5 6 5 5 5 5 5 5 5 5 5 5 5 5 5 5 5 5 5 5 5 5 5 5 5 5 5 5 5 5 5 5 5 5 5 5 5 5 5 5 5 6 5 6 5 5 5 5 5 5 5 5 5 5 5 5 5 5 5 5 5 5 5 5 5 5 5 5 5 6 5 5 5 5 5 5 5 5 5 5 5 5 5 5 5 5 5 5 5 5 5 5 5 5 5 5 5 5 5 5 5 5 5 5 5 5 5 5 5 5 5 5 5 5 5 5 5 5 5 5 5 5 5 5 5 5 5 5 5 5 5 5 5 5 5 5 5 5 5 6 5 5 5 5 5 5 5 6 5 5 6 5 5 5 5 5 5 5 5 5 5 5 5 5 5 5 5 5 5 5 5 6 5 5 5 5 5 5 5 5 5 5 5 5 5 5 5 5 5 5 5 5 5 5 5 5 5 5 5 5 5 5 5 5 6 5 5 5 5 6 5 6 5 5 5 5 5 5 6 5 5 6 5 5 6 6 5 6 5 5 5 6 5 5 5 5 5 5 5 5 5 5 5 5 5 5 5 6 5 5 5 5 5 5 5 5 6 5 5 5 5 5 5 5 5 5 5 5 5 5 5 5 5 5 5 5 5 5 5 5 5 5 5 5 5 5 5 5 5 5 5 5 5 6 5 5 5 5 5 5 5 6 5 5 6 5 6 5 5 5 5 5 5 5 5 5 5 5 6 6 5 5 6 5 5 6 6 5 5 5 5 6 5 6 5 5 6 5 6 6 5 6 5 6 5 5 5 5 5 5 5 6 5 6 5 5 5 5 5 6 5 5 5 6 5 5 6 5 6 5 6 6 5 5 6 5 5 5 5 5 5 6 5 5 5 5 5 5 5 5 6 6 5 5 5 6 5 5 5 5 6 6 5 6 5 5 5 6 5 5 5 5 5 5 5 5 5 5 5 5 5 5 5 5 6 5 5 5 5 5 5 6 5 6 5 5 5 6 6 5 5 6 5 6 5 5 5 5 5 5 5 5 5 5 5 5 6 6 5 5 5 5 5 6 5 5 5 5 5 5 5 6 5 5 5 6 5 6 5 5 6 5 5 5 5 5 5 5 5 5 6 5 5 6 5 5 5 5 5 5 5 5 5 5 5 6 5 5 5 5 5 5 5 5 5 5 5 5 5 5 5 5 5 5 5 5 5 5 6 5 5 5 5 5 5 5 5 5 5 5 6 5 5 5 5 6 5 5 5 5 5 5 5 5 5 5 5 6 5 5 5 5 5 6 5 6 5 5 5 5 5 5 5 5 5 6 5 5 6 5 5 6 5 5 5 5 6 5 5 5 5 5 5 5 5 5 5 5 5 5 5 5 5 5 5 5 5 5 6 5 5 6 5 6 5 5 5 5 5 5 5 5 5 6 5 5 6 6 6 5 5 5 6 5 5 5 5 5 5 6 6 5 6 5 5 6 5 5 6 5 5 5 5 6 5 5 5 5 6 5 5 5 5 5 5 5 5 5 5 5 6 5 5 6 5 6 6 5 5 6 6 6 5 5 5 5 5 5 5 5 5 5 6 5 5 5 5 5 5 5 5 5 6 5 5 5 5 5 6 5 5 5 5 5 5 5 5 5 5 6 5 5 5 5 5 5 5 5 5 5 5 5 5 5 5 5 5 5 5 5 5 5 5 5 6 6 5 5 5 5 5 5 5 5 6 5 5 5 5 5 5 5 5 5 5 5 5 5 5 5 5 6 5 5 5 5 6 5 5 5 6 6 5 5 5 5 5 5 6 5 6 5 5 5 6 5 5 5 5 5 5 5 5 6 5 6 6 5 5 5 5 5 5 5 5 5 5 5 5 6 5 5 6 5 6 5 5 5 5 5 5 5 5 5 5 5 5 5 5 5 5 5 5 5 5 5 5 5 6 5 5 5 5 5 6 5 5 5 5 5 5 5 5 5 5 6 5 5 5 6 5 5 5 5 5 5 5 5 5 5 5 6 6 5 5 5 5 5 6 5 5 5 6 5 5 5 5 5 5 5 5 5 5 6 5 5 5 5 5 5 5 6 6 5 6 5 5 5 5 6 5 5 5 5 5 6 5 5 5 5 5 5 5 5 5 5 6 5 5 5 5 5 5 5 5 5 5 6 5 5 5 5 5 5 5 6 5 5 5 5 5 5 5 5 5 5 5 5 5 5 5 5 5 5 5 5 6 5 5 5 6 5 5 5 5 5 5 5 5 5 5 5 5 5 6 5 6 6 5 6 6 5 5 5 5 5 6 5 5 5 5 5 5 5 6 5 5 6 5 5 6 5 5 6 5 5 6 6 6 6 5 5 6 6 5 5 6 5 5 6 5 5 5 5 6 6 6 6 5 5 5 6 5 6 5 6 5 6 6 5 5 5 5 5 5 5 6 5 5 6 5 6 5 5 6 6 5 5 5 5 5 5 5 5 5 5 5 5 5 5 5 5 5 6 5 5 5 5 5 5 5 5 5 5 5 5 5 5 5 5 5 6 5 5 5 5 5 5 5 5 5 5 5 5 5 5 6 6 5 5 5 5 6 5 6 5 5 5 6 6 5 6 5 5 5 5 5 5 5 5 5 5 5 5 5 5 5 5 5 5 5 6 5 6 5 5 5 5 6 5 5 5 5 5 5 5 5 5 5 5 5 5 5 5 5 5 5 5 5 6 5 5 5 5 5 5 5 5 5 5 5 5 5 5 6 5 5 5 5 5 5 5 5 5 5 5 5 5 5 5 5 5 5 5 5 5 5 5 5 5 5 5 5 5 5 5 5 5 5 5 5 5 5 5 5 5 5 5 5 5 5 5 5 5 5 5 5 5 5 5 5 5 5 5 5 5 5 6 5 5 5 6 5 5 6 5 5 5 5 5 5 5 5 5 5 5 6 5 5 5 5 6 5 5 5 5 5 5 5 5 5 5 5 5 5 5 5 5 5 5 5 5 5 5 5 5 5 5 5 5 5 6 5 5 5 5 6 5 5 5 5 5 5 5 5 5 5 6 5 5 6 5 5 5 5 5 5 5 5 5 5 5 5 6 5 5 5 5 5 5 5 5 6 5 5 5 5 5 5 5 5 5 5 6 5 6 5 5 5 6 5 5 5 6 5 6 5 6 6 5 5 5 5 5 6 5 5 5 5 5 5 5 5 5 5 5 5 5 5 5 5 5 5 5 5 5 5 5 6 5 5 6 5 5 5 6 5 6 5 5 5 5 5 5 5 5 5 5 5 5 6 5 5 5 5 5 5 5 5 5 5 5 5 5 5 5 5 5 5 5 6 5 5 5 5 5 5 5 5 5 5 5 5 5 5 5 5 5 5 5 5 5 5 5 5 5 5 5 6 5 5 5 5 5 5 5 5 5 5 5 5 5 5 5 5 5 5 6 5 5 5 6 5 5 5 6 6 5 5 5 5 5 6 5 5 5 5 5 5 5 6 6 5 5 5 6 5 6 5 5 5 5 5 5 6 6 5 5 6 6 5 5 5 5 5 5 5 5 5 5 6 5 5 5 5 5 5 6 5 5 5 5 5 5 5 5 5 5 5 5 5 5 5 5 5 6 5 5 5 5 6 5 5 6 5 5 5 5 5 5 5 5 5 5 5 6 5 6 5 6 5 5 5 5 5 5 5 5 5 5 5 5 5 5 5 5 5 5 5 6 5 5 6 5 5 5 6 5 5 6 5 5 5 5 6 5 5 5 5 5 5 5 6 5 5 5 5 5 5 5 5 5 5 5 5 5 5 5 5 5 5 5 5 5 5 5 5 5 5 5 5 5 6 5 5 5 5 5 5 5 5 5 5 5 5 5 5 5 5 5 5 5 5 5 5 5 5 5 5 5 5 5 5 5 5 5 5 5 5 5 6 6 6 5 5 6 5 5 5 6 5 6 5 5 5 5 5 6 5 5 5 5 5 5 5 6 5 5 5 5 5 5 5 5 5 5 5 5 5 5 6 5 5 5 6 5 6 5 5 5 5 5 5 5 5 6 5 5 5 5 5 5 5 6 5 6 5 6 5 5 5 5 5 5 5 5 6 5 5 6 6 6 5 6 5 6 5 5 5 5 5 5 5 5 5 5 5 5 5 5 5 5 5 5 5 5 5 6 5 5 6 6 5 5 5 6 5 5 5 5 5 5 5 6 5 6 5 5 5 5 6 5 5 6 5 5 5 5 5 5 5 6 5 5 6 5 5 5 6 5 5 5 5 5 5 5 5 5 6 5 5 5 5 5 5 6 5 5 6 5 5 5 5 6 5 5 5 5 5 5 6 6 6 5 5 5 6 5 6 5 6 5 5 5 5 5 5 6 5 5 5 6 5 5 5 6 5 5 5 5 5 5 5 5 5 5 5 5 6 5 5 5 6 5 5 5 5 5 6 6 5 5 6 5 6 6 6 5 5 5 6 5 5 5 5 5 6 5 5 5 5 5 5 5 5 5 5 5 5 6 5 5 5 5 5 5 6 5 5 6 5 5 6 5 5 5 5 5 6 5 5 6 5 6 5 6 5 5 5 5 5 5 6 5 5 5 5 6 5 5 5 5 5 5 5 5 5 5 6 5 5 5 5 5 6 5 5 5 5 5 5 5 5 5 5 5 5 5 5 5 6 5 5 5 5 5 6 5 6 5 5 5 5 5 6 5 5 5 5 5 6 5 5 5 5 5 6 5 5 5 5 5 5 5 5 5 5 6 5 6 5 6 5 5 6 5 5 5 5 5 5 5 5 6 5 6 5 5 5 5 5 5 5 5 5 5 6 5 5 5 5 5 5 5 5 5 5 6 5 5 5 6 5 6 6 5 5 5 6 5 5 5 6 6 5 5 5 5 5 5 5 5 5 5 6 6 5 5 5 5 5 6 5 5 5 5 5 5 5 5 5 5 6 5 6 6 6 5 5 5 5 5 5 5 5 6 5 5 5 5 5 5 5 5 5 5 5 5 5 5 5 5 5 5 5 5 5 5 5 5 5 5 5 5 5 6 5 5 5 5 6 5 5 5 5 5 5 5 5 6 5 5 5 5 5 5 5 5 6 5 5 5 5 5 5 5 5 5 5 5 5 5 5 5 5 5 5 5 5 5 5 5 5 5 5 6 5 5 5 5 5 5 6 5 6 5 5 6 5 5 5 6 5 6 5 5 5 6 5 5 5 6 5 5 5 5 5 5 6 5 5 5 5 5 5 5 5 5 5 5 5 5 5 5 5 5 5 5 5 5 5 5 5 5 5 5 6 5 6 5 5 5 5 6 5 5 5 5 5 5 5 5 5 5 5 5 5 6 5 5 6 5 5 6 5 5 5 5 5 6 5 5 5 5 5 5 5 5 6 5 6 5 5 5 5 5 6 6 5 5 6 5 5 5 6 5 5 5 5 5 5 5 6 5 5 5 5 5 5 5 5 5 5 5 5 5 5 5 5 6 5 5 5 5 5 6 5 6 5 5 5 5 5 5 5 5 5 5 5 5 6 5 6 5 5 5 5 5 5 6 6 5 5 5 5 5 5 5 5 5 5 5 5 5 5 5 5 5 5 5 5 5 6 5 5 6 5 5 5 5 5 6 5 5 5 5 5 5 6 5 5 5 5 5 5 5 5 5 5 5 5 5 5 5 5 6 5 5 6 5 5 5 5 6 5 5 5 5 5 5 5 5 5 5 5 6 5 5 5 5 5 5 5 5 5 5 5 5 5 5 5 5 5 5 5 6 5 5 5 5 5 5 5 5 5 5 5 5 6 5 5 5 5 5 5 5 5 5 5 5 5 5 6 6 5 5 5 5 5 5 6 5 5 5 5 5 5 5 5 5 5 5 5 5 5 5 5 5 5 5 5 5 5 5 5 5 5 5 5 5 5 5 5 5 5 5 6 5 5 5 5 5 5 5 5 6 5 5 5 5 5 5 5 5 5 5 5 5 6 5 5 5 5 6 5 6 5 5 5 5 5 5 5 5 6 5 5 5 5 5 5 5 5 5 5 6 5 5 5 6 5 5 6 5 5 5 5 6 5 5 6 5 5 5 5 5 5 5 5 6 5 5 5 6 5 5 5 5 5 5 5 6 5 6 5 6 5 6 6 5 5 5 6 6 6 5 5 6 5 5 5 6 5 5 5 5 6 5 5 5 5 5 5 5 5 5 5 5 5 5 5 5 5 5 5 5 5 5 5 5 5 5 5 5 5 5 5 5 5 5 5 5 5 5 5 6 5 5 5 5 5 5 5 5 6 5 5 5 5 6 5 5 6 5 5 6 5 5 5 5 6 5 5 5 5 5 6 5 5 5 5 5 5 5 5 5 5 5 5 5 6 6 5 5 5 6 5 5 5 5 5 5 5 5 5 5 5 5 5 5 6 5 5 5 5 5 5 6 5 5 6 5 5 5 5 5 5 5 5 5 5 6 5 5 5 5 5 6 5 5 5 5 5 5 5 5 5 5 6 5 5 5 5 5 5 5 5 5 5 5 5 5 5 5 6 5 5 5 5 5 5 5 5 5 5 5 5 5 5 5 5 5 5 5 5 5 5 5 6 5 6 5 5 5 6 5 5 5 5 5 5 5 5 5 6 5 5 5 6 5 5 5 5 5 5 5 5 5 5 5 5 5 5 5 5 6 5 5 5 5 5 6 5 5 5 6 5 6 5 5 5 5 5 5 6 5 5 5 5 5 5 5 5 5 5 5 5 5 5 5 5 5 5 5 5 5 5 5 5 5 5 5 6 5 5 6 5 5 5 5 5 5 5 6 5 5 5 5 6 5 5 6 5 5 5 5 5 5 6 5 5 5 6 5 5 5 6 5 5 5 5 5 6 5 5 5 5 5 6 5 5 5 5 5 5 5 5 6 5 5 6 5 5 5 5 6 5 5 5 5 6 5 5 5 5 6 5 5 5 6 5 6 5 5 5 5 5 5 5 5 5 5 6 5 5 5 5 5 5 5 6 6 5 5 5 5 5 6 5 5 5 5 5 6 5 5 5 6 5 5 6 5 5 6 5 5 5 6 5 5 5 5 5 5 6 5 5 5 5 5 6 5 5 5 5 5 6 5 5 5 5 5 5 6 5 5 5 5 6 5 5 5 5 5 6 5 5 5 5 5 5 5 5 5 5 6 5 5 5 5 5 5 5 6 5 5 5 5 6 6 5 5 6 5 5 5 5 5 5 5 6 5 5 5 5 5 5 5 6 5 6 5 5 6 5 5 5 5 6 5 6 5 5 5 5 5 5 5 5 5 5 6 5 5 5 5 5 6 5 5 5 6 5 5 5 5 6 5 5 6 5 5 5 5 5 6 5 6 5 6 6 5 5 5 5 6 6 5 5 5 5 5 5 5 5 5 5 5 5 5 6 5 5 5 5 5 5 6 6 5 5 5 5 5 5 5 5 5 5 5 5 5 6 5 5 5 5 5 5 5 5 5 5 5 5 5 5 5 5 5 5 5 5 5 5 5 5 5 5 5 5 5 5 5 5 5 6 5 5 6 5 5 5 5 5 5 5 6 5 5 5 6 5 5 6 5 5 5 6 6 5 5 5 5 6 6 5 5 5 5 5 5 5 5 5 5 5 5 5 5 6 5 5 6 5 5 5 6 5 5 5 5 6 5 5 6 5 5 5 5 5 5 5 5 5 5 5 6 5 5 5 5 5 5 5 6 5 5 5 5 5 5 5 5 5 5 5 5 5 5 5 5 5 5 6 5 5 5 5 5 5 6 5 6 5 5 5 5 5 6 5 5 6 5 5 5 6 5 5 5 6 5 5 5 5 5 5 5 5 5 5 5 5 5 5 6 5 5 5 5 6 6 5 5 5 5 5 5 5 5 5 5 5 5 5 5 5 5 5 5 5 6 5 5 5 5 5 5 5 5 6 5 6 5 5 5 5 5 5 5 6 5 6 5 5 5 5 5 6 5 5 5 5 5 5 6 5 5 5 5 5 6 6 5 5 5 6 6 6 5 5 5 5 5 6 5 5 5 5 5 6 5 5 5 5 6 5 6 6 5 6 6 5 5 5 6 5 5 5 6 5 5 5 6 5 5 5 6 5 5 5 5 5 5 5 5 6 5 5 5 6 5 5 5 5 5 5 6 5 5 5 5 5 5 6 5 5 5 5 5 5 5 5 5 5 5 5 5 5 6 5 6 5 5 5 6 5 5 6 5 6 5 6 5 5 6 5 5 5 5 5 5 6 5 5 5 5 6 5 5 5 5 5 5 6 5 5 5 5 5 5 5 5 5 5 6 5 5 5 5 5 5 5 5 5 5 5 5 5 5 5 5 5 5 5 6 6 5 5 5 6 5 5 6 5 5 6 5 5 6 5 5 6 6 5 5 5 5 6 5 5 5 5 5 5 5 5 5 5 5 6 6 5 5 5 6 5 6 5 6 5 5 5 5 5 6 5 5 6 5 6 5 5 6 6 6 5 5 5 5 6 5 5 6 5 6 5 5 6 5 5 5 5 5 5 5 5 6 5 6 6 5 5 5 5 5 6 6 5 5 5 6 6 5 5 5 5 5 5 5 5 6 5 6 5 5 5 5 5 5 5 5 5 5 5 5 5 5 5 5 5 5 5 5 5 5 5 5 5 5 5 5 5 6 5 5 5 5 5 5 5 5 5 5 5 5 5 5 5 6 5 5 6 5 5 5 5 5 6 5 5 5 5 5 5 5 5 5 5 5 5 5 6 5 5 5 5 5 5 5 5 5 6 5 5 6 5 5 5 5 6 6 6 5 5 5 5 5 6 5 5 5 
</DataArray>
<DataArray type="Float64" Name="stress" NumberOfComponents="9" format="ascii">
-3020221997.1654663 5025198658.0866852 0 5025198658.0866852 2544278.8813893693 0 0 0 0 -4839680.896774292 1073512300.8346672 0 1073512300.8346672 -1776222779.1343994 0 0 0 0 -2320349.788639605 6783930.83220689 0 6783930.83220689 -2799149.3425661176 0 0 0 0 2503308894.9162598 3403221349.9749451 0 3403221349.9749451 -1507636582.3418579 0 0 0 0 -635405959.16059875 5122611649.3016357 0 5122611649.3016357 -1074368.3088378906 0 0 0 0 -649309872.95265198 3877232025.8197174 0 3877232025.8197174 -1177141825.4949799 0 0 0 0 -1885400563.1563416 2798662635.4909363 0 2798662635.4909363 -1565436504.5846672 0 0 0 0 -2604281.6839779615 6649108.0017296597 0 6649108.0017296597 -2667458.1187950969 0 0 0 0 -4551535123.118927 4065437340.7642479 0 4065437340.7642479 -365840933.99301147 0 0 0 0 -1606440935.6611023 4461902983.0989838 0 4461902983.0989838 -463938853.21661377 0 0 0 0 -1616496068.455399 3273966733.4260149 0 3273966733.4260149 -812770222.6736145 0 0 0 0 -541533248.82774353 3418522655.6298981 0 3418522655.6298981 -1157647327.4361267 0 0 0 0 -466448287.47161865 3871321730.0415344 0 3871321730.0415344 -1559333779.9205246 0 0 0 0 -469318280.60296631 3937917531.8636703 0 3937917531.8636703 -2609240667.2106934 0 0 0 0 -10485922.4737854 4684856363.3523254 0 4684856363.3523254 -1501118243.8031845 0 0 0 0 437831296.40356445 3462107014.2085724 0 3462107014.2085724 -2500181968.4485092 0 0 0 0 -655407342.57974243 3123225419.7708588 0 3123225419.7708588 -1568527191.1818314 0 0 0 0 552300318.88244629 2797926233.6576843 0 2797926233.6576843 -1615501820.8851757 0 0 0 0 767938419.35035706 1629567611.8912239 0 1629567611.8912239 -363774936.31114197 0 0 0 0 2744171604.6082001 2737525195.7259827 0 2737525195.7259827 -2288806844.9950104 0 0 0 0 -1153509.4586697966 3176838.6611827239 0 3176838.6611827239 -2895011.8047834784 0 0 0 0 -2321686308.3813477 2670224496.8408356 0 2670224496.8408356 440946222.69758606 0 0 0 0 -1020671840.7537689 4140043687.847229 0 4140043687.847229 -591666345.8319397 0 0 0 0 -1655941417.1249695 3922046951.2851105 0 3922046951.2851105 -618243461.54276085 0 0 0 0 -2621655786.0919266 4828503323.6225204 0 4828503323.6225204 -124393.14872741699 0 0 0 0 -2095530.9871665537 4518293.4833963886 0 4518293.4833963886 -2422715.6923700571 0 0 0 0 1990279076.8548012 1577551406.4161892 0 1577551406.4161892 -887170566.86581421 0 0 0 0 -5305580379.655838 3461977701.6672668 0 3461977701.6672668 762493685.24586487 0 0 0 0 -267440772.59352112 1956170443.5990753 0 1956170443.5990753 1177087.1597595215 0 0 0 0 -2825173318.3041687 1034520477.2230377 0 1034520477.2230377 601768770.50106812 0 0 0 0 -2826316745.5786524 2075854412.7508702 0 2075854412.7508702 -641356891.81613159 0 0 0 0 66006782.132217407 451976555.49352264 0 451976555.49352264 -133311854.31692505 0 0 0 0 -3223600811.3872986 1722368508.9157143 0 1722368508.9157143 -791775529.01208496 0 0 0 0 -1818852.7503216714 769570.95453025401 0 769570.95453025401 -191143.40622504056 0 0 0 0 -3266806782.5439758 1609392552.8089981 0 1609392552.8089981 -451862329.28227234 0 0 0 0 -3282620065.3536072 1901012853.9866486 0 1901012853.9866486 -407738.31635000359 0 0 0 0 -2858556408.1862183 1735189427.134552 0 1735189427.134552 -1174557812.6437988 0 0 0 0 -3797630382.8554382 3502000908.2340393 0 3502000908.2340393 -1358855400.8227377 0 0 0 0 -1754383766.5151367 362122857.87702942 0 362122857.87702942 485909496.69517517 0 0 0 0 -1442765485.5975494 -74684543.265899658 0 -74684543.265899658 247697490.60394287 0 0 0 0 -1765735748.3186493 69740527.341041565 0 69740527.341041565 315334402.28555298 0 0 0 0 -532551248.84668732 530117569.60118294 0 530117569.60118294 -114538036.34344482 0 0 0 0 -1096901.9170990586 2491741.1544488817 0 2491741.1544488817 -3966821.5714410543 0 0 0 0 -183424880.90138245 -763000221.7841301 0 -763000221.7841301 381367191.50552368 0 0 0 0 200009039.36309814 23278447.034988403 0 23278447.034988403 96395256.910072327 0 0 0 0 -1350513884.7956085 -100520610.65211487 0 -100520610.65211487 339766355.22703552 0 0 0 0 -12160797.302856445 171747571.22064209 0 171747571.22064209 72733406.370895386 0 0 0 0 -1385984663.9052734 -270605631.110672 0 -270605631.110672 -466005267.3034668 0 0 0 0 -2959581356.8687592 788160425.85792542 0 788160425.85792542 144211407.7951355 0 0 0 0 -4104606798.6195068 3329409766.7502213 0 3329409766.7502213 -1758996785.0460052 0 0 0 0 -3991113334.4717865 1939492495.1148529 0 1939492495.1148529 816636286.11116028 0 0 0 0 -4201768667.3924866 3920699711.8642426 0 3920699711.8642426 -2623251000.3997717 0 0 0 0 -2747214009.1751633 2490252852.5041351 0 2490252852.5041351 -2618144100.375885 0 0 0 0 826119363.41819763 -872328406.08846283 0 -872328406.08846283 446634494.67367554 0 0 0 0 724165.78038701415 3739111.2834482044 0 3739111.2834482044 -7975017.7520145327 0 0 0 0 -1087371.4427409917 811539.49290844798 0 811539.49290844798 -904723.04547299445 0 0 0 0 -3311616329.4110851 3554138145.8038778 0 3554138145.8038778 -2691103672.5073547 0 0 0 0 -3330840358.1141968 3802435552.7872772 0 3802435552.7872772 -3514742974.8798523 0 0 0 0 -1244957344.8414001 1780062724.3268738 0 1780062724.3268738 -1542057413.82724 0 0 0 0 -952057645.62918091 1730119692.9687958 0 1730119692.9687958 -430050847.16726685 0 0 0 0 -827767838.91070557 2294586809.2156677 0 2294586809.2156677 -1022266672.8621674 0 0 0 0 1396420242.5765648 -139853440.4638958 0 -139853440.4638958 -913603536.92608643 0 0 0 0 -385371046.39508057 -241516026.2724762 0 -241516026.2724762 885401806.58499146 0 0 0 0 469689460.21661377 865360356.88350677 0 865360356.88350677 -260771520.1685791 0 0 0 0 -461991.49934536405 9772915.4089164957 0 9772915.4089164957 -13569371.148244426 0 0 0 0 -269180772.12905884 688072025.72213745 0 688072025.72213745 589427678.21150208 0 0 0 0 808872359.44665527 200186195.5380249 0 200186195.5380249 304428872.71852875 0 0 0 0 1074239014.8224068 981028154.97383118 0 981028154.97383118 -228037521.56860352 0 0 0 0 386493089.89201355 1626343473.9182587 0 1626343473.9182587 -712812669.76907349 0 0 0 0 -3456319436.4257812 224974376.26245117 0 224974376.26245117 -577564996.57034302 0 0 0 0 -2250259348.2607117 755825155.14172363 0 755825155.14172363 -541949913.74768066 0 0 0 0 -1320552590.2804413 -381913187.60346222 0 -381913187.60346222 -235846040.21685791 0 0 0 0 247819254.64337158 -126365717.28227234 0 -126365717.28227234 -596263005.56765747 0 0 0 0 -1020239719.6356659 1592722487.2899933 0 1592722487.2899933 -796357322.60344696 0 0 0 0 -1530589601.1139832 829527301.61209106 0 829527301.61209106 -925156876.81076813 0 0 0 0 -612647940.57685852 -378777123.82567596 0 -378777123.82567596 346897989.19226074 0 0 0 0 -1628148369.6990204 470202231.72534943 0 470202231.72534943 -2196390110.8771362 0 0 0 0 -3794213498.9074097 1124451840.6609039 0 1124451840.6609039 -952221534.8326416 0 0 0 0 -3553341315.7766113 619672827.38433838 0 619672827.38433838 -645193595.17211914 0 0 0 0 -2443831708.4569397 1814272558.7935028 0 1814272558.7935028 -1653127071.0837402 0 0 0 0 -1682536517.9508209 820832130.52586365 0 820832130.52586365 -450556641.15905762 0 0 0 0 -2166985348.2610321 851993067.75241852 0 851993067.75241852 -175775864.72186279 0 0 0 0 -2120537618.5471039 1506693420.2620392 0 1506693420.2620392 285026689.86965942 0 0 0 0 -2044453023.0923157 1761094648.8846283 0 1761094648.8846283 -490442748.04923534 0 0 0 0 -2042847428.6471596 530958465.48783714 0 530958465.48783714 84288788.249969482 0 0 0 0 2191300828.4514923 787822977.11752319 0 787822977.11752319 -48783114.002471924 0 0 0 0 230779293.1451416 832517933.65455627 0 832517933.65455627 -880837462.63192749 0 0 0 0 -529208.82024590112 9635349.0051214173 0 9635349.0051214173 -11223272.436399505 0 0 0 0 2968107823.9855347 521892044.65667725 0 521892044.65667725 436158926.80064392 0 0 0 0 1391160212.2078857 839656359.84625244 0 839656359.84625244 664296171.58797455 0 0 0 0 1224133735.9870911 1301766431.0034828 0 1301766431.0034828 553516990.28344727 0 0 0 0 1464071500.1022949 491153055.5640564 0 491153055.5640564 591563255.06643677 0 0 0 0 427948633.96363068 1351836339.8056068 0 1351836339.8056068 155225758.74880981 0 0 0 0 793522194.01040649 850370118.93389893 0 850370118.93389893 80785942.903503418 0 0 0 0 675073080.81570435 990126443.20823669 0 990126443.20823669 -1075055902.9642944 0 0 0 0 304064687.59570312 648411762.09155273 0 648411762.09155273 606823017.22048187 0 0 0 0 191888529.27464294 877185851.75423431 0 877185851.75423431 491617359.62384033 0 0 0 0 393349315.04333496 771074528.49023438 0 771074528.49023438 350825997.62211609 0 0 0 0 403451787.31671143 577481800.90768433 0 577481800.90768433 -9536821.1120300293 0 0 0 0 1514650.8586654533 7584416.076313816 0 7584416.076313816 -16523485.433315277 0 0 0 0 -4388527.562713623 -304989927.15496445 0 -304989927.15496445 471567739.28791809 0 0 0 0 226267984.9563446 -69911425.601587296 0 -69911425.601587296 20633641.675354004 0 0 0 0 939431157.10081482 609988053.6087265 0 609988053.6087265 297395399.41473389 0 0 0 0 434405.89687907044 1967731.5994879678 0 1967731.5994879678 -6421672.6169084758 0 0 0 0 783651511.16830444 -129489833.91119385 0 -129489833.91119385 153255452.74845505 0 0 0 0 -2339644712.5739746 2816810227.2911453 0 2816810227.2911453 -3551614561.6762085 0 0 0 0 2449909284.9829407 -391429582.74042511 0 -391429582.74042511 -2469834304.066803 0 0 0 0 520005412.09225464 883242087.2936554 0 883242087.2936554 -197666209.25928497 0 0 0 0 815700431.64807129 423114766.56103516 0 423114766.56103516 -2051418530.7476807 0 0 0 0 1094011848.4502869 1396709625.0035782 0 1396709625.0035782 -2594439793.3199158 0 0 0 0 2133423847.5386047 1518124493.7898331 0 1518124493.7898331 -6171211063.2306213 0 0 0 0 1113310507.9690552 1293095165.1169434 0 1293095165.1169434 -2159936756.3932629 0 0 0 0 -532154446.74319458 4454716660.9721985 0 4454716660.9721985 -4274476854.2690964 0 0 0 0 1047058.0885314941 3081389176.7033615 0 3081389176.7033615 -6878206771.3102264 0 0 0 0 -1225327858.3026428 3787681138.9933167 0 3787681138.9933167 -3138375462.7864075 0 0 0 0 -741848396.30184937 3339243557.3249817 0 3339243557.3249817 -2762960125.2399445 0 0 0 0 132611049.66827393 3505852699.6154327 0 3505852699.6154327 -2698302205.5574799 0 0 0 0 572865589.94706726 3037009429.5258598 0 3037009429.5258598 -2481863099.7106628 0 0 0 0 154897797.03671265 3885394172.4494781 0 3885394172.4494781 -3836701856.5495758 0 0 0 0 885297800.15107727 2951853095.1149368 0 2951853095.1149368 -2314930328.5485535 0 0 0 0 885770941.37741089 2417127233.403595 0 2417127233.403595 -1745255446.0220642 0 0 0 0 569903415.2192688 2887047927.2458801 0 2887047927.2458801 -2327326718.413559 0 0 0 0 -1627913403.1791344 3257114738.2833424 0 3257114738.2833424 -1526115142.5978394 0 0 0 0 71278237.298614502 2714351217.5870056 0 2714351217.5870056 -1419089776.8616486 0 0 0 0 200236592.3411026 2555291712.8650932 0 2555291712.8650932 -1227912786.5327148 0 0 0 0 347057804.50874329 1795796716.6919479 0 1795796716.6919479 -369262011.13139725 0 0 0 0 707995613.4168663 1716735063.2917452 0 1716735063.2917452 -1104103258.7547607 0 0 0 0 665318402.0969944 2093794072.7427778 0 2093794072.7427778 -2018638910.3031006 0 0 0 0 595152964.44320679 1582292689.0735168 0 1582292689.0735168 -974982159.92211533 0 0 0 0 851172719.40762329 2816856973.7532959 0 2816856973.7532959 -3138546432.2646179 0 0 0 0 -8419366.0155181885 26884271.11315918 0 26884271.11315918 -9705211.4960632324 0 0 0 0 1901510.7694854736 45342253.008575439 0 45342253.008575439 -34288228.410751343 0 0 0 0 -58534635.003143311 102743274.05026245 0 102743274.05026245 -124498302.32354736 0 0 0 0 5003275.5151977539 9355035.7097854614 0 9355035.7097854614 -86881217.648544312 0 0 0 0 4791794.0492210388 7986750.4716110229 0 7986750.4716110229 -94349421.846740723 0 0 0 0 130952091.04296112 38981817.253807068 0 38981817.253807068 -68009750.499145508 0 0 0 0 38510515.004653931 -13868127.20993042 0 -13868127.20993042 -71079847.535125732 0 0 0 0 89831326.123397827 -5125649.7200317383 0 -5125649.7200317383 -154043355.28643799 0 0 0 0 341805840.23370361 206657586.02887726 0 206657586.02887726 1167712.3248138428 0 0 0 0 75617896.953201294 366378809.73083496 0 366378809.73083496 63771989.892562866 0 0 0 0 -12245714.44744873 39946877.306724548 0 39946877.306724548 114584717.06694031 0 0 0 0 -62354363.902500153 181980814.06636429 0 181980814.06636429 -274004684.31236267 0 0 0 0 -402543937.90287781 262455302.6736908 0 262455302.6736908 34278812.951644897 0 0 0 0 -158495518.39078522 162245677.65750122 0 162245677.65750122 -534692.27015686035 0 0 0 0 -413425897.04629946 581940267.78485584 0 581940267.78485584 -569241641.82629395 0 0 0 0 -229654673.16798782 242025999.60603714 0 242025999.60603714 -168368747.3243103 0 0 0 0 -84436270.301574707 -55493868.382476807 0 -55493868.382476807 -139426710.32246399 0 0 0 0 -68765977.224884033 -39091439.518234253 0 -39091439.518234253 -21824857.651062012 0 0 0 0 103345146.82901001 95886429.765716553 0 95886429.765716553 -145002619.83551407 0 0 0 0 1292493.5158196092 1325060.2803058028 0 1325060.2803058028 1467186.7720892429 0 0 0 0 460098225.44151306 141381031.82653046 0 141381031.82653046 -493672659.76797485 0 0 0 0 -3180081.7050417475 1068360.664058309 0 1068360.664058309 -3788731.9902033955 0 0 0 0 -493745095.82534027 1159857807.8665924 0 1159857807.8665924 -1355354812.6880951 0 0 0 0 -476387088.66875458 77392436.281471252 0 77392436.281471252 -272976628.83842468 0 0 0 0 -1258859546.323555 428831743.48763275 0 428831743.48763275 -252518.00872802734 0 0 0 0 -1457036632.8802223 841121335.98122406 0 841121335.98122406 -168675613.93521118 0 0 0 0 -2317967431.6264954 542525313.38647461 0 542525313.38647461 519301.01750315697 0 0 0 0 -2744870222.5108643 1102046024.1713943 0 1102046024.1713943 -155154108.22062683 0 0 0 0 -2591092598.7631378 348582709.64550781 0 348582709.64550781 -157609838.69526672 0 0 0 0 -2442993570.2197266 570176641.86178589 0 570176641.86178589 74508821.21723938 0 0 0 0 -2228191397.5701752 447834249.5663147 0 447834249.5663147 100381455.17446899 0 0 0 0 -2160563536.7588196 521376494.17263794 0 521376494.17263794 -70364743.047775269 0 0 0 0 -2487482034.3070068 573475240.01080322 0 573475240.01080322 -1144332.7750148235 0 0 0 0 -1517896451.7034912 325332528.89762878 0 325332528.89762878 -64271005.583435059 0 0 0 0 -1725893064.862793 371003288.68830872 0 371003288.68830872 -55982251.866142273 0 0 0 0 -2267195778.9878159 198554787.70845032 0 198554787.70845032 128002289.48712158 0 0 0 0 -2333764368.6391602 1070743784.9315491 0 1070743784.9315491 -487345587.62249756 0 0 0 0 -2419473004.9644775 364302429.31343079 0 364302429.31343079 147702710.81585693 0 0 0 0 -2376589423.6142578 849245848.43093872 0 849245848.43093872 -1127428695.9016724 0 0 0 0 -3282640743.6675262 1963055432.6520691 0 1963055432.6520691 -903153955.21114349 0 0 0 0 -4225244199.4830933 1541860668.2421341 0 1541860668.2421341 -238576453.58580017 0 0 0 0 -2710224590.8063965 1115721303.7514038 0 1115721303.7514038 -129033347.67858887 0 0 0 0 -3033389240.0100632 1102560614.3575401 0 1102560614.3575401 69433575.938598633 0 0 0 0 -3336712597.0893574 1135557992.534605 0 1135557992.534605 -2416744931.9551086 0 0 0 0 -4867023993.2435455 763983522.71455383 0 763983522.71455383 -110415537.55621338 0 0 0 0 -3091998203.2911606 2788938615.3863602 0 2788938615.3863602 -1635100358.6135559 0 0 0 0 -1514422685.061142 315837076.06640244 0 315837076.06640244 264035950.57901001 0 0 0 0 641516287.4987793 361882050.04466248 0 361882050.04466248 -1174013169.0716438 0 0 0 0 -23730886.178543448 11442982.386579424 0 11442982.386579424 4076158.6299727419 0 0 0 0 -693579732.1995163 -17954536.127555847 0 -17954536.127555847 522787421.73623657 0 0 0 0 -8055434770.6291046 1279081345.8250351 0 1279081345.8250351 -187059131.67407227 0 0 0 0 -2387805.5467881709 -149282.08206818998 0 -149282.08206818998 867428.72006065398 0 0 0 0 -7887071308.8111572 1740870137.7684784 0 1740870137.7684784 -1045463169.4713898 0 0 0 0 -4288007.8131845295 5340887.5499222204 0 5340887.5499222204 -705776.67577166855 0 0 0 0 -3810456879.4747586 401052718.22708583 0 401052718.22708583 -2349222640.9298401 0 0 0 0 -5104252399.5667725 2006311923.2588806 0 2006311923.2588806 -1834507503.2112808 0 0 0 0 -2965803155.4420471 -2159436910.8697052 0 -2159436910.8697052 -1471284339.5819702 0 0 0 0 -7467870306.266449 -962215003.16368103 0 -962215003.16368103 93463437.825561523 0 0 0 0 -5308969715.9873657 -3442299944.7930908 0 -3442299944.7930908 -1062715119.6887131 0 0 0 0 -3628579276.587738 -478751408.96073914 0 -478751408.96073914 45171849.033660889 0 0 0 0 -4304725603.115448 -158052973.03279114 0 -158052973.03279114 -81154818.194091797 0 0 0 0 -3211181438.8317871 1291743446.9392242 0 1291743446.9392242 -362487918.61505127 0 0 0 0 -2215018967.3316345 69337843.046081543 0 69337843.046081543 216715896.94203186 0 0 0 0 -2768208785.8380432 459378559.61729431 0 459378559.61729431 719930835.36599731 0 0 0 0 -2868885585.0026093 -1080283122.3721313 0 -1080283122.3721313 35938378.364257812 0 0 0 0 -2595651363.3641853 -947565843.82565117 0 -947565843.82565117 -453114340.5579834 0 0 0 0 -88996679.538391113 15802973.015541077 0 15802973.015541077 26123134.987121582 0 0 0 0 -56250319.318283081 10921221.78692627 0 10921221.78692627 13681617.798858643 0 0 0 0 -13181015.3457954 3093990.9274981022 0 3093990.9274981022 18253635.196808964 0 0 0 0 -23366674.655654907 33098497.082641602 0 33098497.082641602 3587407.5337677002 0 0 0 0 -21862129.033704497 14318738.959268674 0 14318738.959268674 17358390.010370135 0 0 0 0 -65758299.531112671 44382515.292457581 0 44382515.292457581 15111968.823059082 0 0 0 0 -55970853.960083008 -49238351.896133423 0 -49238351.896133423 -40176503.929153442 0 0 0 0 -119307876.13012695 4206911.8411636353 0 4206911.8411636353 30879837.446487427 0 0 0 0 -98260716.614143372 39932124.731994629 0 39932124.731994629 16553569.617706299 0 0 0 0 -59253269.738388062 17162578.702857971 0 17162578.702857971 30141318.406929016 0 0 0 0 -79759607.80519104 10674686.064735413 0 10674686.064735413 54214976.614746094 0 0 0 0 -60501533.996635437 63890340.261611938 0 63890340.261611938 85929519.12322998 0 0 0 0 -39563704.699408472 26237457.774873056 0 26237457.774873056 6260231.9258784503 0 0 0 0 -333147333.93551636 689279753.56504059 0 689279753.56504059 -928680822.97094727 0 0 0 0 -12792985.046877341 12466566.345238864 0 12466566.345238864 -6726302.9579098076 0 0 0 0 113711610.56377983 166579183.4906044 0 166579183.4906044 44148492.168579102 0 0 0 0 -45599771.791061401 50055728.536972046 0 50055728.536972046 96273084.808204651 0 0 0 0 -276457950.48664856 170255565.50245667 0 170255565.50245667 187688801.09292603 0 0 0 0 -288889093.78628135 -121099393.57020378 0 -121099393.57020378 8269470.8061828613 0 0 0 0 -102282615.40438843 42317030.182434082 0 42317030.182434082 81401534.956573486 0 0 0 0 -14161329.373031616 115410630.0848999 0 115410630.0848999 89976099.879451752 0 0 0 0 -8784607.3865893483 6030406.7570968345 0 6030406.7570968345 18784836.505754471 0 0 0 0 3029868.639831543 37577905.67628479 0 37577905.67628479 21938457.260360718 0 0 0 0 -82592354.00327301 -8520305.0766067505 0 -8520305.0766067505 102386055.86621094 0 0 0 0 -49010487.288406692 36116838.904829055 0 36116838.904829055 9406831.5309327319 0 0 0 0 -76980972.923706055 52021475.834693909 0 52021475.834693909 33484822.03299427 0 0 0 0 -62085597.188117981 49347537.352622986 0 49347537.352622986 21641677.327651978 0 0 0 0 -124842721.73677063 66286768.025577545 0 66286768.025577545 20715718.936599731 0 0 0 0 -82465694.61416626 86975219.251838684 0 86975219.251838684 -5198089.1007070541 0 0 0 0 -77368169.48223877 83731647.882789612 0 83731647.882789612 -9274700.0650482178 0 0 0 0 -60074280.516601562 72796375.028011322 0 72796375.028011322 -5733741.5873260498 0 0 0 0 -12740496.202739611 46256381.104880482 0 46256381.104880482 2569474.7134174258 0 0 0 0 34581816.636198282 52372886.67196995 0 52372886.67196995 -7844913.7150803059 0 0 0 0 80443956.066703796 23560013.615440369 0 23560013.615440369 -36274741.641662598 0 0 0 0 1722181666.867218 -319384286.22083282 0 -319384286.22083282 -245137414.46192932 0 0 0 0 14843613.796796417 3886610.0232373737 0 3886610.0232373737 -2416590.8940180689 0 0 0 0 348610644.17089844 577140899.38498688 0 577140899.38498688 511704680.51683044 0 0 0 0 10652471.476165963 27211607.811519872 0 27211607.811519872 436902.27573110163 0 0 0 0 1184080913.6998138 -869897996.20147324 0 -869897996.20147324 -310589857.41015625 0 0 0 0 -249729.47552412748 8278026.194345504 0 8278026.194345504 2253193.1444124486 0 0 0 0 -1218267.5923209786 30428551.19333224 0 30428551.19333224 5837742.6912906151 0 0 0 0 -14720533.982833862 43302483.818527222 0 43302483.818527222 53938126.942550659 0 0 0 0 6981168.1228561401 23677355.169776917 0 23677355.169776917 1502226.7938995361 0 0 0 0 -23536379.289215088 11545416.540245056 0 11545416.540245056 16266945.455780029 0 0 0 0 5703548.8948241137 24215871.748037837 0 24215871.748037837 17666163.638138443 0 0 0 0 -236792.86735534668 21338334.566127777 0 21338334.566127777 -15858947.5887146 0 0 0 0 1433560423.0333939 102037880.31234741 0 102037880.31234741 21698647.355041504 0 0 0 0 189119296.54446983 537847365.78966141 0 537847365.78966141 -40884906.070770264 0 0 0 0 23780988.289207458 445883346.37080383 0 445883346.37080383 23710265.877601624 0 0 0 0 43325949.290809631 418112159.37731171 0 418112159.37731171 -3173609.5886535645 0 0 0 0 29638970.643796682 319302812.97885418 0 319302812.97885418 -89400586.734710693 0 0 0 0 331428772.58676529 434942836.01273346 0 434942836.01273346 -241846897.28709412 0 0 0 0 169490643.73239899 477119616.39092255 0 477119616.39092255 -218512061.45306396 0 0 0 0 309224485.59375763 535303404.33052063 0 535303404.33052063 -494228557.79298401 0 0 0 0 1058973688.4547768 365729611.30306244 0 365729611.30306244 -490324092.78956604 0 0 0 0 513257868.55402088 -94477060.594772339 0 -94477060.594772339 -92387013.14630127 0 0 0 0 -24417384.172744751 211504929.82970428 0 211504929.82970428 -156485798.36520767 0 0 0 0 159208786.56343412 193551896.56962204 0 193551896.56962204 -169376186.83495331 0 0 0 0 41795862.394100785 54320066.51863271 0 54320066.51863271 -631685.37242285907 0 0 0 0 -148679003.36865234 111785631.26742554 0 111785631.26742554 -18650015.242080688 0 0 0 0 -147185083.69346619 111886545.04861069 0 111886545.04861069 -18811937.893280029 0 0 0 0 -122780788.93875122 75703387.227348328 0 75703387.227348328 3404218.0058288574 0 0 0 0 -231478306.1277771 100183607.04692078 0 100183607.04692078 -2031418.9485015869 0 0 0 0 -291857459.43615723 148412345.45809937 0 148412345.45809937 -23556616.103591919 0 0 0 0 -159000914.46557617 122735821.15204239 0 122735821.15204239 -18641412.355102539 0 0 0 0 -309712914.3790741 127452641.97160339 0 127452641.97160339 -39438398.648696899 0 0 0 0 42672854.971871331 58053221.690691605 0 58053221.690691605 6065474.4200242162 0 0 0 0 -341911257.79309082 170140662.77801514 0 170140662.77801514 -88664670.84879303 0 0 0 0 -188524790.49239349 254083811.25238037 0 254083811.25238037 -76426342.09702301 0 0 0 0 -229854271.57965827 350149494.1699791 0 350149494.1699791 -125097657.31724548 0 0 0 0 -190670989.30410385 258231960.95153809 0 258231960.95153809 -18011476.458129883 0 0 0 0 -190776795.96565628 256663875.28430176 0 256663875.28430176 72054250.890464783 0 0 0 0 -416477759.68926716 298286401.29328537 0 298286401.29328537 10282605.316970825 0 0 0 0 -304187884.94013405 189292612.00787354 0 189292612.00787354 -54370436.133384705 0 0 0 0 36747108.068914458 63489839.166816689 0 63489839.166816689 12229186.827567093 0 0 0 0 968205642.23617554 871231426.89608002 0 871231426.89608002 -579586143.55633545 0 0 0 0 -439093507.18634033 491466590.67485046 0 491466590.67485046 247123381.29450989 0 0 0 0 -639252230.93930054 87099444.439275742 0 87099444.439275742 5499018.1728515625 0 0 0 0 -532076900.82815552 197216929.42015076 0 197216929.42015076 -85587690.80116272 0 0 0 0 -1566787.5339798555 1681125.2075455412 0 1681125.2075455412 1593455.9034451395 0 0 0 0 1131930324.3341675 458828211.96095276 0 458828211.96095276 273515079.45542717 0 0 0 0 -402523984.86679077 -490040725.75375366 0 -490040725.75375366 310187390.21870947 0 0 0 0 680612502.47518921 -333443408.48294067 0 -333443408.48294067 -15929648.884399414 0 0 0 0 -332852944.47503662 -430809167.9354248 0 -430809167.9354248 160838873.69007874 0 0 0 0 -338396080.90368652 -232234443.29078674 0 -232234443.29078674 581009294.79627991 0 0 0 0 1839513536.2921295 1496094491.9330864 0 1496094491.9330864 -1436439895.2374268 0 0 0 0 -3409481.7349581271 2965203.6312837079 0 2965203.6312837079 4224594.8710082173 0 0 0 0 149594557.92666626 1068729471.6962814 0 1068729471.6962814 240089069.11601257 0 0 0 0 -483825311.14419556 14832797.640640259 0 14832797.640640259 -1462070.7893066406 0 0 0 0 -283170625.48709106 4815901.5614013672 0 4815901.5614013672 -2992151.4444131851 0 0 0 0 -5012421.8169514947 3632525.653629832 0 3632525.653629832 5203521.8277671635 0 0 0 0 -252153611.59286499 24737538.604797363 0 24737538.604797363 3228478.4745483398 0 0 0 0 -126611936.57019043 16606783.105247498 0 16606783.105247498 15918084.947967529 0 0 0 0 -207527345.14487076 5524955.8753700256 0 5524955.8753700256 9947565.5107116699 0 0 0 0 -133461424.83422852 8354024.9863471985 0 8354024.9863471985 7065297.0487060547 0 0 0 0 -169949318.01287842 44946571.05090332 0 44946571.05090332 17061822.66979599 0 0 0 0 48383009.734039307 94783197.688777924 0 94783197.688777924 -6842548.4104919434 0 0 0 0 -245989360.38986206 138534755.90155029 0 138534755.90155029 183966635.2752533 0 0 0 0 -10447161.176796112 5689267.1327269971 0 5689267.1327269971 10107654.184994116 0 0 0 0 -302617623.81246948 -41283598.001419067 0 -41283598.001419067 125149888.03184509 0 0 0 0 127684340.04405594 -64305993.83073616 0 -64305993.83073616 -300760705.51693726 0 0 0 0 -2511076367.339386 1617145172.1840363 0 1617145172.1840363 774954371.61717224 0 0 0 0 1203560470.5780029 320305032.35794067 0 320305032.35794067 -2179803895.4481049 0 0 0 0 -2050983218.9495239 -20150537.55645752 0 -20150537.55645752 570095554.64949799 0 0 0 0 -1826711045.0458755 494187824.92853165 0 494187824.92853165 1744518794.4046326 0 0 0 0 -8388802.4850773141 4489719.3543639034 0 4489719.3543639034 11805747.024166867 0 0 0 0 -796065318.68484497 377780760.52284241 0 377780760.52284241 713261551.41293049 0 0 0 0 -2224357445.1909485 -521637631.49044037 0 -521637631.49044037 2752414201.7600708 0 0 0 0 -2528394852.7543793 1359903598.1137085 0 1359903598.1137085 3429124574.7108078 0 0 0 0 -1837299226.2727966 -846372582.00653839 0 -846372582.00653839 7459233965.4931946 0 0 0 0 -3941993739.5315094 2028697321.265152 0 2028697321.265152 -642852831.42468262 0 0 0 0 51940971.518173218 2421135533.5507545 0 2421135533.5507545 -7842217250.1993713 0 0 0 0 -7536676.1040193588 2592968.9948583543 0 2592968.9948583543 -324347.18470843585 0 0 0 0 -1181050192.9986267 -562874876.92053223 0 -562874876.92053223 -1156927786.4612808 0 0 0 0 -290884961.55082703 1067993740.5759659 0 1067993740.5759659 -1229476735.6938171 0 0 0 0 -1322588029.0623016 470640441.93106842 0 470640441.93106842 64615516.857849121 0 0 0 0 -319420213.88616943 -97969447.642486572 0 -97969447.642486572 21604645.294433594 0 0 0 0 131483148.85437012 526698751.35057068 0 526698751.35057068 -874409516.29011536 0 0 0 0 444755916.9498291 175875762.17916489 0 175875762.17916489 -488208305.51751709 0 0 0 0 -1335172494.7831116 869114890.63325882 0 869114890.63325882 -876269651.33117676 0 0 0 0 -2208564.1351123676 1758660.4395344183 0 1758660.4395344183 2854097.953297168 0 0 0 0 -67454737.695617676 -98837412.64894104 0 -98837412.64894104 266406208.43966675 0 0 0 0 -519135372.42758179 -7220750.6952972412 0 -7220750.6952972412 64796403.307411194 0 0 0 0 -496604847.45812988 81624022.265823364 0 81624022.265823364 47607292.795623779 0 0 0 0 -138860318.13946533 -5477469.4865112305 0 -5477469.4865112305 16981291.287490845 0 0 0 0 -341345186.68640137 -79966208.068481445 0 -79966208.068481445 84832064.05291748 0 0 0 0 -164020258.96960449 -179226891.07737732 0 -179226891.07737732 97655106.774927139 0 0 0 0 -211395347.31036377 -251614210.11606598 0 -251614210.11606598 61197457.490203857 0 0 0 0 -264594887.08279419 -114345423.08082581 0 -114345423.08082581 168748929.01501465 0 0 0 0 -67382040.605049133 -94127882.047492981 0 -94127882.047492981 124070779.82208252 0 0 0 0 -130603822.70629883 -90139748.914886475 0 -90139748.914886475 146364646.50672913 0 0 0 0 -189618685.63372803 -40186459.82850647 0 -40186459.82850647 279913947.93273926 0 0 0 0 -67482205.427001953 31982112.04888916 0 31982112.04888916 216121422.74688721 0 0 0 0 61160585.791595459 74610450.779525757 0 74610450.779525757 38864205.17098999 0 0 0 0 -99635992.100341797 -18024899.292984009 0 -18024899.292984009 145290610.49926758 0 0 0 0 -25448420.408599854 -30016330.294281006 0 -30016330.294281006 111990756.14630127 0 0 0 0 -86395042.083496094 -43806539.410583496 0 -43806539.410583496 188187793.03219604 0 0 0 0 -107968053.9901886 -111495497.10908127 0 -111495497.10908127 60143830.773681641 0 0 0 0 -46153527.801689148 11107436.148790359 0 11107436.148790359 50894099.183502197 0 0 0 0 -19593042.387786865 54393703.877792358 0 54393703.877792358 82405328.067047119 0 0 0 0 -33643609.473327637 68030636.717437744 0 68030636.717437744 195134044.52798462 0 0 0 0 -8245918.1587600708 30788072.59271431 0 30788072.59271431 -27681564.029541016 0 0 0 0 -10162821.527091954 11154960.351011939 0 11154960.351011939 12428824.440412626 0 0 0 0 -933575.67796447873 2528334.2801109999 0 2528334.2801109999 -3961902.1124574989 0 0 0 0 -318863045.40307617 -303996103.63132477 0 -303996103.63132477 750955108.56512451 0 0 0 0 87438188.043563843 153106612.41999054 0 153106612.41999054 147658157.73193359 0 0 0 0 70858046.458732605 -138396183.42875671 0 -138396183.42875671 264906514.19668579 0 0 0 0 -107845837.94918823 65550866.710586548 0 65550866.710586548 386229004.29793549 0 0 0 0 176450241.64112091 217329405.72105598 0 217329405.72105598 118590060.54296875 0 0 0 0 -15449771.119441733 19070785.809476957 0 19070785.809476957 -2327083.4824784026 0 0 0 0 1436551.7347717285 -7409640.9557685852 0 -7409640.9557685852 -34587626.088287354 0 0 0 0 -38715602.768218994 19263356.87563324 0 19263356.87563324 7245513.6126556396 0 0 0 0 -74796082.61958313 -19019009.352138519 0 -19019009.352138519 26250004.249694824 0 0 0 0 -27059599.158905029 -29280316.166599274 0 -29280316.166599274 14392812.918365479 0 0 0 0 16296154.919128418 22369744.386032104 0 22369744.386032104 2780320.8743019104 0 0 0 0 -91246237.884643555 41802902.048770905 0 41802902.048770905 99414862.812294006 0 0 0 0 -199618.880859375 42248341.158638 0 42248341.158638 8941399.9532623291 0 0 0 0 -12942175.49860891 10398372.301308021 0 10398372.301308021 14323455.813606255 0 0 0 0 -4278552.5509338379 27165980.771469116 0 27165980.771469116 5708739.7033500671 0 0 0 0 -13035460.839538842 22834038.142047815 0 22834038.142047815 1062277.5473711863 0 0 0 0 31667484.963989258 47442132.387435913 0 47442132.387435913 15566473.745361328 0 0 0 0 -25577692.987426758 37190809.117660522 0 37190809.117660522 33071669.10118866 0 0 0 0 -29580301.30267334 49887252.471382141 0 49887252.471382141 39242297.491477966 0 0 0 0 -41373584.754001178 12624960.879858173 0 12624960.879858173 20871525.948220231 0 0 0 0 -47922991.582244873 30252873.781677246 0 30252873.781677246 37841888.113723755 0 0 0 0 -31518589.514526367 35418889.436149597 0 35418889.436149597 38549688.677211761 0 0 0 0 -64890779.364868164 -13660378.854324341 0 -13660378.854324341 -1548537.2665052414 0 0 0 0 -13889485.713550061 -4253998.0511081647 0 -4253998.0511081647 12161488.585181024 0 0 0 0 -49681136.135864258 47946469.308670044 0 47946469.308670044 154974299.23405457 0 0 0 0 -968551.05819839984 1727368.9998927191 0 1727368.9998927191 -1434390.6005652025 0 0 0 0 -42167409.019287109 67816016.516326904 0 67816016.516326904 162280319.83180237 0 0 0 0 -6932483.0869445801 -583502.58899688721 0 -583502.58899688721 196356465.22543335 0 0 0 0 222109733.7671814 -104058528.25466156 0 -104058528.25466156 -240373221.18919373 0 0 0 0 -153487434.99597168 -168414317.59747314 0 -168414317.59747314 10517496.797332764 0 0 0 0 -177292497.40905762 7435316.1072845459 0 7435316.1072845459 237223202.74639869 0 0 0 0 -166365594.95413589 -85084975.660805702 0 -85084975.660805702 238939904.78878784 0 0 0 0 -199849092.34636402 87409217.980361938 0 87409217.980361938 26599709.036056519 0 0 0 0 -40091004.152508333 64491002.267633229 0 64491002.267633229 15219215.206819437 0 0 0 0 -189025539.80497527 33379367.35992527 0 33379367.35992527 29465099.001342773 0 0 0 0 -64096744.966918945 81297442.006309509 0 81297442.006309509 116058428.09875488 0 0 0 0 -242566693.52756071 110020678.03822327 0 110020678.03822327 14637856.30897522 0 0 0 0 -230713322.69634366 92631728.284934998 0 92631728.284934998 36966743.219665527 0 0 0 0 -270999199.61287212 133329998.3217926 0 133329998.3217926 35983488.37437439 0 0 0 0 -261796381.71270561 136685233.37368774 0 136685233.37368774 28642380.837478638 0 0 0 0 -67515711.444232941 188175708.37281895 0 188175708.37281895 -125712280.56259155 0 0 0 0 15736273.207927369 68751958.46751669 0 68751958.46751669 21144663.461656354 0 0 0 0 -261142219.6584549 122236125.31828308 0 122236125.31828308 48316780.963619232 0 0 0 0 -261816827.73043591 134956425.92100132 0 134956425.92100132 34602166.110565186 0 0 0 0 -250308665.03433514 130446467.3785553 0 130446467.3785553 16268808.731797218 0 0 0 0 718496.08230923116 2716627.6999194548 0 2716627.6999194548 3335427.8667200506 0 0 0 0 -83649077.889587402 20689039.88520813 0 20689039.88520813 34438525.268531799 0 0 0 0 -39821011.066711426 41349433.397293091 0 41349433.397293091 -24467376.318359375 0 0 0 0 -47095620.793823242 57216557.421379089 0 57216557.421379089 24548074.950256348 0 0 0 0 -11762962.888061523 -16967383.870010376 0 -16967383.870010376 -6717434.0732955933 0 0 0 0 -28784945.381347656 31730453.732223511 0 31730453.732223511 -102217805.95419312 0 0 0 0 173576620.512146 -92920064.557434082 0 -92920064.557434082 -67244287.694213867 0 0 0 0 36967717.799438477 -174841193.63508606 0 -174841193.63508606 83263958.044799805 0 0 0 0 41515418.151184082 -161426978.73364258 0 -161426978.73364258 -80917387.32522583 0 0 0 0 151563012.66552734 -399081314.85954285 0 -399081314.85954285 57595430.611099243 0 0 0 0 205700215.48614502 -78131150.757034302 0 -78131150.757034302 190345156.53997421 0 0 0 0 359451173.94607544 -200271160.57806396 0 -200271160.57806396 -88112734.854797363 0 0 0 0 328022118.22195435 -180959093.21537781 0 -180959093.21537781 -232240375.18080139 0 0 0 0 132343278.5858345 131670426.20249367 0 131670426.20249367 -288686862.35993958 0 0 0 0 -293962585.49921799 262585058.04464722 0 262585058.04464722 -57035786.090003967 0 0 0 0 -252294372.6687851 152728988.306633 0 152728988.306633 -22389851.449317932 0 0 0 0 -271877899.7779541 158517113.2101593 0 158517113.2101593 64345859.577209473 0 0 0 0 -316197708.98968744 209527949.27818775 0 209527949.27818775 100666782.60716248 0 0 0 0 -268707255.43516541 109075312.57452011 0 109075312.57452011 183296954.26979828 0 0 0 0 -262035371.99094391 207999368.55916023 0 207999368.55916023 237936942.5546875 0 0 0 0 -294245656.05841827 76570007.969005585 0 76570007.969005585 112221859.89064789 0 0 0 0 -287141979.68540573 98690627.983551025 0 98690627.983551025 138391839.61893463 0 0 0 0 -304186824.14695549 183503565.37522507 0 183503565.37522507 86306706.591156006 0 0 0 0 -290332938.34549904 114534850.77615356 0 114534850.77615356 85621196.467303276 0 0 0 0 -256062407.97663116 71946715.986713409 0 71946715.986713409 63474951.061645508 0 0 0 0 -260332409.23995972 70427562.762611389 0 70427562.762611389 81123817.337937355 0 0 0 0 -277538197.64503288 65561029.582023621 0 65561029.582023621 117130146.64317322 0 0 0 0 -266049509.55138779 -10249194.14630127 0 -10249194.14630127 89177734.021621704 0 0 0 0 -269835325.51966095 16382300.393978119 0 16382300.393978119 127185177.53181458 0 0 0 0 -241078050.26526451 46386781.127532959 0 46386781.127532959 58366568.742380142 0 0 0 0 -253315917.58259773 22434391.457588196 0 22434391.457588196 69482473.522949219 0 0 0 0 -252038726.60422516 -4779457.0372467041 0 -4779457.0372467041 68236591.665496349 0 0 0 0 -263445705.27018738 -92855710.866699219 0 -92855710.866699219 8586447.4517555237 0 0 0 0 -55669604.469642028 57183219.180179365 0 57183219.180179365 19171739.151849017 0 0 0 0 -227353940.03486252 -55786600.969978333 0 -55786600.969978333 -28382878.106616974 0 0 0 0 -214728621.66028976 4088343.736869812 0 4088343.736869812 -187841.09677124023 0 0 0 0 -257526631.13780975 -50650831.65637207 0 -50650831.65637207 60153967.396755219 0 0 0 0 -249398613.4161129 -43865809.374839783 0 -43865809.374839783 53379096.139801025 0 0 0 0 -248038676.5478344 -1149175.8342285156 0 -1149175.8342285156 56890996.712295532 0 0 0 0 -220930986.2879715 -100198716.89231873 0 -100198716.89231873 82132696.881284714 0 0 0 0 -222176292.23820496 -92098055.842636108 0 -92098055.842636108 32497992.59472084 0 0 0 0 -237509684.1019249 -71681448.134620667 0 -71681448.134620667 99568764.577896118 0 0 0 0 -239262627.46638489 -84481957.636165619 0 -84481957.636165619 124068383.86366272 0 0 0 0 -231510318.22370911 -70161026.924812317 0 -70161026.924812317 78094693.923954964 0 0 0 0 -272329642.69622803 -37949943.066761017 0 -37949943.066761017 197929983.35035706 0 0 0 0 -269593668.69668961 -15658944.361061096 0 -15658944.361061096 112973962.08516884 0 0 0 0 -294411324.98616415 70627831.833543122 0 70627831.833543122 247312698.44287109 0 0 0 0 -301160819.46632767 3982758.3938827515 0 3982758.3938827515 173528177.91056824 0 0 0 0 -296401189.58295441 -110783989.52463531 0 -110783989.52463531 252290660.40850067 0 0 0 0 -308051063.50944138 -4708722.6100540161 0 -4708722.6100540161 401033181.92835808 0 0 0 0 -244016925.97695827 -93112255.406634331 0 -93112255.406634331 163767229.72340393 0 0 0 0 -130579877.78003693 -200202733.50058746 0 -200202733.50058746 91082282.406328201 0 0 0 0 -287081958.05996227 -353197974.00380373 0 -353197974.00380373 560700373.22202301 0 0 0 0 -263653697.90472794 -411074904.14832306 0 -411074904.14832306 178785727.49723625 0 0 0 0 -331790311.59294891 -156458380.1784935 0 -156458380.1784935 698143083.12399292 0 0 0 0 -283424123.72178459 -62731449.53553009 0 -62731449.53553009 392261204.14630127 0 0 0 0 -208863180.95788574 321386627.24756241 0 321386627.24756241 672029540.34229279 0 0 0 0 -248483267.55190277 169763505.24248505 0 169763505.24248505 328977123.18260384 0 0 0 0 -275275992.52246857 181283895.18484879 0 181283895.18484879 426131337.34689331 0 0 0 0 -133010396.68804312 327301287.99424505 0 327301287.99424505 210402849.83085632 0 0 0 0 -140769097.94470215 268287928.90074921 0 268287928.90074921 68839895.699325562 0 0 0 0 -72074328.880615234 429640897.93461609 0 429640897.93461609 331212141.03579712 0 0 0 0 -60271373.73229599 418596503.33250618 0 418596503.33250618 214899935.60795593 0 0 0 0 39334499.245510101 512891816.42167664 0 512891816.42167664 239745405.34112549 0 0 0 0 375038876.40472412 193568403.78443909 0 193568403.78443909 -464929929.30180359 0 0 0 0 314815027.93492508 -288412652.84454346 0 -288412652.84454346 -246967371.2149353 0 0 0 0 -2029879.4756437838 3005421.8026206717 0 3005421.8026206717 -4871484.3069897667 0 0 0 0 -88448498.975830078 297621801.02107239 0 297621801.02107239 82549616.04019165 0 0 0 0 -648588385.51287842 -231341212.08421326 0 -231341212.08421326 725012246.37129974 0 0 0 0 -292309782.21185303 -138396936.98561096 0 -138396936.98561096 -104757879.57718658 0 0 0 0 -151191755.64395142 -284702329.42934418 0 -284702329.42934418 -1379631464.4142456 0 0 0 0 -381228503.46398926 241879462.63913727 0 241879462.63913727 -1272402055.8731079 0 0 0 0 122441097.88694763 97178365.917976379 0 97178365.917976379 -2300152432.8517914 0 0 0 0 297131371.6401062 139207351.02878189 0 139207351.02878189 -1464893952.4450073 0 0 0 0 154126348.22142029 190141733.2738266 0 190141733.2738266 -621792809.41136169 0 0 0 0 69571939.369567871 273569434.10955811 0 273569434.10955811 -1173433896.6161003 0 0 0 0 111176545.18399048 -275389989.52645111 0 -275389989.52645111 -938231524.58032227 0 0 0 0 225628314.93630981 482446461.8753891 0 482446461.8753891 -1223961614.1972046 0 0 0 0 130044864.27972412 433119429.38550568 0 433119429.38550568 -568167544.10124588 0 0 0 0 125837826.75830078 151509436.33149719 0 151509436.33149719 -638465179.79854584 0 0 0 0 76277641.178039551 270902779.17326355 0 270902779.17326355 -552343087.6771431 0 0 0 0 184581035.34371948 342910689.86312103 0 342910689.86312103 -518267368.07516098 0 0 0 0 225516439.74014282 522399439.48547363 0 522399439.48547363 -439765817.08067322 0 0 0 0 299385.90545654297 170061727.1234436 0 170061727.1234436 333885213.16931152 0 0 0 0 278143431.91534424 -203446160.18540955 0 -203446160.18540955 -388797939.71682739 0 0 0 0 94095055.145446777 431811889.26983643 0 431811889.26983643 151925584.33227539 0 0 0 0 -186241258.31072998 21153443.25944519 0 21153443.25944519 517182606.00032043 0 0 0 0 -1032391.6499700844 -761543.77350522578 0 -761543.77350522578 -1273947.4737883261 0 0 0 0 -104069042.53186035 -99397996.610977173 0 -99397996.610977173 178475897.75626612 0 0 0 0 -111004434.28887939 71696660.244628906 0 71696660.244628906 -24097749.167602539 0 0 0 0 54729338.632904053 45960699.292785645 0 45960699.292785645 -36032161.676940918 0 0 0 0 -36703800.22265625 151472993.55426025 0 151472993.55426025 -94971971.981689453 0 0 0 0 57917154.401000977 58584767.235092163 0 58584767.235092163 -195774815.93958306 0 0 0 0 -83784807.171859741 34241876.894477844 0 34241876.894477844 85872621.709335327 0 0 0 0 12283181.284240723 2094920.2739715576 0 2094920.2739715576 -16235138.529350281 0 0 0 0 -431120.85043485463 2377859.4615894258 0 2377859.4615894258 617333.89353002608 0 0 0 0 88190424.011505127 89682765.400810242 0 89682765.400810242 86382309.436584473 0 0 0 0 52747.397155761719 -13030285.922912598 0 -13030285.922912598 -30341206.761703491 0 0 0 0 -149951439.8296051 113007607.4885025 0 113007607.4885025 120446615.22967529 0 0 0 0 -28093934.644287109 -28845266.920806885 0 -28845266.920806885 115146614.30007172 0 0 0 0 34561236.355712891 -31318315.17565155 0 -31318315.17565155 77925552.462860107 0 0 0 0 -1565015.9256246202 6686276.6431463212 0 6686276.6431463212 2086478.974828437 0 0 0 0 -17817378.656509399 5392950.9444046021 0 5392950.9444046021 78073519.524002075 0 0 0 0 -10261960.964511871 5497750.0100078583 0 5497750.0100078583 -6161387.9710083008 0 0 0 0 4909488.0745055377 2382504.7273979969 0 2382504.7273979969 -14567020.471453272 0 0 0 0 288500581.66996765 495718390.02856445 0 495718390.02856445 380986979.04446411 0 0 0 0 -5506366.3673637956 12057294.990054835 0 12057294.990054835 -12047542.597128667 0 0 0 0 240805788.21402359 566212702.15725708 0 566212702.15725708 705063927.6960144 0 0 0 0 145548156.25402832 632229882.61061096 0 632229882.61061096 1188253144.621521 0 0 0 0 146849268.80319214 651736561.72052002 0 651736561.72052002 961050975.39575195 0 0 0 0 198226773.32495117 473573631.38380432 0 473573631.38380432 917898108.54687881 0 0 0 0 -10558248.997156933 13908941.528172027 0 13908941.528172027 -8330004.3119711205 0 0 0 0 -8969384.312084198 84155232.882971764 0 84155232.882971764 16140206.246856689 0 0 0 0 -95825110.751983643 -29596953.767845154 0 -29596953.767845154 -2258753.2408752441 0 0 0 0 -17520940.924405292 14036222.959778732 0 14036222.959778732 -2519160.9644720927 0 0 0 0 476431155.23303986 687421127.5377655 0 687421127.5377655 1137536906.1058502 0 0 0 0 36330540.135848999 27636144.332683563 0 27636144.332683563 -42715196.238311768 0 0 0 0 495260697.61976242 1027838379.1832542 0 1027838379.1832542 1497078489.7436218 0 0 0 0 470282101.8444519 825775953.4928894 0 825775953.4928894 757648239.05220032 0 0 0 0 195721403.08065796 416365085.33776855 0 416365085.33776855 1149289678.2772217 0 0 0 0 1944188928.1201172 1673301309.2710953 0 1673301309.2710953 1125607829.4889526 0 0 0 0 -387795.27823858149 4460013.7723561451 0 4460013.7723561451 -3867497.1119388938 0 0 0 0 4448104202.7473755 2336712593.8251915 0 2336712593.8251915 660858539.09182739 0 0 0 0 217310945.8948822 1801193034.0670013 0 1801193034.0670013 2985555326.6888885 0 0 0 0 834657994.83694458 2183614093.4388733 0 2183614093.4388733 1673674557.1990509 0 0 0 0 -629651063.17492676 2327944607.9466248 0 2327944607.9466248 2684982006.2405243 0 0 0 0 720558255.53413391 514632383.12021637 0 514632383.12021637 1126986883.6293869 0 0 0 0 673680756.87817383 933395814.94898224 0 933395814.94898224 1970752304.1238098 0 0 0 0 1150029934.1595001 1507719216.8670311 0 1507719216.8670311 2281551532.9610596 0 0 0 0 -808325957.6428833 1023092899.5472412 0 1023092899.5472412 247733608.94059277 0 0 0 0 -1614707926.0543442 839439805.41679764 0 839439805.41679764 2501101161.4871216 0 0 0 0 -4767686157.3862038 1190628214.4493408 0 1190628214.4493408 1397271794.0016785 0 0 0 0 -2790482049.8984375 2867761978.2208862 0 2867761978.2208862 1568578857.2215271 0 0 0 0 283270368.6489563 1275979166.8848419 0 1275979166.8848419 1322779647.0728302 0 0 0 0 -1968820465.6267395 610907687.42182922 0 610907687.42182922 7538749503.5771179 0 0 0 0 -250858803.75109863 -771109689.96038818 0 -771109689.96038818 4260284858.7860718 0 0 0 0 960379844.32113647 666012089.69007111 0 666012089.69007111 2474849670.6928196 0 0 0 0 -974477842.22402954 2176920511.5459137 0 2176920511.5459137 5500144998.4956512 0 0 0 0 -661073865.84126282 1689556171.3064194 0 1689556171.3064194 -2273450210.3045349 0 0 0 0 -586421522.55889893 1949989801.5063477 0 1949989801.5063477 -2805968687.4774628 0 0 0 0 -45101600.49041748 1619409493.4164886 0 1619409493.4164886 -3726888799.8896637 0 0 0 0 -18800093.571754634 10411445.162228815 0 10411445.162228815 -1333928.6197766454 0 0 0 0 -436292173.84246826 1843882369.6216736 0 1843882369.6216736 -2464925591.0695038 0 0 0 0 55224325.361816406 785201347.98455811 0 785201347.98455811 -2305847694.9168854 0 0 0 0 -327813718.52832031 2026680854.1161194 0 2026680854.1161194 -2740722985.4849854 0 0 0 0 -74164582.065795898 1527581940.7268982 0 1527581940.7268982 -2693102798.0856781 0 0 0 0 -323138522.67050171 1888176684.3088379 0 1888176684.3088379 -2460602862.6858673 0 0 0 0 -310884751.79595089 1543576445.4095416 0 1543576445.4095416 -2349025528.7636414 0 0 0 0 -520072853.04931641 1556029957.5141373 0 1556029957.5141373 -2242712314.0252991 0 0 0 0 -400908220.11602783 1409026763.2402039 0 1409026763.2402039 -2203903302.730896 0 0 0 0 148241062.94729614 -141407856.78142548 0 -141407856.78142548 -1408698875.252655 0 0 0 0 -319024259.45574951 -631081066.46755219 0 -631081066.46755219 -270037.78837585449 0 0 0 0 -650494182.8404541 1368507982.0850067 0 1368507982.0850067 -1239659189.8157196 0 0 0 0 -2948630.2571693808 -2771052.7036997806 0 -2771052.7036997806 4612344.0308459587 0 0 0 0 -21968764.015291303 17177450.027551964 0 17177450.027551964 -4554415.4828415699 0 0 0 0 -1090954138.2919312 1183217544.9319916 0 1183217544.9319916 -265796098.9282074 0 0 0 0 -732203450.42724609 216794419.04255676 0 216794419.04255676 -20866640.327193499 0 0 0 0 190039676.75296021 1397996524.8922272 0 1397996524.8922272 -2199258204.709671 0 0 0 0 -1180476759.6759071 808922883.07590103 0 808922883.07590103 -1632508383.7209167 0 0 0 0 -692138537.64819336 1782586299.4284821 0 1782586299.4284821 -2146922265.4842987 0 0 0 0 -1458671473.1230469 2404639035.2867889 0 2404639035.2867889 -2651727095.7723389 0 0 0 0 -199199420.69009399 1837595790.5031738 0 1837595790.5031738 -3380429497.1683502 0 0 0 0 -2825186110.1247559 2060158673.6659088 0 2060158673.6659088 -2545423466.7882385 0 0 0 0 -1596894667.3664246 136447560.28617859 0 136447560.28617859 -3002060998.9513855 0 0 0 0 -1247942890.639679 803259625.5559082 0 803259625.5559082 -1795633792.8970032 0 0 0 0 -528310516.89367676 -241924153.30796051 0 -241924153.30796051 -2480950285.6490173 0 0 0 0 -1034062460.3294697 1124991777.2785921 0 1124991777.2785921 -2384369487.1201782 0 0 0 0 -1039764871.9098625 993447709.97312641 0 993447709.97312641 -5417745508.562439 0 0 0 0 -3168329026.2878723 3263599310.3806839 0 3263599310.3806839 -2775880663.8932571 0 0 0 0 -4230185271.920166 912819223.50238037 0 912819223.50238037 -3009376323.0015564 0 0 0 0 -1516990710.2490845 1220259954.1364746 0 1220259954.1364746 -4030499702.4105072 0 0 0 0 -3282477555.2910767 3668845019.7769203 0 3668845019.7769203 -6711923483.1881409 0 0 0 0 -1469907741.3017111 2529530263.7243471 0 2529530263.7243471 -3754285145.0769958 0 0 0 0 475904485.97363281 714377487.18493652 0 714377487.18493652 -4938644481.6776733 0 0 0 0 38917446.602748871 -2025763248.8015695 0 -2025763248.8015695 -1804167529.5114136 0 0 0 0 -3796110580.5021973 -203081209.22503662 0 -203081209.22503662 840075366.34683228 0 0 0 0 -2654353.7695649266 2257502.2467902824 0 2257502.2467902824 -281414.83445508778 0 0 0 0 -739913244.39245605 2406691036.9996948 0 2406691036.9996948 -7733376722.9851379 0 0 0 0 62854.243721825536 1947150.53488601 0 1947150.53488601 -1254571.2598953694 0 0 0 0 -1105893.4520634413 8128212.7609067783 0 8128212.7609067783 -6643469.4635599852 0 0 0 0 -2489268.9192013741 8300861.0266313553 0 8300861.0266313553 3159723.6505279541 0 0 0 0 -357827747.17940903 438706866.83334994 0 438706866.83334994 -750221089.58517456 0 0 0 0 -3898444.7850228674 9371472.0181286782 0 9371472.0181286782 2891247.6213493273 0 0 0 0 -1820009994.6417847 340409133.72410583 0 340409133.72410583 377379530.15519714 0 0 0 0 -1216409627.6003494 1230323072.9357872 0 1230323072.9357872 -787528717.69654846 0 0 0 0 -2001067546.7721863 1536929067.6543961 0 1536929067.6543961 -598109365.44696045 0 0 0 0 121095675.7338562 859100533.48991394 0 859100533.48991394 -1735468901.941391 0 0 0 0 -762802849.60800171 468785732.73796082 0 468785732.73796082 -42942860.142642975 0 0 0 0 49922714.674865723 95091722.315231323 0 95091722.315231323 -270778361.11254883 0 0 0 0 -366364051.47327423 1009327284.2872925 0 1009327284.2872925 -1468642917.951416 0 0 0 0 525679269.32507324 290745010.89341736 0 290745010.89341736 -1918810860.6688995 0 0 0 0 -102925997.30029297 676307468.19213867 0 676307468.19213867 -1262729276.6866913 0 0 0 0 -150702526.93415833 1499384234.8550415 0 1499384234.8550415 -2670665660.880127 0 0 0 0 460756354.99456787 278630792.89067078 0 278630792.89067078 -1623243943.5874176 0 0 0 0 69515025.511260986 595718164.73814392 0 595718164.73814392 -1685727415.1634521 0 0 0 0 -579979667.39160156 568659443.16175842 0 568659443.16175842 -509297036.21595764 0 0 0 0 -6833927.0905784965 8809862.5310432781 0 8809862.5310432781 -2307050.7126308382 0 0 0 0 -2022309.9547119141 7469377.225944519 0 7469377.225944519 -1498059.1885757446 0 0 0 0 -1866771.8932800293 4046868.2872390747 0 4046868.2872390747 -1754273.7582473755 0 0 0 0 402685686.41751289 -394327898.42673016 0 -394327898.42673016 -61519278.002349854 0 0 0 0 -215279157.71191406 411499979.47341919 0 411499979.47341919 556341382.86135864 0 0 0 0 55023616.433380127 356661325.40409851 0 356661325.40409851 -53155652.434280396 0 0 0 0 -29387949.065704346 -266461887.86331177 0 -266461887.86331177 190501406.71378708 0 0 0 0 -7779129.6703033447 33849601.509181976 0 33849601.509181976 -37069042.772800446 0 0 0 0 -7026491.859255448 8458336.5824018046 0 8458336.5824018046 -3636960.0056593567 0 0 0 0 -4609694.0511883497 7404301.0750847682 0 7404301.0750847682 -1032755.2214870974 0 0 0 0 -8176003.2651672363 60246488.990718842 0 60246488.990718842 -24142397.317077637 0 0 0 0 56632133.683227539 -11010382.418205261 0 -11010382.418205261 -715529.38079547882 0 0 0 0 -24817013.49369812 18273181.050287247 0 18273181.050287247 -1789668.4432144165 0 0 0 0 -30648328.261627197 81436714.38759613 0 81436714.38759613 39747904.905471802 0 0 0 0 -493127682.00663757 594388481.35056686 0 594388481.35056686 -558882236.98168945 0 0 0 0 -916751258.73724365 824304147.2846756 0 824304147.2846756 -315034818.48920441 0 0 0 0 -81680769.823303223 190942438.26629639 0 190942438.26629639 -258130440.40517426 0 0 0 0 -1705626.8294677734 8905300.5008087158 0 8905300.5008087158 -6662830.6092376709 0 0 0 0 -1742888.1210508598 10660099.478120074 0 10660099.478120074 -1960845.2905358896 0 0 0 0 -2892074.6003978057 7964316.3028363362 0 7964316.3028363362 3481048.0778242201 0 0 0 0 -5101147.1417541504 22052538.043296814 0 22052538.043296814 53328684.584487915 0 0 0 0 -97496973.85836792 32134274.645046234 0 32134274.645046234 14018082.410762787 0 0 0 0 -776878483.84835815 331492113.88005066 0 331492113.88005066 -169658456.27490234 0 0 0 0 2705508.8437430114 3269924.9900731593 0 3269924.9900731593 -2095386.1224775463 0 0 0 0 -387856914.85644531 800470457.00644684 0 800470457.00644684 -809618854.42456436 0 0 0 0 -571277230.55236816 827198975.38851166 0 827198975.38851166 -640293767.54449463 0 0 0 0 183731311.59017944 1069421358.9625168 0 1069421358.9625168 -944175554.08319473 0 0 0 0 -220817708.97292328 1077847673.0004158 0 1077847673.0004158 -994186842.06297302 0 0 0 0 78341254.191116333 1070219203.1001053 0 1070219203.1001053 -1006193686.4164734 0 0 0 0 -963595475.98150635 1162489997.7571335 0 1162489997.7571335 -692871360.96537685 0 0 0 0 -254978352.30197144 1119560787.136116 0 1119560787.136116 -1345844101.1325226 0 0 0 0 -512102438.34594727 1424881015.6502609 0 1424881015.6502609 -1696484120.1769867 0 0 0 0 -315456414.22895813 1276502184.1380386 0 1276502184.1380386 -1353752315.0492859 0 0 0 0 -533012391.16217041 1646340295.2651825 0 1646340295.2651825 -2971980256.728714 0 0 0 0 85136850.264801025 1066357360.7913971 0 1066357360.7913971 -1395148109.980835 0 0 0 0 152395975.56335449 885845329.35948563 0 885845329.35948563 -1326923277.914505 0 0 0 0 22402876.009307861 1154115276.6141129 0 1154115276.6141129 -1831358501.7288971 0 0 0 0 138982893.0043335 760054898.39713287 0 760054898.39713287 -1602804088.6673203 0 0 0 0 220274040.92670441 739861598.98863602 0 739861598.98863602 -1704185289.4282379 0 0 0 0 -181760368.58673096 598122056.92366028 0 598122056.92366028 -1945364361.882225 0 0 0 0 -175391949.01724243 903312626.48986816 0 903312626.48986816 -3207258120.8879471 0 0 0 0 125764181.55921364 925486400.73498869 0 925486400.73498869 -2582861328.2325745 0 0 0 0 513958.59553527832 691074974.81177139 0 691074974.81177139 -969628527.52043152 0 0 0 0 204278891.70480347 890852989.11345673 0 890852989.11345673 -1404570190.9017143 0 0 0 0 298094756.81301117 513015420.39326668 0 513015420.39326668 -1212301547.6882782 0 0 0 0 225144585.60673523 832841527.01996994 0 832841527.01996994 -1271108484.4616394 0 0 0 0 177174723.32489014 746574818.76910019 0 746574818.76910019 -970304648.78637695 0 0 0 0 27334828.332321167 998009297.68159866 0 998009297.68159866 -702393063.52723694 0 0 0 0 51627.865030431676 844812180.38625979 0 844812180.38625979 -972636879.98443604 0 0 0 0 47299207.176818848 1022437144.1625671 0 1022437144.1625671 -1011886495.4985352 0 0 0 0 97747871.695404053 995380925.45663452 0 995380925.45663452 -1001520619.6002274 0 0 0 0 -35223965.647544861 1152062183.6235752 0 1152062183.6235752 -710216055.31932068 0 0 0 0 -163626415.22836304 1054601862.1929932 0 1054601862.1929932 -643017599.75704575 0 0 0 0 18103.016891479492 860746090.54899979 0 860746090.54899979 -652480961.49651527 0 0 0 0 -143255587.78108215 955884205.55729675 0 955884205.55729675 -177915828.27078247 0 0 0 0 -357053732.06712341 841515594.44408417 0 841515594.44408417 -229405111.96022224 0 0 0 0 -390509206.32719517 421640390.19647622 0 421640390.19647622 290945644.29401398 0 0 0 0 -474367.02096557617 594680609.57859421 0 594680609.57859421 -61401729.736915588 0 0 0 0 -61330495.841705322 210746626.91603279 0 210746626.91603279 1682823121.284523 0 0 0 0 2177851.3783929497 490286.68280673027 0 490286.68280673027 -1547115.4252316207 0 0 0 0 51361511.235321045 1646804987.8013344 0 1646804987.8013344 76401441.656135559 0 0 0 0 695072284.08154297 826540298.34960938 0 826540298.34960938 692649131.24956512 0 0 0 0 -2781846.4907064438 755638.40000380948 0 755638.40000380948 2799040.5475327596 0 0 0 0 237963344.98461914 66355412.752502441 0 66355412.752502441 237314704.89262486 0 0 0 0 605162446.78927612 977950563.72332001 0 977950563.72332001 1282103149.6516418 0 0 0 0 279894316.6449585 483772875.48193359 0 483772875.48193359 711785950.34802246 0 0 0 0 423325228.7372551 530118577.26843548 0 530118577.26843548 450682446.58542633 0 0 0 0 -4293358.7345241606 1310168.7096266113 0 1310168.7096266113 4163962.8955762163 0 0 0 0 -245285068.64024353 284390625.5447197 0 284390625.5447197 656606237.53419495 0 0 0 0 218696837.13113403 392173003.67983246 0 392173003.67983246 710668403.43624115 0 0 0 0 284858752.58613586 59416476.819927216 0 59416476.819927216 224386028.09593201 0 0 0 0 -2454859.0270758718 -2301850.0742651187 0 -2301850.0742651187 2408230.0234430339 0 0 0 0 -70305355.578979492 347300585.20851898 0 347300585.20851898 447649613.80482483 0 0 0 0 23210631.793457031 -10847335.558372498 0 -10847335.558372498 185266150.93537903 0 0 0 0 874713131.40176392 373706531.14992905 0 373706531.14992905 541934482.03363037 0 0 0 0 -1061278.2408101857 -1120821.8974632919 0 -1120821.8974632919 1129997.871342469 0 0 0 0 117117854.86981201 255439078.4932251 0 255439078.4932251 -473404739.5838089 0 0 0 0 190397749.48085022 153289547.08951759 0 153289547.08951759 -331384731.47341919 0 0 0 0 -2789335.0968791991 -2885953.3113195542 0 -2885953.3113195542 2928345.3976328522 0 0 0 0 -75762035.902954102 130765650.43171692 0 130765650.43171692 638200620.25107574 0 0 0 0 -96159234.980377197 317285141.19452667 0 317285141.19452667 -297247071.28812027 0 0 0 0 -55983462.848846436 139793210.14142609 0 139793210.14142609 300641246.96540833 0 0 0 0 209698389.6955719 268501927.74304199 0 268501927.74304199 4795134.9981842041 0 0 0 0 -32374794.75302124 95075334.912605286 0 95075334.912605286 -16017.964985370636 0 0 0 0 184479.62767028809 287849247.09875679 0 287849247.09875679 101039652.50575256 0 0 0 0 -9559529.8760986328 -35276403.24263382 0 -35276403.24263382 -173523918.3437767 0 0 0 0 -160932.61923217773 282164617.83937454 0 282164617.83937454 -642774342.8509407 0 0 0 0 115589158.93976593 89830114.359085083 0 89830114.359085083 -1224414223.6251602 0 0 0 0 -125954225.48106384 253089307.6512928 0 253089307.6512928 -680285701.4919281 0 0 0 0 44147881.662841797 53295542.319442749 0 53295542.319442749 -580456493.52771759 0 0 0 0 30652146.123580933 273628516.27616787 0 273628516.27616787 -357500881.79153442 0 0 0 0 48067538.277938843 306089541.31979847 0 306089541.31979847 -219099993.92929077 0 0 0 0 2475096.3464660645 112220845.91704559 0 112220845.91704559 -358529391.57369995 0 0 0 0 7191261.5836486816 297857968.59453583 0 297857968.59453583 -592740055.46826172 0 0 0 0 19912204.088874817 351868569.91584206 0 351868569.91584206 -370753273.12031555 0 0 0 0 -10431927.543945312 257176279.68357086 0 257176279.68357086 -285720654.49712753 0 0 0 0 13442540.120056152 202636883.64015198 0 202636883.64015198 -556420620.31076813 0 0 0 0 38203842.381198883 343474649.36303473 0 343474649.36303473 -408904142.67094421 0 0 0 0 -44473200.474609375 324655827.3668232 0 324655827.3668232 -287723142.5645752 0 0 0 0 -150650604.73023987 240671331.66673279 0 240671331.66673279 -779690598.99401093 0 0 0 0 -534441.92426791787 -2320259.4319972582 0 -2320259.4319972582 -1504542.8086042795 0 0 0 0 75491623.6796875 236389807.16016388 0 236389807.16016388 -769378162.48586273 0 0 0 0 -132250728.87524414 243848112.38504028 0 243848112.38504028 -567511021.01410103 0 0 0 0 125627180.25332642 234199195.29230881 0 234199195.29230881 -1140814852.4545975 0 0 0 0 -390626.61454957724 -3596161.5049956962 0 -3596161.5049956962 -2132171.8933932548 0 0 0 0 -34124749.164764404 14328836.271648407 0 14328836.271648407 -790836366.60688019 0 0 0 0 -817373814.00170898 -279073466.78889465 0 -279073466.78889465 -492638728.29581547 0 0 0 0 479865537.967453 539364042.7997303 0 539364042.7997303 -1812111954.8176346 0 0 0 0 23076848.071014404 -540236584.7764473 0 -540236584.7764473 -2001195802.7681742 0 0 0 0 97428659.780761719 -31526326.826522827 0 -31526326.826522827 36845619.183084011 0 0 0 0 -2619274.5498540848 1430199.9117975757 0 1430199.9117975757 1023564.242348168 0 0 0 0 -93882269.681906462 604910352.32264161 0 604910352.32264161 -684181812.07537842 0 0 0 0 -91894184.414825439 387828562.14701462 0 387828562.14701462 83831261.52722168 0 0 0 0 -50767440.193893433 182000935.89142227 0 182000935.89142227 -262810894.02003479 0 0 0 0 34203406.50088501 120807550.72698212 0 120807550.72698212 -366708548.717453 0 0 0 0 7868845.7163391113 198900102.07376099 0 198900102.07376099 -581063789.94529533 0 0 0 0 223669130.555439 92854669.85730505 0 92854669.85730505 -949472524.47149658 0 0 0 0 537337.28653894365 -4355792.6398755461 0 -4355792.6398755461 -2516037.3415188412 0 0 0 0 17609.762283325195 32381338.60684967 0 32381338.60684967 -685504877.23469353 0 0 0 0 235156307.9052124 106675826.65748978 0 106675826.65748978 -1280857972.2671394 0 0 0 0 145582553.1368866 -68155986.229803085 0 -68155986.229803085 -474998936.48171997 0 0 0 0 190363281.21929932 -13591156.396503448 0 -13591156.396503448 -453715025.53391409 0 0 0 0 114002415.03876495 59197878.932847977 0 59197878.932847977 -100343038.98698425 0 0 0 0 151096485.07345581 -56542411.89616394 0 -56542411.89616394 -454449935.55989838 0 0 0 0 197151399.44448853 62622869.831035614 0 62622869.831035614 -728869563.34839249 0 0 0 0 208494724.59054565 1221212.8844299316 0 1221212.8844299316 -398949553.60735321 0 0 0 0 109164284.54252625 -43482130.672908783 0 -43482130.672908783 -353278405.28887177 0 0 0 0 100196943.8550415 -92421589.180624008 0 -92421589.180624008 -487183994.44908142 0 0 0 0 -10651647.388458252 171587.30479049683 0 171587.30479049683 -461907966.63853741 0 0 0 0 -66405309.302612305 -159555174.97454453 0 -159555174.97454453 -282208630.28839111 0 0 0 0 -135597682.69854736 -102174188.18899536 0 -102174188.18899536 -506029262.31515503 0 0 0 0 -37684663.985137939 -95226577.575370789 0 -95226577.575370789 -505659600.87287712 0 0 0 0 -18745860.308227539 151867842.53850555 0 151867842.53850555 -1128191599.1803265 0 0 0 0 -130443151.66486359 -261791697.13521957 0 -261791697.13521957 -886134168.90113831 0 0 0 0 2914160.9853515625 60713631.387325287 0 60713631.387325287 -790705075.63515854 0 0 0 0 41925156.844360352 24199902.119728088 0 24199902.119728088 -811303395.34306335 0 0 0 0 -42432.242212712765 -998217.25927014276 0 -998217.25927014276 -625138.05879620835 0 0 0 0 11220979.194297791 321438207.89940596 0 321438207.89940596 -1092730306.5258408 0 0 0 0 10370479.785858154 292159976.55873108 0 292159976.55873108 -93250130.736406326 0 0 0 0 -34361197.800354004 70726883.516777039 0 70726883.516777039 -508119007.4932785 0 0 0 0 124408630.59329224 378452776.677948 0 378452776.677948 -447915599.83117676 0 0 0 0 75615691.677856445 409492567.46861267 0 409492567.46861267 -330154265.61523438 0 0 0 0 251886986.62509155 781167550.53418732 0 781167550.53418732 228149004.89696503 0 0 0 0 147483172.40335083 411011602.77330017 0 411011602.77330017 -413482481.84165955 0 0 0 0 -43754104.954406738 605618167.75732422 0 605618167.75732422 -145277230.61242676 0 0 0 0 -15132290.061828613 326919801.72995758 0 326919801.72995758 -123229126.46743011 0 0 0 0 -20346296.150360107 347442557.39262581 0 347442557.39262581 -183926900.76002502 0 0 0 0 120177019.84303284 385116062.71759796 0 385116062.71759796 -381137843.60158539 0 0 0 0 -37248740.899974823 194393838.53762531 0 194393838.53762531 -255256025.82975769 0 0 0 0 183744519.35456848 421471828.43756866 0 421471828.43756866 176595278.89959717 0 0 0 0 128631918.26539612 314724386.2636919 0 314724386.2636919 -24949525.324378967 0 0 0 0 121983068.30026245 490924284.79818726 0 490924284.79818726 -1011550.7655138969 0 0 0 0 48077240.60697937 464543482.39361858 0 464543482.39361858 22821557.816696167 0 0 0 0 29559660.854919434 505003692.72922516 0 505003692.72922516 254283804.65620422 0 0 0 0 -23401272.16053772 461109793.62619781 0 461109793.62619781 581716890.5382309 0 0 0 0 2525285.1796875 443187834.77870178 0 443187834.77870178 264014492.02213383 0 0 0 0 25812611.388046265 393463989.22202301 0 393463989.22202301 366189189.22212982 0 0 0 0 433319882.41394043 908064025.93280029 0 908064025.93280029 -76032495.744934082 0 0 0 0 -2329094.3056182265 677484.79909677431 0 677484.79909677431 2252254.4649852179 0 0 0 0 32892892.539001465 51105469.712631226 0 51105469.712631226 204152193.54367065 0 0 0 0 -281220416.62033081 118407445.63987732 0 118407445.63987732 216563836.77146912 0 0 0 0 -206873725.64056396 270526117.83276749 0 270526117.83276749 339917334.08097839 0 0 0 0 -382781632.04149628 506974608.2923708 0 506974608.2923708 141988263.0256958 0 0 0 0 483616.93963623047 403718413.00888824 0 403718413.00888824 164206934.68958092 0 0 0 0 -105869591.06140137 473796044.44723892 0 473796044.44723892 302524632.95059204 0 0 0 0 190690427.41778564 471698344.01493073 0 471698344.01493073 302117834.2473321 0 0 0 0 392811069.11669922 237400432.27651978 0 237400432.27651978 548219361.3683095 0 0 0 0 157852724.30322266 348753703.68138123 0 348753703.68138123 337095734.35566139 0 0 0 0 -15072961.338790894 322241445.19057465 0 322241445.19057465 554919395.1403656 0 0 0 0 207025576.76535034 328276888.69599152 0 328276888.69599152 518522152.26672363 0 0 0 0 176962885.98059082 103428970.26334381 0 103428970.26334381 205181367.40073633 0 0 0 0 41334990.099121094 483028273.66443634 0 483028273.66443634 1034844305.0627975 0 0 0 0 -113167241.73278809 398630833.18910217 0 398630833.18910217 1083620125.8577824 0 0 0 0 35954267.364654541 194589903.68336868 0 194589903.68336868 1040629546.1130753 0 0 0 0 -868589.42179261148 2507991.1849836484 0 2507991.1849836484 1385358.7627281845 0 0 0 0 273065234.26283169 545677788.87874937 0 545677788.87874937 683909405.01942444 0 0 0 0 -35556495.934827805 -252452425.0030005 0 -252452425.0030005 466925774.12077332 0 0 0 0 227720260.32971191 70426172.108596802 0 70426172.108596802 14388221.027095795 0 0 0 0 -120777866.27653503 -10196955.23110199 0 -10196955.23110199 956354773.35269165 0 0 0 0 -58616047.621963501 182795335.69336128 0 182795335.69336128 388643507.01563263 0 0 0 0 -85640894.35899353 162248220.29401016 0 162248220.29401016 400600656.24932861 0 0 0 0 192113071.51582336 592449982.94013596 0 592449982.94013596 656562599.44007874 0 0 0 0 -175064420.59585571 173287527.39468384 0 173287527.39468384 1041755115.2253036 0 0 0 0 3930025.7746887207 -86961857.210849762 0 -86961857.210849762 333819640.10119629 0 0 0 0 72614034.617034912 -12874207.06817627 0 -12874207.06817627 18784300.985931396 0 0 0 0 12921026.367095947 37760010.51241684 0 37760010.51241684 100584829.89234161 0 0 0 0 1447185.1627502441 -2546213.9742031097 0 -2546213.9742031097 82587372.745864868 0 0 0 0 -30116707.148162842 73789658.445129395 0 73789658.445129395 212852900.45332336 0 0 0 0 3801422.5690002441 55574816.531606674 0 55574816.531606674 18001172.790466309 0 0 0 0 7498495.8669433594 104490431.95192337 0 104490431.95192337 114718260.95581055 0 0 0 0 43428586.6300354 171806246.40182877 0 171806246.40182877 187697985.81792641 0 0 0 0 -160910557.87405396 -40452433.987028122 0 -40452433.987028122 22436777.399581909 0 0 0 0 -5188528.2570495605 98238923.362205505 0 98238923.362205505 128025412.76058197 0 0 0 0 -5399134.0260192454 2894285.2789403424 0 2894285.2789403424 8247330.6601665914 0 0 0 0 -14343347.830596924 -54545413.920677185 0 -54545413.920677185 -14875577.907844543 0 0 0 0 17102985.330726624 62818846.832801819 0 62818846.832801819 26705064.590545654 0 0 0 0 -20943881.887420654 38267127.050930023 0 38267127.050930023 7162031.7532653809 0 0 0 0 -79726207.032531738 95430869.297485352 0 95430869.297485352 -10919215.336196899 0 0 0 0 -62367296.409463882 95836005.16875124 0 95836005.16875124 -24714483.476287842 0 0 0 0 -53131442.563690186 4789913.9090194702 0 4789913.9090194702 -16065905.137046814 0 0 0 0 -51977209.520812988 292305524.83599091 0 292305524.83599091 -642611630.85787964 0 0 0 0 -3890061.1554500163 -921187.99783232994 0 -921187.99783232994 3206704.1901561096 0 0 0 0 26433179.616149902 94134097.073226929 0 94134097.073226929 -292419205.80575562 0 0 0 0 56602744.410827637 1280440.1121520996 0 1280440.1121520996 -150032941.30419922 0 0 0 0 -39874654.804504395 5876378.3625564575 0 5876378.3625564575 150098783.42809105 0 0 0 0 -70813375.960388184 227202408.59441376 0 227202408.59441376 -88527959.385635376 0 0 0 0 -93330598.805175781 193831562.2234726 0 193831562.2234726 -37566248.879470825 0 0 0 0 -324677049.24377441 405074504.59259796 0 405074504.59259796 150334892.59992981 0 0 0 0 -134640366.34393311 367550129.77737427 0 367550129.77737427 -352567292.43663406 0 0 0 0 -97977624.192443848 38533140.995582581 0 38533140.995582581 76541842.345363617 0 0 0 0 -251661677.23577881 138338955.76989174 0 138338955.76989174 204222629.77745056 0 0 0 0 -229341290.24584961 189026252.77962494 0 189026252.77962494 7384032.340133667 0 0 0 0 -178360527.60803223 132649882.65547562 0 132649882.65547562 64021809.906036377 0 0 0 0 -142875803.86608887 27277342.034294128 0 27277342.034294128 -8122554.1860427856 0 0 0 0 -113487272.65512085 33840334.014411926 0 33840334.014411926 -15127050.752685547 0 0 0 0 -181411777.24487305 108476554.28892517 0 108476554.28892517 -8581519.1980705261 0 0 0 0 -233645708.68270874 67310024.927286148 0 67310024.927286148 12816723.356666565 0 0 0 0 -314862019.88830566 -1987200.8831939697 0 -1987200.8831939697 22511876.22836113 0 0 0 0 -185443860.86152649 96263312.334411621 0 96263312.334411621 51321555.766052246 0 0 0 0 -210783460.72045898 41564684.0546875 0 41564684.0546875 41081583.32036972 0 0 0 0 -140293597.84515381 36756230.600978851 0 36756230.600978851 26935209.221466064 0 0 0 0 -193472810.3430481 95630124.953804016 0 95630124.953804016 -12436224.375167847 0 0 0 0 -246074584.42193604 19887884.337051392 0 19887884.337051392 -13928444.711002111 0 0 0 0 -814695.72633076832 667207.68278413266 0 667207.68278413266 1667311.1749711633 0 0 0 0 -605259384.86398315 -59781566.550720215 0 -59781566.550720215 89096392.98992157 0 0 0 0 -289765239.92060852 -7959533.125875473 0 -7959533.125875473 -28813819.06640625 0 0 0 0 226040498.35552979 256783273.80628204 0 256783273.80628204 190341735.81028652 0 0 0 0 879151569.69572449 535724714.75335693 0 535724714.75335693 84231884.500801086 0 0 0 0 170211042.23795319 385735294.11808395 0 385735294.11808395 203277920.80088806 0 0 0 0 207021051.5970459 333983798.98540497 0 333983798.98540497 -16885532.293457031 0 0 0 0 182805807.88873291 235781863.97496033 0 235781863.97496033 174921692.97411728 0 0 0 0 45608772.632064819 349103464.75506973 0 349103464.75506973 198300540.76135254 0 0 0 0 287543814.46881866 323694221.99060917 0 323694221.99060917 177698658.34804535 0 0 0 0 -2525846.2325257882 1464192.9837998003 0 1464192.9837998003 4813477.5010743365 0 0 0 0 16012171.069652557 -53739677.913603783 0 -53739677.913603783 -152345994.41139221 0 0 0 0 -69579408.951387405 -48416177.357657433 0 -48416177.357657433 -89183690.053012848 0 0 0 0 -41749414.580993652 -104581698.66217804 0 -104581698.66217804 -196621223.18549603 0 0 0 0 -135195449.25807953 -249705025.20456696 0 -249705025.20456696 -199468568.88191605 0 0 0 0 -109501823.29108429 -86306955.13394928 0 -86306955.13394928 -102288555.93612671 0 0 0 0 -134020999.58846855 -49547004.571598053 0 -49547004.571598053 -53337034.791519165 0 0 0 0 -82589509.654632568 -70313838.316860199 0 -70313838.316860199 -106298060.57935762 0 0 0 0 -162977312.02324343 -90049272.776269913 0 -90049272.776269913 -77659554.772190094 0 0 0 0 -55105588.668775402 50972135.016701728 0 50972135.016701728 20578069.64610732 0 0 0 0 259202820.01934814 145624847.19935226 0 145624847.19935226 60835792.714355469 0 0 0 0 -133018503.03962326 -97974146.332040787 0 -97974146.332040787 -71733152.468818665 0 0 0 0 -160629604.55017853 -70351420.549648285 0 -70351420.549648285 -90927881.419044495 0 0 0 0 -163231087.77776718 -125845392.20494843 0 -125845392.20494843 -59932401.749099731 0 0 0 0 -692793091.11303711 776652473.12225342 0 776652473.12225342 -602447270.64477539 0 0 0 0 -264997446.63625145 -45757866.595191956 0 -45757866.595191956 -10916956.353214264 0 0 0 0 -316347695.77142334 -410168916.02677155 0 -410168916.02677155 716477005.07325745 0 0 0 0 -598573272.54956055 863359129.11166382 0 863359129.11166382 -502246085.37192917 0 0 0 0 -1892286989.8265991 471572035.74890137 0 471572035.74890137 1131518650.4019165 0 0 0 0 -372626535.68835449 249994659.7281189 0 249994659.7281189 101258024.02859116 0 0 0 0 -96335173.046966553 52953460.639762878 0 52953460.639762878 98578776.663223267 0 0 0 0 277095215.68991089 -137110450.24065018 0 -137110450.24065018 124592830.84489441 0 0 0 0 40752757.861038208 65812230.590538025 0 65812230.590538025 -2536385.7051315308 0 0 0 0 -70702416.692977905 91831828.782548904 0 91831828.782548904 11143957.066482544 0 0 0 0 -73569137.592559814 99772916.746738434 0 99772916.746738434 -8253406.91796875 0 0 0 0 17117088.373565674 89395642.926998138 0 89395642.926998138 -50339432.112106323 0 0 0 0 -57549931.361083984 77744357.267089844 0 77744357.267089844 -29897768.207298279 0 0 0 0 -140718619.05487061 80508314.971206665 0 80508314.971206665 -11635699.310707092 0 0 0 0 -54512398.615684509 66648908.734694481 0 66648908.734694481 4463461.2998352051 0 0 0 0 27968991.339609496 49321645.100347415 0 49321645.100347415 15041095.846860114 0 0 0 0 17160101.646087646 87843097.280883789 0 87843097.280883789 5552835.7754030228 0 0 0 0 48859575.096557617 121958610.07125664 0 121958610.07125664 -1692263.5094528198 0 0 0 0 16517029.298339844 99814612.893939972 0 99814612.893939972 63666292.233730793 0 0 0 0 -74695287.89055109 -32133415.241800547 0 -32133415.241800547 -89361975.740982056 0 0 0 0 -71365331.892665863 -13318895.012433052 0 -13318895.012433052 -58615932.169580221 0 0 0 0 -39892271.66829592 44622872.738255337 0 44622872.738255337 17745250.733933713 0 0 0 0 -2651399443.4772568 -1470060399.6824341 0 -1470060399.6824341 1103765080.2656059 0 0 0 0 -317477384.67380905 -13634014.865976334 0 -13634014.865976334 -663974241.50324249 0 0 0 0 -7060396236.566925 707907524.54650879 0 707907524.54650879 631873745.43844604 0 0 0 0 821301.02330573276 716889.84775485657 0 716889.84775485657 -156912.58424570411 0 0 0 0 3654014594.9250946 1341161942.4584846 0 1341161942.4584846 -1128982982.5531921 0 0 0 0 164383398.58375549 664758103.7492218 0 664758103.7492218 593633457.55569458 0 0 0 0 -415426870.76022339 230099034.35774231 0 230099034.35774231 1028987400.0135345 0 0 0 0 -261075507.31689072 147349007.75011921 0 147349007.75011921 159638745.40844727 0 0 0 0 49436813.25466156 1865873911.4629707 0 1865873911.4629707 -814348188.99043369 0 0 0 0 -916628605.97026634 15786922.048587799 0 15786922.048587799 227498897.06893921 0 0 0 0 -28141817.077222921 -2179438.3035534956 0 -2179438.3035534956 7772494.5845337994 0 0 0 0 -29292803.499137878 250260528.61785316 0 250260528.61785316 266415003.63411713 0 0 0 0 -34777443.947536469 122184584.974123 0 122184584.974123 390791999.61912155 0 0 0 0 152294334.9979248 147061872.73005676 0 147061872.73005676 47602468.940067291 0 0 0 0 132756423.56423378 225698842.33636475 0 225698842.33636475 -46463829.867088318 0 0 0 0 -204771779.38725281 176577991.38927937 0 176577991.38927937 144279206.9917984 0 0 0 0 530590276.88306427 317037944.51338577 0 317037944.51338577 -21712461.130348206 0 0 0 0 142268436.44980049 192810978.96999073 0 192810978.96999073 11592110.103355408 0 0 0 0 234677285.30478668 239573645.18545914 0 239573645.18545914 -7651783.4644088745 0 0 0 0 368324978.41065216 121503496.09120178 0 121503496.09120178 -61979340.614578247 0 0 0 0 140579163.67524719 63544657.352233887 0 63544657.352233887 -30250662.276569366 0 0 0 0 -3010481.6141865216 6277379.1815844066 0 6277379.1815844066 4987113.7275421321 0 0 0 0 324596831.28300476 128434459.03736496 0 128434459.03736496 -83434770.705821991 0 0 0 0 195630322.43133545 12400474.91027832 0 12400474.91027832 -118673440.16270447 0 0 0 0 55772081.600902557 -62948226.640823364 0 -62948226.640823364 -81021215.935173035 0 0 0 0 -156581263.28756714 15626228.452663422 0 15626228.452663422 53933298.417201161 0 0 0 0 -83844806.468582153 14594850.193893433 0 14594850.193893433 53946869.720779419 0 0 0 0 155136052.4463129 109942818.94447803 0 109942818.94447803 8849443.2680282593 0 0 0 0 52460483.22857666 26700144.81778717 0 26700144.81778717 114026373.87239075 0 0 0 0 89862509.510406494 -14079760.8931427 0 -14079760.8931427 106742915.44030571 0 0 0 0 69420446.78427124 29268271.337409973 0 29268271.337409973 59972032.698139191 0 0 0 0 45789421.763632774 68345431.232840061 0 68345431.232840061 55533803.76612854 0 0 0 0 -122699702.78612518 109227880.39641571 0 109227880.39641571 63704958.197280884 0 0 0 0 -69640854.107788086 81249634.3346138 0 81249634.3346138 53824970.561439514 0 0 0 0 -15374366.418698765 26306224.235920794 0 26306224.235920794 8672316.2649608068 0 0 0 0 -136110604.71591187 107930766.20534325 0 107930766.20534325 65023969.309989929 0 0 0 0 -15749389.750137329 22081415.249703683 0 22081415.249703683 20023988.790212419 0 0 0 0 -162650958.66448975 80308181.914302826 0 80308181.914302826 62859597.920490265 0 0 0 0 -79320005.05607605 100206011.35960388 0 100206011.35960388 62810491.89466095 0 0 0 0 -944251147.87208557 -270020616.88361359 0 -270020616.88361359 133886088.36619949 0 0 0 0 640122368.38103485 1103974303.8137283 0 1103974303.8137283 -541975386.53566742 0 0 0 0 -78903495.950775146 97379416.794677734 0 97379416.794677734 -35973534.292690277 0 0 0 0 -55987782.251617432 113981106.62376022 0 113981106.62376022 -30808879.069999695 0 0 0 0 -63866673.885513306 95416813.538162231 0 95416813.538162231 -45628022.614608765 0 0 0 0 33836720.087829828 37749112.169977866 0 37749112.169977866 1082937.8006892167 0 0 0 0 -266820188.58233643 474603390.87065315 0 474603390.87065315 -230416836.47529602 0 0 0 0 -49897442.301544741 65443220.988335811 0 65443220.988335811 27437523.933152322 0 0 0 0 -11585868.253944397 83024960.844484329 0 83024960.844484329 -27535238.154453278 0 0 0 0 25587335.974025726 17510718.274653435 0 17510718.274653435 -75171182.835494995 0 0 0 0 35729877.29026413 32728967.716528893 0 32728967.716528893 -228302401.57772827 0 0 0 0 -55357078.332427979 135839600.04721451 0 135839600.04721451 -130118060.56520462 0 0 0 0 -7245837.1889953613 79286721.92048645 0 79286721.92048645 -92005519.248474121 0 0 0 0 -29872390.622009277 79723885.381820679 0 79723885.381820679 12937036.03515625 0 0 0 0 -78867727.352645874 104356021.21424484 0 104356021.21424484 33166182.62512207 0 0 0 0 -74570927.628326416 134145158.97111511 0 134145158.97111511 -44729190.81703186 0 0 0 0 -89929643.073173523 108683598.44608498 0 108683598.44608498 -17902393.872062683 0 0 0 0 -148387150.6967926 135565493.59661484 0 135565493.59661484 29105243.743518829 0 0 0 0 -75006009.579589844 66898961.644943237 0 66898961.644943237 75789683.2943573 0 0 0 0 -135581843.92074585 55409151.633590698 0 55409151.633590698 99626320.638374329 0 0 0 0 -79084334.359603882 1025985.774055481 0 1025985.774055481 136300274.73424911 0 0 0 0 -157368148.63096142 41148371.382678509 0 41148371.382678509 90322937.820915222 0 0 0 0 -114006544.15522766 320927414.18934631 0 320927414.18934631 -508604947.49604607 0 0 0 0 -277140453.65551758 128855674.8674202 0 128855674.8674202 44646110.387718201 0 0 0 0 11370881.02772522 93046725.342086792 0 93046725.342086792 -328291767.1672287 0 0 0 0 -285608522.19281006 214697827.78900146 0 214697827.78900146 -46664087.058584213 0 0 0 0 -192925100.14266968 121126813.73931503 0 121126813.73931503 -21435416.153694153 0 0 0 0 -58038490.708679199 127733109.62524796 0 127733109.62524796 -152218758.19363403 0 0 0 0 -184536266.1892395 200127173.62568283 0 200127173.62568283 -83838048.168781281 0 0 0 0 -154836799.01611328 276749811.51027298 0 276749811.51027298 -304559263.09075928 0 0 0 0 -318118197.0349884 230743211.33254051 0 230743211.33254051 -33900585.008659363 0 0 0 0 -883884896.00411987 828358267.70055008 0 828358267.70055008 -108123646.48035622 0 0 0 0 -748969947.06433105 -146777775.09410858 0 -146777775.09410858 477874900.39917755 0 0 0 0 -1855041096.0632935 562622373.02045441 0 562622373.02045441 1287980754.2872696 0 0 0 0 77122464.308380127 -510499997.97007751 0 -510499997.97007751 370405400.1388855 0 0 0 0 -1964703029.9011841 -125961255.11749172 0 -125961255.11749172 2080989826.8855896 0 0 0 0 -652145839.32624054 -898046077.70994568 0 -898046077.70994568 1363446213.2270508 0 0 0 0 -254092440.06997681 -171682780.57162857 0 -171682780.57162857 54122859.858062744 0 0 0 0 -117332525.30984497 -151974954.6774292 0 -151974954.6774292 50724836.921904564 0 0 0 0 -217744686.13247681 758389.24737930298 0 758389.24737930298 142135938.07676506 0 0 0 0 -476824384.77624512 -297805415.02098083 0 -297805415.02098083 560815915.17497253 0 0 0 0 -604926901.84326172 166077542.39958191 0 166077542.39958191 84808473.948692322 0 0 0 0 -84945303.594726562 -9830194.586227417 0 -9830194.586227417 88185641.583976746 0 0 0 0 -246234638.24264526 -41187640.936271667 0 -41187640.936271667 82090003.677078247 0 0 0 0 -143142546.08211899 -28957384.264703035 0 -28957384.264703035 166835943.9415741 0 0 0 0 -44351039.77557373 58556884.217323303 0 58556884.217323303 201675926.33629608 0 0 0 0 -39570266.922058105 -85501206.559648514 0 -85501206.559648514 21678909.07497406 0 0 0 0 -76811038.139379501 -60945206.99831295 0 -60945206.99831295 8572652.2849731445 0 0 0 0 74758726.99105835 47912585.35660553 0 47912585.35660553 -118457160.87678528 0 0 0 0 48206249.250282288 -114902669.92971611 0 -114902669.92971611 -187732458.44143677 0 0 0 0 -173598945.36478806 -94559262.082564354 0 -94559262.082564354 128762940.25855255 0 0 0 0 800772649.76079559 649192698.11546993 0 649192698.11546993 -658924797.38515854 0 0 0 0 842403725.29323578 -773225989.20816708 0 -773225989.20816708 -607017611.07205582 0 0 0 0 -7406690.182661429 6840539.8217049204 0 6840539.8217049204 3937142.8780922354 0 0 0 0 147993.50218414888 -1955152.7396019567 0 -1955152.7396019567 1067410.8932078928 0 0 0 0 873976.5737285614 -257862262.86301327 0 -257862262.86301327 -51177319.306510925 0 0 0 0 -208810958.06091309 516681090.31059265 0 516681090.31059265 1423327166.7300053 0 0 0 0 1657629.6977925301 3203787.7868509274 0 3203787.7868509274 511031.31403723406 0 0 0 0 427005560.2755127 -167628068.84531021 0 -167628068.84531021 -1099448392.1345177 0 0 0 0 403870229.62615967 784662713.18596649 0 784662713.18596649 558309648.79634857 0 0 0 0 566597638.83673096 78425714.371856689 0 78425714.371856689 -204228808.61316681 0 0 0 0 272916703.70759583 361941926.95628548 0 361941926.95628548 -9595963.0498580933 0 0 0 0 361716625.33132935 313052352.55873489 0 313052352.55873489 -640988668.21763611 0 0 0 0 -26361246.43510437 356740603.88980484 0 356740603.88980484 324284735.52244568 0 0 0 0 -125665886.30566406 -312051723.59009171 0 -312051723.59009171 -161138246.43365097 0 0 0 0 -410917118.66851807 144914276.35642242 0 144914276.35642242 145484770.61808777 0 0 0 0 -215564125.63793945 285943434.644104 0 285943434.644104 229341863.04387665 0 0 0 0 288261411.70431519 571314843.96703339 0 571314843.96703339 -151460362.63134003 0 0 0 0 -88725773.774597168 87134383.469261169 0 87134383.469261169 -36121379.884632111 0 0 0 0 -146109601.94194794 101727375.95355511 0 101727375.95355511 17341053.425979614 0 0 0 0 -263787214.69351196 151919694.51515961 0 151919694.51515961 -3944512.863609314 0 0 0 0 -84647607.625030518 148720024.6101799 0 148720024.6101799 -65220043.75901413 0 0 0 0 121200760.71592712 233933118.12357712 0 233933118.12357712 -531689217.02091217 0 0 0 0 314333025.37573242 345464564.47674942 0 345464564.47674942 262383472.07136536 0 0 0 0 6606042.6823631227 20985219.316227943 0 20985219.316227943 -289827.16547927493 0 0 0 0 49920125.540944099 378903305.63624358 0 378903305.63624358 590577227.72515106 0 0 0 0 1313242581.0182495 513655408.54905701 0 513655408.54905701 -1643780488.6576233 0 0 0 0 682000484.50732422 -292906244.80000305 0 -292906244.80000305 -315063645.07792664 0 0 0 0 -91109499.16784668 146365829.03139496 0 146365829.03139496 690210473.1953125 0 0 0 0 17072897.045368373 39797409.093826979 0 39797409.093826979 14403719.636109006 0 0 0 0 -1021159067.6948547 94055783.732414246 0 94055783.732414246 1072096965.5124435 0 0 0 0 -485835470.79550171 588628392.03128433 0 588628392.03128433 -227506126.69622993 0 0 0 0 -11278036.772034347 4999414.0364459828 0 4999414.0364459828 7839775.9916349947 0 0 0 0 -20847061.181079865 83065490.92557621 0 83065490.92557621 6926748.5265426636 0 0 0 0 -5886332.0571899414 91072800.634422302 0 91072800.634422302 -28592007.427024364 0 0 0 0 -15234191.181877136 102007597.84707451 0 102007597.84707451 -3983901.8107376099 0 0 0 0 -26347035.484680176 25860817.713172913 0 25860817.713172913 14046269.347993851 0 0 0 0 -128691234.84013367 -144150.24516868591 0 -144150.24516868591 -681254614.6769104 0 0 0 0 -432294733.43661499 610674687.85827637 0 610674687.85827637 -562802406.84847069 0 0 0 0 23128268.210748881 33603859.390042439 0 33603859.390042439 7480812.2893144451 0 0 0 0 219731766.18054199 1300063176.0671387 0 1300063176.0671387 -1383428165.8033237 0 0 0 0 21449926.207381427 30923636.321942165 0 30923636.321942165 2961087.8577836677 0 0 0 0 -76677899.658081055 152667273.81037903 0 152667273.81037903 -817323890.01992798 0 0 0 0 155918143.65750122 -73401760.209922791 0 -73401760.209922791 -1042899631.1129494 0 0 0 0 5598275.1916218251 10976590.591012308 0 10976590.591012308 -960984.43281572312 0 0 0 0 269719583.85283661 148122565.82107735 0 148122565.82107735 -968367030.47532654 0 0 0 0 -11831971.731048584 312917024.29999924 0 312917024.29999924 -218102994.31007385 0 0 0 0 78164576.907852173 73519764.276420593 0 73519764.276420593 -123756898.19889832 0 0 0 0 170388407.27667999 93719644.861367226 0 93719644.861367226 -59431778.176986694 0 0 0 0 30847384.505399704 113920076.0198884 0 113920076.0198884 699448160.89871216 0 0 0 0 -38109177.973937988 435324316.39443207 0 435324316.39443207 486894021.90222168 0 0 0 0 17663934.843292236 430665411.86849594 0 430665411.86849594 -257290951.31523514 0 0 0 0 46450151.75100708 -208434094.94925308 0 -208434094.94925308 -468352375.10999298 0 0 0 0 -62986275.330835819 136860943.46762574 0 136860943.46762574 18665684.938957214 0 0 0 0 -56706164.85104847 280793156.68500638 0 280793156.68500638 -340086864.98828125 0 0 0 0 11722198.512782663 9511206.6261254121 0 9511206.6261254121 -3332991.3814250324 0 0 0 0 -28132951.328903198 101430780.41619873 0 101430780.41619873 -56812448.930244446 0 0 0 0 1998465.8619384766 6068715.6124725342 0 6068715.6124725342 -6353600.1506214142 0 0 0 0 860054.38360595703 6643744.3849830627 0 6643744.3849830627 -5620451.7102966309 0 0 0 0 894787.72746276855 8619735.4732303619 0 8619735.4732303619 -21732233.002502441 0 0 0 0 8119300.1988677979 21268527.342128754 0 21268527.342128754 -40491274.458572388 0 0 0 0 1676646.8076755404 5563939.5259929821 0 5563939.5259929821 -8986318.3068180941 0 0 0 0 -438521.4482575506 8662468.6809399724 0 8662468.6809399724 2436839.1506296857 0 0 0 0 -5076085.3030395508 18542212.421764374 0 18542212.421764374 10458654.844312429 0 0 0 0 1965170.5011901855 10298183.438579559 0 10298183.438579559 -7362910.6509017944 0 0 0 0 19544384.268463135 -16603676.59305191 0 -16603676.59305191 -53257824.765808105 0 0 0 0 45261413.11554718 -7738916.9481487274 0 -7738916.9481487274 -26502674.182670593 0 0 0 0 5547368.6020357311 20895143.193742037 0 20895143.193742037 4978199.9195714742 0 0 0 0 -14589632.776611328 56844374.746444702 0 56844374.746444702 94828060.513793945 0 0 0 0 -4842784.2696380615 17146139.495656967 0 17146139.495656967 7472529.7696380615 0 0 0 0 1319022.3133537322 25219623.858331367 0 25219623.858331367 11528941.051027041 0 0 0 0 -3954144.9450378418 22319050.391870499 0 22319050.391870499 33401220.644191742 0 0 0 0 -16460492.932142489 30104226.224460956 0 30104226.224460956 3799351.1366458535 0 0 0 0 232494.83451843262 23485135.45016098 0 23485135.45016098 24896079.160690308 0 0 0 0 -25077081.305587769 85610597.865585327 0 85610597.865585327 44258010.291788101 0 0 0 0 -2178831.7536010742 29778264.788036346 0 29778264.788036346 26330516.945823669 0 0 0 0 2843801.2911987305 82809396.687267303 0 82809396.687267303 5626242.1486740112 0 0 0 0 -11334911.529968262 -1489193.759475708 0 -1489193.759475708 -23830796.659286499 0 0 0 0 -4227916.2959393561 15880270.242007356 0 15880270.242007356 4987947.7024256615 0 0 0 0 -62527500.297119141 14633842.168512344 0 14633842.168512344 42289334.148021698 0 0 0 0 29788294.945373535 65403066.04120636 0 65403066.04120636 -50814481.751303673 0 0 0 0 -203903.68228106201 3521764.8260221081 0 3521764.8260221081 810648.10885091976 0 0 0 0 -41920841.376678467 47883033.623886108 0 47883033.623886108 -29322871.379489183 0 0 0 0 -4744364.4433898926 26842013.709209442 0 26842013.709209442 43708491.079608917 0 0 0 0 766034.62063598633 33286820.607380867 0 33286820.607380867 9941591.085144043 0 0 0 0 -52353150.549926758 23361718.594079971 0 23361718.594079971 19708698.550016403 0 0 0 0 14380138.732429504 -4988999.4995539188 0 -4988999.4995539188 33682691.731006622 0 0 0 0 -42549757.986221313 44012442.499236584 0 44012442.499236584 -29188657.960445404 0 0 0 0 -74824826.478393555 -5795056.3705024719 0 -5795056.3705024719 14470233.203172684 0 0 0 0 -85246856.081832886 33727254.001249313 0 33727254.001249313 -6752058.4603462219 0 0 0 0 -48464230.041595459 45995496.307704926 0 45995496.307704926 -9096896.4648218155 0 0 0 0 -85031337.860603333 30445731.47709775 0 30445731.47709775 -60803235.932624817 0 0 0 0 -158451970.46624756 15304153.650920868 0 15304153.650920868 -1987810.4089794159 0 0 0 0 -115655088.49957275 83394048.697612762 0 83394048.697612762 -6312996.1056137085 0 0 0 0 2579148.86412476 2103879.3028026298 0 2103879.3028026298 -1494653.6725399122 0 0 0 0 -82420914.246047974 69836749.432867527 0 69836749.432867527 -48130143.132709503 0 0 0 0 -83255496.405090332 76042774.992975235 0 76042774.992975235 -13107621.261016846 0 0 0 0 -26974848.021942139 68678771.277397156 0 68678771.277397156 -14443832.54306078 0 0 0 0 -52708638.074890137 41342659.849607944 0 41342659.849607944 -2259621.8666191101 0 0 0 0 -9826352.1070861816 51533747.848932266 0 51533747.848932266 -7568228.873831749 0 0 0 0 -14036964.034721375 44503076.086587667 0 44503076.086587667 38504648.640697479 0 0 0 0 -24564749.391448975 34756033.534826279 0 34756033.534826279 3301763.7256608009 0 0 0 0 41618704.177337646 30889855.38037014 0 30889855.38037014 -1974777.1264152527 0 0 0 0 6089106.5805969238 3164720.4021692276 0 3164720.4021692276 32791372.29583168 0 0 0 0 13230603.776062012 9083482.6302433014 0 9083482.6302433014 6478243.0952968597 0 0 0 0 12691777.240512848 8434963.5635794401 0 8434963.5635794401 18631812.033117294 0 0 0 0 9340267.2218017578 954520.91097259521 0 954520.91097259521 19724585.937831879 0 0 0 0 11705572.367553711 12489398.723501205 0 12489398.723501205 28720096.091557503 0 0 0 0 -562649.32751464844 7425576.8098258972 0 7425576.8098258972 -6317386.5744953156 0 0 0 0 11883398.336496353 9385540.2963363826 0 9385540.2963363826 17810560.224157333 0 0 0 0 3378611.040660128 10678510.228507943 0 10678510.228507943 2343276.1803326323 0 0 0 0 -24230618.737091064 8369423.995141983 0 8369423.995141983 -25773371.575271606 0 0 0 0 -211397.4387319088 423633.77242095768 0 423633.77242095768 -793796.62701932527 0 0 0 0 3493921.1304931641 2225225.8372039795 0 2225225.8372039795 -33088668.436904907 0 0 0 0 4502178.4181124419 14409196.83230963 0 14409196.83230963 6360007.3810528228 0 0 0 0 2645110.2133163959 352517.95317735523 0 352517.95317735523 -11966519.02339136 0 0 0 0 -4634876.1330566406 29778890.476829529 0 29778890.476829529 -36334120.145454407 0 0 0 0 -557735.06448787451 16751748.82586617 0 16751748.82586617 6826325.8672991414 0 0 0 0 5456446.5222473145 12186588.49419117 0 12186588.49419117 39469899.35364151 0 0 0 0 25942703.198608398 7386697.3043661118 0 7386697.3043661118 45040220.256090164 0 0 0 0 1521672.2755953819 2761621.7837616056 0 2761621.7837616056 2164961.8276727204 0 0 0 0 20309108.778381348 23530095.0831604 0 23530095.0831604 -66356236.638550758 0 0 0 0 -30959983.925941467 31563923.481711805 0 31563923.481711805 -4544068.7045989037 0 0 0 0 -30187605.657051086 27600781.772458851 0 27600781.772458851 -2706482.3903560638 0 0 0 0 -73993080.923454285 69801433.729985237 0 69801433.729985237 -39807021.166679382 0 0 0 0 -59741732.758016586 35702496.73752594 0 35702496.73752594 40816870.213783264 0 0 0 0 -31963397.255332947 25809522.365653634 0 25809522.365653634 5018935.2912282944 0 0 0 0 -35664712.431443781 23229662.37377635 0 23229662.37377635 8964457.1783018261 0 0 0 0 -13921510.19241333 -44323830.943489075 0 -44323830.943489075 126514980.20478058 0 0 0 0 -8178645.6425979435 4766211.8750733808 0 4766211.8750733808 -1780998.5137467682 0 0 0 0 -34107100.635017395 -132576299.42712402 0 -132576299.42712402 243006118.95641994 0 0 0 0 -66520647.964500427 4231748.5818595886 0 4231748.5818595886 131893443.60861206 0 0 0 0 -45718125.658680156 23159475.865333572 0 23159475.865333572 18173571.256981824 0 0 0 0 -29143026.590911865 25785370.598885328 0 25785370.598885328 -3764555.0198501348 0 0 0 0 -32567541.324813843 29443851.668142557 0 29443851.668142557 661503.70024251938 0 0 0 0 -132803749.5418396 73144739.688551903 0 73144739.688551903 -30375746.612811089 0 0 0 0 -6579714.2824866697 17191978.320434596 0 17191978.320434596 -3105173.9891575882 0 0 0 0 -124538389.80990601 79668893.19122982 0 79668893.19122982 41480995.594841957 0 0 0 0 -118576059.29833984 77538885.009811401 0 77538885.009811401 -30752118.142611504 0 0 0 0 -1774144.1350291222 -2723819.5717475601 0 -2723819.5717475601 2956162.5271478798 0 0 0 0 -124564487.65368652 77972104.838726997 0 77972104.838726997 -48678086.917757511 0 0 0 0 -48217962.493667603 -10563744.468109131 0 -10563744.468109131 141884586.70134735 0 0 0 0 -112516035.6583519 74809489.699944496 0 74809489.699944496 107862468.0927124 0 0 0 0 -34242298.339315414 45325866.580760479 0 45325866.580760479 118536927.64812469 0 0 0 0 -81116388.713165283 71974166.839691162 0 71974166.839691162 135461519.34481049 0 0 0 0 -26004218.759713314 18305229.537183799 0 18305229.537183799 8947615.689812351 0 0 0 0 -19517988.770195007 34289926.219955444 0 34289926.219955444 91414446.251396179 0 0 0 0 -14795223.213723183 39619689.693037927 0 39619689.693037927 20557310.963100433 0 0 0 0 -10782037.970115572 19972377.899070155 0 19972377.899070155 3281962.5271660844 0 0 0 0 78511468.724731445 33340163.073123932 0 33340163.073123932 -50645115.22026825 0 0 0 0 -106576918.68563843 117336319.9546175 0 117336319.9546175 -23845780.21540451 0 0 0 0 -105880213.31043243 49642261.420544386 0 49642261.420544386 57874997.32222271 0 0 0 0 172779924.70783997 36089459.241510868 0 36089459.241510868 -97557683.200208664 0 0 0 0 -174002234.71453857 101222237.02873039 0 101222237.02873039 11693011.222864151 0 0 0 0 -559482.87369473279 -733456.77286211401 0 -733456.77286211401 860827.68473860854 0 0 0 0 82172937.202301025 49477260.731586456 0 49477260.731586456 -76422884.088629723 0 0 0 0 -1546143.4260995314 14127595.116532322 0 14127595.116532322 4318911.8077554898 0 0 0 0 -28056956.390548706 42167881.637214184 0 42167881.637214184 -13544481.135879755 0 0 0 0 -29416508.881912231 24923778.460040808 0 24923778.460040808 -8908604.9108418822 0 0 0 0 -2173013.4396400005 13838063.136252604 0 13838063.136252604 2554268.0179490196 0 0 0 0 -32774870.120927811 34318419.184574425 0 34318419.184574425 -5908687.8551950455 0 0 0 0 -30012694.732070923 28503263.971056163 0 28503263.971056163 -19315182.613849849 0 0 0 0 -20798411.476513714 13047833.9118734 0 13047833.9118734 10911484.592741914 0 0 0 0 -30468699.539502144 35685315.843509972 0 35685315.843509972 -20182309.230546713 0 0 0 0 -17407945.387832642 -24471731.528512955 0 -24471731.528512955 88185400.110935211 0 0 0 0 588423005.19665527 62132416.771980286 0 62132416.771980286 -29351769.54292345 0 0 0 0 194301285.49876404 137786272.16726685 0 137786272.16726685 255184249.53671265 0 0 0 0 221650373.87187195 -36896013.693601608 0 -36896013.693601608 16445386.914405823 0 0 0 0 240526072.91802979 -41396011.538925171 0 -41396011.538925171 -34586151.275785446 0 0 0 0 124953884.42051697 -165988203.16535378 0 -165988203.16535378 102896193.15151215 0 0 0 0 -24030023.621902466 -6344156.0655555725 0 -6344156.0655555725 12651422.844390869 0 0 0 0 -16674081.383563474 12376247.651124019 0 12376247.651124019 13999345.545785174 0 0 0 0 -32034383.31829834 45456412.391746759 0 45456412.391746759 -31478745.688701153 0 0 0 0 42010020.699432373 75736915.989365578 0 75736915.989365578 -46216990.731109619 0 0 0 0 35404505.80022049 7707006.4957742691 0 7707006.4957742691 -26916817.010864258 0 0 0 0 33151227.577728271 22749205.505981445 0 22749205.505981445 113167428.82139587 0 0 0 0 66148659.993682861 -24460243.914390564 0 -24460243.914390564 101924138.02964592 0 0 0 0 -28156034.529747009 31099350.510129929 0 31099350.510129929 28400538.77897644 0 0 0 0 -34016785.20518589 31382348.347090632 0 31382348.347090632 -28421014.754327297 0 0 0 0 -22822975.356203079 24321234.607869804 0 24321234.607869804 -19339410.175321102 0 0 0 0 -41141077.508598328 44139036.799751043 0 44139036.799751043 -15896363.423193455 0 0 0 0 -28707540.165939331 53851404.771044731 0 53851404.771044731 -43953921.91001153 0 0 0 0 -14417569.498999059 13240922.267070513 0 13240922.267070513 16301844.120847106 0 0 0 0 -24039266.304811478 -16674232.897719383 0 -16674232.897719383 98020342.375339508 0 0 0 0 -34651314.763198853 60414694.671388626 0 60414694.671388626 48419038.470161438 0 0 0 0 77423460.044525146 20357170.65769577 0 20357170.65769577 -118265115.03634262 0 0 0 0 21232938.142280579 31541728.456363201 0 31541728.456363201 -10100195.149978638 0 0 0 0 3048452.3257422298 1493835.208743833 0 1493835.208743833 4757260.8119758386 0 0 0 0 -7356354.1938781738 -2840690.7698554993 0 -2840690.7698554993 132989578.34587097 0 0 0 0 65079419.660339355 -22235386.43170929 0 -22235386.43170929 83322995.242683411 0 0 0 0 2135957.995850727 1061845.1167024802 0 1061845.1167024802 2734607.3765899371 0 0 0 0 -25538971.013275146 -33159062.062675476 0 -33159062.062675476 -69779958.481552124 0 0 0 0 59096879.884078979 -78207746.841233253 0 -78207746.841233253 -49920065.952835083 0 0 0 0 -71458382.618942261 -82959255.93138504 0 -82959255.93138504 18687515.510795593 0 0 0 0 6657077.7473831177 132523130.99681473 0 132523130.99681473 -78628406.795036316 0 0 0 0 -99928035.514282227 -31118489.196201324 0 -31118489.196201324 -6034874.7606506348 0 0 0 0 1452228.0826539621 1438176.5249896981 0 1438176.5249896981 -4038914.0964219645 0 0 0 0 25282337.253295898 142812966.46032143 0 142812966.46032143 -92381765.173179626 0 0 0 0 -7556749.531829834 154694264.91690063 0 154694264.91690063 -83754486.430877686 0 0 0 0 204973242.33813477 -284596520.31578064 0 -284596520.31578064 -40766018.421386719 0 0 0 0 138172710.47138214 218355500.93174982 0 218355500.93174982 -75225959.425460815 0 0 0 0 265107974.45599365 89694285.228248596 0 89694285.228248596 33721281.402069092 0 0 0 0 19946.300389975309 -13028.823787439615 0 -13028.823787439615 -34490.932980610989 0 0 0 0 -66237290.182495117 -60829082.167449951 0 -60829082.167449951 216927044.69668579 0 0 0 0 417039.07598052174 574877.95744276792 0 574877.95744276792 27670.979868501425 0 0 0 0 885203617.7076416 -169056133.88813019 0 -169056133.88813019 29219144.937355042 0 0 0 0 1023107699.9509125 183238324.18384361 0 183238324.18384361 -70355860.116546631 0 0 0 0 -35913499.945373535 50572472.78269577 0 50572472.78269577 -1311389.8933887482 0 0 0 0 -30916079.934234619 63575243.418935776 0 63575243.418935776 -30633002.281990051 0 0 0 0 -21476428.916259766 90088523.329902649 0 90088523.329902649 37997413.526817322 0 0 0 0 -166674919.17669678 -6549293.7038536072 0 -6549293.7038536072 80394562.479846954 0 0 0 0 2841625.0930230469 18727.642162755132 0 18727.642162755132 -381859.84635579586 0 0 0 0 64203082.592987061 91068660.551229477 0 91068660.551229477 -19533155.384179115 0 0 0 0 30591942.761680603 -35947016.758779526 0 -35947016.758779526 23425423.75737381 0 0 0 0 -47098663.423080444 27879440.330281258 0 27879440.330281258 -551187.71417236328 0 0 0 0 -4079315.3264465332 6479137.2557086945 0 6479137.2557086945 10033939.735784531 0 0 0 0 -15579243.959308624 45278149.376972198 0 45278149.376972198 -16928254.989444733 0 0 0 0 -37695413.969055176 55058678.057230949 0 55058678.057230949 -11319273.976093292 0 0 0 0 -80219536.114044189 42731218.262665749 0 42731218.262665749 -22065744.561616898 0 0 0 0 -60380970.759338379 76513759.827417374 0 76513759.827417374 -22990503.874213547 0 0 0 0 8713752.3287117779 14874186.872025706 0 14874186.872025706 -11915942.03854787 0 0 0 0 -5150758.0043590367 9260080.4916273728 0 9260080.4916273728 10725572.867547682 0 0 0 0 -14888679.591217339 15929607.063137034 0 15929607.063137034 19612042.402659014 0 0 0 0 -41793667.095657349 41445732.117841959 0 41445732.117841959 -11829496.157877922 0 0 0 0 -14096843.468826294 31945328.346363306 0 31945328.346363306 -41350145.114040375 0 0 0 0 -30147072.033935547 52370226.605797768 0 52370226.605797768 -45545050.802322745 0 0 0 0 -48292492.592010498 47036480.359745026 0 47036480.359745026 -6046056.1085319519 0 0 0 0 7492666.6710973345 17373966.700471848 0 17373966.700471848 -16515234.971610002 0 0 0 0 -14497822.474578857 25693959.599988461 0 25693959.599988461 -38677818.548103809 0 0 0 0 -8941958.075317651 9584155.8161850628 0 9584155.8161850628 19970397.229842611 0 0 0 0 -37522836.321861267 40312746.010208011 0 40312746.010208011 -7475572.7528133392 0 0 0 0 -19286473.068595886 39409572.03059864 0 39409572.03059864 -31591744.455589294 0 0 0 0 -88617486.0703125 -19059719.383201599 0 -19059719.383201599 87896980.095329285 0 0 0 0 -3045601.3118158951 25677572.88318035 0 25677572.88318035 -4451835.3353230432 0 0 0 0 -1831958.1235406697 -466568.36362059787 0 -466568.36362059787 3297887.4679094516 0 0 0 0 -17645265.822686195 38602510.477868795 0 38602510.477868795 44611337.939353943 0 0 0 0 39090610.165161133 29979684.946655273 0 29979684.946655273 -8684258.5628814697 0 0 0 0 -1801601.1643066406 22896907.583778381 0 22896907.583778381 56231876.733020782 0 0 0 0 3256748.1897887141 3428393.6858296804 0 3428393.6858296804 10169000.077843828 0 0 0 0 -3782994.3899536133 -3362907.7782592773 0 -3362907.7782592773 58191893.387634277 0 0 0 0 -4748298.8413085938 50600749.773410797 0 50600749.773410797 -35544998.108732224 0 0 0 0 -11769387.960571289 13758489.462444305 0 13758489.462444305 -3047890.126244545 0 0 0 0 -201949.88826926798 13254699.403207686 0 13254699.403207686 5270087.8496984504 0 0 0 0 -9926267.9070129395 24676645.19112587 0 24676645.19112587 -35195389.340221405 0 0 0 0 -6413205.6223938763 6633185.0961238286 0 6633185.0961238286 17599182.922358669 0 0 0 0 -7206467.6809692383 12497295.995262146 0 12497295.995262146 -9447088.0048904419 0 0 0 0 -3305513.0566111282 8997299.0650486052 0 8997299.0650486052 297783.66531372629 0 0 0 0 -1401703.6035857424 12270051.007122763 0 12270051.007122763 -1010489.5502900071 0 0 0 0 -18036438.31993866 28201828.690355301 0 28201828.690355301 8727074.0007171631 0 0 0 0 -707027.46388751268 2006249.3945778278 0 2006249.3945778278 3326798.1139346082 0 0 0 0 1730378.3207397461 34055038.424728394 0 34055038.424728394 -43360063.815071106 0 0 0 0 -18597097.3359375 11276065.306283951 0 11276065.306283951 34163831.285314083 0 0 0 0 29740393.330474854 55226714.941043854 0 55226714.941043854 -41114978.399307251 0 0 0 0 32606619.819208145 85814148.363153934 0 85814148.363153934 -148919922.15210724 0 0 0 0 1844106.0889755562 15093659.744669784 0 15093659.744669784 6733035.382860627 0 0 0 0 -32456299.175109863 145910304.85240364 0 145910304.85240364 -47340419.156536102 0 0 0 0 38641072.783935547 22426801.828582764 0 22426801.828582764 -30030839.381183624 0 0 0 0 37849264.573326111 97368148.232261658 0 97368148.232261658 -81296812.978916168 0 0 0 0 2177630.436405763 -329604.30762521923 0 -329604.30762521923 -1182985.4695537835 0 0 0 0 -85246144.541809082 -21333514.704500198 0 -21333514.704500198 57895012.810646057 0 0 0 0 -1854102.6545145512 23411253.344015416 0 23411253.344015416 9152345.4039254617 0 0 0 0 -38523133.696472168 44221336.964702606 0 44221336.964702606 11470798.884605408 0 0 0 0 -4016660.8410755694 27700718.691596784 0 27700718.691596784 -48486.922147996724 0 0 0 0 -7584516.4127502441 66834293.050971985 0 66834293.050971985 6285311.5002026558 0 0 0 0 -19578360.339630127 119915818.27849627 0 119915818.27849627 -20148564.930775166 0 0 0 0 -7347478.1697998047 72064199.146041393 0 72064199.146041393 76320104.653087616 0 0 0 0 34106322.120056152 35360996.61352253 0 35360996.61352253 -202529.4697971344 0 0 0 0 46687533.424072266 70290334.845996857 0 70290334.845996857 -8274821.0195426941 0 0 0 0 65543267.145141602 32878737.02130127 0 32878737.02130127 -7282514.6270501614 0 0 0 0 94587208.395179749 19640019.247808456 0 19640019.247808456 -14168700.908119202 0 0 0 0 1191236.351212386 -634267.76971720159 0 -634267.76971720159 -129769.41979943216 0 0 0 0 5714140.4548034668 -9707484.6777553558 0 -9707484.6777553558 26251437.318115234 0 0 0 0 41826093.287414551 9457637.7698841095 0 9457637.7698841095 11959737.368211746 0 0 0 0 68519271.976196289 1029834.6375083923 0 1029834.6375083923 4539753.8146324158 0 0 0 0 31633318.557571411 14948289.833640099 0 14948289.833640099 8849687.4688186646 0 0 0 0 -5478188.4345809668 16071075.951316666 0 16071075.951316666 1002320.8217611155 0 0 0 0 6562724.209197998 33098499.046215057 0 33098499.046215057 -4515716.2074661255 0 0 0 0 31001084.120790482 18652441.455840945 0 18652441.455840945 3714640.8268890381 0 0 0 0 -17412668.101013184 -10217374.093837738 0 -10217374.093837738 53331892.446846962 0 0 0 0 44840203.182189941 11214222.032733917 0 11214222.032733917 -17948095.379535675 0 0 0 0 3752017.1324005127 36354556.396695137 0 36354556.396695137 -12842953.649623871 0 0 0 0 8723374.8717956543 16900997.28258419 0 16900997.28258419 1392450.9562869072 0 0 0 0 -12647445.54536438 11281880.466886044 0 11281880.466886044 2026238.1996841431 0 0 0 0 -8039970.2094726562 7473771.5834960938 0 7473771.5834960938 -1994517.9429168701 0 0 0 0 1177202.6300891042 2408057.6731593926 0 2408057.6731593926 -998931.50065847393 0 0 0 0 34075803.285827637 26627499.186882019 0 26627499.186882019 -1979850.2215490341 0 0 0 0 3344944.2855660915 305970.45689769834 0 305970.45689769834 53667.580987101421 0 0 0 0 5283793.5778561756 615888.71716405451 0 615888.71716405451 -1847636.5827632081 0 0 0 0 55659870.717449188 19208410.60964489 0 19208410.60964489 -11864421.382476807 0 0 0 0 42833023.788391113 13316257.402172089 0 13316257.402172089 -3644670.3323125839 0 0 0 0 -675961.08416748047 1740118.9565143585 0 1740118.9565143585 3827524.5842676163 0 0 0 0 -3838796.8977770507 -68655.814805201255 0 -68655.814805201255 2959421.8360594539 0 0 0 0 5913384.33644104 23769187.089850426 0 23769187.089850426 34535836.859588623 0 0 0 0 -345452.64541625977 2512812.5976333618 0 2512812.5976333618 5326681.6145782471 0 0 0 0 -545295.20724487305 3016777.793466568 0 3016777.793466568 5787502.7858257294 0 0 0 0 -29714157.715667725 17544463.336011887 0 17544463.336011887 6751784.9875020981 0 0 0 0 -6935421.6662015319 3452181.9097822411 0 3452181.9097822411 1911359.0598371341 0 0 0 0 242076.33011679351 4692920.5849701911 0 4692920.5849701911 2770963.9712181855 0 0 0 0 -27549.289672851562 3174489.4002494812 0 3174489.4002494812 5279859.0248756409 0 0 0 0 -40213533.013458252 5164727.2876653671 0 5164727.2876653671 -57367445.03427124 0 0 0 0 -155337.95273292065 13053740.001127154 0 13053740.001127154 3003745.6471149679 0 0 0 0 -4566078.8529295176 3065145.8180544525 0 3065145.8180544525 -763434.63405658957 0 0 0 0 -29048037.835693359 32998363.610939503 0 32998363.610939503 12008372.197105408 0 0 0 0 -27089458.248962402 45673824.171662807 0 45673824.171662807 9308361.4221496582 0 0 0 0 -28405076.299163818 3309684.4346189499 0 3309684.4346189499 90917342.209035873 0 0 0 0 -10476384.078826904 5356247.448633194 0 5356247.448633194 -13459074.854979038 0 0 0 0 -12645536.509902954 -3281558.0727696419 0 -3281558.0727696419 9265310.312171936 0 0 0 0 -297423.72737655044 1019526.3709243238 0 1019526.3709243238 -1209639.6109934188 0 0 0 0 36412196.468933105 68531869.07087326 0 68531869.07087326 -23415387.644623995 0 0 0 0 27478016.521549225 102633434.22363377 0 102633434.22363377 95378753.011497498 0 0 0 0 -32511468.87286377 54694105.180607557 0 54694105.180607557 225443485.85690761 0 0 0 0 62213731.822662354 -22408159.712230444 0 -22408159.712230444 71919766.925309181 0 0 0 0 -39627996.370483398 -18783541.530030727 0 -18783541.530030727 210697485.24779129 0 0 0 0 -55986334.975189209 37194605.72001791 0 37194605.72001791 243465151.84896684 0 0 0 0 8617640.4151916504 79633666.885414362 0 79633666.885414362 155519552.09879875 0 0 0 0 832764.46743774414 127678912.70706362 0 127678912.70706362 -162767815.18500662 0 0 0 0 1486528.2384357601 -1744085.5025917403 0 -1744085.5025917403 -1361878.7387025137 0 0 0 0 -8983966.2989807129 57307829.289721966 0 57307829.289721966 -103667806.17163014 0 0 0 0 2729235.9704802185 -3161698.3819719777 0 -3161698.3819719777 -2487190.3613036843 0 0 0 0 -75299910.726776123 37610161.5592134 0 37610161.5592134 -34856204.773337364 0 0 0 0 -2099772.4314880371 62086181.704592705 0 62086181.704592705 3134607.8156921864 0 0 0 0 -32727844.578338623 851363.08243227005 0 851363.08243227005 57913894.940403938 0 0 0 0 11094073.990234375 53657274.544170678 0 53657274.544170678 -111142121.21938288 0 0 0 0 -38004591.421783447 63108946.400662899 0 63108946.400662899 140043044.85473633 0 0 0 0 -34638679.339889526 58954934.643891811 0 58954934.643891811 94555769.101099968 0 0 0 0 -47294055.718688965 51255901.7121315 0 51255901.7121315 126546968.17772484 0 0 0 0 -45142272.449676514 71485699.4273386 0 71485699.4273386 189413441.01877308 0 0 0 0 -19760566.254150391 25934924.441125572 0 25934924.441125572 36551466.292576268 0 0 0 0 1597758.257232666 -7018477.1488274038 0 -7018477.1488274038 -109715576.43808746 0 0 0 0 -27403277.090316772 57594342.810014606 0 57594342.810014606 20032886.107113577 0 0 0 0 6385600.3189544678 36211407.461397052 0 36211407.461397052 18874664.158642769 0 0 0 0 31309529.88571167 96763099.976550102 0 96763099.976550102 138559108.98520279 0 0 0 0 90353591.090911865 42859393.886161804 0 42859393.886161804 85746433.432522774 0 0 0 0 24834129.932220459 -16174714.097245216 0 -16174714.097245216 40390095.406084299 0 0 0 0 -66435.589686748281 20557396.639979124 0 20557396.639979124 187889216.5726738 0 0 0 0 39116733.200500488 110481987.8384285 0 110481987.8384285 122607029.84396744 0 0 0 0 1760074.2799038738 11470.959001533687 0 11470.959001533687 -1765168.6971371844 0 0 0 0 28667274.160430908 43736171.464700699 0 43736171.464700699 -17418730.580554962 0 0 0 0 -3644694.0735321045 76788608.31198597 0 76788608.31198597 303026838.99876213 0 0 0 0 -1610319.0823364258 24362400.747545242 0 24362400.747545242 127609554.24908948 0 0 0 0 29778218.1459198 -31006925.23955965 0 -31006925.23955965 96545943.994926453 0 0 0 0 34283910.768981934 -106996027.29798889 0 -106996027.29798889 285092502.91859961 0 0 0 0 -24214317.63876152 -11461834.233396888 0 -11461834.233396888 -5001630.0529937744 0 0 0 0 -27185365.139198303 15805036.937664986 0 15805036.937664986 1256949.6098709106 0 0 0 0 -20992935.356689453 -5633901.28399086 0 -5633901.28399086 7073965.3256435394 0 0 0 0 31578313.411849976 20172112.823565483 0 20172112.823565483 12752360.043872833 0 0 0 0 13845872.428985596 -4598656.423412323 0 -4598656.423412323 -7665193.2843418121 0 0 0 0 -4355363.4118041992 -4248862.307975769 0 -4248862.307975769 11421038.934379458 0 0 0 0 73099.675872802734 7972036.3032999039 0 7972036.3032999039 34423876.382255554 0 0 0 0 -175341.30349731445 21281242.280984879 0 21281242.280984879 69067506.336812973 0 0 0 0 -3723345.2250366211 42848960.144050598 0 42848960.144050598 76762201.682964325 0 0 0 0 -5583409.808807373 32418912.65666008 0 32418912.65666008 28075728.699539185 0 0 0 0 -29927867.252784729 42529628.019875526 0 42529628.019875526 115489189.32344818 0 0 0 0 -35010869.439239502 33581022.729749203 0 33581022.729749203 137312390.41041946 0 0 0 0 -30773296.324768066 33416625.77963829 0 33416625.77963829 128559185.05632973 0 0 0 0 -27188302.089355469 54218370.406015396 0 54218370.406015396 198118512.42383575 0 0 0 0 -16228345.50213623 -33354219.29076004 0 -33354219.29076004 172024200.50213814 0 0 0 0 -20048784.188446045 -2773118.5581684113 0 -2773118.5581684113 97927341.749904633 0 0 0 0 -19919777.810180664 -3352293.934261322 0 -3352293.934261322 93799132.78061676 0 0 0 0 -4978029.532333374 14428706.974208832 0 14428706.974208832 81369910.749839783 0 0 0 0 -362225.8974609375 -10416188.74489975 0 -10416188.74489975 51104112.99969101 0 0 0 0 13565287.458740234 -6958966.4757385254 0 -6958966.4757385254 209240.55707168579 0 0 0 0 568089.3790858835 -495265.27695443854 0 -495265.27695443854 -1239387.0714038294 0 0 0 0 822435.65625 7662174.7002410889 0 7662174.7002410889 47335246.224355698 0 0 0 0 3714972.6707368791 238642.54787379503 0 238642.54787379503 -3845841.5257176161 0 0 0 0 -28459325.057128906 -6351813.1583175659 0 -6351813.1583175659 45696039.906570435 0 0 0 0 -13128917.389160156 10360226.902172089 0 10360226.902172089 61229738.651576996 0 0 0 0 -8020841.7142333984 -30349943.156204224 0 -30349943.156204224 80945950.518419266 0 0 0 0 -6274494.9298706055 -2021684.8015327454 0 -2021684.8015327454 -15040633.973121643 0 0 0 0 -18083852.246582031 16230701.07572937 0 16230701.07572937 -18729993.843414307 0 0 0 0 67218.761049926281 -101725.46515790373 0 -101725.46515790373 -191616.59927886538 0 0 0 0 -559617.7853872627 100033.68461209536 0 100033.68461209536 535835.93703163415 0 0 0 0 -4849883.7485961914 26605961.378959656 0 26605961.378959656 3081911.1617240906 0 0 0 0 26563125.791992188 18958960.800750732 0 18958960.800750732 -9144237.0079040527 0 0 0 0 -6502129.4270629883 -3473439.7592277527 0 -3473439.7592277527 -1400743.3919067383 0 0 0 0 -19570350.805053711 -12256745.233802795 0 -12256745.233802795 -7138215.8690366745 0 0 0 0 2137756.7536241561 464351.21429425478 0 464351.21429425478 -4086557.2982434947 0 0 0 0 750210.91233500838 -1194776.1488451846 0 -1194776.1488451846 -1024379.5002654269 0 0 0 0 1182994.1376953125 -1600429.5344543457 0 -1600429.5344543457 -1467271.1419906616 0 0 0 0 490456.6121353209 -1178095.9425509721 0 -1178095.9425509721 2609622.2867743708 0 0 0 0 524696.87048339844 -2357893.9108161926 0 -2357893.9108161926 11326539.688059807 0 0 0 0 -1293396.4008789062 -650160.28206634521 0 -650160.28206634521 1101263.5820045471 0 0 0 0 -1861809.4187670052 -35819.717422210611 0 -35819.717422210611 3345455.4567658128 0 0 0 0 -8753298.731628418 4316364.5346193314 0 4316364.5346193314 56235560.421257019 0 0 0 0 -2605796.5067977905 11371103.213574409 0 11371103.213574409 53420223.38394165 0 0 0 0 3415150.9350557327 949784.25636975467 0 949784.25636975467 -908810.06942710839 0 0 0 0 1841422.7043762207 -516573.53802490234 0 -516573.53802490234 -6561572.4072694778 0 0 0 0 -12199324.886779785 73134495.00293541 0 73134495.00293541 -130448121.37333298 0 0 0 0 13262811.409881592 6489770.517416954 0 6489770.517416954 -6341814.3140144348 0 0 0 0 29169.474029541016 20140.449300765991 0 20140.449300765991 -1334948.5126266479 0 0 0 0 4310614.1818805784 -820256.66225519031 0 -820256.66225519031 -4751404.4114845861 0 0 0 0 -2538667.7698654085 -4186770.7260444872 0 -4186770.7260444872 3198482.6266543511 0 0 0 0 45788727.221832275 -15534643.911869049 0 -15534643.911869049 -118392990.43331909 0 0 0 0 240844712.78952026 -92572678.648628235 0 -92572678.648628235 -63909271.953146458 0 0 0 0 25787815.008613586 -136477914.82792306 0 -136477914.82792306 -57287010.798835754 0 0 0 0 113192835.88964844 146626771.45998383 0 146626771.45998383 97364100.839477539 0 0 0 0 39373733.880004883 -19845150.144512177 0 -19845150.144512177 -44163701.983165741 0 0 0 0 104986707.89935303 78491972.795810699 0 78491972.795810699 -131739130.20970154 0 0 0 0 65931807.183258057 -11151790.082210541 0 -11151790.082210541 65226672.64691925 0 0 0 0 -123468962.36108398 70724653.936466217 0 70724653.936466217 63965725.493835449 0 0 0 0 -2237622.4461441189 -4491671.0381691288 0 -4491671.0381691288 1547362.3449705448 0 0 0 0 13212798.200500488 10005800.331663132 0 10005800.331663132 10653726.645568848 0 0 0 0 6304472.9755554199 -4536631.5539855957 0 -4536631.5539855957 -21608840.932958603 0 0 0 0 -2033809.8764459938 -4009287.0616479339 0 -4009287.0616479339 1114931.7874809094 0 0 0 0 269674.06997680664 -6602457.6772499084 0 -6602457.6772499084 2608105.0459671021 0 0 0 0 -72137725.308380127 -99915642.912140846 0 -99915642.912140846 -68297048.927438736 0 0 0 0 6304472.9755859375 7951023.6989326477 0 7951023.6989326477 -2545880.8502597809 0 0 0 0 -4180033.8231714368 1238570.7574867532 0 1238570.7574867532 4191470.8765807524 0 0 0 0 -40755.814971923828 12614401.486747742 0 12614401.486747742 8484276.0611381531 0 0 0 0 31735.502258300781 12663601.583246231 0 12663601.583246231 8456782.0353097916 0 0 0 0 -4863971.3995366544 1154515.9284578562 0 1154515.9284578562 4934836.5006116312 0 0 0 0 -145581136.00814819 -72197300.596323013 0 -72197300.596323013 -120105909.49755859 0 0 0 0 -141503907.51526642 -39380147.792470455 0 -39380147.792470455 143522316.42090225 0 0 0 0 -7504089.1128616333 172845611.46148682 0 172845611.46148682 -19086798.01991272 0 0 0 0 -46528508.297180176 70303040.744276047 0 70303040.744276047 -269827869.53525543 0 0 0 0 -165927.76728410504 36297373.503676675 0 36297373.503676675 -325198817.05294037 0 0 0 0 -82291055.118408203 87678695.325012207 0 87678695.325012207 -156160314.97637463 0 0 0 0 743470.70309352875 -1317777.9093042705 0 -1317777.9093042705 445069.57184812962 0 0 0 0 87127886.482452393 -80026746.155498505 0 -80026746.155498505 -18956293.248133898 0 0 0 0 -23906480.488677979 21399845.359926224 0 21399845.359926224 324540965.0246582 0 0 0 0 198320791.67724609 -13699982.555469513 0 -13699982.555469513 -107327428.04325104 0 0 0 0 -84293852.299316406 178128775.7165184 0 178128775.7165184 -181746576.29675674 0 0 0 0 174717443.08538818 -665085.43118476868 0 -665085.43118476868 -25900946.693286896 0 0 0 0 5694259.0065612793 -25559559.303640366 0 -25559559.303640366 -11853830.790138245 0 0 0 0 -4962329.7235547006 5312793.2504974492 0 5312793.2504974492 1785845.9584278408 0 0 0 0 71997343.60975647 119154229.27647972 0 119154229.27647972 103788271.13248444 0 0 0 0 35718335.244628906 -17526487.161361694 0 -17526487.161361694 36350582.819190979 0 0 0 0 -65263978.582214355 -21466996.401603699 0 -21466996.401603699 126685915.36137605 0 0 0 0 1080591.6137237549 125553649.27531338 0 125553649.27531338 -18222994.148563385 0 0 0 0 77942103.244949341 23374865.193763733 0 23374865.193763733 -101324906.7427063 0 0 0 0 2027933.3806554675 184037.33603469655 0 184037.33603469655 1757370.3359703128 0 0 0 0 14498500.392822266 23946830.980041504 0 23946830.980041504 -98369153.705696106 0 0 0 0 -15463237.302978516 47660409.143089294 0 47660409.143089294 -4173156.9602661133 0 0 0 0 11150403.397205859 6933808.0995883308 0 6933808.0995883308 -2860203.8380016331 0 0 0 0 -3151113.2652342469 11073421.475320637 0 11073421.475320637 2133443.3085014559 0 0 0 0 12139520.039855957 48313141.445915222 0 48313141.445915222 44717054.462240219 0 0 0 0 22476636.466392517 45108932.634576797 0 45108932.634576797 15425515.696533203 0 0 0 0 -4481803.5131239146 6180575.8706968864 0 6180575.8706968864 4803216.0485795755 0 0 0 0 45702297.209776878 76402509.654747009 0 76402509.654747009 -6067657.304359436 0 0 0 0 45865721.615783691 -5517611.7831039429 0 -5517611.7831039429 -132967692.1547699 0 0 0 0 683555.7503195405 1191375.1573156444 0 1191375.1573156444 -74233.765931200236 0 0 0 0 -12497460.910186768 -37236237.405067444 0 -37236237.405067444 -144331365.81065369 0 0 0 0 5171534.6050109863 -3181173.256690979 0 -3181173.256690979 -149112576.54523849 0 0 0 0 62086942.958618164 -59216962.508811951 0 -59216962.508811951 -351535341.29638004 0 0 0 0 100567720.60879517 9151384.581817627 0 9151384.581817627 -237449935.97871399 0 0 0 0 69982258.260559082 3847126.4672546387 0 3847126.4672546387 -236826196.95124054 0 0 0 0 111557473.24407959 14323398.574493408 0 14323398.574493408 -398979252.61382675 0 0 0 0 48262649.145690918 3616096.5932388306 0 3616096.5932388306 -117218150.53796387 0 0 0 0 39704980.210166931 41755647.902943611 0 41755647.902943611 -89638560.862640381 0 0 0 0 28282617.183776855 93767409.123855591 0 93767409.123855591 -214617487.91827393 0 0 0 0 29455721.101776123 44586749.019878387 0 44586749.019878387 -133051588.89350891 0 0 0 0 -21091907.167663574 14935084.670631409 0 14935084.670631409 12856087.958759308 0 0 0 0 71546180.450805664 34630856.224639893 0 34630856.224639893 -102931427.73905945 0 0 0 0 9237866.2445593178 9637685.4879318811 0 9637685.4879318811 -623100.71686082473 0 0 0 0 40212422.743865967 43662502.127323151 0 43662502.127323151 10323909.506744385 0 0 0 0 4732581.0904037077 6297471.8576970473 0 6297471.8576970473 -144762.39736993983 0 0 0 0 3161599.5384521484 5843163.0886421204 0 5843163.0886421204 2329456.1192731857 0 0 0 0 3112020.8757171631 5805954.3597888947 0 5805954.3597888947 2849140.6379089355 0 0 0 0 4739100.587411046 6270469.0051585138 0 6270469.0051585138 4227324.4421225861 0 0 0 0 2112629.6077880859 5381588.4525184631 0 5381588.4525184631 -5249989.0166625977 0 0 0 0 4346090.4606933594 9862292.2783660889 0 9862292.2783660889 4598070.7346096039 0 0 0 0 1542284.9588623047 6871909.4906845093 0 6871909.4906845093 4973750.9142417908 0 0 0 0 5201684.3319091797 -8121873.860496521 0 -8121873.860496521 -66774828.443267822 0 0 0 0 42288037.657470703 19563140.949005127 0 19563140.949005127 -86492875.3462677 0 0 0 0 4499815.9971923828 18017502.436130524 0 18017502.436130524 31674703.637542725 0 0 0 0 -294820.8892256543 1951365.4339004606 0 1951365.4339004606 1980751.1596607938 0 0 0 0 4793833.0864868164 14798255.837027073 0 14798255.837027073 12219110.622497559 0 0 0 0 5039618.8852181435 5777486.2405014634 0 5777486.2405014634 4403547.7961807251 0 0 0 0 5190099.7845458984 8099272.858505249 0 8099272.858505249 5628511.3400964737 0 0 0 0 5940365.2894301265 7717171.8401945643 0 7717171.8401945643 4350100.5180019811 0 0 0 0 7616616.2381832153 14028182.378417354 0 14028182.378417354 270343.95670238358 0 0 0 0 17964.11347746104 94715.633889473975 0 94715.633889473975 85317.376363871619 0 0 0 0 3241521.8517456055 17990166.308368683 0 17990166.308368683 18773620.014701843 0 0 0 0 7385699.0361938477 18053485.298627853 0 18053485.298627853 -550868.18493652344 0 0 0 0 2692542.8367614746 4523130.6938686371 0 4523130.6938686371 568471.02028656006 0 0 0 0 668027.63363835216 8647696.0608726293 0 8647696.0608726293 2672477.78883994 0 0 0 0 3837573.1567946374 4505968.9337429302 0 4505968.9337429302 -3270339.2280002479 0 0 0 0 -2963457.1419830322 8271340.6111869812 0 8271340.6111869812 -9622410.0439605713 0 0 0 0 6852118.6729278862 8493642.5968541726 0 8493642.5968541726 3750981.0851327218 0 0 0 0 7050645.2638461292 8839038.7646254562 0 8839038.7646254562 -396292.82937879395 0 0 0 0 10629922.078674316 32712497.792041779 0 32712497.792041779 -9995534.6268348694 0 0 0 0 5712693.7935180664 33214220.702308655 0 33214220.702308655 7806164.7010879517 0 0 0 0 317732.26429283619 5022373.5006382428 0 5022373.5006382428 -3733476.4212431423 0 0 0 0 111340.35723876953 3498254.5902061462 0 3498254.5902061462 -2674903.903377533 0 0 0 0 173444.52368164062 5009221.8550109863 0 5009221.8550109863 -9581509.9431152344 0 0 0 0 3203995.2187145054 8316381.6671805838 0 8316381.6671805838 5311418.2546771858 0 0 0 0 2212820.6127929688 5876408.2193450928 0 5876408.2193450928 -5697952.3229522705 0 0 0 0 3681987.078830272 8157830.0263093747 0 8157830.0263093747 2994788.8785903491 0 0 0 0 2055263.7032165527 6773681.7157902718 0 6773681.7157902718 -3500501.1141052246 0 0 0 0 226333.87294459343 4446092.2763047926 0 4446092.2763047926 -3562910.288933171 0 0 0 0 1631899.1630859375 5225682.6362762451 0 5225682.6362762451 217596.58587646484 0 0 0 0 1358773.9958496094 4050807.5432891846 0 4050807.5432891846 1833770.6584320068 0 0 0 0 5252392.0788574219 7613797.7078704834 0 7613797.7078704834 4127150.7172012329 0 0 0 0 7692835.7333128899 5326732.6728327647 0 5326732.6728327647 993930.15366159752 0 0 0 0 7636620.6009323969 8600086.004998602 0 8600086.004998602 4573966.7373375129 0 0 0 0 1064943.1707763672 4840073.4534893036 0 4840073.4534893036 2059342.4419555664 0 0 0 0 1694102.8092041016 3198710.2934112549 0 3198710.2934112549 2269595.5656738281 0 0 0 0 6770559.6852592826 6380054.3923805654 0 6380054.3923805654 4374679.8638762534 0 0 0 0 4384843.3219587058 6521810.229905799 0 6521810.229905799 5194440.9596737251 0 0 0 0 594960.05933451653 4430506.7734613456 0 4430506.7734613456 -2515647.7383132931 0 0 0 0 -1610916.3040789515 5274310.5613572448 0 5274310.5613572448 -1407828.7203216711 0 0 0 0 -2541912.3799438477 5445478.6111984253 0 5445478.6111984253 1346590.3879852295 0 0 0 0 -2793623.2032470703 4992026.0613136292 0 4992026.0613136292 1495946.3273620605 0 0 0 0 -2189840.3758544922 4163715.5837783813 0 4163715.5837783813 -195688.53554153442 0 0 0 0 -2729936.322462976 4869844.8928028569 0 4869844.8928028569 610868.12716472801 0 0 0 0 6776294.0124564171 6460552.3935417384 0 6460552.3935417384 1509608.6207220033 0 0 0 0 331262.93011474609 3816154.1432189941 0 3816154.1432189941 -2239189.7651023865 0 0 0 0 1865320.5600891113 5998541.8749160767 0 5998541.8749160767 2343554.1723327637 0 0 0 0 9850666.1257745847 9592819.0742921084 0 9592819.0742921084 2947211.051773034 0 0 0 0 3886196.4088681042 12815536.489195798 0 12815536.489195798 -3046228.6576680755 0 0 0 0 -1101854.6333102435 5128423.9620840177 0 5128423.9620840177 -3978570.6853613108 0 0 0 0 10751618.495300293 19642062.361834526 0 19642062.361834526 686468.93414926529 0 0 0 0 8554097.640821889 2511454.9154278561 0 2511454.9154278561 -3925712.1788440645 0 0 0 0 6189846.656610921 3177315.8615030572 0 3177315.8615030572 2606742.0513902847 0 0 0 0 51405303.589355469 24363185.030139923 0 24363185.030139923 2802316.7423095703 0 0 0 0 4787655.4616470337 2707983.1657018661 0 2707983.1657018661 216056.68099212646 0 0 0 0 3707957.4064411968 4898538.7316712812 0 4898538.7316712812 5427435.1280545201 0 0 0 0 19794999.464355469 46457269.567993164 0 46457269.567993164 20782081.250223458 0 0 0 0 -2128157.3473939449 4278590.0064635798 0 4278590.0064635798 -1197538.9961370211 0 0 0 0 6680604.9582466558 7632054.5409323275 0 7632054.5409323275 1191038.5839508958 0 0 0 0 -3845826.2852478027 4608948.977440834 0 4608948.977440834 -958041.35828781128 0 0 0 0 -1334545.4641604275 9297398.7121548802 0 9297398.7121548802 55792.081842936575 0 0 0 0 -3052166.0114746094 5931322.579334259 0 5931322.579334259 -1017613.3054771423 0 0 0 0 -5577626.5009765625 9649978.8600921631 0 9649978.8600921631 -7171194.8088378906 0 0 0 0 -2268857.2981258333 4002353.2724783011 0 4002353.2724783011 -1348219.4511808013 0 0 0 0 -3268823.2924842834 5102476.2999510765 0 5102476.2999510765 1301897.8983688354 0 0 0 0 7045794.554413259 3651106.5578111373 0 3651106.5578111373 -3717015.1767734867 0 0 0 0 -1234730.2761009634 3981814.6406363919 0 3981814.6406363919 -1092141.9205727577 0 0 0 0 -959243.80784606934 10750425.023662567 0 10750425.023662567 -31837396.385707855 0 0 0 0 6553026.1452026367 -16954513.91097641 0 -16954513.91097641 -54772874.433242798 0 0 0 0 21960652.38104248 14860099.099136353 0 14860099.099136353 -35676920.506645203 0 0 0 0 6399.6047973632812 3852074.7865257263 0 3852074.7865257263 -120491.48835754395 0 0 0 0 12048.060886248946 1146297.1067375243 0 1146297.1067375243 -1609529.8268433046 0 0 0 0 4693469.7894489765 5045787.1337756254 0 5045787.1337756254 -1469879.8908372289 0 0 0 0 6057418.3157348633 5487739.9526481628 0 5487739.9526481628 -3448035.3329696655 0 0 0 0 1777569.9692993164 12081333.400993347 0 12081333.400993347 5535853.0159320831 0 0 0 0 1063061.3777195215 357451.35911826789 0 357451.35911826789 -80421.265890803188 0 0 0 0 43001579.437652588 11960091.806821823 0 11960091.806821823 -47738290.761604309 0 0 0 0 48733839.015991211 -40430864.680427551 0 -40430864.680427551 -12885906.29158783 0 0 0 0 -85552496.861118317 183917206.12984133 0 183917206.12984133 3511972.9968910217 0 0 0 0 2036794.5517602265 -299785.81522472203 0 -299785.81522472203 -2124253.7426849343 0 0 0 0 6833065.5466308594 -38079670.19216156 0 -38079670.19216156 -4444801.7991348505 0 0 0 0 32287211.295303345 46000608.437450409 0 46000608.437450409 990713.6203994751 0 0 0 0 77088881.477920532 18048279.384700775 0 18048279.384700775 -24051304.875320435 0 0 0 0 37677511.53302002 37136921.736328125 0 37136921.736328125 5671257.7212219238 0 0 0 0 19145237.057876587 15364961.904338837 0 15364961.904338837 -17242789.93170166 0 0 0 0 39016197.227416992 22473443.870727539 0 22473443.870727539 -38025332.470314026 0 0 0 0 23834866.537658691 8031726.5141563416 0 8031726.5141563416 -25516155.727363586 0 0 0 0 -65416731.642425537 431233099.78944683 0 431233099.78944683 -110562076.02777863 0 0 0 0 34893397.672409058 379439925.77752113 0 379439925.77752113 -87440893.742876053 0 0 0 0 63078596.838813782 356515473.50768805 0 356515473.50768805 -218817869.82622147 0 0 0 0 149386491.1477356 450360833.06168556 0 450360833.06168556 -235751098.48594284 0 0 0 0 70883373.363769531 337329579.46406746 0 337329579.46406746 -304612071.72791386 0 0 0 0 154841801.08396912 324870184.68973827 0 324870184.68973827 -360490711.4843502 0 0 0 0 127341457.76511002 376180612.42677736 0 376180612.42677736 -375561978.52841568 0 0 0 0 126895468.12138367 478539385.110219 0 478539385.110219 -253448548.19828606 0 0 0 0 180913467.08058167 550339282.08431625 0 550339282.08431625 -213858815.28168726 0 0 0 0 164406798.60771179 521510061.19394827 0 521510061.19394827 -204773901.75212097 0 0 0 0 159069706.4095459 620223677.77370071 0 620223677.77370071 -116480238.25439835 0 0 0 0 5486209.4484577179 502786744.04992175 0 502786744.04992175 -58977006.953811646 0 0 0 0 18712687.53502655 534090966.24669123 0 534090966.24669123 -135474807.67640114 0 0 0 0 -158881673.78294373 518355980.51556301 0 518355980.51556301 -30456650.72582531 0 0 0 0 -193595119.74082947 433588322.39192009 0 433588322.39192009 34419995.798542976 0 0 0 0 -192210824.04907227 422316498.75624657 0 422316498.75624657 21032643.590190887 0 0 0 0 -187886981.90455627 315599188.94666481 0 315599188.94666481 47570196.826688766 0 0 0 0 -125950390.82084656 346200128.99351025 0 346200128.99351025 56460706.006811142 0 0 0 0 -213977599.12982178 320042061.09972286 0 320042061.09972286 51805416.08265686 0 0 0 0 -173134206.74195862 339955613.85110474 0 339955613.85110474 79293014.359197617 0 0 0 0 -113192092.82162476 299217510.33642197 0 299217510.33642197 55685952.304650307 0 0 0 0 -137894035.93023682 302537858.09121227 0 302537858.09121227 189997102.25195503 0 0 0 0 -62578416.030990601 301579802.00999165 0 301579802.00999165 -12163218.683870912 0 0 0 0 -97146338.509784698 398086557.74840641 0 398086557.74840641 -25904697.494207382 0 0 0 0 -104434686.80044556 384999608.5682888 0 384999608.5682888 33897867.565495968 0 0 0 0 -54608382.586471558 312206371.2045927 0 312206371.2045927 -133717271.28864479 0 0 0 0 -102816862.75535583 274440601.72262287 0 274440601.72262287 90323317.169662476 0 0 0 0 -97569232.694137573 195249331.40949631 0 195249331.40949631 23635711.48971653 0 0 0 0 -93092890.296386719 162097815.37592983 0 162097815.37592983 204838155.00985146 0 0 0 0 -57963161.712020874 41450122.622403145 0 41450122.622403145 -28633936.976356506 0 0 0 0 -40500163.417446136 130711391.68610227 0 130711391.68610227 -93886457.756307602 0 0 0 0 -41375450.057434082 118863626.07408714 0 118863626.07408714 72990684.443418503 0 0 0 0 38332868.538246155 133268406.25411415 0 133268406.25411415 -269334348.70283318 0 0 0 0 13478430.976860046 136786554.31892586 0 136786554.31892586 -149558475.42785072 0 0 0 0 14545515.792572021 266556800.65054321 0 266556800.65054321 -104632305.97858238 0 0 0 0 31992513.320526123 243762199.5684042 0 243762199.5684042 -246693193.73268509 0 0 0 0 79048170.79699707 204891617.39100361 0 204891617.39100361 -382487710.14324951 0 0 0 0 64424272.194198608 132989955.49952126 0 132989955.49952126 -284543402.86800098 0 0 0 0 78753721.890899658 228403072.46336746 0 228403072.46336746 -312057240.02278137 0 0 0 0 121999985.3518219 189172822.20791721 0 189172822.20791721 -393429975.70212364 0 0 0 0 67945979.05962944 107209180.25606203 0 107209180.25606203 -438191060.47079468 0 0 0 0 9939644.2227172852 252650.99245357513 0 252650.99245357513 -188404774.06908512 0 0 0 0 9607579.1296691895 -24618867.9515028 0 -24618867.9515028 -392582029.13174534 0 0 0 0 -7637618.2770462036 -29653176.20166111 0 -29653176.20166111 -364520829.83403969 0 0 0 0 -3267378426.5748291 4496595190.0755539 0 4496595190.0755539 116944767.68567657 0 0 0 0 44907319.932617188 11314747.14159584 0 11314747.14159584 -550720375.63127327 0 0 0 0 54110209.09185791 52762751.143297195 0 52762751.143297195 -368151129.77969599 0 0 0 0 12037661.632293701 -21415468.249298096 0 -21415468.249298096 -478413927.78499222 0 0 0 0 -59032192.055206299 -135526673.59519958 0 -135526673.59519958 -445956948.12139988 0 0 0 0 4332895557.0848656 -1469971860.1070881 0 -1469971860.1070881 3621871302.2727776 0 0 0 0 -36268485.026397705 -81457944.02560997 0 -81457944.02560997 -827444444.2530098 0 0 0 0 -14871627.234374143 5637654.4313175194 0 5637654.4313175194 -342604.628009771 0 0 0 0 -24106959.347007751 -184212006.14084148 0 -184212006.14084148 -822650408.38067818 0 0 0 0 -5297494.1206395328 1074022.3081732504 0 1074022.3081732504 210921.77251809003 0 0 0 0 -92866165.808769226 -209538308.94985008 0 -209538308.94985008 -597871788.23854065 0 0 0 0 -8086654.3450889587 -92579901.720073223 0 -92579901.720073223 -669156682.1454277 0 0 0 0 -3862589.723815918 -35726820.925281525 0 -35726820.925281525 -630928074.72375298 0 0 0 0 65260376.688446045 21577219.925487518 0 21577219.925487518 -720056147.88048363 0 0 0 0 -34034681.454528809 -93398422.059118271 0 -93398422.059118271 -834762764.04983139 0 0 0 0 -4088284.3048247695 -86230197.591396123 0 -86230197.591396123 -835251587.40128326 0 0 0 0 32197954.953369141 217355798.55745888 0 217355798.55745888 -822404885.66612053 0 0 0 0 57477581.481420517 57417401.049964309 0 57417401.049964309 -953021955.81274414 0 0 0 0 50187074.2035923 96413448.836541295 0 96413448.836541295 -639804891.82136917 0 0 0 0 122516203.81925964 232519074.49586487 0 232519074.49586487 -728239291.13740444 0 0 0 0 97852462.859344482 124139143.2080574 0 124139143.2080574 -568577028.27727127 0 0 0 0 134505686.52206421 265569135.73030281 0 265569135.73030281 -498822056.93086147 0 0 0 0 75193823.233869553 93520373.762032509 0 93520373.762032509 -506542182.74050903 0 0 0 0 -371639476.1466217 -31328251.910168648 0 -31328251.910168648 2337993867.1046839 0 0 0 0 -18364356.2049338 6133938.0163584016 0 6133938.0163584016 291154.59384874447 0 0 0 0 268050645.75732422 -27293807.469272614 0 -27293807.469272614 2141378214.5460701 0 0 0 0 -594269701.67507935 1469546466.9512482 0 1469546466.9512482 4838442694.6660156 0 0 0 0 -51143322.442321777 -80251490.229824066 0 -80251490.229824066 -824943839.89126205 0 0 0 0 -7875040.376373291 153336970.70100307 0 153336970.70100307 -862854892.23303986 0 0 0 0 -49989611.89932251 332918082.81735611 0 332918082.81735611 -1312939430.1879604 0 0 0 0 -329532887.20256042 244966307.95515347 0 244966307.95515347 -968600646.00104713 0 0 0 0 -134297242.36962891 -275342127.96349812 0 -275342127.96349812 -1207995888.2271862 0 0 0 0 -397621770.7858963 766549327.40115166 0 766549327.40115166 -2105347271.1143799 0 0 0 0 -20458046.052951813 -123860413.66901588 0 -123860413.66901588 -2489229745.2303104 0 0 0 0 -1228531592.5923462 921400623.44252491 0 921400623.44252491 -1007295912.4738045 0 0 0 0 -6373172.1649048477 829535.26066512847 0 829535.26066512847 813148.43376192916 0 0 0 0 -662783292.73114777 111206076.0381856 0 111206076.0381856 -281143723.26031303 0 0 0 0 -430800316.90879822 560290275.84295845 0 560290275.84295845 -889416117.2789166 0 0 0 0 -254545447.42817307 243021135.85372424 0 243021135.85372424 -363557513.52610207 0 0 0 0 -183860508.04995728 439662224.36928558 0 439662224.36928558 -564455415.20696259 0 0 0 0 30604883.791854858 288080323.53910065 0 288080323.53910065 -896447583.13418055 0 0 0 0 -294730174.6856842 359234312.07721996 0 359234312.07721996 -283709873.79567766 0 0 0 0 -197743076.22559357 190163698.67393398 0 190163698.67393398 -9876511.7639465332 0 0 0 0 -383243142.42986298 213891018.77620459 0 213891018.77620459 -252639708.61627054 0 0 0 0 -381498181.04031181 58874109.874769568 0 58874109.874769568 18713604.322635651 0 0 0 0 152511938.5834198 410153106.31586838 0 410153106.31586838 -424313411.58974457 0 0 0 0 159784916.82622528 291951526.83644629 0 291951526.83644629 -552450101.28526497 0 0 0 0 188307057.58233643 370180787.24245358 0 370180787.24245358 -417937863.47299004 0 0 0 0 117529739.53003693 258395539.97953558 0 258395539.97953558 -466575847.37731171 0 0 0 0 91958326.991210938 225639917.09730721 0 225639917.09730721 -510278886.00384712 0 0 0 0 70597195.009048462 165084337.35567379 0 165084337.35567379 -763373188.06877899 0 0 0 0 43139871.698181152 350887962.96991539 0 350887962.96991539 -595154050.98511696 0 0 0 0 92289707.589111328 288333700.93380833 0 288333700.93380833 -543665058.61773682 0 0 0 0 29534673.777942657 401364032.79098368 0 401364032.79098368 -398239803.49844742 0 0 0 0 -33887963.905639648 252732553.76363373 0 252732553.76363373 -348186989.97070885 0 0 0 0 -24299233.384979248 345963063.2331295 0 345963063.2331295 -301197942.41256857 0 0 0 0 8966308.1424484253 268275799.77168608 0 268275799.77168608 -133473692.86952019 0 0 0 0 231874051.77709961 322086287.27172184 0 322086287.27172184 -367368746.80505943 0 0 0 0 160790285.72198486 429519386.80640316 0 429519386.80640316 -254534963.70224762 0 0 0 0 215737251.57562256 356160065.75183105 0 356160065.75183105 -386584693.92945957 0 0 0 0 264212464.53450012 494515763.36910439 0 494515763.36910439 -312525895.91405487 0 0 0 0 267370466.47572327 474988779.22586918 0 474988779.22586918 -100804188.23243713 0 0 0 0 441194509.54109192 385702102.35274172 0 385702102.35274172 -249760282.76214409 0 0 0 0 446158766.50515747 428953937.21985817 0 428953937.21985817 -89045298.737566948 0 0 0 0 213712760.87723923 251453567.41999006 0 251453567.41999006 -132097950.30348587 0 0 0 0 169402406.31230927 295162295.46368837 0 295162295.46368837 -16422900.814157486 0 0 0 0 161966650.32634735 257412365.81085968 0 257412365.81085968 365735563.58849669 0 0 0 0 678896890.61372948 257052559.74367601 0 257052559.74367601 217015458.32747841 0 0 0 0 209987228.35374451 171580510.08654642 0 171580510.08654642 112659956.12910855 0 0 0 0 566393546.37332153 483375146.89596581 0 483375146.89596581 1188433617.2280083 0 0 0 0 1002893328.8239975 311030314.78598547 0 311030314.78598547 99034396.987851143 0 0 0 0 618878492.79231739 535784787.86463445 0 535784787.86463445 -24204701.044602394 0 0 0 0 564715780.23762512 142817657.33238554 0 142817657.33238554 39079224.998516083 0 0 0 0 -218563707.40774536 70192933.213492155 0 70192933.213492155 214304545.34625816 0 0 0 0 -135662199.17861938 115256278.27058983 0 115256278.27058983 30248439.178730965 0 0 0 0 -71001875.351898193 131959670.96340013 0 131959670.96340013 140789607.88415527 0 0 0 0 -115998377.05880737 215931126.53712368 0 215931126.53712368 -9972790.0333760437 0 0 0 0 -98569380.916950226 55603136.220473528 0 55603136.220473528 149864733.10149431 0 0 0 0 -131402511.78173828 56652518.6024158 0 56652518.6024158 213078918.95191368 0 0 0 0 -64730482.694343567 -32272901.780946568 0 -32272901.780946568 -7267856.0963899493 0 0 0 0 -65272246.550003052 -52090464.954435885 0 -52090464.954435885 154768371.82292414 0 0 0 0 -84538998.802799225 24232561.006605744 0 24232561.006605744 157699700.58560562 0 0 0 0 -914431.37815589458 537839.35851215199 0 537839.35851215199 1188900.6192152817 0 0 0 0 439039210.81261444 219655352.94164193 0 219655352.94164193 265799282.45263052 0 0 0 0 797177548.83303833 563370159.05709624 0 563370159.05709624 273184254.519503 0 0 0 0 -53979230.970825195 -121891279.61828089 0 -121891279.61828089 20099714.449494302 0 0 0 0 -1540026.7308024019 1458277.2935202532 0 1458277.2935202532 1970719.4812605479 0 0 0 0 957721203.55755615 467788852.97844982 0 467788852.97844982 137658141.57848382 0 0 0 0 261954.83740863297 1130622.2104322612 0 1130622.2104322612 1352988.7603731474 0 0 0 0 1642504569.1487122 894102499.85012174 0 894102499.85012174 359861151.71526885 0 0 0 0 618613936.27766418 626091096.94889569 0 626091096.94889569 549430895.824018 0 0 0 0 543482492.85919189 449929975.72540224 0 449929975.72540224 257536913.57957256 0 0 0 0 512471837.02997684 346317282.09566402 0 346317282.09566402 238401772.71226883 0 0 0 0 484974605.42913818 332943929.04428005 0 332943929.04428005 231962031.89705276 0 0 0 0 646410.04855578206 3158898.8469886594 0 3158898.8469886594 3759522.6595701589 0 0 0 0 181862215.50426579 -60610290.714181781 0 -60610290.714181781 -346766432.54631138 0 0 0 0 -1103485.9567185566 2706914.8523398135 0 2706914.8523398135 2061630.0772385478 0 0 0 0 284934.8200378418 14550357.959430695 0 14550357.959430695 -30183872.090375543 0 0 0 0 141667828.90869141 138800082.81168711 0 138800082.81168711 -238293153.02393675 0 0 0 0 -31785865.779800415 199235341.65999401 0 199235341.65999401 -744334658.95863867 0 0 0 0 -21575713.57157135 52166982.933762431 0 52166982.933762431 86356386.633374214 0 0 0 0 58896906.88319397 93829643.020132542 0 93829643.020132542 -7198081.0730229616 0 0 0 0 -102986607.45663643 -88551654.079953596 0 -88551654.079953596 355838490.11774445 0 0 0 0 -26984820.874023438 566982613.1211586 0 566982613.1211586 717002274.42441607 0 0 0 0 659975547.12223434 849103525.67478311 0 849103525.67478311 134182010.77189541 0 0 0 0 32906300.724517822 511102497.68597937 0 511102497.68597937 -201135394.66360855 0 0 0 0 -280363730.94828796 533192280.69236612 0 533192280.69236612 118580788.56565332 0 0 0 0 54370215.544418335 604606244.84104609 0 604606244.84104609 -37456976.589975357 0 0 0 0 -25298294.32383728 655151818.13897014 0 655151818.13897014 13949407.97808075 0 0 0 0 -50564501.697138548 570120111.65970993 0 570120111.65970993 -6226024.9011964798 0 0 0 0 -48695481.791628361 628348620.93767738 0 628348620.93767738 -14925840.053436279 0 0 0 0 134022095.1966095 758120655.7082696 0 758120655.7082696 122631154.41596603 0 0 0 0 353129994.7958374 634796729.78812313 0 634796729.78812313 -176330152.13370895 0 0 0 0 496440286.99581909 601065485.96770668 0 601065485.96770668 -168391391.57785416 0 0 0 0 -325457102.48987007 453179553.08509332 0 453179553.08509332 44039050.866765976 0 0 0 0 -361657412.20841503 283964776.11631531 0 283964776.11631531 45080328.942596436 0 0 0 0 -250319475.89634705 473669953.8708477 0 473669953.8708477 26855742.053833008 0 0 0 0 -335941763.88783264 577408864.13955021 0 577408864.13955021 25520832.630908966 0 0 0 0 -615511012.13051605 436309333.42049503 0 436309333.42049503 30639538.302042216 0 0 0 0 -367323252.19024277 709099434.70979416 0 709099434.70979416 -232115974.83936119 0 0 0 0 -453301960.66965485 271415797.06631565 0 271415797.06631565 -176183468.09791946 0 0 0 0 -830914800.69070435 580580963.57016969 0 580580963.57016969 -312675082.95138764 0 0 0 0 -603467.1770119518 737563.17967189848 0 737563.17967189848 633886.71474247635 0 0 0 0 -378867383.74802017 559496509.22536409 0 559496509.22536409 -454311647.28894043 0 0 0 0 -161960109.48143768 154312789.1984756 0 154312789.1984756 51896346.44086194 0 0 0 0 -399441537.51411438 532820563.7154274 0 532820563.7154274 -465334016.06572545 0 0 0 0 -2115533990.9689331 397312419.83759707 0 397312419.83759707 -56681360.932420596 0 0 0 0 -1081779546.1436043 1154980708.6465335 0 1154980708.6465335 -950735976.75507498 0 0 0 0 -596609661.52015877 60334879.710489631 0 60334879.710489631 -31392996.513017654 0 0 0 0 905463.61526281759 4741639.8931143917 0 4741639.8931143917 -22287770.384245135 0 0 0 0 -459033160.05046844 118100997.88755393 0 118100997.88755393 -65469162.89948225 0 0 0 0 634937.87036233023 841748.16143419966 0 841748.16143419966 -8004718.1385850487 0 0 0 0 -921010749.93011093 -1012030279.864792 0 -1012030279.864792 -685018114.88279569 0 0 0 0 122659419.55397034 432377067.54170227 0 432377067.54170227 414615783.39809036 0 0 0 0 624291390.9651947 -121781082.42790222 0 -121781082.42790222 -133552220.87578011 0 0 0 0 -11207989.981617935 17222971.628070693 0 17222971.628070693 -18521367.058019903 0 0 0 0 581882541.73852634 521481404.77229941 0 521481404.77229941 145408676.4733429 0 0 0 0 -137112579.69578552 -38010756.038356781 0 -38010756.038356781 11743554.541648865 0 0 0 0 -379784.86625427008 11592673.450971875 0 11592673.450971875 -34136227.656695165 0 0 0 0 25941858.395423889 -124763169.53874588 0 -124763169.53874588 -45511188.734716415 0 0 0 0 156913556.21755981 220635685.35018158 0 220635685.35018158 -24618099.667640686 0 0 0 0 265141118.11277008 132004701.41986656 0 132004701.41986656 -86493309.052589417 0 0 0 0 775621.19241333008 49999898.419548035 0 49999898.419548035 -109216725.17368317 0 0 0 0 -126431583.38205719 50272399.781674623 0 50272399.781674623 -20377243.373626709 0 0 0 0 -131958104.31435394 37808296.309858561 0 37808296.309858561 -47186111.233771324 0 0 0 0 -256791250.3556366 253822458.90061188 0 253822458.90061188 15791418.090076804 0 0 0 0 -353796942.90913391 152045824.15358448 0 152045824.15358448 20272059.758692741 0 0 0 0 -554795781.36594391 299539004.03895974 0 299539004.03895974 22900817.034301758 0 0 0 0 -400891652.3671875 -7668792.2320399284 0 -7668792.2320399284 -10617760.914593458 0 0 0 0 268648007.37246704 357084168.92461777 0 357084168.92461777 292706296.44875336 0 0 0 0 61423825.584716797 128626196.31845093 0 128626196.31845093 120704810.81332397 0 0 0 0 -394004449.46759033 316047775.77518082 0 316047775.77518082 26603827.477928162 0 0 0 0 -6102643.5276794434 311799943.95905304 0 311799943.95905304 -246097262.03072357 0 0 0 0 -161375356.71775055 414041083.23123169 0 414041083.23123169 -85727162.93170166 0 0 0 0 -110968671.39418793 295509761.95988274 0 295509761.95988274 -30106679.169387817 0 0 0 0 229128302.09838867 450790069.37851715 0 450790069.37851715 -39433897.195026398 0 0 0 0 -8787596.5508422852 358973801.35826874 0 358973801.35826874 -75614466.66835022 0 0 0 0 -230383879.63574219 294645925.32455063 0 294645925.32455063 -23119085.211048603 0 0 0 0 -363848756.39250183 454550921.21948624 0 454550921.21948624 1470962.9064483643 0 0 0 0 -201527713.16195679 276846410.49985504 0 276846410.49985504 -24435517.212432861 0 0 0 0 -369979522.44561768 228880625.17028809 0 228880625.17028809 72999023.769982338 0 0 0 0 -546194943.06982422 232040165.92137527 0 232040165.92137527 73168172.977601528 0 0 0 0 -735229135.94952393 338053720.76390839 0 338053720.76390839 50487528.256484985 0 0 0 0 -519766767.1089325 524585936.85188484 0 524585936.85188484 -251920901.28189087 0 0 0 0 -933342459.89990234 157686664.34953308 0 157686664.34953308 -44386495.795772552 0 0 0 0 -742644187.4028852 -253818331.23273325 0 -253818331.23273325 -42165262.492614746 0 0 0 0 -1366580047.7492065 -177096590.94637299 0 -177096590.94637299 -51301506.760519028 0 0 0 0 -216828865.88043213 -59456077.63293457 0 -59456077.63293457 -19593537.844913483 0 0 0 0 -208190719.56636047 14482865.107536316 0 14482865.107536316 2963318.3964157104 0 0 0 0 272464633.68057251 226141903.70651245 0 226141903.70651245 -42377431.185695648 0 0 0 0 353910677.00057983 297045502.34392738 0 297045502.34392738 -78411290.221351624 0 0 0 0 219702643.81297302 325965115.00977898 0 325965115.00977898 -49318465.498794556 0 0 0 0 100206237.19126892 201955746.24781036 0 201955746.24781036 57632764.125099182 0 0 0 0 -120405180.7348938 315006852.43696213 0 315006852.43696213 7070706.5506439209 0 0 0 0 -239160536.99504089 -37747336.870491028 0 -37747336.870491028 194488740.34317017 0 0 0 0 -113575407.12604809 472075827.8181529 0 472075827.8181529 986217997.89120483 0 0 0 0 -9740479.722857723 9285039.8095761165 0 9285039.8095761165 8152087.0108081996 0 0 0 0 1367394331.1868134 2146742475.1168747 0 2146742475.1168747 1461815099.93713 0 0 0 0 -2636800.4658284336 5757241.5694348514 0 5757241.5694348514 -7752836.5950956792 0 0 0 0 556234620.60750198 -128676434.88535976 0 -128676434.88535976 -1300864762.4810562 0 0 0 0 2624655293.51474 2185470879.80616 0 2185470879.80616 -1294126974.6666336 0 0 0 0 -4462679419.1549072 672812415.0467453 0 672812415.0467453 2751464479.3338013 0 0 0 0 -1378540219.6284485 550039040.74084854 0 550039040.74084854 -388212048.05924988 0 0 0 0 -736775316.24700928 388100661.67250061 0 388100661.67250061 -2051079513.0049591 0 0 0 0 -736933594.75712156 356081245.18312496 0 356081245.18312496 -400813100.46656799 0 0 0 0 -285071317.60961914 197236189.97528076 0 197236189.97528076 -421803610.48448563 0 0 0 0 -560909520.46121216 -851682128.47018051 0 -851682128.47018051 -1384355433.5614014 0 0 0 0 -2196614371.2149048 -2375756548.6941528 0 -2375756548.6941528 -2698914008.5445366 0 0 0 0 -1108683462.8077545 -378923611.90730286 0 -378923611.90730286 953089416.17063904 0 0 0 0 -7137174.7349636257 12448441.065482277 0 12448441.065482277 -2705138.4317336679 0 0 0 0 -124459499.64144897 -175657593.08440781 0 -175657593.08440781 798378889.59092331 0 0 0 0 -634049850.3024292 -387842226.10105515 0 -387842226.10105515 879195611.66082001 0 0 0 0 68756231.872467041 81272360.827510834 0 81272360.827510834 490690506.96182251 0 0 0 0 143582906.44839478 -264083620.38241196 0 -264083620.38241196 -99177980.959671021 0 0 0 0 364454971.41253662 -157533027.91150665 0 -157533027.91150665 -125005531.83460999 0 0 0 0 -409757515.06015015 -371231970.53346252 0 -371231970.53346252 141137075.50548553 0 0 0 0 -271733922.06413269 259725796.58108044 0 259725796.58108044 -150978080.26028442 0 0 0 0 237590255.93054199 -166308761.67599106 0 -166308761.67599106 -682394859.73418427 0 0 0 0 441928956.92457581 -218693408.69067574 0 -218693408.69067574 -73966271.501312256 0 0 0 0 228759949.62710571 -158819050.16157532 0 -158819050.16157532 -43176934.486793518 0 0 0 0 -28304831.055709839 27521753.827563882 0 27521753.827563882 -4753504.9776287079 0 0 0 0 -28163167.31552124 26465097.716832638 0 26465097.716832638 -10001633.303754807 0 0 0 0 -111103611.6235199 -12563718.416965485 0 -12563718.416965485 27279122.645151138 0 0 0 0 -80852363.559244156 119684914.537323 0 119684914.537323 -22691351.864700317 0 0 0 0 -36318588.958450317 100363684.93684387 0 100363684.93684387 -124153867.54801941 0 0 0 0 -32371626.513183594 56628224.644119263 0 56628224.644119263 -45097547.366043091 0 0 0 0 -59882989.226745605 39900232.162910461 0 39900232.162910461 -21988258.092355281 0 0 0 0 -29596779.397020683 17792742.694995791 0 17792742.694995791 7758619.4255378973 0 0 0 0 -23561674.370635986 30474670.576771975 0 30474670.576771975 -9038126.1414687634 0 0 0 0 30627316.511268616 179061223.14424419 0 179061223.14424419 -145012659.73590994 0 0 0 0 324305482.68742371 -83156041.168586731 0 -83156041.168586731 -103312756.97011948 0 0 0 0 -3009156.5872173347 2675175.0719170813 0 2675175.0719170813 95457.088780055754 0 0 0 0 -11609449.099949703 39757068.762919679 0 39757068.762919679 -39193147.60181503 0 0 0 0 24849116.801879883 141148962.88884354 0 141148962.88884354 -64773435.406044006 0 0 0 0 -48109770.889552414 29474121.438291915 0 29474121.438291915 9478245.2430996895 0 0 0 0 -141819135.15338135 34809112.20092535 0 34809112.20092535 71042216.193840027 0 0 0 0 -83992768.624839783 27518930.522735596 0 27518930.522735596 -21985707.865715027 0 0 0 0 -6756790.1582794189 19738307.854732513 0 19738307.854732513 -130412139.19480515 0 0 0 0 -98352357.354537964 159893261.89977264 0 159893261.89977264 -119026206.06283593 0 0 0 0 -68280111.106887817 97053133.094304085 0 97053133.094304085 -1415278.7267341614 0 0 0 0 -153817109.44735718 204549492.19426918 0 204549492.19426918 41553350.829341888 0 0 0 0 -150857714.422472 63384810.438623428 0 63384810.438623428 139335162.62028503 0 0 0 0 -149796602.31234837 60985870.238251328 0 60985870.238251328 -17307527.350025177 0 0 0 0 -3879319.2805295587 1214586.9821571745 0 1214586.9821571745 4176483.5208981093 0 0 0 0 -228762565.30174255 -290823744.93406868 0 -290823744.93406868 526550319.36312294 0 0 0 0 -158577738.54714203 -200382106.59780312 0 -200382106.59780312 196217732.35754681 0 0 0 0 -491813386.94329834 -129691916.18320847 0 -129691916.18320847 461964604.35172826 0 0 0 0 -636923651.51448822 -147307402.75666237 0 -147307402.75666237 744940357.70079041 0 0 0 0 629092.27917550132 943529.73691630363 0 943529.73691630363 182008.91583022848 0 0 0 0 -55807562.244838715 641500960.11945152 0 641500960.11945152 910047755.70005798 0 0 0 0 -429316519.35051727 43342084.532037735 0 43342084.532037735 886279327.92616272 0 0 0 0 595202235.86001587 929898019.07200241 0 929898019.07200241 593700021.75002289 0 0 0 0 8923740.6180534363 182026385.65376186 0 182026385.65376186 -71020080.991207123 0 0 0 0 -176351896.60850525 239913607.69038773 0 239913607.69038773 465406236.09896576 0 0 0 0 118834424.629776 -93380624.408172607 0 -93380624.408172607 -56471780.94817543 0 0 0 0 -54234065.812286377 45775667.354129791 0 45775667.354129791 -14534579.599725723 0 0 0 0 9845104.5876370966 1555230.4846292995 0 1555230.4846292995 -7856706.1016673539 0 0 0 0 -150403421.84790564 11254376.400473401 0 11254376.400473401 -39088553.753829956 0 0 0 0 -22865538.431991577 25899862.695151806 0 25899862.695151806 -4507759.304930687 0 0 0 0 -39318996.920016378 33728009.077044487 0 33728009.077044487 -8662662.4478354584 0 0 0 0 -14651316.534866333 27368825.490935802 0 27368825.490935802 -8053341.0280101299 0 0 0 0 -22595438.316582788 20634615.585425548 0 20634615.585425548 -6908081.8326233672 0 0 0 0 -150168830.43581772 -1835974.4866571426 0 -1835974.4866571426 896809801.19078064 0 0 0 0 93067300.846557617 108012476.09109497 0 108012476.09109497 57234114.484657288 0 0 0 0 -7222136.6291685766 5024091.644460924 0 5024091.644460924 3108682.8326985836 0 0 0 0 213364792.14305878 338899741.29761314 0 338899741.29761314 787132395.51695251 0 0 0 0 -27392638.242935181 26511557.301481724 0 26511557.301481724 -4236933.6689245701 0 0 0 0 -37546636.007594727 17304761.610096831 0 17304761.610096831 6832967.2470799023 0 0 0 0 -1390894.6146140322 2486035.2252883147 0 2486035.2252883147 679087.76961157843 0 0 0 0 -26891353.633178711 28592907.124591708 0 28592907.124591708 -3797703.4237616062 0 0 0 0 52595867.966079712 205066133.40588188 0 205066133.40588188 -41427858.564073086 0 0 0 0 86778690.566045761 92219380.104561925 0 92219380.104561925 -35698058.479728699 0 0 0 0 534225788.0559082 -441479622.82813835 0 -441479622.82813835 229770733.77462387 0 0 0 0 91776454.145507812 397890459.36849403 0 397890459.36849403 -146662847.89582729 0 0 0 0 -31554151.639923096 430324862.68086243 0 430324862.68086243 410072589.34724426 0 0 0 0 -89491815.091262817 289600830.77222633 0 289600830.77222633 87936077.030404568 0 0 0 0 -49280207.220077515 308290264.90639019 0 308290264.90639019 79438453.474665642 0 0 0 0 -47690808.212822676 179157030.2128115 0 179157030.2128115 -10508883.433469772 0 0 0 0 -118956974.86820984 148986341.27699757 0 148986341.27699757 20308006.045147866 0 0 0 0 -151250371.43278503 257431063.83065319 0 257431063.83065319 59058971.153369904 0 0 0 0 -237107167.60575104 265753855.77832031 0 265753855.77832031 58685471.703300476 0 0 0 0 -68656179.456710815 170081061.18709278 0 170081061.18709278 -524548.06817626953 0 0 0 0 -26874628.507278442 15526424.957105637 0 15526424.957105637 -34462613.713600159 0 0 0 0 -87308136.204021454 58739495.794347882 0 58739495.794347882 -32483587.064922333 0 0 0 0 -6024715.3712469004 25257287.166220576 0 25257287.166220576 -40028967.243541226 0 0 0 0 -6627186.4005508423 30854525.230744362 0 30854525.230744362 -39367506.253525734 0 0 0 0 -33630639.986662142 30813070.229068641 0 30813070.229068641 3823528.2989469953 0 0 0 0 -32721039.172119141 18799401.604480743 0 18799401.604480743 -79864429.69720459 0 0 0 0 14012415.841522217 65044667.356483459 0 65044667.356483459 -112530192.4008255 0 0 0 0 -62350204.566905975 -27782369.216762543 0 -27782369.216762543 72184935.360004425 0 0 0 0 -16523497.868711937 7422072.962320447 0 7422072.962320447 15606922.667346671 0 0 0 0 -107317007.74364471 50787394.349948883 0 50787394.349948883 -1350036.6981296539 0 0 0 0 -3996292.2463155389 4648063.7309351787 0 4648063.7309351787 -3208183.5351974433 0 0 0 0 -86325963.20664978 124688082.11862564 0 124688082.11862564 219519034.62606239 0 0 0 0 286923983.73135376 89503965.186897278 0 89503965.186897278 -186304824.52255917 0 0 0 0 13996530.15272522 23598988.345289946 0 23598988.345289946 -36840479.393591881 0 0 0 0 62740862.662994385 43684033.287530899 0 43684033.287530899 263081999.64402199 0 0 0 0 35782789.163925171 192523829.05619812 0 192523829.05619812 136104980.88818359 0 0 0 0 122843032.68934631 406087772.98591805 0 406087772.98591805 637141948.86611557 0 0 0 0 -174525371.34886169 18747173.913814068 0 18747173.913814068 290771807.83984756 0 0 0 0 219791781.44627762 372202737.81825399 0 372202737.81825399 247796123.0153656 0 0 0 0 351963045.3679657 555449551.27222776 0 555449551.27222776 457701511.73707199 0 0 0 0 228397672.48331833 298495137.94941044 0 298495137.94941044 364983736.32754898 0 0 0 0 38411439.255111694 298597687.42120743 0 298597687.42120743 365780725.30941772 0 0 0 0 41687271.003677368 166423722.08697701 0 166423722.08697701 -143469191.49057198 0 0 0 0 -217583.66793824732 439608.0449017603 0 439608.0449017603 -496474.35599143524 0 0 0 0 392096099.07981873 502966337.93916321 0 502966337.93916321 612920655.03491211 0 0 0 0 -805767.75214534719 2685028.1688700989 0 2685028.1688700989 1552556.8503756169 0 0 0 0 100386435.89155293 -244925524.80200621 0 -244925524.80200621 384964264.10848236 0 0 0 0 111033069.79986572 759150352.88854504 0 759150352.88854504 528925081.72425079 0 0 0 0 -177906082.96139526 112772975.89257717 0 112772975.89257717 1106292145.6090689 0 0 0 0 66228492.979664803 99838827.963078618 0 99838827.963078618 953693519.19411087 0 0 0 0 -120877985.88882446 150134315.77873993 0 150134315.77873993 210924975.84022141 0 0 0 0 -151008391.91699219 122226669.86752796 0 122226669.86752796 365277344.66410446 0 0 0 0 -52571506.888748169 5982438.5325613022 0 5982438.5325613022 194170736.35345733 0 0 0 0 65477486.987392426 -10647091.390675068 0 -10647091.390675068 -5142585.2127790451 0 0 0 0 -2781619.5802219138 3607952.9788190797 0 3607952.9788190797 386467.84795344528 0 0 0 0 -2000446.1415939331 2145594.926240921 0 2145594.926240921 -1206726.1227302551 0 0 0 0 -49003.779449462891 4573269.7230415344 0 4573269.7230415344 -6012180.1107559204 0 0 0 0 -1223457.6340589523 4951387.5665672543 0 4951387.5665672543 -3008172.6691393163 0 0 0 0 -2221677.6242218018 5045815.4037847519 0 5045815.4037847519 3066261.7982215881 0 0 0 0 -115055738.35208893 -30334400.908349991 0 -30334400.908349991 -15992760.594169617 0 0 0 0 184926.02398681641 4957369.0407810211 0 4957369.0407810211 -1790306.5090757608 0 0 0 0 -1523277.1190135921 6186836.7422438748 0 6186836.7422438748 -1103360.4995526951 0 0 0 0 -325000.51985142264 5490133.0750642344 0 5490133.0750642344 -4140574.1968285162 0 0 0 0 -183361046.51295543 38559169.157906592 0 38559169.157906592 126302495.93775558 0 0 0 0 -1626930.9652938843 4926714.2591552734 0 4926714.2591552734 -1790177.2553787231 0 0 0 0 36482686.067993164 132594277.64913559 0 132594277.64913559 181757101.34171867 0 0 0 0 -49353236.597961426 16305664.70747757 0 16305664.70747757 300299151.24690247 0 0 0 0 35576202.858413696 -100662406.59687376 0 -100662406.59687376 49874398.940284729 0 0 0 0 -45906930.263496399 3817794.5155658722 0 3817794.5155658722 -16397179.332988739 0 0 0 0 46522860.451382399 313118149.58131939 0 313118149.58131939 826332351.65434647 0 0 0 0 59844006.521720886 -217662904.2726326 0 -217662904.2726326 611431897.65559769 0 0 0 0 72830213.109138489 18227713.386915207 0 18227713.386915207 130961417.66618729 0 0 0 0 149421312.3469696 -9907055.371257782 0 -9907055.371257782 -164694014.7719574 0 0 0 0 43536349.308898926 -110507482.15082932 0 -110507482.15082932 8944978.4306488037 0 0 0 0 -44321239.205749512 15166850.846656799 0 15166850.846656799 -78305170.726192474 0 0 0 0 16549246.718616486 41954870.417974472 0 41954870.417974472 -168146045.34385681 0 0 0 0 -6421485.906539917 -75164651.0188694 0 -75164651.0188694 -79102750.155319214 0 0 0 0 -15929498.477138519 130111090.49632549 0 130111090.49632549 -219954439.08959198 0 0 0 0 -20350804.960067749 134554558.01819992 0 134554558.01819992 -205244702.09793854 0 0 0 0 -68986324.404632568 -85554732.966346741 0 -85554732.966346741 34209707.512374878 0 0 0 0 -31457213.035430908 -55604449.924255371 0 -55604449.924255371 23157960.284168243 0 0 0 0 -1025872.9935455322 -56925317.41223526 0 -56925317.41223526 -62005931.339482218 0 0 0 0 -16479295.793540955 -62497316.568844795 0 -62497316.568844795 -62033141.248466492 0 0 0 0 2489490.149597168 -33575147.911712646 0 -33575147.911712646 -109704789.11816406 0 0 0 0 -2263390.3095804527 1696251.7181716356 0 1696251.7181716356 326394.86750140786 0 0 0 0 -22437116.645828247 -42956895.841602325 0 -42956895.841602325 -47819647.942871094 0 0 0 0 -171400422.26530457 -65658021.073760986 0 -65658021.073760986 -107061622.55568314 0 0 0 0 -3986987.1928253174 -74392632.29240036 0 -74392632.29240036 -144176971.30632019 0 0 0 0 -45410388.279354095 -76455631.09587574 0 -76455631.09587574 -136583511.96615601 0 0 0 0 -84188423.710189819 -5357799.544002533 0 -5357799.544002533 -131643415.02203369 0 0 0 0 20459.473299721256 95861.385370399803 0 95861.385370399803 -69429.897075034678 0 0 0 0 -190542134.20433044 210370466.64797974 0 210370466.64797974 -322045730.03025246 0 0 0 0 -241388.89553651959 35677.249009166844 0 35677.249009166844 -263505.83044145908 0 0 0 0 -104217617.60718536 228244746.28034019 0 228244746.28034019 -304349923.8348732 0 0 0 0 -254865240.89440918 142487913.5177269 0 142487913.5177269 -142055588.41348362 0 0 0 0 -241384720.05052185 -16080875.765388489 0 -16080875.765388489 -81018147.330474854 0 0 0 0 -44794240.32006073 221480866.62749481 0 221480866.62749481 -327974806.69964218 0 0 0 0 1058227.9918019883 1102568.9265562147 0 1102568.9265562147 -920158.2402187027 0 0 0 0 113641177.25167847 -58454451.994773865 0 -58454451.994773865 -71241168.870894432 0 0 0 0 -278708688.33616066 70737341.282693863 0 70737341.282693863 -8714739.516746521 0 0 0 0 779949.0056463927 1732341.732110776 0 1732341.732110776 -1741763.6650320478 0 0 0 0 -420057.1796875 1190454.9306030273 0 1190454.9306030273 -171894.98893737793 0 0 0 0 -266791093.63151932 234780356.67129898 0 234780356.67129898 -75691670.993377686 0 0 0 0 58922625.424934387 -146813192.90078163 0 -146813192.90078163 -135697189.40397644 0 0 0 0 29163928.683555603 -114151036.58619881 0 -114151036.58619881 -121965870.21621704 0 0 0 0 -205786725.6840744 -55388558.961378098 0 -55388558.961378098 -5171330.3121185303 0 0 0 0 181620.9015174635 2547903.8268507831 0 2547903.8268507831 -3140287.7147607021 0 0 0 0 1280398.6633224487 1979658.4045619965 0 1979658.4045619965 -845385.69076538086 0 0 0 0 -579938809.54306793 380239887.82193375 0 380239887.82193375 723609352.21834564 0 0 0 0 -137734784.59425735 -337064872.10613346 0 -337064872.10613346 -767755517.48433685 0 0 0 0 316589118.94555664 1013998145.5020771 0 1013998145.5020771 467528390.44369888 0 0 0 0 -9458509.2634407431 -6697855.5980568398 0 -6697855.5980568398 13352391.765285891 0 0 0 0 183607782.67415619 502443777.25884056 0 502443777.25884056 321968895.97103119 0 0 0 0 163960260.95722961 325018078.37646103 0 325018078.37646103 1521202508.7734432 0 0 0 0 78928123.350784302 579338050.70139313 0 579338050.70139313 280710608.07331467 0 0 0 0 66667972.11050415 657440146.42844772 0 657440146.42844772 926848806.65746212 0 0 0 0 620817582.1098938 599988371.48284721 0 599988371.48284721 49098077.178710938 0 0 0 0 100146481.30164695 28411153.215702236 0 28411153.215702236 -261104423.53397369 0 0 0 0 -93092662.024368286 641128153.41762924 0 641128153.41762924 -959902996.52527809 0 0 0 0 -2080628.9094125479 1191190.6111303112 0 1191190.6111303112 1015749.275985945 0 0 0 0 -204975516.61526489 58337059.989412308 0 58337059.989412308 565301710.13822079 0 0 0 0 478840033.24742126 2234892.3451480865 0 2234892.3451480865 -1837645602.7231789 0 0 0 0 -259413731.78314972 -411079490.13353205 0 -411079490.13353205 -570645689.57011032 0 0 0 0 1619989.2565914802 2129313.907080695 0 2129313.907080695 -388696.09898819588 0 0 0 0 -652486869.22328568 176608849.38042068 0 176608849.38042068 -45010330.089324951 0 0 0 0 25618923.225627899 -139452204.21421242 0 -139452204.21421242 43529212.76474762 0 0 0 0 -529515451.46608353 -376754085.13901091 0 -376754085.13901091 573504391.96578598 0 0 0 0 267080852.19136047 735091318.9230957 0 735091318.9230957 -90355672.93598175 0 0 0 0 526953580.55850983 -131234763.21190834 0 -131234763.21190834 -10540709.58921814 0 0 0 0 -633445719.99115753 668940750.7143364 0 668940750.7143364 108345349.24204063 0 0 0 0 -178027063.29914856 6212226.5707530975 0 6212226.5707530975 -202388672.96038818 0 0 0 0 -18994010.816925049 176025666.68133545 0 176025666.68133545 -42835003.183952808 0 0 0 0 -16860543.585144043 181123501.22042465 0 181123501.22042465 -356583667.62947083 0 0 0 0 -43189888.762031555 210540443.59983826 0 210540443.59983826 -312025320.64463043 0 0 0 0 -163324510.83926773 330344027.58027554 0 330344027.58027554 -7405603.0761146545 0 0 0 0 1987136.9518996663 2227703.7053711563 0 2227703.7053711563 -1419819.8330861293 0 0 0 0 -140399667.32181549 140340790.92440605 0 140340790.92440605 -144571384.69054222 0 0 0 0 -384286482.42373657 127141849.16361618 0 127141849.16361618 -67221244.960010529 0 0 0 0 -149223969.7929821 157096949.28814507 0 157096949.28814507 -16528806.803649902 0 0 0 0 -275761204.03642273 428666618.97752571 0 428666618.97752571 -63434275.378511429 0 0 0 0 -363282592.6068573 296198031.5960145 0 296198031.5960145 219556217.89522934 0 0 0 0 -29289209.568626404 13927766.056171417 0 13927766.056171417 153404763.35689926 0 0 0 0 -34688942.894444466 -6746067.2284765244 0 -6746067.2284765244 221802807.25920105 0 0 0 0 -433535748.74647522 132843512.73171043 0 132843512.73171043 178072791.11903572 0 0 0 0 438336.28842859715 -766791.95913080126 0 -766791.95913080126 -1008116.8765029181 0 0 0 0 -4052776.6566390991 -44822623.234231949 0 -44822623.234231949 250143604.80406189 0 0 0 0 -72808436.948287964 325533979.35759735 0 325533979.35759735 140940057.34288788 0 0 0 0 -407574699.42543793 -240574885.56379128 0 -240574885.56379128 -447518373.92214203 0 0 0 0 -383301614.99836349 322092233.83901215 0 322092233.83901215 496937037.02129364 0 0 0 0 -198345794.57576752 136691378.16908836 0 136691378.16908836 13252444.786397934 0 0 0 0 218372050.6101532 -188431001.93950081 0 -188431001.93950081 -505908644.56567383 0 0 0 0 820799.1772768572 -1575019.1498197913 0 -1575019.1498197913 -2080233.1222437695 0 0 0 0 -53365351.445175171 -22331055.799964905 0 -22331055.799964905 36953679.970422745 0 0 0 0 -282652362.62244892 -297541123.35128784 0 -297541123.35128784 160273322.75593185 0 0 0 0 -226404462.39385223 137299580.00470543 0 137299580.00470543 -63743293.861492157 0 0 0 0 -100548129.09963608 166737089.7048111 0 166737089.7048111 -145045363.5120163 0 0 0 0 56106657.233718872 26860063.776908875 0 26860063.776908875 -351040338.82565308 0 0 0 0 254427214.26290512 -80172672.124527931 0 -80172672.124527931 -301516768.67657471 0 0 0 0 1207050.1133536547 -1430650.0111858249 0 -1430650.0111858249 -2179031.8706808034 0 0 0 0 323612267.16921806 127732861.90061164 0 127732861.90061164 -353767406.05946732 0 0 0 0 196466972.34531403 844142211.5431881 0 844142211.5431881 779678105.67508698 0 0 0 0 603419948.99573517 748957959.27540588 0 748957959.27540588 54583443.062343597 0 0 0 0 508962757.99781799 357661346.52758408 0 357661346.52758408 -445776988.39705658 0 0 0 0 643275423.28416443 791174367.70143127 0 791174367.70143127 -1129101219.8394747 0 0 0 0 435688452.01560974 297900212.92948341 0 297900212.92948341 503792363.25279999 0 0 0 0 379671040.38466644 -84173665.055679321 0 -84173665.055679321 -501317322.79470742 0 0 0 0 -269797145.2843399 -528592497.75115967 0 -528592497.75115967 -742097254.98549652 0 0 0 0 -389571535.74565887 -821637811.85926819 0 -821637811.85926819 -410401564.75148582 0 0 0 0 17382138.824612617 -42998772.031929612 0 -42998772.031929612 -927036281.99255753 0 0 0 0 -1019394263.6092758 400117230.84084511 0 400117230.84084511 -593079880.45973873 0 0 0 0 -3542774.0933548845 -1098684.6710905246 0 -1098684.6710905246 -2640196.1239930708 0 0 0 0 -528246220.93609619 385327855.94405556 0 385327855.94405556 -127244191.58050537 0 0 0 0 -422396191.08998871 494206161.80441284 0 494206161.80441284 -406514107.4414444 0 0 0 0 -1143826968.6372986 313243472.2958374 0 313243472.2958374 -29599471.252700806 0 0 0 0 93565.381917062681 375502.4619099088 0 375502.4619099088 -206248.75476698205 0 0 0 0 905036868.06653261 1056742630.5410705 0 1056742630.5410705 1885054423.0938339 0 0 0 0 928948850.92804718 -24110467.671674728 0 -24110467.671674728 -678102713.4704628 0 0 0 0 654542327.08228683 201182689.84625053 0 201182689.84625053 -203754395.11477661 0 0 0 0 533112.74133663438 2030741.1018482 0 2030741.1018482 52238.283497095108 0 0 0 0 2210164.5402340889 2552170.5968230963 0 2552170.5968230963 -1461975.6072540283 0 0 0 0 483224.75170588191 1604855.626572296 0 1604855.626572296 -624168.21578201652 0 0 0 0 -695943287.73466873 -51000420.641254485 0 -51000420.641254485 709255193.70768738 0 0 0 0 -55322379.881256104 246871035.84168243 0 246871035.84168243 -153097709.38304901 0 0 0 0 -347321977.11888123 143914177.6554985 0 143914177.6554985 -48998453.720794678 0 0 0 0 -528128107.37824249 298225893.44058418 0 298225893.44058418 -132948640.3710022 0 0 0 0 -107881267.99589539 259440523.06029892 0 259440523.06029892 -231363205.62939072 0 0 0 0 -474159600.01005745 324983738.34423542 0 324983738.34423542 -73501603.431045532 0 0 0 0 835326.87266198546 -624689.31232152134 0 -624689.31232152134 -1131578.0948235728 0 0 0 0 -155478477.12998962 190001456.11462784 0 190001456.11462784 -277538210.21437836 0 0 0 0 -5447105.2435913086 159937689.03568268 0 159937689.03568268 -271911576.40974426 0 0 0 0 -134010420.77996826 232907924.17711639 0 232907924.17711639 -253820472.71977997 0 0 0 0 -228904984.43407631 483261769.74432564 0 483261769.74432564 248829870.76615143 0 0 0 0 -120559886.31317902 163997753.75521469 0 163997753.75521469 -79197056.016017914 0 0 0 0 129418947.24615479 391640209.39553833 0 391640209.39553833 -338726562.13843536 0 0 0 0 112443411.41375732 512687157.59832764 0 512687157.59832764 284018267.69595718 0 0 0 0 75367043.111602783 420792695.45290375 0 420792695.45290375 310000047.64612579 0 0 0 0 -139283470.68842316 399571177.99298859 0 399571177.99298859 673852739.58148193 0 0 0 0 -136163188.53456879 599827387.35240555 0 599827387.35240555 762895602.79932404 0 0 0 0 -246186219.97216797 315964946.94564056 0 315964946.94564056 416749581.25113678 0 0 0 0 396614136.89060974 1049831373.1385193 0 1049831373.1385193 733522651.11551285 0 0 0 0 -376874609.80770493 1011732064.1919363 0 1011732064.1919363 906668096.6333313 0 0 0 0 -1003289435.0988259 452867809.46640122 0 452867809.46640122 -197438374.96730042 0 0 0 0 -346217867.49005127 171244909.28022003 0 171244909.28022003 -368460633.58010864 0 0 0 0 759404.02474316768 1743378.3099914342 0 1743378.3099914342 460522.79325594753 0 0 0 0 -1091617680.6785049 544975805.95923805 0 544975805.95923805 652911979.80871964 0 0 0 0 1227156055.1289368 1186560328.1465473 0 1186560328.1465473 677721011.83402252 0 0 0 0 1538722636.3000221 787500373.2288599 0 787500373.2288599 284385104.03735352 0 0 0 0 488522435.56665039 360962625.12254333 0 360962625.12254333 538730273.19257355 0 0 0 0 -174424233.83429718 -86016400.692769051 0 -86016400.692769051 15825562.32339859 0 0 0 0 -1263731.5121295452 4388787.0814588889 0 4388787.0814588889 10117827.534214117 0 0 0 0 514938080.0178051 388239474.02063632 0 388239474.02063632 392929160.82949829 0 0 0 0 60391971.078216553 5454396.3183784485 0 5454396.3183784485 -58892011.791419983 0 0 0 0 74148592.712738037 16748567.889888763 0 16748567.889888763 -78327232.942722321 0 0 0 0 27169805.137786865 -21180806.349317551 0 -21180806.349317551 -58970481.564785004 0 0 0 0 63130119.79876709 -8849959.9988555908 0 -8849959.9988555908 -92987678.862010956 0 0 0 0 -237359664.58528137 511058830.83667374 0 511058830.83667374 218765157.16082382 0 0 0 0 -8445031.41563797 -33503856.921104431 0 -33503856.921104431 11743081.103782654 0 0 0 0 2763120358.0550995 1230131539.7008057 0 1230131539.7008057 -40470650.640903473 0 0 0 0 -158756.44482397381 978295.61755856499 0 978295.61755856499 3503612.2055868022 0 0 0 0 68446041.565719604 28876236.324939728 0 28876236.324939728 -55548709.573028088 0 0 0 0 -51874252.207893372 -49885563.067426682 0 -49885563.067426682 129497595.86792755 0 0 0 0 -279220606.80854416 466181986.62445307 0 466181986.62445307 -185301591.6762085 0 0 0 0 -221001870.07634735 157168118.43846512 0 157168118.43846512 117762295.85696793 0 0 0 0 -457263913.27378845 -74199731.342315674 0 -74199731.342315674 -80221952.483276367 0 0 0 0 27410593.492790222 95650048.533014297 0 95650048.533014297 36409654.075454712 0 0 0 0 -179803493.80888367 -50671466.995643616 0 -50671466.995643616 -64193096.464032173 0 0 0 0 -137249834.12413025 118541191.89933395 0 118541191.89933395 -123331835.05134392 0 0 0 0 -268175588.36216736 474236274.07764626 0 474236274.07764626 -239023499.8899498 0 0 0 0 -112535722.37812805 54631471.118431091 0 54631471.118431091 -439475634.19961548 0 0 0 0 -181010133.65200806 511018103.01649094 0 511018103.01649094 -410348019.30494308 0 0 0 0 -222954391.16099596 -11045153.056254506 0 -11045153.056254506 4235263.9246749878 0 0 0 0 -281996791.11516571 417983644.43628311 0 417983644.43628311 -353901695.85614777 0 0 0 0 -95515954.912612915 318674879.31154251 0 318674879.31154251 -502402214.47030878 0 0 0 0 -44036890.619476318 -101436913.94104767 0 -101436913.94104767 21696683.304344177 0 0 0 0 274423623.08103943 282975349.47115326 0 282975349.47115326 344266523.55562592 0 0 0 0 -1612080.4469787478 1319852.7409406453 0 1319852.7409406453 622320.92186984792 0 0 0 0 -175146961.05981445 477938064.01819992 0 477938064.01819992 -475725775.79303741 0 0 0 0 535359400.97373199 448853967.88547325 0 448853967.88547325 170218355.43139648 0 0 0 0 -135638588.90603256 657855553.02894974 0 657855553.02894974 1037440878.5299988 0 0 0 0 428423144.8391571 210349215.37253952 0 210349215.37253952 70056287.811515808 0 0 0 0 -760510.7888193503 1431385.7850708514 0 1431385.7850708514 1847257.5909706466 0 0 0 0 25654534.393531799 -204683295.4445076 0 -204683295.4445076 1231190238.1116905 0 0 0 0 132648580.6784668 942898317.73836136 0 942898317.73836136 1539921529.1157265 0 0 0 0 2045656164.5966568 463138918.97733879 0 463138918.97733879 -18097940.694595337 0 0 0 0 3856756.6647186279 416206563.52776718 0 416206563.52776718 -17948286.928329468 0 0 0 0 26223143.079849243 1013731377.7461071 0 1013731377.7461071 742035537.73761368 0 0 0 0 362763279.98482513 400721630.86958694 0 400721630.86958694 22374402.739321709 0 0 0 0 641770100.73079681 679534827.58750534 0 679534827.58750534 294889380.21297073 0 0 0 0 332896317.12633514 201820373.77058029 0 201820373.77058029 32870288.23122406 0 0 0 0 227887344.23000336 202137430.95547199 0 202137430.95547199 281975394.4237175 0 0 0 0 -63527704.383430481 -46980971.325378418 0 -46980971.325378418 26282010.898963928 0 0 0 0 197014599.84031677 78419608.707393646 0 78419608.707393646 173427061.75554037 0 0 0 0 426774734.81197357 304890558.09577942 0 304890558.09577942 136244457.71945333 0 0 0 0 367574200.41684151 406300311.79595995 0 406300311.79595995 432188517.25254822 0 0 0 0 690563233.08744049 66393283.1054039 0 66393283.1054039 721637892.61554337 0 0 0 0 535233370.46923637 644151798.0860374 0 644151798.0860374 872531073.87894821 0 0 0 0 178391841.69164276 196440344.48649216 0 196440344.48649216 402561247.96408749 0 0 0 0 493769964.81227875 403362453.16694069 0 403362453.16694069 314405868.43987274 0 0 0 0 640037120.38394547 357455577.359828 0 357455577.359828 77491535.620895386 0 0 0 0 507543592.45967102 206386090.53307724 0 206386090.53307724 251859836.59809494 0 0 0 0 298951595.21781921 339647802.49483109 0 339647802.49483109 196751769.07395172 0 0 0 0 368783996.9681778 475123702.12887383 0 475123702.12887383 228598674.15660095 0 0 0 0 108492655.91225433 141306158.48174286 0 141306158.48174286 121062733.22480774 0 0 0 0 -15721529.127639771 294843425.2844429 0 294843425.2844429 -14487664.828056335 0 0 0 0 710759405.52870178 325540500.38159561 0 325540500.38159561 72938773.268027306 0 0 0 0 518072664.73076248 185102921.40222168 0 185102921.40222168 144028921.55847168 0 0 0 0 1155140422.0489922 41581446.879220963 0 41581446.879220963 175659316.17967224 0 0 0 0 -11710098.373688374 11722364.261765141 0 11722364.261765141 -5085959.8230435466 0 0 0 0 124296667.081604 304952297.01501465 0 304952297.01501465 608592198.79820251 0 0 0 0 -7030315.755897522 37104687.07155323 0 37104687.07155323 -136758882.5664854 0 0 0 0 781870099.21915054 544568593.04173946 0 544568593.04173946 235221282.99443054 0 0 0 0 -345377.28160820156 442899.18527452648 0 442899.18527452648 -474976.66706727445 0 0 0 0 -21008089.798042297 34127576.037688255 0 34127576.037688255 -30506219.383464813 0 0 0 0 -4535638.6259286553 5185803.4769085944 0 5185803.4769085944 -2047753.4223442227 0 0 0 0 -6653431.8263320923 28578426.568153381 0 28578426.568153381 -93779693.079952866 0 0 0 0 -1895987.1038513184 4270138.8041267395 0 4270138.8041267395 -903857.46185970306 0 0 0 0 202177602.07569504 174110733.67816162 0 174110733.67816162 -44737715.870582581 0 0 0 0 157191905.36846924 -55258119.560527802 0 -55258119.560527802 -126788713.27156448 0 0 0 0 -4866227.3469730765 4743547.7282783221 0 4743547.7282783221 -75328.629128582776 0 0 0 0 -864754.17304992676 880317068.99540329 0 880317068.99540329 -1610871432.9994259 0 0 0 0 -903946.86283914745 3453109.0980736837 0 3453109.0980736837 1127586.4917710135 0 0 0 0 64035178.648664474 507545818.03141308 0 507545818.03141308 -946502397.20967102 0 0 0 0 90415898.915275574 522391442.52584076 0 522391442.52584076 -306935749.43254852 0 0 0 0 -628785665.78382874 97893025.542392731 0 97893025.542392731 1410392693.2548389 0 0 0 0 -331379985.20542908 361593658.55999756 0 361593658.55999756 -406497874.88095164 0 0 0 0 85708497.443618774 -35812454.596229553 0 -35812454.596229553 -651239102.7154808 0 0 0 0 -3127917.0594687574 -489018.0338902818 0 -489018.0338902818 2171612.8944307901 0 0 0 0 -230951583.99391937 349831210.55298615 0 349831210.55298615 -494585873.73432159 0 0 0 0 3065176.2058563232 671233756.31325531 0 671233756.31325531 -639702161.95405579 0 0 0 0 -200696145.94238567 164311608.15732479 0 164311608.15732479 -876033224.10530853 0 0 0 0 272646315.0372467 1125222762.3017502 0 1125222762.3017502 -2592407272.3443913 0 0 0 0 -16584827.536270142 645614436.24473572 0 645614436.24473572 -2153175822.8997879 0 0 0 0 -638115826.29238892 1750110567.1009254 0 1750110567.1009254 -1490171904.3955536 0 0 0 0 -418884377.41624451 706394349.26612282 0 706394349.26612282 -276373742.59182739 0 0 0 0 -541133249.72490692 757802309.43828201 0 757802309.43828201 -263331382.07039833 0 0 0 0 -185811698.62788391 181680311.55987167 0 181680311.55987167 1852895886.1021309 0 0 0 0 -15843740.472511753 10474502.404206086 0 10474502.404206086 -3479514.112200886 0 0 0 0 -759421012.00173569 1209636299.3167953 0 1209636299.3167953 109150513.70419312 0 0 0 0 557053342.97828293 136183573.50263214 0 136183573.50263214 178623882.90103912 0 0 0 0 -410534807.53614807 107307336.06787109 0 107307336.06787109 735032548.78762436 0 0 0 0 -274593011.70993042 366376263.2072258 0 366376263.2072258 234893899.36694527 0 0 0 0 -610084864.71208954 462237511.52160645 0 462237511.52160645 250733773.33901215 0 0 0 0 -84961706.246356964 430361341.49334145 0 430361341.49334145 135698343.6688385 0 0 0 0 -97352572.065231323 107538562.4919281 0 107538562.4919281 274942941.18357468 0 0 0 0 59062137.575706482 160809361.95292282 0 160809361.95292282 251784588.92379951 0 0 0 0 113629091.46312904 295829179.59732819 0 295829179.59732819 442767546.13760376 0 0 0 0 -127041600.78000641 1949543.2887058258 0 1949543.2887058258 638917715.39768982 0 0 0 0 -264729225.40842819 335009106.66681671 0 335009106.66681671 203055552.68696594 0 0 0 0 -135274696.47592163 61025968.947811127 0 61025968.947811127 317881374.6846199 0 0 0 0 -280996433.15429306 182729120.21439552 0 182729120.21439552 371938698.03639984 0 0 0 0 -675390736.66593552 871568118.58777809 0 871568118.58777809 -265720407.56673431 0 0 0 0 -213790726.36117554 162225637.06027222 0 162225637.06027222 -109049726.0911026 0 0 0 0 -375803995.88221169 630497817.05916691 0 630497817.05916691 -300414773.93567657 0 0 0 0 -235282952.82932949 513801012.70049381 0 513801012.70049381 -260854663.71445465 0 0 0 0 -65789983.480125427 164708458.92193985 0 164708458.92193985 -813463848.25216675 0 0 0 0 72855859.859983921 807553000.03916264 0 807553000.03916264 -196548561.15155029 0 0 0 0 -24437283.946990967 221830758.68050766 0 221830758.68050766 44282606.317424774 0 0 0 0 -36224469.50075531 372757770.61878967 0 372757770.61878967 121436685.0015583 0 0 0 0 209489640.44245148 134166671.357481 0 134166671.357481 344245115.14036179 0 0 0 0 2503481.1403541565 4144714.5590858459 0 4144714.5590858459 2628253.6412277222 0 0 0 0 -30684307.174020767 267880820.03042984 0 267880820.03042984 451670232.91205215 0 0 0 0 2611825.4701397642 4073974.9320475077 0 4073974.9320475077 -2616046.634485323 0 0 0 0 -2119907.3815205423 1257195.6473123133 0 1257195.6473123133 -93405.691252980381 0 0 0 0 40445135.145866394 209029069.39735031 0 209029069.39735031 369068425.12292838 0 0 0 0 2361521.7432403564 2636506.7273159027 0 2636506.7273159027 -552161.20487594604 0 0 0 0 76708562.440481186 -27638683.649905205 0 -27638683.649905205 -81662469.279411316 0 0 0 0 -2744716.6159744263 2454619.9032440186 0 2454619.9032440186 1211245.1074333191 0 0 0 0 -393056.4395904541 1482235.8822059631 0 1482235.8822059631 1571739.4250907898 0 0 0 0 -1201974.7480698908 1025536.5191157013 0 1025536.5191157013 -662049.14007600769 0 0 0 0 23003798.566194534 -131604890.46675062 0 -131604890.46675062 384631816.81145096 0 0 0 0 -144931859.99593353 88610983.315748215 0 88610983.315748215 364823690.18908691 0 0 0 0 -68730538.141870499 58621360.209621429 0 58621360.209621429 375875907.56629562 0 0 0 0 13931.512828093022 4966915.3631874556 0 4966915.3631874556 -1466248.5384113193 0 0 0 0 -224301.82885742188 6543235.5791320801 0 6543235.5791320801 5518731.0552062988 0 0 0 0 -5098067.8974761963 -5428580.3010463715 0 -5428580.3010463715 304794742.8585968 0 0 0 0 -172539.85400390625 8182844.8677215576 0 8182844.8677215576 3549669.0644226074 0 0 0 0 -4692127.7668448277 3773280.9763584696 0 3773280.9763584696 1890729.9083379582 0 0 0 0 -105177416.52304077 -41821685.196785927 0 -41821685.196785927 -23831834.517055511 0 0 0 0 -2502858.7557601929 -13099263.99448967 0 -13099263.99448967 298823811.997962 0 0 0 0 -2158222.0462759063 3970243.8232114464 0 3970243.8232114464 4321647.4299925864 0 0 0 0 -8233767.1360778809 60146463.793807983 0 60146463.793807983 -484168986.66475677 0 0 0 0 213711.17913761362 1672391.5534427799 0 1672391.5534427799 -1002517.6091748588 0 0 0 0 -24116241.832061768 -54170423.621559143 0 -54170423.621559143 -169135388.96356201 0 0 0 0 -71746638.9322052 191727924.38235092 0 191727924.38235092 -290693132.85233498 0 0 0 0 5650298.1499481201 66439431.537475586 0 66439431.537475586 -329843465.45366669 0 0 0 0 -175950.67470550537 5946834.9929733276 0 5946834.9929733276 -10789608.349052429 0 0 0 0 -1786459.9342531487 5532162.8333351826 0 5532162.8333351826 1755485.0194731876 0 0 0 0 25694343.019721985 17060554.344129562 0 17060554.344129562 -208527654.33195496 0 0 0 0 -34707044.547348022 16278646.128372192 0 16278646.128372192 -3969070.7548217773 0 0 0 0 31448938.127040863 -68123791.114703178 0 -68123791.114703178 -84788595.600711823 0 0 0 0 -20612095.404197693 -14741281.743156433 0 -14741281.743156433 268395026.80194092 0 0 0 0 -1882522.9268788956 10342266.981785759 0 10342266.981785759 2255142.2543743523 0 0 0 0 -3263407.0132142901 1447678.749272231 0 1447678.749272231 1902257.6715969127 0 0 0 0 9008304.0448760986 79295323.914989471 0 79295323.914989471 -82283549.195827484 0 0 0 0 -73062672.729625702 103894405.32055283 0 103894405.32055283 -27959863.6822052 0 0 0 0 -44284978.567581177 123806293.34121704 0 123806293.34121704 -98195190.057769775 0 0 0 0 -120048310.85716248 143417857.45935249 0 143417857.45935249 -57179910.169605255 0 0 0 0 -77185068.196491241 170937367.4732151 0 170937367.4732151 -121370307.08138275 0 0 0 0 -260888255.61035919 258896902.61241913 0 258896902.61241913 100542768.8833065 0 0 0 0 -61507639.728179932 141853995.79795456 0 141853995.79795456 -101669955.68264771 0 0 0 0 -168081010.90815735 239579657.85054207 0 239579657.85054207 -128335341.6207037 0 0 0 0 -165864725.50930023 177059240.45798492 0 177059240.45798492 -66017360.830615997 0 0 0 0 -86097455.573120117 246634714.84090805 0 246634714.84090805 -131345483.44959259 0 0 0 0 23657.358551025391 3643783.5735530853 0 3643783.5735530853 -935270.28371047974 0 0 0 0 -3696027.4753570557 8705203.1790275574 0 8705203.1790275574 -15057495.446495056 0 0 0 0 -3749945.6612116098 4367679.0400128812 0 4367679.0400128812 2201769.0789924571 0 0 0 0 -7979078.2183151245 7761832.1280765533 0 7761832.1280765533 -1319215.7642059326 0 0 0 0 -2691431.0275268555 3012053.3411064148 0 3012053.3411064148 -10873487.214624405 0 0 0 0 -24324311.760534286 2496676.0437016487 0 2496676.0437016487 11332437.161781311 0 0 0 0 -4936877.1376190186 122857.19496917725 0 122857.19496917725 -3814294.2085237503 0 0 0 0 -1715897.1722215042 523903.82246175781 0 523903.82246175781 1282599.6216912493 0 0 0 0 -57662942.389900208 116232776.35120583 0 116232776.35120583 -75485605.593505859 0 0 0 0 -109661321.56282806 81851816.982654572 0 81851816.982654572 22539228.523370743 0 0 0 0 -11268799.82194519 -9539421.91157341 0 -9539421.91157341 -35492055.789531708 0 0 0 0 169460073.33843136 235608152.31062698 0 235608152.31062698 23562232.002063751 0 0 0 0 -49110525.090576172 13455015.073673248 0 13455015.073673248 46425812.707725525 0 0 0 0 -44853.752635275945 -1896715.4932986889 0 -1896715.4932986889 -494011.93742222339 0 0 0 0 110482209.38008499 14883950.054225922 0 14883950.054225922 84794419.432632446 0 0 0 0 509367079.95417786 158414388.33628941 0 158414388.33628941 -198600490.25831604 0 0 0 0 472999.67084906716 -1414902.5763594676 0 -1414902.5763594676 -695536.02338471822 0 0 0 0 -154545169.08615303 142883463.02770519 0 142883463.02770519 -88520338.97479248 0 0 0 0 -241668273.04790115 42791295.14226532 0 42791295.14226532 -31679560.834661484 0 0 0 0 -40609499.586952209 131489171.90312099 0 131489171.90312099 -104495624.26997375 0 0 0 0 129036892.58390427 189222703.97112465 0 189222703.97112465 -71406697.959693909 0 0 0 0 13184641.603759766 50504373.085786819 0 50504373.085786819 -136783648.88705158 0 0 0 0 -32334215.95627594 43305803.840889931 0 43305803.840889931 57170018.776431084 0 0 0 0 -22988954.765422821 49811995.545023918 0 49811995.545023918 -26966166.051776886 0 0 0 0 -38567557.121988297 69641936.116256714 0 69641936.116256714 -20926698.121595383 0 0 0 0 27932247.198886871 92018618.91458416 0 92018618.91458416 -46448722.562513351 0 0 0 0 32522919.659009933 69954568.67447722 0 69954568.67447722 -64584744.890247345 0 0 0 0 -20238586.859527588 188262904.15641189 0 188262904.15641189 75058547.030475378 0 0 0 0 -58248884.868881226 125977743.18513298 0 125977743.18513298 279997445.0535326 0 0 0 0 -35884231.548019409 136117576.14421797 0 136117576.14421797 118956841.78399277 0 0 0 0 12116225.207183838 -286280383.6350677 0 -286280383.6350677 346456503.38368797 0 0 0 0 -213632989.98364258 -174920624.26999235 0 -174920624.26999235 467891020.5696373 0 0 0 0 -66091887.522628784 -46924194.973508835 0 -46924194.973508835 -9143392.545463562 0 0 0 0 -4058932.8749069292 12796013.332320115 0 12796013.332320115 8206543.4538711924 0 0 0 0 114774780.32324219 99007389.463952065 0 99007389.463952065 -20132836.679878235 0 0 0 0 -219058070.23413467 -235217824.01109076 0 -235217824.01109076 221727001.25950432 0 0 0 0 -1690805.4634061288 -1303313.9149774238 0 -1303313.9149774238 2288555.1417653374 0 0 0 0 -220752478.572258 -138764560.68709898 0 -138764560.68709898 330833110.27995682 0 0 0 0 1509079.1359672546 120479070.876266 0 120479070.876266 -59860144.954878569 0 0 0 0 -112208301.64189148 27434921.870809555 0 27434921.870809555 3798121.1263141632 0 0 0 0 -2737737.3102879096 -2008892.1613993123 0 -2008892.1613993123 3759070.0945700351 0 0 0 0 -275981217.72444916 214788245.37630844 0 214788245.37630844 -3370792.8871383667 0 0 0 0 -96128007.646430969 -64070447.196870804 0 -64070447.196870804 205875131.03820801 0 0 0 0 191582899.17069244 64876628.605447769 0 64876628.605447769 -291372445.90592194 0 0 0 0 -193559387.61158752 119340043.76485586 0 119340043.76485586 -58291966.623271942 0 0 0 0 -113002413.03814697 135964207.24056625 0 135964207.24056625 -101484815.88245392 0 0 0 0 -108606741.2040329 90965366.429540634 0 90965366.429540634 -77821247.030648232 0 0 0 0 -107703952.81685352 142097861.74781871 0 142097861.74781871 -57453948.569198608 0 0 0 0 -98300554.057952881 110790416.15335083 0 110790416.15335083 -70209624.302062988 0 0 0 0 -201718410.27042389 100386821.86595154 0 100386821.86595154 -69935151.376375198 0 0 0 0 -257751144.35370636 142509048.6636467 0 142509048.6636467 26700888.659843445 0 0 0 0 -142501029.64151001 187713449.91996956 0 187713449.91996956 20430583.921707153 0 0 0 0 -1596921.712123001 -1207242.3662763275 0 -1207242.3662763275 2018495.9108606372 0 0 0 0 -133325920.7364769 159395937.11521912 0 159395937.11521912 107281774.40187836 0 0 0 0 -101263245.22821045 43474923.922379732 0 43474923.922379732 114596039.38632202 0 0 0 0 10269493.048141479 66874607.827386856 0 66874607.827386856 97134766.34015274 0 0 0 0 -115233348.52594757 142225168.39256859 0 142225168.39256859 51145132.216625214 0 0 0 0 -45270732.156044006 49121199.411538839 0 49121199.411538839 21089807.780155182 0 0 0 0 -27600153.879758835 -22545341.841525555 0 -22545341.841525555 188212358.445755 0 0 0 0 100784340.89472961 -53246851.63209343 0 -53246851.63209343 58685669.187501907 0 0 0 0 -36638573.824295044 -56461290.200237274 0 -56461290.200237274 56762078.314925194 0 0 0 0 -180709392.66452599 -40225684.342154026 0 -40225684.342154026 -22945760.773399353 0 0 0 0 -75307897.761657715 103944534.25854683 0 103944534.25854683 -109849831.18865013 0 0 0 0 -76407656.719276428 72832187.087068558 0 72832187.087068558 91076582.252714157 0 0 0 0 195137034.21269989 -193653919.78068924 0 -193653919.78068924 -65099813.224639893 0 0 0 0 234393729.77099323 148907589.57611728 0 148907589.57611728 68723748.650928497 0 0 0 0 5308053.1051025391 31634449.380645752 0 31634449.380645752 349657375.37355042 0 0 0 0 167300500.90502548 6306699.8296484947 0 6306699.8296484947 -69700713.67250061 0 0 0 0 160136283.36837769 -158269599.9724369 0 -158269599.9724369 205781584.91773701 0 0 0 0 -450238.23735364713 3429514.6614606157 0 3429514.6614606157 -1988125.7838953473 0 0 0 0 -57116587.741041899 11985812.469078302 0 11985812.469078302 55525905.723937988 0 0 0 0 -257926836.63314056 50636146.42318058 0 50636146.42318058 135799228.00853729 0 0 0 0 -3446532.1446010303 16482750.014084093 0 16482750.014084093 15617468.316431265 0 0 0 0 -46295768.268341064 288467903.73425102 0 288467903.73425102 330565322.64048195 0 0 0 0 -6693945.4882669356 26688843.652574204 0 26688843.652574204 21133396.356109381 0 0 0 0 -21388175.621688843 26021036.144039154 0 26021036.144039154 2127999.6092910767 0 0 0 0 31036897.490913391 131245782.15887642 0 131245782.15887642 -112352087.19849014 0 0 0 0 -9935804.0999578126 15745050.344261719 0 15745050.344261719 27605197.25600031 0 0 0 0 18358229.687400818 40166813.734145164 0 40166813.734145164 -101011941.12986183 0 0 0 0 2809739.1242492311 15328461.764974561 0 15328461.764974561 -11036002.636881636 0 0 0 0 -32743149.93927002 35613787.657511711 0 35613787.657511711 5806315.6469116211 0 0 0 0 -5740096.7988375351 17654277.255482469 0 17654277.255482469 23342846.089462277 0 0 0 0 -2267687.9944381714 20427131.237625122 0 20427131.237625122 14735100.69934082 0 0 0 0 -10358058.200748444 30327636.53502655 0 30327636.53502655 5222511.8922424316 0 0 0 0 -79580191.454555988 69513044.94647646 0 69513044.94647646 42877951.615875244 0 0 0 0 -14395531.63175106 16949700.979257584 0 16949700.979257584 13748341.842712402 0 0 0 0 -30597417.973724365 -31270466.093629837 0 -31270466.093629837 116996286.13789749 0 0 0 0 -120438.85615539551 -42995834.899971962 0 -42995834.899971962 19874465.750034332 0 0 0 0 -74916845.235328674 38701193.262041092 0 38701193.262041092 22963637.132637024 0 0 0 0 23113351.880264282 -26361791.826084137 0 -26361791.826084137 55671654.980068207 0 0 0 0 68279486.5860672 -55701592.714260101 0 -55701592.714260101 59122231.264550209 0 0 0 0 30668348.755477905 -50735102.33156395 0 -50735102.33156395 69195385.783262253 0 0 0 0 40548526.516609192 -25284847.803375244 0 -25284847.803375244 86488907.770879745 0 0 0 0 5289289.7965698242 -57279842.57172966 0 -57279842.57172966 58891481.9798944 0 0 0 0 12574898.016769409 -15724502.891695976 0 -15724502.891695976 83251437.134637833 0 0 0 0 1355503.8671198562 13415295.676150959 0 13415295.676150959 6833966.1441746186 0 0 0 0 -798722.96360778809 8300665.4106369019 0 8300665.4106369019 -3238769.8424606323 0 0 0 0 -4176982.552848395 23123848.880806826 0 23123848.880806826 -2767750.5304683894 0 0 0 0 -3086275.1766994894 9316417.8514389712 0 9316417.8514389712 31972826.17979116 0 0 0 0 -717646.56283569336 120517548.14379692 0 120517548.14379692 76874702.919155121 0 0 0 0 -43664229.430122375 62967220.394592285 0 62967220.394592285 256625638.32252693 0 0 0 0 -790806.33677806333 19734166.252282135 0 19734166.252282135 5227406.1656314284 0 0 0 0 -2791513.3756970167 644282.13541973522 0 644282.13541973522 13821465.638415346 0 0 0 0 25261776.829658508 7493349.2390022278 0 7493349.2390022278 119131136.73967147 0 0 0 0 4326567.2162475586 36228679.345542908 0 36228679.345542908 21728019.306793213 0 0 0 0 -704814.36071004719 -100232.3776354352 0 -100232.3776354352 2218967.9026441518 0 0 0 0 -11383613.013206318 9788085.9813560508 0 9788085.9813560508 34227666.77221714 0 0 0 0 -18625232.895690918 10692826.481712341 0 10692826.481712341 16074004.686424255 0 0 0 0 -28703806.224990845 54876712.427389145 0 54876712.427389145 42146822.624847412 0 0 0 0 -5010113.3453063965 -381110.06041717529 0 -381110.06041717529 19077541.722755432 0 0 0 0 -1670835.9658337496 15771692.038084036 0 15771692.038084036 33795125.534940206 0 0 0 0 -25258245.764328003 5419761.6843719482 0 5419761.6843719482 30178426.669769287 0 0 0 0 -13237729.081634164 19126449.417245373 0 19126449.417245373 18924423.352707952 0 0 0 0 -8167768.9801635742 3070724.2498168945 0 3070724.2498168945 16087171.931083679 0 0 0 0 1591644.3576717377 21017760.697538376 0 21017760.697538376 47212054.935455322 0 0 0 0 -10948309.45051921 27879880.331074912 0 27879880.331074912 -1000751.0270959735 0 0 0 0 -38486285.332298279 38938491.387245178 0 38938491.387245178 135433548.47744751 0 0 0 0 -6698920.004650116 15112811.142127991 0 15112811.142127991 78981825.27204895 0 0 0 0 -23618989.54070282 21334455.649501801 0 21334455.649501801 18765949.01902771 0 0 0 0 -26979311.857727051 27186629.294734955 0 27186629.294734955 9418174.6440315247 0 0 0 0 -22133869.18951311 18174902.444703847 0 18174902.444703847 70617503.420814738 0 0 0 0 -15396410.55747373 25183832.747729279 0 25183832.747729279 25292476.892454833 0 0 0 0 -18553656.843090057 24284945.224830627 0 24284945.224830627 36172140.603408813 0 0 0 0 -9998492.1449735947 19774006.393450249 0 19774006.393450249 25176915.720423281 0 0 0 0 -135070369.7004776 443293.61309051514 0 443293.61309051514 63771841.119110107 0 0 0 0 -3694072.6613769531 17801477.117614746 0 17801477.117614746 13577775.058890343 0 0 0 0 -5886293.8967431448 12906131.663087878 0 12906131.663087878 23929694.455252312 0 0 0 0 -3385538.0228025066 -1340304.1763821878 0 -1340304.1763821878 -3847.6116515696049 0 0 0 0 -2677766.237739563 29614616.753120422 0 29614616.753120422 21963271.636226654 0 0 0 0 2241863.3850708008 26019211.51953125 0 26019211.51953125 46115998.303157806 0 0 0 0 -5511969.7794355489 14188481.790704347 0 14188481.790704347 22062933.632491339 0 0 0 0 660804.02823543549 22042296.148209572 0 22042296.148209572 48229036.067428589 0 0 0 0 -83734996.546161652 -921282.51177978516 0 -921282.51177978516 107401314.42926025 0 0 0 0 -79108239.987579346 247190167.66789246 0 247190167.66789246 -35891021.888916016 0 0 0 0 -5511503.8946906738 23166666.184286319 0 23166666.184286319 3188060.3295634016 0 0 0 0 4608924.2912902832 26715980.875915527 0 26715980.875915527 47459584.335372925 0 0 0 0 -5605496.8464813232 141190582.48118591 0 141190582.48118591 113926861.47058105 0 0 0 0 2170220.8414916992 16929057.259338379 0 16929057.259338379 3645395.0746765137 0 0 0 0 -12660294.824493347 20339210.099698979 0 20339210.099698979 12637568.65112111 0 0 0 0 -10110901.762738358 20384703.890008561 0 20384703.890008561 7076178.7007751465 0 0 0 0 -5248279.5493279509 21256231.377395585 0 21256231.377395585 5055376.4081184492 0 0 0 0 -120082293.96753342 12996735.309960447 0 12996735.309960447 -16231346.899536133 0 0 0 0 1740822.6646118164 16841982.281158447 0 16841982.281158447 4665347.3805541992 0 0 0 0 -10978187.435414486 13285895.575473156 0 13285895.575473156 31231345.893588468 0 0 0 0 146844532.56777763 108523632.29136658 0 108523632.29136658 -82675688.054321289 0 0 0 0 -1415100.442724311 20896846.297483876 0 20896846.297483876 -13332374.770075724 0 0 0 0 -2847131.0580503168 8463575.6358874328 0 8463575.6358874328 217447.07400435209 0 0 0 0 232353499.87111259 78900107.949355841 0 78900107.949355841 -116502046.96478271 0 0 0 0 52561168.170379639 -27336126.005859375 0 -27336126.005859375 56470170.751831055 0 0 0 0 99319098.215332031 88771816.901153564 0 88771816.901153564 -63227520.885314941 0 0 0 0 102075351.1736412 36209922.057403564 0 36209922.057403564 -155280739.67465973 0 0 0 0 103195798.66938019 153157783.44104004 0 153157783.44104004 -29863706.504516602 0 0 0 0 -87547413.15384388 224547855.68208027 0 224547855.68208027 -50577.545501708984 0 0 0 0 -105257557.50049305 76563815.601303101 0 76563815.601303101 10953222.67767334 0 0 0 0 105639363.79850006 23257275.446838379 0 23257275.446838379 47478287.439163208 0 0 0 0 143791164.35791779 111892741.24913025 0 111892741.24913025 -57598988.065856934 0 0 0 0 -38181488.790809631 89924244.190155029 0 89924244.190155029 -41710580.408340454 0 0 0 0 -136155460.93597412 38478250.871459961 0 38478250.871459961 -18578005.419250488 0 0 0 0 -5958434.8906239532 17031586.354762875 0 17031586.354762875 9195353.1679556221 0 0 0 0 6752989.8741708249 14644566.708563566 0 14644566.708563566 -13249167.40015398 0 0 0 0 -51867110.064804077 20681701.572128296 0 20681701.572128296 -71844067.738342285 0 0 0 0 -854534.78796352446 40473048.085258126 0 40473048.085258126 -5379427.2764090896 0 0 0 0 -5781578.4228668213 25621906.602722168 0 25621906.602722168 5942983.1502685547 0 0 0 0 683993.59403894842 31048143.713005684 0 31048143.713005684 6458570.3189008981 0 0 0 0 26002419.358821869 -15699680.107795715 0 -15699680.107795715 57139111.494018555 0 0 0 0 -9811358.6252400056 13666657.734954402 0 13666657.734954402 46881061.145915486 0 0 0 0 -143678965.51667786 167495316.74110413 0 167495316.74110413 -54755241.045562744 0 0 0 0 -47327676.26424408 96983561.540939331 0 96983561.540939331 -105964393.90196228 0 0 0 0 -28614412.916820526 -9974339.3586196899 0 -9974339.3586196899 59921383.115188599 0 0 0 0 -1428963.1365583204 -1118555.715849705 0 -1118555.715849705 12648448.693973362 0 0 0 0 -429133158.1667099 56669433.281166077 0 56669433.281166077 72011824.683177948 0 0 0 0 -81162237.604381561 76986162.738296509 0 76986162.738296509 73093160.468902588 0 0 0 0 8544018.7528877258 72464769.705158234 0 72464769.705158234 -29307153.103240967 0 0 0 0 4454047.8632965088 -5651488.3556365967 0 -5651488.3556365967 395984.19637298584 0 0 0 0 122583661.88729095 259515461.15927124 0 259515461.15927124 120847642.67990112 0 0 0 0 1409250.4007698782 3913057.2712771185 0 3913057.2712771185 -3270595.5731401742 0 0 0 0 200938085.42415237 182634240.01689148 0 182634240.01689148 48461429.272857666 0 0 0 0 -120786984.07929993 -35153580.487808228 0 -35153580.487808228 -985301.88282775879 0 0 0 0 44830566.806564331 -9956563.8395080566 0 -9956563.8395080566 -70767691.178237915 0 0 0 0 23534616.26550293 4651139.6238250732 0 4651139.6238250732 -55475430.487823486 0 0 0 0 25520590.239826202 -13987991.401184082 0 -13987991.401184082 -98691760.273658752 0 0 0 0 9264289.2305793762 40830824.569128036 0 40830824.569128036 19201374.198486328 0 0 0 0 -71437534.013088226 12496435.252212524 0 12496435.252212524 -50982422.451751709 0 0 0 0 186336621.56999207 124793378.88313293 0 124793378.88313293 22625731.58286953 0 0 0 0 -144899824.64772034 11063551.993774414 0 11063551.993774414 20721080.581614256 0 0 0 0 74676426.413116455 233799684.99992371 0 233799684.99992371 97547515.670074463 0 0 0 0 52986224.768005371 218193768.44172668 0 218193768.44172668 68306663.41986084 0 0 0 0 382979625.81602478 212017684.55041504 0 212017684.55041504 59809218.147460938 0 0 0 0 230585774.84321594 85222062.527572632 0 85222062.527572632 187234803.45004272 0 0 0 0 283411922.91651344 205713834.99075699 0 205713834.99075699 90554542.456695557 0 0 0 0 475411516.11803436 -90251125.9581604 0 -90251125.9581604 332118135.54251099 0 0 0 0 508745037.22000122 3503538.1148071289 0 3503538.1148071289 -325317168.6741333 0 0 0 0 722995826.94332886 263216147.94873047 0 263216147.94873047 -88763447.651611328 0 0 0 0 636966851.66819763 617611546.77075195 0 617611546.77075195 -1258589823.1931458 0 0 0 0 376026228.85017395 762260574.77371216 0 762260574.77371216 -318433234.79855347 0 0 0 0 230005020.19624329 639848890.19836426 0 639848890.19836426 254064985.95013428 0 0 0 0 227754234.04347229 506205875.50250244 0 506205875.50250244 34113875.792999268 0 0 0 0 368704342.38273621 422307493.15588379 0 422307493.15588379 -159940070.40222168 0 0 0 0 379716848.37213254 829172467.9390707 0 829172467.9390707 224990051.96099854 0 0 0 0 -194767457.2122345 -82928275.236831665 0 -82928275.236831665 -93576260.605194092 0 0 0 0 719841.90310293529 -1920172.4857932208 0 -1920172.4857932208 2211194.2550287843 0 0 0 0 -210681315.53871155 45252771.424285889 0 45252771.424285889 88113530.810211182 0 0 0 0 -155075578.49055481 58567769.809539795 0 58567769.809539795 55802339.494293213 0 0 0 0 -225814853.80053711 43054606.097625732 0 43054606.097625732 88999135.799316406 0 0 0 0 -311286702.73117828 -69167557.557800293 0 -69167557.557800293 83847223.006378174 0 0 0 0 -203818971.45864868 -48278186.467224121 0 -48278186.467224121 19078586.11718297 0 0 0 0 -337976318.45735931 34475915.132175446 0 34475915.132175446 158350290.52801514 0 0 0 0 -253303536.61425018 96279623.426757812 0 96279623.426757812 188812651.43041992 0 0 0 0 -373954652.83947372 -672562621.91208649 0 -672562621.91208649 -1198321231.0113525 0 0 0 0 -333213196.95449829 59615714.791687012 0 59615714.791687012 196725632.32196045 0 0 0 0 -574689384.74043274 65411453.579498291 0 65411453.579498291 366992427.88592529 0 0 0 0 105279954.81309509 724141209.45083618 0 724141209.45083618 854674913.88665771 0 0 0 0 -144631107.1506958 347203622.7333374 0 347203622.7333374 1191254289.4723053 0 0 0 0 192606079.68976593 389767242.67483521 0 389767242.67483521 202445281.6317749 0 0 0 0 16342851.2551651 231255486.94871521 0 231255486.94871521 112232513.71981812 0 0 0 0 4969972.137878418 394430881.34085083 0 394430881.34085083 616390443.5682373 0 0 0 0 133230610.89489746 599137351.90420532 0 599137351.90420532 239798286.88006592 0 0 0 0 -35475843.980773926 289602234.65843201 0 289602234.65843201 457880334.32800293 0 0 0 0 84202620.474903107 34863010.910797566 0 34863010.910797566 200193846.95773688 0 0 0 0 -390883.08989870921 53124972.942972749 0 53124972.942972749 -8656627.8038792685 0 0 0 0 98950908.201370239 -126048693.52489471 0 -126048693.52489471 -162428170.3381958 0 0 0 0 -160764225.06591034 -232523333.43606567 0 -232523333.43606567 540628120.1480751 0 0 0 0 -18641692.035821915 108214753.27773345 0 108214753.27773345 256092036.61036325 0 0 0 0 233569166.62485027 203320018.65136719 0 203320018.65136719 -134838080.2265625 0 0 0 0 -199227519.07936859 -94906734.819671631 0 -94906734.819671631 888663849.97242737 0 0 0 0 -66469015.109867096 83422818.190256596 0 83422818.190256596 247427570.95999241 0 0 0 0 -29415220.939041138 111581189.99889165 0 111581189.99889165 264488477.95942116 0 0 0 0 -40194022.361597061 54162579.477160335 0 54162579.477160335 296048140.27328014 0 0 0 0 53271476.825637817 160709518.70195487 0 160709518.70195487 184604384.16866559 0 0 0 0 -134262245.56298828 77076549.442414761 0 77076549.442414761 440414420.37309194 0 0 0 0 -310068932.81718445 50362129.872171402 0 50362129.872171402 66558062.791317463 0 0 0 0 -13669922.469541403 -1033775.9158472605 0 -1033775.9158472605 53597768.208996773 0 0 0 0 -90603249.718902588 120060120.976161 0 120060120.976161 179221452.16803455 0 0 0 0 -148427897.94779205 -37449574.408795357 0 -37449574.408795357 96544057.017074585 0 0 0 0 -128658281.83741379 92250914.874801993 0 92250914.874801993 181849352.26362276 0 0 0 0 -77366857.889228821 85398866.9230133 0 85398866.9230133 157221222.84901822 0 0 0 0 -29389621.2709198 90405610.879795969 0 90405610.879795969 152623489.18853927 0 0 0 0 -8353028.3462553807 50381660.60848166 0 50381660.60848166 3952082.5229463084 0 0 0 0 65343017.529392242 634701788.49010086 0 634701788.49010086 580125206.52648926 0 0 0 0 218592247.2952652 520281309.86161804 0 520281309.86161804 178465723.76136255 0 0 0 0 735013912.04730606 442891595.79623795 0 442891595.79623795 15951979.683181763 0 0 0 0 289380452.7849617 665492634.04659271 0 665492634.04659271 474136814.96190643 0 0 0 0 256381620.76624298 670666783.21755981 0 670666783.21755981 474369843.58580685 0 0 0 0 921781056.11598969 1485102720.1449471 0 1485102720.1449471 1470399286.5689926 0 0 0 0 -209444537.85510254 355825146.8687439 0 355825146.8687439 545265246.91962051 0 0 0 0 5567978.0176544189 775741555.66200256 0 775741555.66200256 1338952257.3442535 0 0 0 0 -371185320.6088829 -243593836.27309418 0 -243593836.27309418 1241722938.5333328 0 0 0 0 -270500517.27084351 -166576315.8236599 0 -166576315.8236599 461990280.03573608 0 0 0 0 116546419.00199127 244696049.0050354 0 244696049.0050354 784905987.98655033 0 0 0 0 -1132394098.4341965 -277411849.02363396 0 -277411849.02363396 983344249.93482208 0 0 0 0 599266414.89846802 -643183571.40857697 0 -643183571.40857697 2409524671.2581558 0 0 0 0 69265974.594528198 676965328.05762482 0 676965328.05762482 3494482216.0574722 0 0 0 0 5251736.2786662206 -955447.42520440742 0 -955447.42520440742 -2095114.5401126584 0 0 0 0 1524995003.5375347 1439484704.0559821 0 1439484704.0559821 472421478.54473877 0 0 0 0 129945504.22811699 542298799.56749153 0 542298799.56749153 1145640607.350235 0 0 0 0 -63646819.268478394 174098370.24224091 0 174098370.24224091 96805146.049858093 0 0 0 0 524723218.49119568 -236832054.61157227 0 -236832054.61157227 -276857565.44968605 0 0 0 0 1461491291.6293831 504911535.2974987 0 504911535.2974987 -818530.01387023926 0 0 0 0 328887790.82307434 29576764.628650665 0 29576764.628650665 -44033275.163660049 0 0 0 0 49794999.229789734 -47209829.112377167 0 -47209829.112377167 92446455.801467896 0 0 0 0 290353387.3820343 63201076.068664551 0 63201076.068664551 17347802.004943848 0 0 0 0 -16616373.364440918 62096161.586036682 0 62096161.586036682 -13897630.591110229 0 0 0 0 -46150461.391677856 49107808.51815033 0 49107808.51815033 64843125.949420929 0 0 0 0 -3878522.7880249023 -10664728.524017334 0 -10664728.524017334 79809219.801143646 0 0 0 0 -7895096.5466156006 33455472.122833252 0 33455472.122833252 24342734.873596191 0 0 0 0 -25435043.017318726 26901828.804199219 0 26901828.804199219 22899912.049423218 0 0 0 0 83088327.447052002 20998731.99823761 0 20998731.99823761 -30053440.487426758 0 0 0 0 300760.9134202674 11278052.064312171 0 11278052.064312171 -7731480.4606091157 0 0 0 0 -10808290.594148636 67624295.922842503 0 67624295.922842503 -12661820.782302856 0 0 0 0 20335474.301128685 8688870.5752021521 0 8688870.5752021521 -12799500.298053456 0 0 0 0 -25528714.253814697 73594059.915540695 0 73594059.915540695 -13870631.490280151 0 0 0 0 37256169.862670898 41985650.43838501 0 41985650.43838501 -85462450.565738678 0 0 0 0 37767219.76940918 139695414.52605438 0 139695414.52605438 -274046159.48052788 0 0 0 0 -43375521.467281342 39427514.623088837 0 39427514.623088837 -20856111.116790771 0 0 0 0 14003764.615427554 1122533.6131026968 0 1122533.6131026968 -6529048.3884102069 0 0 0 0 -133541282.60247803 301380912.06949615 0 301380912.06949615 1727896985.0988827 0 0 0 0 -12764186.364484787 609367264.14637375 0 609367264.14637375 888255580.10017395 0 0 0 0 35383300.142501831 415094141.11594772 0 415094141.11594772 1040233986.7025146 0 0 0 0 -123446299.01679993 498755336.459095 0 498755336.459095 1072937809.2658539 0 0 0 0 -36852662.552719116 506344832.15346527 0 506344832.15346527 849879692.25994873 0 0 0 0 -76026125.871337891 545293772.98091125 0 545293772.98091125 883181855.29230118 0 0 0 0 128450977.0827179 262061920.99909973 0 262061920.99909973 423203843.70539856 0 0 0 0 -30422619.483467102 184523286.13630104 0 184523286.13630104 959954632.35556793 0 0 0 0 77586432.783172607 455218929.78226852 0 455218929.78226852 835835055.15196228 0 0 0 0 108703453.55176544 276697974.34679794 0 276697974.34679794 415897621.16446686 0 0 0 0 -111015227.40966797 -40813778.763496399 0 -40813778.763496399 241561443.60483932 0 0 0 0 -974624.67735862732 30925557.516120911 0 30925557.516120911 -42395161.892944336 0 0 0 0 6878842.9259555675 24329598.487572808 0 24329598.487572808 -21504073.344733395 0 0 0 0 448116397.6399231 642627330.89979553 0 642627330.89979553 865212330.84712219 0 0 0 0 1064279.8055923581 72592.012839056551 0 72592.012839056551 -2379159.9337066673 0 0 0 0 503041236.71661377 269329264.29418182 0 269329264.29418182 -217575658.17287445 0 0 0 0 241876593.80039978 590474242.49153137 0 590474242.49153137 784797711.67653656 0 0 0 0 683254583.74676514 907418267.95253372 0 907418267.95253372 581324792.3287735 0 0 0 0 490337283.0153656 618913300.28753662 0 618913300.28753662 752807892.5165329 0 0 0 0 -2609886.4604129083 4177181.4748235177 0 4177181.4748235177 3506134.7623752616 0 0 0 0 403553032.75518417 860568952.19340515 0 860568952.19340515 578570898.94711304 0 0 0 0 -103419693.92651367 781967694.41693592 0 781967694.41693592 772867781.41836548 0 0 0 0 365684688.90283966 42356926.642208099 0 42356926.642208099 -179721697.18715668 0 0 0 0 291262177.42477417 489662584.93018341 0 489662584.93018341 441397343.34120941 0 0 0 0 772961034.65641785 405680397.89543152 0 405680397.89543152 243372293.22099304 0 0 0 0 28703283.973007202 61841598.073753357 0 61841598.073753357 -22182846.179710388 0 0 0 0 -4729785.0435028076 52782428.405578613 0 52782428.405578613 4495096.3996734619 0 0 0 0 -3949667.3965922445 17102675.211225189 0 17102675.211225189 16899165.427390244 0 0 0 0 -186321424.97935867 38117262.337684631 0 38117262.337684631 14614315.403968811 0 0 0 0 3482272.5919494629 55977258.802772522 0 55977258.802772522 -5197157.621673584 0 0 0 0 -18241766.539779663 54415308.767822266 0 54415308.767822266 4301398.5836486816 0 0 0 0 -64868444.653869629 57942046.811828613 0 57942046.811828613 28834212.540603638 0 0 0 0 -17973429.733642578 78355989.198699951 0 78355989.198699951 11813589.438720703 0 0 0 0 7668356.9149475098 91585238.081848145 0 91585238.081848145 16257269.888839722 0 0 0 0 9019934.4578094482 67278401.275375366 0 67278401.275375366 -9818014.1703186035 0 0 0 0 -402441.07511359453 1464254.3323263824 0 1464254.3323263824 -2069492.9033388998 0 0 0 0 955841.35778808594 54021003.610473633 0 54021003.610473633 67158925.988098145 0 0 0 0 7381063.417175293 39254853.853462219 0 39254853.853462219 13298896.451171875 0 0 0 0 3443425.9689178467 56974299.708396912 0 56974299.708396912 -45132714.628295898 0 0 0 0 -6046738.1115613356 34813010.198897824 0 34813010.198897824 -13423662.235093355 0 0 0 0 -18199322.619934082 74190192.717773438 0 74190192.717773438 39443806.178283691 0 0 0 0 2365211.1969180033 -230958.74360870384 0 -230958.74360870384 -2499096.8321619183 0 0 0 0 31230139.765808105 86017244.751495361 0 86017244.751495361 -2499601.9691772461 0 0 0 0 32309070.470336914 81601268.403106689 0 81601268.403106689 15425295.260528564 0 0 0 0 37260790.712585449 64586594.415557861 0 64586594.415557861 -43724544.377349854 0 0 0 0 35382546.779968262 89364699.811645508 0 89364699.811645508 6183834.2777099609 0 0 0 0 38204475.549377441 114515605.41873169 0 114515605.41873169 -30265351.0390625 0 0 0 0 11219153.584960938 83764061.440582275 0 83764061.440582275 2403621.0560913086 0 0 0 0 31456979.17175293 100093729.95433044 0 100093729.95433044 15092401.646179199 0 0 0 0 30310040.13659668 112403937.69158173 0 112403937.69158173 49995886.911468506 0 0 0 0 114445763.47421598 119393492.20141697 0 119393492.20141697 26669321.908447266 0 0 0 0 -16306152.916171268 23348059.545788284 0 23348059.545788284 -2571048.3754879087 0 0 0 0 -313947.51145935059 92199787.431594849 0 92199787.431594849 37853838.708831787 0 0 0 0 45835779.787597656 103500441.59268188 0 103500441.59268188 24178880.647216797 0 0 0 0 52378771.197052002 85714456.399719238 0 85714456.399719238 31741462.339904785 0 0 0 0 116774938.69245911 86672451.562240601 0 86672451.562240601 8409119.4352111816 0 0 0 0 70896409.339294434 52467840.504333496 0 52467840.504333496 20626536.792312622 0 0 0 0 71017294.718704224 109716302.97172546 0 109716302.97172546 42792329.332214355 0 0 0 0 89295847.501186371 130098296.11574554 0 130098296.11574554 39194669.60144043 0 0 0 0 79104002.338943481 105411108.22373962 0 105411108.22373962 43652938.387023926 0 0 0 0 90905801.961044312 122881079.75305176 0 122881079.75305176 68876194.420227051 0 0 0 0 -25975236.36100769 109664157.64491272 0 109664157.64491272 110293061.86033416 0 0 0 0 28872548.388538361 95689632.315639496 0 95689632.315639496 54107017.601165771 0 0 0 0 40712828.78616333 121459716.25796509 0 121459716.25796509 87475818.100891113 0 0 0 0 -63039250.492126465 66513861.427398682 0 66513861.427398682 59553978.843910217 0 0 0 0 -26604958.04545927 93892368.925820827 0 93892368.925820827 73859047.834350586 0 0 0 0 -56596656.418411255 57807395.025802612 0 57807395.025802612 9651339.8567657471 0 0 0 0 -2870360.7887268066 82095312.385391235 0 82095312.385391235 22931193.452972412 0 0 0 0 -14906317.400901794 92118482.489082336 0 92118482.489082336 37602229.179901123 0 0 0 0 -61301714.452026367 48575259.864547729 0 48575259.864547729 99243364.681030273 0 0 0 0 -148224953.23623657 12590858.2762146 0 12590858.2762146 135676543.1990509 0 0 0 0 -119498447.58229065 -8882650.2907867432 0 -8882650.2907867432 51819702.336608887 0 0 0 0 -112107716.75539018 -5960445.6718019769 0 -5960445.6718019769 30279282.156677246 0 0 0 0 -139222935.32144165 -4589539.1633300781 0 -4589539.1633300781 97260853.377197266 0 0 0 0 -99253074.479187012 28988968.217285156 0 28988968.217285156 74370227.664627075 0 0 0 0 -139404836.55179596 5757643.4343338013 0 5757643.4343338013 70130060.044036865 0 0 0 0 -109018923.12618637 46207069.480678558 0 46207069.480678558 123785406.66375732 0 0 0 0 -39747955.575958252 54933133.264068604 0 54933133.264068604 70068943.737382889 0 0 0 0 -42944423.113586426 68611316.992248535 0 68611316.992248535 110309854.76848483 0 0 0 0 -5438317.108215332 91855921.735290527 0 91855921.735290527 116761517.35693359 0 0 0 0 -5393926.9652252197 88355012.25440979 0 88355012.25440979 245876904.88467407 0 0 0 0 96582556.055145264 151614221.98044586 0 151614221.98044586 16966255.450317383 0 0 0 0 76144095.842498779 166752939.8795929 0 166752939.8795929 113828965.44537354 0 0 0 0 94607623.474182129 151955191.64013672 0 151955191.64013672 45957004.796554565 0 0 0 0 50025637.103500366 55825047.002426147 0 55825047.002426147 88505775.890533447 0 0 0 0 75335873.986068726 1778090.4187164307 0 1778090.4187164307 138527310.60395813 0 0 0 0 -62619089.647399902 45166445.315917969 0 45166445.315917969 166540926.47637939 0 0 0 0 -31623571.927841187 140171386.96840668 0 140171386.96840668 151273908.86257935 0 0 0 0 -43488548.18989563 79435945.844406128 0 79435945.844406128 107658635.68276978 0 0 0 0 171791255.87615967 111794976.93421936 0 111794976.93421936 37390634.777374268 0 0 0 0 -220973243.39672089 -13100747.659767151 0 -13100747.659767151 106257451.87063599 0 0 0 0 -568870291.39627075 -388456659.74821472 0 -388456659.74821472 -65224051.607543945 0 0 0 0 -166826410.00317383 -115086764.89871216 0 -115086764.89871216 -24152872.143493652 0 0 0 0 -145999583.39666748 -42679853.478088379 0 -42679853.478088379 77884446.610290527 0 0 0 0 -107643402.76637268 -41143101.059432983 0 -41143101.059432983 -67781317.901733398 0 0 0 0 -153177.23273965716 5216416.0915584266 0 5216416.0915584266 4742466.4318559021 0 0 0 0 23939556.170190897 13737172.208249323 0 13737172.208249323 35767008.518981934 0 0 0 0 -119549819.92578125 -120490681.19354248 0 -120490681.19354248 -81337636.929901123 0 0 0 0 1119325.8508358002 2982073.8276753202 0 2982073.8276753202 4199272.0672833174 0 0 0 0 91484527.424850464 -99260265.035133362 0 -99260265.035133362 225347781.07470703 0 0 0 0 2489544.9847106934 62527251.72076416 0 62527251.72076416 40750923.154291153 0 0 0 0 130941434.68341456 -107311163.77619356 0 -107311163.77619356 145998133.49822998 0 0 0 0 97328182.226631165 -188552860.88275146 0 -188552860.88275146 201714290.95939636 0 0 0 0 142492768.18479919 -132425833.7383728 0 -132425833.7383728 36386808.798370361 0 0 0 0 122392419.01818085 -295821624.41545105 0 -295821624.41545105 -42855029.975852966 0 0 0 0 -78958262.64151001 -523665120.61532593 0 -523665120.61532593 -1056767813.8087463 0 0 0 0 -79757973.776367188 -200838872.63642883 0 -200838872.63642883 222151712.99224854 0 0 0 0 212931837.92889404 -92253120.13117981 0 -92253120.13117981 149461494.17360687 0 0 0 0 -975847792.92094421 -171159426.86395264 0 -171159426.86395264 -208360255.29736328 0 0 0 0 -981687.72429233044 986807.72707962245 0 986807.72707962245 2342497.5943875685 0 0 0 0 52951005.803375244 118468306.44615173 0 118468306.44615173 -266911020.36151123 0 0 0 0 -262968725.12051201 531853575.34899521 0 531853575.34899521 9424772.2638549805 0 0 0 0 1235954849.6408768 910488948.18511963 0 910488948.18511963 30140831.678329468 0 0 0 0 -37767960.96031189 -213840765.70657349 0 -213840765.70657349 -532959642.16986084 0 0 0 0 -424547927.35821533 -872540871.03167725 0 -872540871.03167725 -177868677.87077713 0 0 0 0 -5287855.895356657 3839545.3057285417 0 3839545.3057285417 7928803.1219771653 0 0 0 0 222110618.80068779 804706311.17189598 0 804706311.17189598 1042311609.545166 0 0 0 0 -1549317529.9240036 -747875377.04087067 0 -747875377.04087067 1921403825.0120239 0 0 0 0 -1319485.3048407361 -83118.271663062274 0 -83118.271663062274 2596633.5395814404 0 0 0 0 -538536294.31428528 375449833.04467773 0 375449833.04467773 1304020921.7268066 0 0 0 0 -1110177186.4321136 -638941036.89605713 0 -638941036.89605713 997582500.57575989 0 0 0 0 482808400.70662022 1662917598.9522514 0 1662917598.9522514 -8717221.7159576416 0 0 0 0 -1836353882.0126419 786487311.24208832 0 786487311.24208832 94875989.382720947 0 0 0 0 313804000.46468163 858874443.02320862 0 858874443.02320862 1590899094.5770874 0 0 0 0 1217488945.0527649 181075096.04780579 0 181075096.04780579 101120307.11585999 0 0 0 0 -10776305.939223759 16100146.339968096 0 16100146.339968096 -14332462.647118419 0 0 0 0 16449223.247066498 -145098359.13917542 0 -145098359.13917542 504916899.99649048 0 0 0 0 110626519.50088596 144457784.20505667 0 144457784.20505667 25621171.34211731 0 0 0 0 32387224.782989502 467030822.29833412 0 467030822.29833412 511852483.32113647 0 0 0 0 531298055.07917786 -23487482.428459167 0 -23487482.428459167 198376825.18231201 0 0 0 0 2371781.2054848075 62539.393196590245 0 62539.393196590245 -1311647.9485828429 0 0 0 0 99944843.506286621 -16252755.456726074 0 -16252755.456726074 -84943300.362243652 0 0 0 0 79287272.441087723 90888562.643346786 0 90888562.643346786 15590191.185699463 0 0 0 0 -16740643.502131455 22115912.552492343 0 22115912.552492343 -5834505.068436712 0 0 0 0 -17740814.808792114 -11365964.393806458 0 -11365964.393806458 36475730.976593018 0 0 0 0 -8026636.9141129553 7538589.1460269671 0 7538589.1460269671 1328809.0221818686 0 0 0 0 67610222.086448669 -25367269.834877014 0 -25367269.834877014 -79813342.369384766 0 0 0 0 -22946960.311096191 21677518.746876717 0 21677518.746876717 37526556.830963135 0 0 0 0 65123447.285814285 54371580.13844502 0 54371580.13844502 42618147.808380127 0 0 0 0 39458877.409049988 49415635.328460693 0 49415635.328460693 14721174.862747192 0 0 0 0 63046111.896087646 32051736.036117554 0 32051736.036117554 26269423.466468811 0 0 0 0 67536923.651901245 -3547747.6276931763 0 -3547747.6276931763 36276209.827407837 0 0 0 0 191298704.33829117 114939269.61393356 0 114939269.61393356 -24250184.384796143 0 0 0 0 -132942379.89966583 152514493.35108948 0 152514493.35108948 61005901.635536194 0 0 0 0 -58191.412300109863 153329650.20432281 0 153329650.20432281 -23156438.940090179 0 0 0 0 70186827.752220631 -158165202.39939308 0 -158165202.39939308 -101334292.758255 0 0 0 0 -37022132.050003052 14433747.900886536 0 14433747.900886536 3710874.9802818298 0 0 0 0 -8539128.9103805348 4356545.2709491737 0 4356545.2709491737 4101159.4645299315 0 0 0 0 -115727996.31689453 117767328.03541565 0 117767328.03541565 145785571.21599579 0 0 0 0 -9311485.8597399555 11521179.708589997 0 11521179.708589997 -9426841.1843378544 0 0 0 0 323754328.93077087 435687778.34866333 0 435687778.34866333 -110483490.97640991 0 0 0 0 -1558239416.3955917 501489854.78128815 0 501489854.78128815 271609578.33075714 0 0 0 0 250573950.61550331 4619146.944190979 0 4619146.944190979 -576107370.0330658 0 0 0 0 -1106676297.545433 265487912.25314331 0 265487912.25314331 48338277.614807129 0 0 0 0 -4559224.0648733117 1490802.4974427875 0 1490802.4974427875 2966793.3631152511 0 0 0 0 -179271246.53744936 -323007758.92416811 0 -323007758.92416811 -356994900.09791565 0 0 0 0 -74835503.495491028 691846943.22882462 0 691846943.22882462 -277137543.92071533 0 0 0 0 -1540109833.5279083 614042736.62568665 0 614042736.62568665 -380511345.86208344 0 0 0 0 -235565835.11190414 934045730.82791519 0 934045730.82791519 -585147586.93215942 0 0 0 0 586757708.14682007 961949531.93104553 0 961949531.93104553 -640182505.6577301 0 0 0 0 153006899.65518188 739424088.61592865 0 739424088.61592865 -305156069.13076782 0 0 0 0 214960477.53212738 585705657.87944031 0 585705657.87944031 -243012435.82253456 0 0 0 0 292382876.82693481 584824781.93848801 0 584824781.93848801 -243033462.06890869 0 0 0 0 191703591.60186768 415180598.19467163 0 415180598.19467163 -6894667.34141922 0 0 0 0 -388143538.93268394 553269324.80241776 0 553269324.80241776 -39203245.89692688 0 0 0 0 260752869.13559723 299880154.17170715 0 299880154.17170715 -25121137.549255371 0 0 0 0 18786197.813369751 336840318.50950241 0 336840318.50950241 3134244.0717163086 0 0 0 0 168942898.23032379 550428055.34763336 0 550428055.34763336 181063469.6421504 0 0 0 0 345929125.59624004 556695882.31241226 0 556695882.31241226 -32922406.908782959 0 0 0 0 177408373.3199234 580051618.59777069 0 580051618.59777069 -25421716.065032959 0 0 0 0 75009905.302265167 531833274.61646652 0 531833274.61646652 -33095775.690307617 0 0 0 0 1474745498.2568665 -602220040.2829895 0 -602220040.2829895 -160000850.86080933 0 0 0 0 872843861.87265778 -552659968.04638672 0 -552659968.04638672 118553863.34321594 0 0 0 0 223959536.82788086 73238304.427688599 0 73238304.427688599 -349588743.76821899 0 0 0 0 1057362999.2435684 263176055.77197266 0 263176055.77197266 -376536731.75138855 0 0 0 0 382834956.12933922 395802705.16656876 0 395802705.16656876 -58937744.57119751 0 0 0 0 7388722.1290733181 2281160.1279009432 0 2281160.1279009432 -3840797.5815967731 0 0 0 0 76150026.156430721 725970114.40598679 0 725970114.40598679 -874537046.87619019 0 0 0 0 1812767301.2230835 -181624311.57016754 0 -181624311.57016754 -918884155.7265625 0 0 0 0 -57364912.155265808 -461843741.12429047 0 -461843741.12429047 243662371.03461456 0 0 0 0 661967060.7872467 -536841143.55284882 0 -536841143.55284882 1013356300.9804993 0 0 0 0 3519286.1300034672 -827557.90326055139 0 -827557.90326055139 -2247261.8683885448 0 0 0 0 597050342.37134552 304771977.15586853 0 304771977.15586853 -159075292.97242737 0 0 0 0 1751541460.0051572 273964561.63466477 0 273964561.63466477 -638680572.71228027 0 0 0 0 338917106.28436852 1133895755.8867893 0 1133895755.8867893 -997730405.18579102 0 0 0 0 -1055910768.6965256 1700322470.2544479 0 1700322470.2544479 -1172772633.74646 0 0 0 0 995153027.38569832 -270725071.85572624 0 -270725071.85572624 -2086133802.3535461 0 0 0 0 -612360912.19805145 1690482806.8616333 0 1690482806.8616333 -548168636.65216064 0 0 0 0 -1942736905.6790237 -1275420397.1759338 0 -1275420397.1759338 1880392513.782959 0 0 0 0 -4079266.8306979537 4498720.8516510893 0 4498720.8516510893 -3566470.4052581042 0 0 0 0 -2488888348.3456345 948727461.2157135 0 948727461.2157135 117154908.21316528 0 0 0 0 579466141.8057785 301665471.43405151 0 301665471.43405151 337565258.260952 0 0 0 0 1125030538.455204 -105968979.42376709 0 -105968979.42376709 -2418531598.4120026 0 0 0 0 777523714.66248703 144201657.09212875 0 144201657.09212875 -251961487.63172913 0 0 0 0 763347997.33454132 641247543.48626709 0 641247543.48626709 -2637159795.1432381 0 0 0 0 11251716.295812897 9087646.9816432744 0 9087646.9816432744 -5461545.4894316569 0 0 0 0 -189735092.02391434 350062898.27931976 0 350062898.27931976 1304294926.5785141 0 0 0 0 -367551393.83855438 499513550.10925293 0 499513550.10925293 -82702856.280090332 0 0 0 0 397231822.92999268 436634109.76350403 0 436634109.76350403 -125711438.57794189 0 0 0 0 947363.10309454426 10841936.788687477 0 10841936.788687477 -7298835.7943438292 0 0 0 0 -404894386.97559929 385828151.44762802 0 385828151.44762802 -227300739.4708252 0 0 0 0 -833610268.00831604 283106848.70948792 0 283106848.70948792 -16642187.180328369 0 0 0 0 473637421.64538574 1124929061.0386581 0 1124929061.0386581 151439129.368927 0 0 0 0 7113696.3013557084 7267205.0019801185 0 7267205.0019801185 -4294079.4821935371 0 0 0 0 -237570833.71458435 -24083123.181747437 0 -24083123.181747437 1164504112.9597015 0 0 0 0 -227356328.71786499 5102497.274597168 0 5102497.274597168 2746009373.1501389 0 0 0 0 2567628.078111805 1836450.9986969754 0 1836450.9986969754 -1479021.8048455864 0 0 0 0 -368304418.13905811 475454013.03456497 0 475454013.03456497 -397817439.03302002 0 0 0 0 -272308155.35321808 140455275.17419434 0 140455275.17419434 -112499602.66125488 0 0 0 0 404803171.75568008 600989116.5523262 0 600989116.5523262 -272306936.81065369 0 0 0 0 1735350.2139678001 10710865.274824623 0 10710865.274824623 -11035103.569946334 0 0 0 0 -361535401.45084381 298373380.9443512 0 298373380.9443512 -236404500.92404175 0 0 0 0 578838830.46451187 -635506707.67883301 0 -635506707.67883301 -2263516395.8720398 0 0 0 0 241188.2103515733 3642351.8937623678 0 3642351.8937623678 -4242917.2977312952 0 0 0 0 286583077.26581955 1380891640.8360596 0 1380891640.8360596 -2955328373.14505 0 0 0 0 -1247135710.3941174 -1383634745.814806 0 -1383634745.814806 -761750016.07272339 0 0 0 0 32148430.297401428 128955706.93400574 0 128955706.93400574 -3347784739.8562927 0 0 0 0 -2398342919.6407547 1494737644.0925484 0 1494737644.0925484 -870414712.37142944 0 0 0 0 -959907245.55905151 893722513.72839355 0 893722513.72839355 -394759632.4672699 0 0 0 0 -582519971.33265686 307538948.58398438 0 307538948.58398438 -128807283.42437744 0 0 0 0 -262250666.98529816 943510918.37039185 0 943510918.37039185 -1007411931.3961344 0 0 0 0 176935983.68745422 16398080.410919189 0 16398080.410919189 -936135458.44051361 0 0 0 0 -19122376.985437393 179124026.91162682 0 179124026.91162682 -963207903.92468262 0 0 0 0 146952952.91355133 154250744.20767975 0 154250744.20767975 -374486252.64012146 0 0 0 0 459649252.07131195 -58752231.05770874 0 -58752231.05770874 -395158592.1149292 0 0 0 0 -89735265.093238831 507418359.41208267 0 507418359.41208267 -121374154.87371826 0 0 0 0 -541943668.33721924 822852020.30084991 0 822852020.30084991 -329655774.11392975 0 0 0 0 -426469687.99574089 931269573.11120987 0 931269573.11120987 -230993422.14077759 0 0 0 0 -186618890.86548615 616447893.53152466 0 616447893.53152466 -296636424.24742126 0 0 0 0 59544705.489851952 1101258856.4250917 0 1101258856.4250917 -223727887.84144592 0 0 0 0 -34312804.692771912 622083166.7290802 0 622083166.7290802 -602182401.96322632 0 0 0 0 -2481793058.2795448 654573659.25831604 0 654573659.25831604 1200708621.9525757 0 0 0 0 -327603237.12083817 -190715956.54058647 0 -190715956.54058647 -185790286.67756653 0 0 0 0 339642369.96813202 1339499459.4577408 0 1339499459.4577408 414981917.11447144 0 0 0 0 179264657.25584412 482671123.81620789 0 482671123.81620789 -418086249.98238373 0 0 0 0 -940335398.88423157 536704316.54626083 0 536704316.54626083 -276467182.27865601 0 0 0 0 -3237006636.9613953 -23804180.143676758 0 -23804180.143676758 218705054.88496399 0 0 0 0 -3203637086.9993591 26602921.278137207 0 26602921.278137207 -175429142.55958557 0 0 0 0 -952764554.7954607 599474093.85817909 0 599474093.85817909 -578089409.21765137 0 0 0 0 -3025331450.6738091 1487636995.6030731 0 1487636995.6030731 -1399434.3502807617 0 0 0 0 -4683091298.5923424 797790207.50552368 0 797790207.50552368 567147800.03872681 0 0 0 0 -669278358.1226902 1761087451.5161266 0 1761087451.5161266 1765327.3700866699 0 0 0 0 -1271027762.6060715 396830103.03470612 0 396830103.03470612 -610863798.68554688 0 0 0 0 18826808.565177917 980220072.8475647 0 980220072.8475647 -706263613.77112198 0 0 0 0 781645880.93171692 -479705829.4989624 0 -479705829.4989624 203626676.66403198 0 0 0 0 -1397815.7200936563 3331105.4155358896 0 3331105.4155358896 1491051.8941768482 0 0 0 0 1413370120.8676376 427634072.87641907 0 427634072.87641907 -824005103.58304787 0 0 0 0 -5476839.997467041 9194017.0135345459 0 9194017.0135345459 -7821.6071094365961 0 0 0 0 -1231187.9046020508 5399842.9734649658 0 5399842.9734649658 -1850810.7939147949 0 0 0 0 206508152.43828583 52309217.475646973 0 52309217.475646973 -288296474.5818634 0 0 0 0 70207314.318664551 260483537.72319031 0 260483537.72319031 -171599030.02352142 0 0 0 0 37383764.828689575 217218511.49482727 0 217218511.49482727 60119445.229400635 0 0 0 0 366605463.4656105 590421410.56996918 0 590421410.56996918 -549847865.43945312 0 0 0 0 305583971.72579956 968833299.77789307 0 968833299.77789307 -322003815.81293488 0 0 0 0 173257995.03804398 382529538.94676971 0 382529538.94676971 72434730.132080078 0 0 0 0 -517786049.8302002 1007524245.6090622 0 1007524245.6090622 459651026.8963623 0 0 0 0 -1085834364.2108231 166499445.05509186 0 166499445.05509186 64227011.194946289 0 0 0 0 1023193.4450714886 1033254.5306433421 0 1033254.5306433421 -1570924.6878169626 0 0 0 0 1587397719.8134308 546182150.59942627 0 546182150.59942627 366980789.41817474 0 0 0 0 -499932287.35891724 402042653.68467712 0 402042653.68467712 -296225278.34173584 0 0 0 0 -540755609.19968224 558879229.8174057 0 558879229.8174057 217124377.86120605 0 0 0 0 86282251.760787964 333180132.04098511 0 333180132.04098511 -77616892.70324707 0 0 0 0 681025342.3059082 166878615.40188599 0 166878615.40188599 561147482.402771 0 0 0 0 347455770.16322708 868656794.15065765 0 868656794.15065765 654051694.33004761 0 0 0 0 -1149616282.1393127 -546900546.17120361 0 -546900546.17120361 -523953496.58136749 0 0 0 0 -1019097058.8331146 410609640.4302063 0 410609640.4302063 868992261.00097656 0 0 0 0 -2813828684.0355606 623191987.86691284 0 623191987.86691284 1788458564.4837036 0 0 0 0 -879207635.604599 -92395965.622833252 0 -92395965.622833252 376385102.79165649 0 0 0 0 -474804605.95307159 789912571.48841858 0 789912571.48841858 1398767281.9516602 0 0 0 0 550096293.96730042 -370729908.53013611 0 -370729908.53013611 763282629.20844269 0 0 0 0 -828014977.72174072 1601303598.1271439 0 1601303598.1271439 252861962.71386719 0 0 0 0 1893705124.6759682 917982053.50523376 0 917982053.50523376 255923325.91577148 0 0 0 0 -3110762746.3961792 -866825733.21026611 0 -866825733.21026611 1089142322.1077118 0 0 0 0 2370453.8497193269 3783325.404555181 0 3783325.404555181 -3856716.6087278575 0 0 0 0 134571.00867173262 3252233.689353222 0 3252233.689353222 -2435052.8433762491 0 0 0 0 1403788075.2171478 983823682.17901611 0 983823682.17901611 347971795.98735046 0 0 0 0 -74528762.872554779 71345296.585289001 0 71345296.585289001 -29588238.873352051 0 0 0 0 137068610.48680115 -51193250.469543457 0 -51193250.469543457 15727366.969818115 0 0 0 0 1036603.037401922 6241629.0517021194 0 6241629.0517021194 2442212.9442298263 0 0 0 0 9014303.2576599121 11126909.379016876 0 11126909.379016876 -2491573.5439758301 0 0 0 0 6193643.7635192871 7824766.2886657715 0 7824766.2886657715 -2334257.1383056641 0 0 0 0 5013428.4892425537 10319660.569213867 0 10319660.569213867 4051.2331085205078 0 0 0 0 -673720353.81312561 -1261998950.4482069 0 -1261998950.4482069 1487803600.3483582 0 0 0 0 6568452.7578929253 1615573.9137831852 0 1615573.9137831852 -1705881.4493350536 0 0 0 0 -596439364.85757446 -751869361.00404358 0 -751869361.00404358 485105213.6088562 0 0 0 0 -1096872805.3098145 1300809082.0950928 0 1300809082.0950928 -803434098.24026489 0 0 0 0 2650642.295844309 4661825.3608425781 0 4661825.3608425781 1938206.5719242021 0 0 0 0 -1287840971.1808319 -1201138312.5987244 0 -1201138312.5987244 205292023.32801867 0 0 0 0 -1315855464.2806911 854087535.92682648 0 854087535.92682648 2649017219.81427 0 0 0 0 5945070230.3542786 413830204.86935425 0 413830204.86935425 -2437471386.334198 0 0 0 0 -294472650.45787048 384357288.67253113 0 384357288.67253113 554460080.31507111 0 0 0 0 2702906271.1040039 902403694.66439819 0 902403694.66439819 90432317.611968994 0 0 0 0 1301843498.3973846 438262571.56057739 0 438262571.56057739 -2313991.0673467373 0 0 0 0 1131779724.6548615 909970541.31306458 0 909970541.31306458 499087863.86315918 0 0 0 0 -188873.04614257812 122584681.41357422 0 122584681.41357422 346083980.57844543 0 0 0 0 201605646.68089294 222636903.91851807 0 222636903.91851807 183006089.7093811 0 0 0 0 488227887.7775116 999358438.7401123 0 999358438.7401123 874462918.12704468 0 0 0 0 -18843239.281982422 -66902416.54586792 0 -66902416.54586792 -105836504.22158813 0 0 0 0 71901441.799468994 96568353.147491455 0 96568353.147491455 -290779549.82247925 0 0 0 0 5855145552.8544312 -824464541.69732666 0 -824464541.69732666 -1009847824.861145 0 0 0 0 2383644.6489653662 4676312.7917702869 0 4676312.7917702869 4557453.9838117361 0 0 0 0 2123042.2582806051 1578798.2261153609 0 1578798.2261153609 298196.13078951836 0 0 0 0 486647133.61721039 -203653971.22154236 0 -203653971.22154236 2165826174.7796021 0 0 0 0 5211397939.8788757 1180714703.7852478 0 1180714703.7852478 -2171592564.5492783 0 0 0 0 1753489849.685257 1386612522.700592 0 1386612522.700592 1731966024.027977 0 0 0 0 2860824688.9943542 -296013637.29858398 0 -296013637.29858398 2065148915.4923096 0 0 0 0 2570497133.8429413 -2203407073.8130951 0 -2203407073.8130951 1215267450.7910309 0 0 0 0 4264130038.2681351 37473523.429389954 0 37473523.429389954 75815699.636352539 0 0 0 0 1291818922.3352203 -47571213.741897583 0 -47571213.741897583 99179924.82723999 0 0 0 0 1619046188.0925064 193793615.29219055 0 193793615.29219055 -76346041.93838501 0 0 0 0 2046242434.5809937 -808444349.79721069 0 -808444349.79721069 -120101.18130493164 0 0 0 0 -57516573.906692505 175085361.2437439 0 175085361.2437439 -181174170.88220215 0 0 0 0 1597539112.9605713 -760234261.4647522 0 -760234261.4647522 388538493.25067139 0 0 0 0 4876828.9306001328 13668458.042349242 0 13668458.042349242 12617977.429148287 0 0 0 0 -1050838133.703701 -759681580.16012383 0 -759681580.16012383 -240163793.78326416 0 0 0 0 -912361135.37379456 -635862068.89694214 0 -635862068.89694214 -394521260.14379883 0 0 0 0 429423.13045457751 -4034656.8074532766 0 -4034656.8074532766 8189053.6673033834 0 0 0 0 153145583.26717812 133268079.6607312 0 133268079.6607312 105629871.50210571 0 0 0 0 153358834.65435028 154984153.34387207 0 154984153.34387207 71907432.729553223 0 0 0 0 -892906120.31973267 -555415573.34628296 0 -555415573.34628296 -644781268.54724121 0 0 0 0 180361488.37993622 256246756.49459839 0 256246756.49459839 197723449.41717529 0 0 0 0 41427937.775382996 195688045.98373413 0 195688045.98373413 156261680.5302124 0 0 0 0 134300528.51133728 209384463.64761353 0 209384463.64761353 152587973.82541656 0 0 0 0 63864804.794788361 310446409.70833588 0 310446409.70833588 256565647.65167236 0 0 0 0 -36873320.614730835 244847477.24137878 0 244847477.24137878 217262560.83181763 0 0 0 0 -24974172.570625305 334673033.63227463 0 334673033.63227463 247719966.7432251 0 0 0 0 -179775044.19569016 255601542.88865662 0 255601542.88865662 208207419.60670471 0 0 0 0 50828050.421791077 215609974.67761993 0 215609974.67761993 165692584.44848633 0 0 0 0 -66692631.817810059 192892241.13296509 0 192892241.13296509 171738642.15276337 0 0 0 0 -70980093.43901825 16217511.435317993 0 16217511.435317993 -9490291.0380859375 0 0 0 0 -191131336.48825836 102815262.800354 0 102815262.800354 107817793.93182373 0 0 0 0 -317096585.40351868 -12457809.228363037 0 -12457809.228363037 107258231.79206848 0 0 0 0 -166833307.91952467 243240699.70223999 0 243240699.70223999 219140689.30804443 0 0 0 0 -364424297.53864288 123650731.20265198 0 123650731.20265198 166072031.65148926 0 0 0 0 -322733071.79179001 -149584225.31250763 0 -149584225.31250763 233231979.90164185 0 0 0 0 -629142919.64543152 -30958191.554748535 0 -30958191.554748535 519546588.97076416 0 0 0 0 -543037.95437053964 -6021259.0205241293 0 -6021259.0205241293 15020000.475785315 0 0 0 0 60837730.593963623 71140124.507865906 0 71140124.507865906 6641792.6658325195 0 0 0 0 -1102058898.4768066 -309938911.51507568 0 -309938911.51507568 -417728092.3112793 0 0 0 0 -258998014.26034546 -253528526.45733643 0 -253528526.45733643 -692247593.82434845 0 0 0 0 147433.35519969836 36057.105395853519 0 36057.105395853519 -53581.809080276638 0 0 0 0 -552646787.78517914 206915501.72721863 0 206915501.72721863 67991140.490722656 0 0 0 0 525329370.25076294 526167017.18640137 0 526167017.18640137 796234841.74938965 0 0 0 0 -124936211.26277161 195592208.05557251 0 195592208.05557251 649696973.52548218 0 0 0 0 100647725.66968536 -40722140.038238525 0 -40722140.038238525 350144392.48846436 0 0 0 0 -70995826.966873169 281058765.21948242 0 281058765.21948242 711904459.8455925 0 0 0 0 -1676503.8939208873 4051910.5453656837 0 4051910.5453656837 -565586.91004041955 0 0 0 0 100038168.09367371 83163193.338653564 0 83163193.338653564 211698808.45651245 0 0 0 0 -28982793.396270752 76214470.735321045 0 76214470.735321045 596392668.12493896 0 0 0 0 16901656.110694885 59566539.482696533 0 59566539.482696533 352551391.17181396 0 0 0 0 32066437.87713623 128894802.18139648 0 128894802.18139648 402194261.26156616 0 0 0 0 9506008.1931610107 62993108.264892578 0 62993108.264892578 426717420.19833374 0 0 0 0 35285335.228164673 78940498.785552979 0 78940498.785552979 191706292.03399658 0 0 0 0 63774304.431098938 141749441.03755188 0 141749441.03755188 181684990.33053589 0 0 0 0 32361602.633972168 116424289.69702148 0 116424289.69702148 332059963.49761963 0 0 0 0 22112687.306289673 357188737.30471802 0 357188737.30471802 548990323.11400604 0 0 0 0 31025399.76448822 22753285.897659302 0 22753285.897659302 614491393.29785156 0 0 0 0 -142693593.83944321 71648060.443527222 0 71648060.443527222 317035440.56021118 0 0 0 0 -21866172.90473938 217358366.58163452 0 217358366.58163452 361601282.78393555 0 0 0 0 95330580.829696655 95388887.516967773 0 95388887.516967773 -4304392.6889190674 0 0 0 0 36689467.775421143 268806647.3666687 0 268806647.3666687 110644344.28208923 0 0 0 0 176006835.86006165 318201994.03460693 0 318201994.03460693 305216926.80692291 0 0 0 0 161143643.27133799 20358747.106379032 0 20358747.106379032 321163698.63119507 0 0 0 0 -13031566.889144897 -11988742.415084839 0 -11988742.415084839 13511597.917755127 0 0 0 0 1842580.3684234619 31492812.384918213 0 31492812.384918213 -8918440.4452819824 0 0 0 0 -19513191.182052612 -5540292.2948913574 0 -5540292.2948913574 30835521.154693604 0 0 0 0 -14004514.15776062 -2871944.0868377686 0 -2871944.0868377686 18533903.28125 0 0 0 0 785721.64544058684 -4838182.6034978079 0 -4838182.6034978079 3209874.3701371253 0 0 0 0 -642098392.62930298 -1237507772.0608826 0 -1237507772.0608826 181725738.65161133 0 0 0 0 -1697119890.7711754 135217393.20696259 0 135217393.20696259 -609739563.7385025 0 0 0 0 205866.62296013907 -1293441.5918930508 0 -1293441.5918930508 2369711.0485737622 0 0 0 0 -9868006.4352722168 -8823053.2681121826 0 -8823053.2681121826 -8496269.4775390625 0 0 0 0 -60968370.284233093 -13551693.677658081 0 -13551693.677658081 -7985632.9357032776 0 0 0 0 -36378837.108596802 30202196.841140747 0 30202196.841140747 -7035529.0906677246 0 0 0 0 -65677160.63458252 38585110.748413086 0 38585110.748413086 -7880441.669921875 0 0 0 0 -54882683.455329895 26160274.673614502 0 26160274.673614502 176745.64758300781 0 0 0 0 -72331393.816503525 48198276.413667679 0 48198276.413667679 6405133.6777954102 0 0 0 0 -87986822.189422607 46447254.179046631 0 46447254.179046631 22172836.818374634 0 0 0 0 -107413751.97772217 15848370.814758301 0 15848370.814758301 17744654.447784424 0 0 0 0 -93812328.254589081 21911523.718090057 0 21911523.718090057 3325678.2568359375 0 0 0 0 -123060432.65296936 -16327114.640197754 0 -16327114.640197754 19037572.753937364 0 0 0 0 -88026604.249153137 -6165994.9712371826 0 -6165994.9712371826 12058527.296020508 0 0 0 0 -179168516.87307739 8720861.7258300781 0 8720861.7258300781 39158685.17401123 0 0 0 0 -107945997.0782547 20300226.76675415 0 20300226.76675415 40752693.543823242 0 0 0 0 -130357219.45213318 42761398.766479492 0 42761398.766479492 22106294.592453003 0 0 0 0 -158413549.10698318 53640291.78528595 0 53640291.78528595 51779256.647277832 0 0 0 0 -108944478.77236938 63464392.733688354 0 63464392.733688354 38079895.308898926 0 0 0 0 -87051857.323444366 -3413373.1641769409 0 -3413373.1641769409 6192100.5230712891 0 0 0 0 700718840.5765729 716605993.44523716 0 716605993.44523716 779031683.49633789 0 0 0 0 -1401174047.2025452 -718105565.29821777 0 -718105565.29821777 1586929099.6638184 0 0 0 0 1572556.5823706193 -4835961.3474060511 0 -4835961.3474060511 3988108.6206704676 0 0 0 0 761937757.30711365 -1358212424.9496155 0 -1358212424.9496155 -1617014038.0553284 0 0 0 0 430868319.39302063 -848277189.04255676 0 -848277189.04255676 1224024668.5565796 0 0 0 0 218469954.45319366 372670725.03253174 0 372670725.03253174 1634278869.4284668 0 0 0 0 220027209.0952301 194389905.35205078 0 194389905.35205078 627678345.80349731 0 0 0 0 190992268.07752228 117293371.20289612 0 117293371.20289612 479539332.12216187 0 0 0 0 148367023.27113342 246034559.70648193 0 246034559.70648193 293830432.03421021 0 0 0 0 94354036.412569284 246417421.97446489 0 246417421.97446489 614435714.47186279 0 0 0 0 271656124.32449341 305456433.94410706 0 305456433.94410706 489930573.19422913 0 0 0 0 327829986.80625916 483835851.99026489 0 483835851.99026489 904003618.22732544 0 0 0 0 261933572.7449789 202445361.72045517 0 202445361.72045517 595340965.83709717 0 0 0 0 728359812.55203629 445478944.37687111 0 445478944.37687111 257836828.05371094 0 0 0 0 479024903.82679749 427860000.95214844 0 427860000.95214844 340467794.58099365 0 0 0 0 172585742.04920959 306942384.0447998 0 306942384.0447998 512344004.97219849 0 0 0 0 216450697.93708801 249563509.32012939 0 249563509.32012939 198600859.73883057 0 0 0 0 229525169.10245514 284461713.60412598 0 284461713.60412598 279698739.93060303 0 0 0 0 589690511.18530273 258403813.23501587 0 258403813.23501587 111650496.66247559 0 0 0 0 266128520.98168945 106409236.66546631 0 106409236.66546631 71987942.551025391 0 0 0 0 531710270.54473877 193831931.81622314 0 193831931.81622314 55764406.996002197 0 0 0 0 -76714663.955863953 324276687.41468811 0 324276687.41468811 291372544.68939209 0 0 0 0 40189031.612017632 393501523.52930069 0 393501523.52930069 300487945.67614746 0 0 0 0 80454078.270332336 264131772.2769928 0 264131772.2769928 266860340.26623154 0 0 0 0 107825617.00248718 320051332.60866547 0 320051332.60866547 372793605.915802 0 0 0 0 177669938.8734169 284646270.77133179 0 284646270.77133179 346827451.41552734 0 0 0 0 126580800.06309128 262157334.06675339 0 262157334.06675339 319416453.72369385 0 0 0 0 -85406966.010158539 59099509.384628296 0 59099509.384628296 338854279.94680786 0 0 0 0 92116722.764900208 215857082.47741699 0 215857082.47741699 488628548.08056641 0 0 0 0 93054801.255709291 209912030.73643208 0 209912030.73643208 480842108.79089355 0 0 0 0 69820546.879470825 223343428.33024597 0 223343428.33024597 476144114.33300781 0 0 0 0 143767263.00415421 169375398.48382568 0 169375398.48382568 211025390.16732788 0 0 0 0 -4513461.764957428 303828034.22195435 0 303828034.22195435 107765676.50138855 0 0 0 0 -10721415.916610718 329678618.373703 0 329678618.373703 446288780.86659241 0 0 0 0 -310392274.06143951 215006503.87900543 0 215006503.87900543 70040150.288970947 0 0 0 0 -1259285.556323071 4300703.6696497165 0 4300703.6696497165 2170124.8907852173 0 0 0 0 24096853.381580353 254448095.83952332 0 254448095.83952332 137688818.98551941 0 0 0 0 -258364643.93190002 313613842.51321411 0 313613842.51321411 249396266.9927063 0 0 0 0 -113342760.71893501 187227976.51391602 0 187227976.51391602 105951974.00152588 0 0 0 0 -180818645.66987228 448896039.43447876 0 448896039.43447876 300269983.06336975 0 0 0 0 -73131829.881612062 396993498.16827631 0 396993498.16827631 267193534.17202759 0 0 0 0 359789763.55550194 66249135.051094055 0 66249135.051094055 -52637951.803878784 0 0 0 0 -600039.17235489551 15086285.634051548 0 15086285.634051548 -10662097.812408522 0 0 0 0 168274514.54987335 158723440.85468292 0 158723440.85468292 37255247.676269531 0 0 0 0 29009968.925899506 284029639.4205246 0 284029639.4205246 8934947.5236663818 0 0 0 0 34912966.713348389 75747303.507202148 0 75747303.507202148 47061505.726478577 0 0 0 0 377781723.47088242 103227078.15731812 0 103227078.15731812 39638841.480095387 0 0 0 0 416704527.61727524 226093881.2566452 0 226093881.2566452 94650009.878662109 0 0 0 0 -510839.96600523574 13512497.214689704 0 13512497.214689704 -6583581.6196957678 0 0 0 0 603969082.79825127 217202713.32906425 0 217202713.32906425 30946881.458129883 0 0 0 0 109344823.1308403 338812151.64015198 0 338812151.64015198 142269123.00888062 0 0 0 0 458575782.6906786 334375609.01614952 0 334375609.01614952 136914269.25411987 0 0 0 0 1202967581.6324425 338321847.25125122 0 338321847.25125122 -33315082.213340759 0 0 0 0 -705672.20113680081 10979901.516637838 0 10979901.516637838 -2397925.525301829 0 0 0 0 -230903955.11998749 397978939.62973022 0 397978939.62973022 313041314.52842712 0 0 0 0 -134410713.60460663 396269711.64520264 0 396269711.64520264 281023365.4034729 0 0 0 0 -138729958.52243137 408499398.09086418 0 408499398.09086418 317429183.14517212 0 0 0 0 -87228650.348064423 413387125.02804565 0 413387125.02804565 307365723.69619751 0 0 0 0 -84265883.657951355 388998834.67036438 0 388998834.67036438 287796595.29721069 0 0 0 0 56957554.819141388 557372424.05437469 0 557372424.05437469 276860335.91693115 0 0 0 0 -8977513.1461677551 454593591.68830872 0 454593591.68830872 299141719.96394539 0 0 0 0 -412528823.40034485 374661447.22108459 0 374661447.22108459 321476044.54434967 0 0 0 0 -136236547.44347 421187765.10181427 0 421187765.10181427 296928956.21633911 0 0 0 0 -291857913.04133415 301042973.69148254 0 301042973.69148254 302158138.212677 0 0 0 0 -727177181.93585968 133925540.13449097 0 133925540.13449097 298700212.83483887 0 0 0 0 -58832297.68857193 529298917.58804321 0 529298917.58804321 263455540.43644714 0 0 0 0 -492536602.56459713 547622789.58202362 0 547622789.58202362 403004027.79470825 0 0 0 0 -796748821.97612381 306972134.48442078 0 306972134.48442078 353705227.46680069 0 0 0 0 -30765681.6541996 777845786.33898163 0 777845786.33898163 -53320593.395004272 0 0 0 0 -1749637447.4915009 259074542.02102661 0 259074542.02102661 188848348.62032318 0 0 0 0 -947396892.376441 -176953935.48142815 0 -176953935.48142815 138174397.90763855 0 0 0 0 -1695539684.9219382 -882721078.73740149 0 -882721078.73740149 -377694524.15197754 0 0 0 0 -719711697.12861633 307979126.55690002 0 307979126.55690002 134602582.74902344 0 0 0 0 873728901.16758347 274332604.24698639 0 274332604.24698639 245234217.77534485 0 0 0 0 753159583.22961235 745958078.26429749 0 745958078.26429749 11117814.861312866 0 0 0 0 25676200.924144745 586038257.63597107 0 586038257.63597107 511176448.40681458 0 0 0 0 -731241.35863370961 6768152.5428092033 0 6768152.5428092033 -477185.33052861691 0 0 0 0 2411870305.3379364 559304179.46569824 0 559304179.46569824 -241256209.94714355 0 0 0 0 1387636022.3330841 530480114.45074463 0 530480114.45074463 516588735.19250488 0 0 0 0 1370575850.6395302 924285214.43856192 0 924285214.43856192 -308534242.26239014 0 0 0 0 40274068.700565338 1018941049.3451996 0 1018941049.3451996 304124347.04089355 0 0 0 0 685351002.5626297 168869697.72896576 0 168869697.72896576 -197539390.44784546 0 0 0 0 4128348896.5991325 446965682.14690399 0 446965682.14690399 -682564560.5749588 0 0 0 0 1832387326.9975872 1298567714.356041 0 1298567714.356041 1329706.7062683105 0 0 0 0 -679934.24928894732 2642272.7273268811 0 2642272.7273268811 -112237.05656474829 0 0 0 0 -1935749733.1554337 -170814768.85820007 0 -170814768.85820007 133763356.39886475 0 0 0 0 -2623604514.6746712 -578855214.08470154 0 -578855214.08470154 -83063757.399291992 0 0 0 0 -4680122.428320786 6543904.8786564078 0 6543904.8786564078 1180107.9317443967 0 0 0 0 78824303.446231842 92919928.365005493 0 92919928.365005493 33623215.635704041 0 0 0 0 -1912536206.5385203 91786875.689249992 0 91786875.689249992 14454083.321899414 0 0 0 0 -339517.42362617329 523957.96513616294 0 523957.96513616294 867755.05012915283 0 0 0 0 -1124662633.4920158 103769271.97108459 0 103769271.97108459 -353527862.97477722 0 0 0 0 -1332929094.6874313 773258098.16601562 0 773258098.16601562 390532319.34425354 0 0 0 0 -226803275.63201141 481063873.04055786 0 481063873.04055786 -10481591.233215332 0 0 0 0 -870658821.19737625 1173594538.4730911 0 1173594538.4730911 -1771174.6502990723 0 0 0 0 -3374043325.6713562 453897610.73095703 0 453897610.73095703 282424850.26935482 0 0 0 0 -1753574737.7521286 1067473322.4359322 0 1067473322.4359322 257314084.12890625 0 0 0 0 -1518413.9553901302 2098459.3679795563 0 2098459.3679795563 335065.19415567815 0 0 0 0 126751206.85000324 97350281.082027435 0 97350281.082027435 81976.652084350586 0 0 0 0 -4263195770.0528946 -901850301.66996002 0 -901850301.66996002 286361795.15963745 0 0 0 0 41298506.484958649 69587539.359481812 0 69587539.359481812 44144607.631195068 0 0 0 0 35792422.382646561 46631015.111251831 0 46631015.111251831 25473528.058929443 0 0 0 0 -42839675.366153717 122813075.29046631 0 122813075.29046631 -174990.22639596506 0 0 0 0 -176855823.160532 20908369.714393616 0 20908369.714393616 53967014.75378418 0 0 0 0 -10025361.408200264 67827341.250598907 0 67827341.250598907 53412782.888763428 0 0 0 0 -21952091.783529282 79480546.383430481 0 79480546.383430481 79111286.058456421 0 0 0 0 66008215.415618896 72045403.625656128 0 72045403.625656128 22447390.978097916 0 0 0 0 -107090189.82028961 66081877.802970886 0 66081877.802970886 47021157.146980286 0 0 0 0 -12730153.436981753 18806256.475886099 0 18806256.475886099 -8015194.8548423722 0 0 0 0 -671126202.07466888 -220660979.00656128 0 -220660979.00656128 -357301.54425048828 0 0 0 0 -5396851.4567456767 -5343074.9442839306 0 -5343074.9442839306 23570614.736415252 0 0 0 0 -45004602.68443203 -59181962.855185509 0 -59181962.855185509 -6969765.5548248291 0 0 0 0 14000960.042538166 39661941.129729271 0 39661941.129729271 -48101129.352478027 0 0 0 0 11798955.411768913 45447659.273681641 0 45447659.273681641 53795637.545410156 0 0 0 0 -29899305.280456543 14022895.301269531 0 14022895.301269531 199691969.6519928 0 0 0 0 -406078800.25071335 6022433.9880828857 0 6022433.9880828857 50793758.535675049 0 0 0 0 -294261190.08732986 115099889.12724304 0 115099889.12724304 141069912.1865387 0 0 0 0 -25920430.046387672 25727484.616035461 0 25727484.616035461 21445169.630950928 0 0 0 0 -121167544.29995155 28661923.136043549 0 28661923.136043549 69096997.196655273 0 0 0 0 -2597653.8020556467 3648964.9922146695 0 3648964.9922146695 1225301.4466935843 0 0 0 0 80032073.718948364 5104076.3653869629 0 5104076.3653869629 114727481.7134552 0 0 0 0 75847628.353286743 21448008.921630859 0 21448008.921630859 3786318.3676605225 0 0 0 0 -12727113.361723665 20305504.475699916 0 20305504.475699916 -8829807.0823092312 0 0 0 0 57778872.385345459 88784779.896896362 0 88784779.896896362 32535711.596160889 0 0 0 0 107997659.91049194 44605118.974487305 0 44605118.974487305 53677605.915618896 0 0 0 0 -49178008.456224442 25503577.608978271 0 25503577.608978271 72826506.574630737 0 0 0 0 -9359624.9584025182 3134025.9491131501 0 3134025.9491131501 17365707.455591902 0 0 0 0 -11411414.889550447 9061288.1264476776 0 9061288.1264476776 5258004.9413452148 0 0 0 0 -3267219.3739032745 3825038.6365814209 0 3825038.6365814209 8596405.1133651733 0 0 0 0 -7500304.9954228401 8234025.3019332886 0 8234025.3019332886 15167323.261734009 0 0 0 0 -4754482.724287115 -268128.81030126195 0 -268128.81030126195 10660580.81530571 0 0 0 0 -69404959.342161179 -15152311.629333496 0 -15152311.629333496 31081310.180587769 0 0 0 0 -51106897.915378571 -14449701.899246216 0 -14449701.899246216 22103911.847229004 0 0 0 0 -123355639.28427768 -79115547.961166382 0 -79115547.961166382 -41239238.11126709 0 0 0 0 -3132603.4328712141 3331376.321817698 0 3331376.321817698 1305195.0556209832 0 0 0 0 1865324.2020341861 4743260.0049009472 0 4743260.0049009472 1572325.8315613195 0 0 0 0 1157270.493106842 6047983.4566650391 0 6047983.4566650391 5597.1691284179688 0 0 0 0 -6031433.9113473892 4033053.458694458 0 4033053.458694458 22311066.930267334 0 0 0 0 -1604254.9169387922 7275724.8084161952 0 7275724.8084161952 911332.08282420039 0 0 0 0 157316.99110683799 8259653.0323696136 0 8259653.0323696136 10018909.143859863 0 0 0 0 7552426.7320842743 21034070.410827637 0 21034070.410827637 11455.495956420898 0 0 0 0 -6403237.683296348 8346854.5673531741 0 8346854.5673531741 -258446.3847685121 0 0 0 0 -30573306.749341488 -2384296.0779800415 0 -2384296.0779800415 21069256.38861084 0 0 0 0 8580551.6733360291 7676543.5524902344 0 7676543.5524902344 3172.7232727057194 0 0 0 0 2921882.8815697269 3422108.9113942757 0 3422108.9113942757 -2948918.9157478139 0 0 0 0 -36673899.345283508 -3723073.3605651855 0 -3723073.3605651855 26635886.078552246 0 0 0 0 -7867882.4671096802 -3632879.7630233765 0 -3632879.7630233765 5985610.7561950684 0 0 0 0 -14603390.635001183 8509404.1114044189 0 8509404.1114044189 42831558.40700531 0 0 0 0 303501.69295024872 8363003.048664093 0 8363003.048664093 10837719.71383667 0 0 0 0 -7295149.108628273 9456454.9715881348 0 9456454.9715881348 10815459.27381897 0 0 0 0 -21275429.85357666 12685701.547828674 0 12685701.547828674 5597.7695465087891 0 0 0 0 -32366088.160526276 16674493.789459229 0 16674493.789459229 5078277.5125274658 0 0 0 0 5175018.7417449951 13941317.461120605 0 13941317.461120605 -12047143.665100098 0 0 0 0 34383234.364056587 17176933.694847107 0 17176933.694847107 -24563818.370986938 0 0 0 0 1572247.6626465563 1863507.6279514283 0 1863507.6279514283 -1604591.2661939487 0 0 0 0 -20692644.232219696 9308176.3191833496 0 9308176.3191833496 6820738.8709869385 0 0 0 0 -679854.43075561523 1137783.3343353271 0 1137783.3343353271 5447675.7831726074 0 0 0 0 -2494316.7522025108 12985752.14250946 0 12985752.14250946 -4849155.0343322754 0 0 0 0 -11254220.372789577 9380010.0978197604 0 9380010.0978197604 60087.834627956152 0 0 0 0 -27778928.998297691 33755351.151123047 0 33755351.151123047 37799504.67622757 0 0 0 0 -11688965.807834864 23545443.920110703 0 23545443.920110703 6231728.3264312744 0 0 0 0 -47243413.932594299 11278202.359191895 0 11278202.359191895 3561323.0598297119 0 0 0 0 -16396925.386330983 9896702.1599787548 0 9896702.1599787548 2356371.3855577596 0 0 0 0 -4798805.8073949814 10012154.075267792 0 10012154.075267792 -4591300.5556335449 0 0 0 0 360577.10712146759 10842815.577163696 0 10842815.577163696 -7118496.3806915283 0 0 0 0 5169073.6991901398 14153798.803344727 0 14153798.803344727 -6612196.8193206787 0 0 0 0 -1011706.3434734953 1134094.9380335361 0 1134094.9380335361 520861.68952739239 0 0 0 0 -12050792.501503944 17266021.65524292 0 17266021.65524292 -4098735.0544586182 0 0 0 0 -3624060.0972325811 4442121.7621924449 0 4442121.7621924449 2072321.2900164276 0 0 0 0 -21724887.997389317 5637814.9300346375 0 5637814.9300346375 9447262.3952026367 0 0 0 0 -48789675.485445023 -8328897.2444381714 0 -8328897.2444381714 21043627.543289185 0 0 0 0 -12927016.604500536 6584448.7855943963 0 6584448.7855943963 10347726.344049878 0 0 0 0 -48501600.116032362 8748380.679297626 0 8748380.679297626 5051484.2320709229 0 0 0 0 -6982137.9917001724 6064303.0739822388 0 6064303.0739822388 2644270.3727416992 0 0 0 0 -14676470.477153778 22953329.789321899 0 22953329.789321899 -12788399.773620605 0 0 0 0 -54156748.974639177 9497235.8275604248 0 9497235.8275604248 6926908.1106872559 0 0 0 0 -18190461.626089573 8906137.5923995972 0 8906137.5923995972 10302624.1277771 0 0 0 0 -16094976.927661896 7872563.9465637207 0 7872563.9465637207 5935698.3466567993 0 0 0 0 -7612896.8113632202 14664724.677062988 0 14664724.677062988 -2056216.3255729675 0 0 0 0 -6820098.0370240211 12001435.99823761 0 12001435.99823761 6544241.2116241455 0 0 0 0 -12136119.111184936 10116900.981914997 0 10116900.981914997 1954238.2870084271 0 0 0 0 86729770.908996582 59010280.614349365 0 59010280.614349365 26158210.664432526 0 0 0 0 -48229586.775442123 101666332.77875519 0 101666332.77875519 326100330.70458984 0 0 0 0 -458525.76993255317 3953059.4500054345 0 3953059.4500054345 -1706097.0531132333 0 0 0 0 -27229224.460159302 47050043.15599823 0 47050043.15599823 7441091.6487121582 0 0 0 0 153940564.60279846 201431738.66506958 0 201431738.66506958 271393619.48991394 0 0 0 0 -33854203.534244537 190898668.45431519 0 190898668.45431519 650024691.00608063 0 0 0 0 -101273230.03839874 171649484.78630829 0 171649484.78630829 588784310.16465759 0 0 0 0 -67757474.300571442 232945054.34713745 0 232945054.34713745 409991382.448946 0 0 0 0 18233320.062580109 157575641.46749878 0 157575641.46749878 188047249.91763306 0 0 0 0 133255684.03540039 16063757.640874863 0 16063757.640874863 342667095.13848877 0 0 0 0 -67042196.356361389 121921582.70507812 0 121921582.70507812 422451179.41622925 0 0 0 0 -76658489.069137573 47354592.784820557 0 47354592.784820557 325234712.14102173 0 0 0 0 -12452823.176940918 2005015.8097686768 0 2005015.8097686768 139669315.94360352 0 0 0 0 -36205809.052131653 58904220.874740601 0 58904220.874740601 84098198.581207275 0 0 0 0 -14031488.278229713 12629555.979354858 0 12629555.979354858 12290762.801597595 0 0 0 0 28799245.095302582 -36797954.301643372 0 -36797954.301643372 127816165.43621826 0 0 0 0 -9433663.2151357699 9602331.1855793744 0 9602331.1855793744 547356.01424744725 0 0 0 0 7513562.9741210938 35223655.094848633 0 35223655.094848633 32451211.576599121 0 0 0 0 -733695.59505827352 270611.01012482494 0 270611.01012482494 34458.691642969847 0 0 0 0 -10343835.31917572 4016959.4758911133 0 4016959.4758911133 8558234.7352905273 0 0 0 0 -5162902.2744617462 2107456.6774139404 0 2107456.6774139404 3117632.9150085449 0 0 0 0 -2094533.1282048225 3213491.9888343811 0 3213491.9888343811 7389088.3046417236 0 0 0 0 -7502143.7697305735 3864362.08427082 0 3864362.08427082 2714613.6862366796 0 0 0 0 -7520942.7082647476 -829389.57567562815 0 -829389.57567562815 8987204.8948875815 0 0 0 0 31018818.783996582 -22835006.585601807 0 -22835006.585601807 85157787.057220459 0 0 0 0 -7873787.0258332193 2467192.5757711828 0 2467192.5757711828 4919845.526532039 0 0 0 0 -72434524.153926849 -5702239.4872589111 0 -5702239.4872589111 22465026.312103271 0 0 0 0 -70418002.740660906 8038023.4567909241 0 8038023.4567909241 -4218901.8204956055 0 0 0 0 -60682201.186359406 21746361.364234924 0 21746361.364234924 1591840.880645752 0 0 0 0 -94817600.606381416 37495169.051914215 0 37495169.051914215 -5257646.3945617676 0 0 0 0 -1056331.8582575563 -813643.35041047633 0 -813643.35041047633 1736850.4760798961 0 0 0 0 -76224084.042588234 4592971.0237197876 0 4592971.0237197876 -9123534.3042907715 0 0 0 0 -2573606.3984873276 -193751.10951095354 0 -193751.10951095354 1943152.2229619026 0 0 0 0 287337836.5642252 367705527.35455322 0 367705527.35455322 149892505.68280029 0 0 0 0 71604561.177742004 42564746.099517822 0 42564746.099517822 111442916.93255615 0 0 0 0 227894108.55716705 190873667.85494995 0 190873667.85494995 246836102.65078735 0 0 0 0 53738900.509025574 127903842.21350098 0 127903842.21350098 282208383.73577881 0 0 0 0 -84942409.102054596 291041343.63621521 0 291041343.63621521 261337096.17242432 0 0 0 0 756826900.25560856 362060757.6425972 0 362060757.6425972 -59232406.335601807 0 0 0 0 43232294.8646698 485601652.74978638 0 485601652.74978638 181977254.08108521 0 0 0 0 262727679.17906952 -242084482.48399353 0 -242084482.48399353 -203300062.83554077 0 0 0 0 -87844378.437095642 351955699.46211243 0 351955699.46211243 103112406.69863892 0 0 0 0 -324562.7786953426 -847831.58329565544 0 -847831.58329565544 21921.364505454898 0 0 0 0 -220443782.77505302 3850127.1728744507 0 3850127.1728744507 30633825.945114136 0 0 0 0 -117174553.81393392 42215426.041828752 0 42215426.041828752 -12619023.202575684 0 0 0 0 -116959918.17170715 5822872.3472442627 0 5822872.3472442627 -564926.06695556641 0 0 0 0 69477305.488378525 236327815.25924683 0 236327815.25924683 148806120.09429932 0 0 0 0 -170053380.84088707 65621507.185928345 0 65621507.185928345 44882742.331695557 0 0 0 0 -45717351.38155365 90059216.397949219 0 90059216.397949219 190972432.39907837 0 0 0 0 85513889.968257904 142860611.26657104 0 142860611.26657104 332475344.15034485 0 0 0 0 101730172.55565643 128420940.80588531 0 128420940.80588531 123877058.02650452 0 0 0 0 -68168287.237426758 117063720.03503418 0 117063720.03503418 148282977.50421143 0 0 0 0 -57312784.882714748 195919011.59380913 0 195919011.59380913 60916608.65411377 0 0 0 0 -57201966.596878052 158760965.16009521 0 158760965.16009521 10847747.126785278 0 0 0 0 -66862309.865112305 198551582.17675781 0 198551582.17675781 1144890.6055297852 0 0 0 0 -73421340.282875061 132806730.53703308 0 132806730.53703308 41851374.741027832 0 0 0 0 -64901620.142417908 156044354.31390381 0 156044354.31390381 71880959.688842773 0 0 0 0 -77873298.915779114 154672883.98330688 0 154672883.98330688 32543115.891601562 0 0 0 0 -103119840.9662323 116805708.07717896 0 116805708.07717896 68762509.323730469 0 0 0 0 -100935207.65569305 110053300.66159058 0 110053300.66159058 51843768.120544434 0 0 0 0 -118699530.91439247 88355024.066497803 0 88355024.066497803 33059272.307250977 0 0 0 0 -67509829.046508789 100972124.92202759 0 100972124.92202759 16242022.08013916 0 0 0 0 -67103293.806964874 81283203.462503433 0 81283203.462503433 -725786.70916748047 0 0 0 0 -23042655.403274536 120251589.99763489 0 120251589.99763489 -14101441.951087952 0 0 0 0 -66859551.647022486 121404850.75909567 0 121404850.75909567 -12454810.495422363 0 0 0 0 -24178792.379627228 153346705.92443085 0 153346705.92443085 -137358041.76083374 0 0 0 0 -42413886.119094849 92492640.233963013 0 92492640.233963013 -29921326.848937988 0 0 0 0 -30158758.188670158 59560002.213205338 0 59560002.213205338 -43781347.983703613 0 0 0 0 -20177403.23487854 30733276.559509277 0 30733276.559509277 -6910612.1268310547 0 0 0 0 -3937460.3360157013 42179676.991477966 0 42179676.991477966 -108600686.2802124 0 0 0 0 70984474.226539612 82371606.628082275 0 82371606.628082275 -442245492.72877502 0 0 0 0 137547.31824287213 1843505.8637514114 0 1843505.8637514114 -1017286.4209860787 0 0 0 0 -3186981.3151931763 350247915.19980621 0 350247915.19980621 -228991521.08447266 0 0 0 0 7607789.5362451077 17920106.033554077 0 17920106.033554077 -7815628.7486724854 0 0 0 0 57414192.148036003 57308207.779396057 0 57308207.779396057 3052139.6036834717 0 0 0 0 53744411.469784498 65100013.364486694 0 65100013.364486694 -12672806.206697464 0 0 0 0 83880927.203003883 80266609.492973328 0 80266609.492973328 -11799994.989406586 0 0 0 0 -15223087.205319315 52651853.679867744 0 52651853.679867744 150321125.99964905 0 0 0 0 -1199076.6713919407 -3025111.9769763872 0 -3025111.9769763872 1897312.200567618 0 0 0 0 -183248964.69717789 79821216.309562683 0 79821216.309562683 10327195.563652039 0 0 0 0 -14696852.616247177 43931194.765365601 0 43931194.765365601 -32991800.491363525 0 0 0 0 -29278631.050540924 39441904.324409485 0 39441904.324409485 -6262379.9525146484 0 0 0 0 -134959622.81657982 48130124.422065735 0 48130124.422065735 42451569.305603027 0 0 0 0 -90953090.619052708 29493621.371875286 0 29493621.371875286 -19363436.139831543 0 0 0 0 -89293470.0169487 51594522.995437622 0 51594522.995437622 -11377639.768707275 0 0 0 0 -1184919.1217795638 -3033581.0818084441 0 -3033581.0818084441 1729223.0056011081 0 0 0 0 -60756913.31381005 90761009.000612259 0 90761009.000612259 30814470.590927124 0 0 0 0 -111727273.03428078 19553361.704910278 0 19553361.704910278 -18736621.699863434 0 0 0 0 -168069491.82569313 41814953.396713257 0 41814953.396713257 1861661.2080535889 0 0 0 0 -110261485.8241787 31267872.159011841 0 31267872.159011841 -1733389.3800811768 0 0 0 0 -105208125.90833282 16539333.460144043 0 16539333.460144043 -24413045.696624756 0 0 0 0 -106158171.4077158 20316884.579063416 0 20316884.579063416 19815430.596343994 0 0 0 0 -625437.20411517879 -1657846.4850852713 0 -1657846.4850852713 833765.56536351144 0 0 0 0 -197863828.67331505 35353911.335418701 0 35353911.335418701 40149250.868850708 0 0 0 0 154699444.5782032 96474445.630409241 0 96474445.630409241 -22388278.95217514 0 0 0 0 25503192.658037901 100679719.5086441 0 100679719.5086441 -12028339.078056335 0 0 0 0 -5352625.1559961326 390965.4238646403 0 390965.4238646403 1863416.2549066842 0 0 0 0 48221220.62271139 55900050.185007095 0 55900050.185007095 8777408.4427642822 0 0 0 0 -109666357.37976661 5625860.9277458191 0 5625860.9277458191 -4087307.5078125 0 0 0 0 17622961.913118362 15161881.378837585 0 15161881.378837585 -106085371.46596527 0 0 0 0 6039852.5260953298 399910.22523057088 0 399910.22523057088 -4736585.8697889671 0 0 0 0 -14456835.464768887 169675009.67061234 0 169675009.67061234 11912153.863174438 0 0 0 0 -6886692.5723752975 -31051919.341186523 0 -31051919.341186523 -35214202.350273132 0 0 0 0 -22309194.303290859 25090062.72160795 0 25090062.72160795 -4624286.2628277428 0 0 0 0 -109137472.6336205 17800748.167762756 0 17800748.167762756 52826633.99772644 0 0 0 0 -12236926.492535263 84300374.295959473 0 84300374.295959473 -61513495.716430664 0 0 0 0 -87582156.355882645 20821101.014579773 0 20821101.014579773 30726047.824386597 0 0 0 0 -80811383.717243195 70178744.615837097 0 70178744.615837097 44470616.642677307 0 0 0 0 46944620.994301319 64038894.48563385 0 64038894.48563385 6822304.9722976685 0 0 0 0 -31931567.097714975 29454311.486987472 0 29454311.486987472 -3412259.7624359131 0 0 0 0 -14603160.84513675 13060717.778071724 0 13060717.778071724 8254927.1549038813 0 0 0 0 -32486880.0969944 42747415.150169373 0 42747415.150169373 26181724.84195137 0 0 0 0 -23116849.868965149 15968502.465805054 0 15968502.465805054 -3086666.6995849609 0 0 0 0 -17502335.311134338 24867351.927947998 0 24867351.927947998 -24096154.283325195 0 0 0 0 -22241639.089878228 23442709.735769626 0 23442709.735769626 -1828343.8387597352 0 0 0 0 -5707032.5527745131 3394269.2995896861 0 3394269.2995896861 -1444163.0723580569 0 0 0 0 -26193998.062984467 30760345.058700562 0 30760345.058700562 15467799.024642944 0 0 0 0 -19235987.110176086 32591839.260467529 0 32591839.260467529 -18609690.248794556 0 0 0 0 -23532131.139839172 13480695.204299927 0 13480695.204299927 3884825.0332336426 0 0 0 0 -23756567.78125 17476944.598937988 0 17476944.598937988 25651.450811248091 0 0 0 0 -27938933.044460297 19090834.885063171 0 19090834.885063171 -6238.8424682617188 0 0 0 0 -19717004.694957733 28770828.692710876 0 28770828.692710876 -409145.07357788086 0 0 0 0 -19353725.097827911 28685505.2605896 0 28685505.2605896 -903012.92512512207 0 0 0 0 -20014680.988584518 25195502.825317383 0 25195502.825317383 -10550298.619689941 0 0 0 0 -27156486.200206757 37029834.337547302 0 37029834.337547302 -10800.478485107422 0 0 0 0 -19613125.459964752 33615812.927947998 0 33615812.927947998 -893964.83544921875 0 0 0 0 -19197610.005598605 36113687.476723552 0 36113687.476723552 -5112733.1608581543 0 0 0 0 -18834324.134067535 33900795.4168396 0 33900795.4168396 -1407357.3814086914 0 0 0 0 -18065119.500837326 32694793.631320953 0 32694793.631320953 24829.174911499023 0 0 0 0 -16932820.6040802 34179646.508338928 0 34179646.508338928 1634649.9963684082 0 0 0 0 -19762491.204240799 29111174.427652359 0 29111174.427652359 4610928.4693603516 0 0 0 0 -23954187.176826477 24940158.392463684 0 24940158.392463684 633270.84661865234 0 0 0 0 50831477.192378998 40013421.24477005 0 40013421.24477005 -41024160.30960083 0 0 0 0 -1581823.5598366819 5869292.5649344977 0 5869292.5649344977 -6475344.0963035971 0 0 0 0 -31312209.746627808 37631042.806381226 0 37631042.806381226 11148378.357700348 0 0 0 0 -8535424.2252502441 51331053.02362442 0 51331053.02362442 15891748.689086914 0 0 0 0 -14047360.531044006 18777792.356246948 0 18777792.356246948 -6905459.5988769531 0 0 0 0 20844558.061031342 43155138.767654419 0 43155138.767654419 -29886.604095458984 0 0 0 0 -56855552.638259888 22739936.698501587 0 22739936.698501587 -2400036.902923584 0 0 0 0 -52362277.917976379 37314334.219039917 0 37314334.219039917 18726.740234375 0 0 0 0 -56700783.784619272 60016855.344045281 0 60016855.344045281 -22878941.245819092 0 0 0 0 590453.95327447355 1002385.0145506784 0 1002385.0145506784 155103.55072963238 0 0 0 0 -17517607.644035339 -8261140.1321868896 0 -8261140.1321868896 1462354.068572998 0 0 0 0 -45786286.727806091 77514417.940704346 0 77514417.940704346 -12413748.559631348 0 0 0 0 -66576746.988967896 58700788.233718872 0 58700788.233718872 8387613.4588012695 0 0 0 0 -50977152.656646729 10936878.151885986 0 10936878.151885986 20965012.328796387 0 0 0 0 2372382.6083679199 77471335.459732056 0 77471335.459732056 -37799858.593017578 0 0 0 0 1176128.8155490756 28909764.144093648 0 28909764.144093648 -15076855.430654429 0 0 0 0 1337486.6379890442 30335271.934654236 0 30335271.934654236 -41322805.682739258 0 0 0 0 -3211288.8668518066 34333751.466705322 0 34333751.466705322 -24731949.483917236 0 0 0 0 -15454657.75201416 65589263.137329102 0 65589263.137329102 -10705308.318435669 0 0 0 0 14108920.530586243 48354027.727203369 0 48354027.727203369 -16089595.726745605 0 0 0 0 -10868050.143249512 19962076.07220459 0 19962076.07220459 5231121.4239063263 0 0 0 0 -24424.624142125249 282855.82882387936 0 282855.82882387936 684350.85047622211 0 0 0 0 -40288833.586624146 41845473.575561523 0 41845473.575561523 19116645.87310791 0 0 0 0 -2355351.7936401367 28358229.753875732 0 28358229.753875732 8309065.6514892578 0 0 0 0 -4493731.4385116249 11091512.904596683 0 11091512.904596683 -16590202.713611156 0 0 0 0 -72032270.952064514 40541481.242412567 0 40541481.242412567 189420513.59437561 0 0 0 0 34350725.799285889 -39129984.013660431 0 -39129984.013660431 175656466.97502136 0 0 0 0 14669415.606702805 87877074.834871292 0 87877074.834871292 55146591.856384277 0 0 0 0 44022732.662483215 17598117.017410278 0 17598117.017410278 -64515351.950466156 0 0 0 0 2086586.2538553476 2811757.660793189 0 2811757.660793189 -7838501.9978833199 0 0 0 0 17174792.269966125 -44193164.469436646 0 -44193164.469436646 150208018.0838089 0 0 0 0 -7338767.0330505371 9520002.9667358398 0 9520002.9667358398 35921299.666519165 0 0 0 0 -14352669.642539978 61382952.132225037 0 61382952.132225037 19372053.034594536 0 0 0 0 -6606706.9330596924 5466908.2433776855 0 5466908.2433776855 24017706.242639542 0 0 0 0 18570240.263276577 5457978.6730804443 0 5457978.6730804443 -18854155.34727478 0 0 0 0 -37094369.435798645 25890464.402259827 0 25890464.402259827 18870018.243743896 0 0 0 0 -8004022.3100617491 17302324.417062439 0 17302324.417062439 -315797.32161910832 0 0 0 0 6717268.4686794281 28784039.807319641 0 28784039.807319641 -42507546.678840637 0 0 0 0 -21862586.85221668 27882018.411416531 0 27882018.411416531 -5323429.880378332 0 0 0 0 -10772241.513608932 72262937.858661652 0 72262937.858661652 -2533221.2073974609 0 0 0 0 -3974667.3811726379 22956651.203373373 0 22956651.203373373 -7430030.5350165814 0 0 0 0 1519286.8840166926 31028470.88719596 0 31028470.88719596 -15037528.298886098 0 0 0 0 8414147.1150093079 46789015.812522888 0 46789015.812522888 -34155714.985321045 0 0 0 0 22199.510151393712 2468991.8522218019 0 2468991.8522218019 -259261.84635477792 0 0 0 0 118496268.69887543 98461749.994232178 0 98461749.994232178 55526558.592636108 0 0 0 0 -21609552.971633911 -3566758.9820098877 0 -3566758.9820098877 16742029.269432068 0 0 0 0 185551175.94081038 17720962.272270769 0 17720962.272270769 9891876.0981445312 0 0 0 0 -5218187.6393528879 1370800.5015076324 0 1370800.5015076324 4018196.8166528493 0 0 0 0 22340887.349880219 -32741110.656360626 0 -32741110.656360626 -5679428.559173584 0 0 0 0 -17507687.234100342 52102949.279129028 0 52102949.279129028 -4378.1688275796914 0 0 0 0 -6049389.1114807129 -9003716.3089904785 0 -9003716.3089904785 -17629246.465011597 0 0 0 0 -6191948.866973877 -8713566.784286499 0 -8713566.784286499 -14796512.256774902 0 0 0 0 -6248640.9526824951 -9525680.679069519 0 -9525680.679069519 -17396730.946899414 0 0 0 0 -4342442.0340804979 1660229.8137774579 0 1660229.8137774579 2559463.4441064298 0 0 0 0 2439979.6874313354 -4788529.2838134766 0 -4788529.2838134766 -6878223.058380127 0 0 0 0 4691826.9310455322 20580281.054138184 0 20580281.054138184 -20738025.994533539 0 0 0 0 -20784890.649185181 19428734.61920929 0 19428734.61920929 -44541.649932861328 0 0 0 0 -5453617.4873263687 1345970.9403653331 0 1345970.9403653331 3442044.560282737 0 0 0 0 -30560378.768737793 32503429.59425354 0 32503429.59425354 -16996791.629882812 0 0 0 0 -29818432.887435913 34791493.583496094 0 34791493.583496094 -10100397.421813965 0 0 0 0 -5122344.5611572266 12487874.185180664 0 12487874.185180664 -17685328.381685257 0 0 0 0 -13466711.753372192 35912279.983413696 0 35912279.983413696 -66659969.235534668 0 0 0 0 -4549646.925970342 1690993.3590721972 0 1690993.3590721972 1987731.3000200242 0 0 0 0 3479596.5331247151 5895713.3335156292 0 5895713.3335156292 -5758332.345155701 0 0 0 0 -5168749.1341983229 7087635.7732610218 0 7087635.7732610218 -1635661.8932387978 0 0 0 0 -5441545.547744751 -7815946.0960083008 0 -7815946.0960083008 -23344389.209487915 0 0 0 0 2479186.264289856 4340704.5276107788 0 4340704.5276107788 -48549613.803390503 0 0 0 0 -5475760.2878417969 3879681.1768951416 0 3879681.1768951416 -33134522.789978027 0 0 0 0 399592.96419525146 5684073.8464202881 0 5684073.8464202881 -6499705.2129211426 0 0 0 0 -379554.3073181808 4421508.4243196994 0 4421508.4243196994 -6274532.0573712159 0 0 0 0 -988296.88956391066 22705263.627678268 0 22705263.627678268 -6793759.5066040494 0 0 0 0 1746820.3944473267 5985736.4837493896 0 5985736.4837493896 -73584807.958755493 0 0 0 0 1094080.8599081561 23672322.285306022 0 23672322.285306022 -8869171.5625369549 0 0 0 0 -8969812.8827896118 74257458.803939819 0 74257458.803939819 154909078.64593124 0 0 0 0 -1688325.0131530762 6026346.9322509766 0 6026346.9322509766 -68532924.681335449 0 0 0 0 -1939004.4351043701 3885078.0856323242 0 3885078.0856323242 -71631691.874664307 0 0 0 0 2505679.3235473633 -2836162.8886413574 0 -2836162.8886413574 -52366970.837615967 0 0 0 0 -5407608.905448854 12117860.933931231 0 12117860.933931231 -65512994.811737061 0 0 0 0 2837675.506439209 -3869307.7363586426 0 -3869307.7363586426 -52722733.842163086 0 0 0 0 -902444.56665041298 30341.835023324937 0 30341.835023324937 1107392.0981295407 0 0 0 0 -478776.87197875977 -9648395.6303100586 0 -9648395.6303100586 19718209.415039062 0 0 0 0 -1153603.3484630957 9547284.9631446153 0 9547284.9631446153 -6363596.2555318847 0 0 0 0 -2102444.9416503906 18854685.515625 0 18854685.515625 6022550.8059082031 0 0 0 0 -485737.82098388672 -8899229.464263916 0 -8899229.464263916 -58007699.978881836 0 0 0 0 2438536.1277585179 3796703.138011843 0 3796703.138011843 -4864983.8819360361 0 0 0 0 2639493.9881744385 2656574.8516540527 0 2656574.8516540527 -11556147.852096558 0 0 0 0 -1540831.185546875 133293.26388549805 0 133293.26388549805 -74433650.064117432 0 0 0 0 -2799992.9048156738 6223355.6417388916 0 6223355.6417388916 -75557422.910003662 0 0 0 0 282313.92494259775 4516392.1387019753 0 4516392.1387019753 -1407146.3719841577 0 0 0 0 -3468167.6634979248 7258617.4376525879 0 7258617.4376525879 -72030677.658794403 0 0 0 0 -3627724.9468193054 7903699.1348114014 0 7903699.1348114014 -74615204.222106934 0 0 0 0 2873154.248619169 23552911.99927675 0 23552911.99927675 -9498754.5124903992 0 0 0 0 -13260866.7537117 -2969473.5470809937 0 -2969473.5470809937 -85978962.815567017 0 0 0 0 3254359.6876897812 -206228.16111755371 0 -206228.16111755371 -5422610.29246521 0 0 0 0 -1601228.5541877747 47041403.392314911 0 47041403.392314911 58317092.989624023 0 0 0 0 6741339.3800354004 35279165.413452148 0 35279165.413452148 19733569.03125 0 0 0 0 -9018866.5705413818 58961773.665939331 0 58961773.665939331 49424555.348754883 0 0 0 0 4377600.1874809265 80588631.126316071 0 80588631.126316071 81353566.769393921 0 0 0 0 28735718.696144104 69641448.242092133 0 69641448.242092133 15085718.510681152 0 0 0 0 9092728.1539306641 39757965.144798279 0 39757965.144798279 27143770.658859253 0 0 0 0 28974233.989982605 34274257.323265076 0 34274257.323265076 7848676.3849029541 0 0 0 0 18197804.849853516 2586086.1599578857 0 2586086.1599578857 -45730748.269557953 0 0 0 0 -3575627.1826667786 123739559.86149216 0 123739559.86149216 -18742318.882293701 0 0 0 0 -103623298.45085907 -8780750.8915252686 0 -8780750.8915252686 151915266.9830246 0 0 0 0 2391293.5510103852 1437538.2198914066 0 1437538.2198914066 -1708666.13813214 0 0 0 0 -144206248.36022568 34153327.352970123 0 34153327.352970123 11731522.495422363 0 0 0 0 -97965190.709327698 -45427839.206378937 0 -45427839.206378937 -25512493.325317383 0 0 0 0 -31037870.747154236 28327778.748764038 0 28327778.748764038 12026300.964538574 0 0 0 0 -76804266.410667419 -4845126.4039611816 0 -4845126.4039611816 48735644.332122803 0 0 0 0 -10146454.119498327 10555608.913813122 0 10555608.913813122 5940622.0330335442 0 0 0 0 -2858956.9426193237 10903944.015914917 0 10903944.015914917 8800666.6446800232 0 0 0 0 -6204933.8863525391 3417617.6872177124 0 3417617.6872177124 5452842.2571411133 0 0 0 0 -44681533.260215759 11972684.029197693 0 11972684.029197693 86000008.609420776 0 0 0 0 6771577.6822509766 5016422.7256317139 0 5016422.7256317139 49663614.419433594 0 0 0 0 -13860353.356478725 7511583.5991424322 0 7511583.5991424322 7585476.918000184 0 0 0 0 -19583704.295189857 1486015.2973613739 0 1486015.2973613739 8626250.6902160645 0 0 0 0 -36301385.640396118 -23394839.002540588 0 -23394839.002540588 77527299.082275391 0 0 0 0 -11441124.036857605 6364191.9206085205 0 6364191.9206085205 6285547.123916626 0 0 0 0 14052787.033203125 -14319657.09967041 0 -14319657.09967041 56466085.011032104 0 0 0 0 -24466928.658157349 1856437.4828796387 0 1856437.4828796387 51617242.073501587 0 0 0 0 -11315160.045043945 -1390977.8425445557 0 -1390977.8425445557 -11240135.538589478 0 0 0 0 -2082082.2255821228 25063465.71490097 0 25063465.71490097 27115443.934570312 0 0 0 0 489987.66166687012 -18811844.986000061 0 -18811844.986000061 20319167.166656494 0 0 0 0 5743406.5403594971 13657075.768264771 0 13657075.768264771 1792314.3047943115 0 0 0 0 1439731.1312245056 2954072.1274592951 0 2954072.1274592951 1262675.3262880296 0 0 0 0 -4017683.5325614959 18967848.355958037 0 18967848.355958037 5298013.7290756796 0 0 0 0 -12826082.971792661 5570281.3351126425 0 5570281.3351126425 9559311.1323777437 0 0 0 0 -7889322.7499980927 23573640.270896912 0 23573640.270896912 12199905.399475098 0 0 0 0 -6850204.6996459961 4548549.9269332886 0 4548549.9269332886 53429656.153259277 0 0 0 0 13059897.471946716 10877130.914291382 0 10877130.914291382 -18038908.761367798 0 0 0 0 -556618.61201138422 953717.11695138365 0 953717.11695138365 244726.59920176864 0 0 0 0 321324.62822672725 638513.43024577945 0 638513.43024577945 -1063248.1833625827 0 0 0 0 -1568529.3117523193 9226284.518119812 0 9226284.518119812 19021781.788627625 0 0 0 0 1652104.0882949829 4892602.9165420532 0 4892602.9165420532 -15057745.266670227 0 0 0 0 -221629.84991382807 4492595.7840878665 0 4492595.7840878665 5106271.0599556416 0 0 0 0 -17052303.774551392 24000632.211746216 0 24000632.211746216 36401607.435195923 0 0 0 0 -4178045.7863369063 12663083.652102418 0 12663083.652102418 2194267.9076278191 0 0 0 0 1732593.7538223267 26074741.097305298 0 26074741.097305298 20752512.051391602 0 0 0 0 4844764.9506072998 -44883856.083724976 0 -44883856.083724976 39713274.669836044 0 0 0 0 -38801744.530082703 -8843253.5152130127 0 -8843253.5152130127 26962500.13192749 0 0 0 0 -66236155.138908386 -3147615.2431488037 0 -3147615.2431488037 44825459.290275574 0 0 0 0 -18607468.120640874 4912448.7367248535 0 4912448.7367248535 25529859.002929688 0 0 0 0 29678956.884719849 -19767557.776542664 0 -19767557.776542664 19541249.430023193 0 0 0 0 -7130106.0984573364 5685066.3462982178 0 5685066.3462982178 6554927.895904541 0 0 0 0 -7123538.7084036842 9884708.3347060829 0 9884708.3347060829 -2359439.9936546162 0 0 0 0 35525878.634902954 -39883031.627883911 0 -39883031.627883911 39853478.24029541 0 0 0 0 9353128.0206413269 -28472268.841228485 0 -28472268.841228485 60204924.852294922 0 0 0 0 -725519.21728515625 36877502.964553833 0 36877502.964553833 23113127.745346069 0 0 0 0 109099541.76080322 30538376.690753937 0 30538376.690753937 22790321.548690796 0 0 0 0 30852467.651141167 27336133.264519691 0 27336133.264519691 5607548.7093200684 0 0 0 0 -38749473.581771851 20433437.976928711 0 20433437.976928711 168875049.45196915 0 0 0 0 -37513944.053115845 -46430872.449745178 0 -46430872.449745178 -11164702.831054688 0 0 0 0 23707834.647102356 63223965.974960327 0 63223965.974960327 -139448688.88668823 0 0 0 0 -70375432.422317505 112589186.23866272 0 112589186.23866272 -66083225.007614136 0 0 0 0 25587033.291398525 27595721.131690502 0 27595721.131690502 -17255796.069030762 0 0 0 0 10090657.609992981 17038694.426345825 0 17038694.426345825 14070768.749389648 0 0 0 0 -16294844.897445679 39746594.585128784 0 39746594.585128784 6703105.5121059418 0 0 0 0 13899750.679573059 60283355.320739746 0 60283355.320739746 -72992032.878967285 0 0 0 0 20747203.914733887 84116818.9425354 0 84116818.9425354 -75564510.49861145 0 0 0 0 -2223417.9311447144 110441887.17800903 0 110441887.17800903 -97244389.6640625 0 0 0 0 -105983124.20857239 83450561.40184021 0 83450561.40184021 -12223195.958885193 0 0 0 0 -142301.42758659646 -112049.47934111953 0 -112049.47934111953 -863045.3634242937 0 0 0 0 44044792.09028244 21519282.586200714 0 21519282.586200714 -25282175.197265625 0 0 0 0 36122446.978829384 61263510.481431961 0 61263510.481431961 -97519504.745422363 0 0 0 0 70564921.726043701 -287771967.11126709 0 -287771967.11126709 194663288.99954224 0 0 0 0 -13056389.982498169 56970294.33454895 0 56970294.33454895 -17507137.54209137 0 0 0 0 8937224.1826477051 51104410.407714844 0 51104410.407714844 -21479541.262756348 0 0 0 0 7632319.2922058105 79029218.615310669 0 79029218.615310669 -71857880.545043945 0 0 0 0 -3019041.4694442749 25552162.276809692 0 25552162.276809692 58591113.524536133 0 0 0 0 -51373524.562278748 30839575.365722656 0 30839575.365722656 47371709.962524414 0 0 0 0 1927367.6085205078 25869401.258377075 0 25869401.258377075 47490423.790057659 0 0 0 0 -4798274.4625087418 -915731.85862249136 0 -915731.85862249136 1597786.0805092379 0 0 0 0 -9429902.604888916 57968560.272064209 0 57968560.272064209 60574011.893990517 0 0 0 0 -1774602.9370231628 -26065304.772384644 0 -26065304.772384644 17239209.852294922 0 0 0 0 -16562129.264867552 19496868.994152941 0 19496868.994152941 5417388.299646467 0 0 0 0 -2678409.0035705566 11712385.410797119 0 11712385.410797119 18144508.262260437 0 0 0 0 -4251639.853999909 6522505.4599852711 0 6522505.4599852711 795196.02684831619 0 0 0 0 3880149.0114440918 12303257.319213867 0 12303257.319213867 13930719.74230957 0 0 0 0 -10565646.709841618 -596527.1353270039 0 -596527.1353270039 1588276.755992502 0 0 0 0 14300448.93460083 36602175.748840332 0 36602175.748840332 6477618.4426269531 0 0 0 0 7641293.6862745285 28663256.413024902 0 28663256.413024902 -36840509.625274658 0 0 0 0 -11289120.413120471 10163189.413827859 0 10163189.413827859 -4168072.265179351 0 0 0 0 -53414376.258224487 67532745.522384644 0 67532745.522384644 -52285070.068740845 0 0 0 0 21204641.581173897 29416682.055801392 0 29416682.055801392 -12931606.461761475 0 0 0 0 19890832.299362183 12244850.84765625 0 12244850.84765625 18211354.744567871 0 0 0 0 2009119.6789889075 1457675.4596125335 0 1457675.4596125335 -1396137.3179115206 0 0 0 0 4719603.9287015563 19677046.904999152 0 19677046.904999152 -204712.84667130932 0 0 0 0 -14038322.823330879 34646774.913406372 0 34646774.913406372 4211568.5144348145 0 0 0 0 3276842.4457626343 45783690.111190796 0 45783690.111190796 -21356992.342697144 0 0 0 0 -2934591.9325802736 9772668.4063944295 0 9772668.4063944295 2403413.1230632477 0 0 0 0 -4435184.1127820015 22246054.787437439 0 22246054.787437439 15713692.954330444 0 0 0 0 -6091586.6845297813 30064648.943527222 0 30064648.943527222 17967013.937011719 0 0 0 0 -118874351.28051758 215045842.42181396 0 215045842.42181396 -242540597.91986084 0 0 0 0 -9141530.1451413017 9756708.8273136467 0 9756708.8273136467 -4236797.683373943 0 0 0 0 -1314807.646979332 42162249.567977905 0 42162249.567977905 39852191.062065125 0 0 0 0 79366245.648523211 40676500.182952881 0 40676500.182952881 -69767122.304367065 0 0 0 0 984094.408223629 17516213.900917053 0 17516213.900917053 -18880179.995826721 0 0 0 0 -14141413.337750912 41860392.754638672 0 41860392.754638672 311441753.02140808 0 0 0 0 -883666.19903607061 3083113.1235084236 0 3083113.1235084236 823142.95927596837 0 0 0 0 18127697.250704139 64609006.601053238 0 64609006.601053238 182070399.50006104 0 0 0 0 27532914.132839441 85008298.618728638 0 85008298.618728638 145808890.50521851 0 0 0 0 -10398710.535097122 68514673.837768555 0 68514673.837768555 183484275.53697205 0 0 0 0 3351987.5287818909 87145250.922210693 0 87145250.922210693 128354336.46367645 0 0 0 0 -13824942.385829449 53999870.827392578 0 53999870.827392578 124204092.23974609 0 0 0 0 -8388569.413394928 10256539.004165649 0 10256539.004165649 159253515.73204041 0 0 0 0 -2708910.8089399338 28496817.699325562 0 28496817.699325562 104787458.08999634 0 0 0 0 -14502037.641426086 28181658.301147461 0 28181658.301147461 116749572.30102539 0 0 0 0 -16076935.403496742 18856405.142875671 0 18856405.142875671 69628022.156494141 0 0 0 0 -12157879.223487854 55342858.543029785 0 55342858.543029785 120625400.43136215 0 0 0 0 2305358.5202331543 17145299.6483078 0 17145299.6483078 15737605.457885742 0 0 0 0 -7058698.7126062755 5552545.2004607171 0 5552545.2004607171 2001155.516978696 0 0 0 0 -2209399.3270422881 -665305.17048469931 0 -665305.17048469931 564827.97075514495 0 0 0 0 1451190.4813308716 13297526.410888672 0 13297526.410888672 31379580.47857666 0 0 0 0 10699317.388690948 41098936.237457275 0 41098936.237457275 61533252.980377197 0 0 0 0 -16063066.615474701 34393641.823516846 0 34393641.823516846 101006223.87750244 0 0 0 0 -9519065.7834396362 48970055.803924561 0 48970055.803924561 103989539.56234741 0 0 0 0 -8169614.133441925 50727642.075408936 0 50727642.075408936 91431864.144958496 0 0 0 0 -12370441.679424286 53730807.326034546 0 53730807.326034546 90624662.08807373 0 0 0 0 9942417.8989981413 58356076.667015076 0 58356076.667015076 88491606.643493652 0 0 0 0 -12680165.74407196 59690954.865783691 0 59690954.865783691 96833984.550476074 0 0 0 0 -8076689.5361824036 51926894.259819031 0 51926894.259819031 84528231.62487793 0 0 0 0 -10393382.679426193 61643161.819107056 0 61643161.819107056 107798193.43847656 0 0 0 0 -10431196.148780823 59278658.183403015 0 59278658.183403015 96399216.109039307 0 0 0 0 -5878619.9275550842 70196055.535392761 0 70196055.535392761 95805702.830535889 0 0 0 0 -8492142.9326705933 69314437.256408691 0 69314437.256408691 100708650.25468445 0 0 0 0 -13834453.132293701 61654215.20715332 0 61654215.20715332 115829132.30666351 0 0 0 0 -14069397.791954041 50613144.781921387 0 50613144.781921387 103728819.44165039 0 0 0 0 -15028336.398777008 52759812.863952637 0 52759812.863952637 118369197.27319336 0 0 0 0 -10919716.40473175 75102731.81829834 0 75102731.81829834 116730072.31923676 0 0 0 0 -14792510.581468582 60602738.117782593 0 60602738.117782593 114675307.36688232 0 0 0 0 -14601363.017326355 61871523.585174561 0 61871523.585174561 135449702.88446045 0 0 0 0 -6345375.9105567932 79857138.886169434 0 79857138.886169434 103608419.02105713 0 0 0 0 -6383221.8909682035 79885187.595967293 0 79885187.595967293 122953554.80426025 0 0 0 0 -6402437.0488548279 77494848.659545898 0 77494848.659545898 100422898.91513062 0 0 0 0 -9012873.9286050797 76088032.700592041 0 76088032.700592041 93070052.39831543 0 0 0 0 -11485880.078998566 71549646.753128052 0 71549646.753128052 99077393.371765137 0 0 0 0 -8706972.3607139587 74517035.677261353 0 74517035.677261353 101137950.67222595 0 0 0 0 -6542241.218170166 78878785.214447021 0 78878785.214447021 95970864.296173096 0 0 0 0 3739727.9486618042 77827638.355010986 0 77827638.355010986 68356999.471572876 0 0 0 0 -10621065.066474915 69815551.521591187 0 69815551.521591187 88333482.19090271 0 0 0 0 7793147.3691105843 89815505.545467377 0 89815505.545467377 78011659.45614624 0 0 0 0 7685809.8954410553 89061868.322769165 0 89061868.322769165 89164986.241714478 0 0 0 0 -16018431.036708385 64838997.419492722 0 64838997.419492722 100376342.33364868 0 0 0 0 54871238.683979034 115621944.71260071 0 115621944.71260071 61670971.312385559 0 0 0 0 -4607367.7147763167 17263057.609485716 0 17263057.609485716 7681573.2875257134 0 0 0 0 4621824.0385575891 90488657.087608337 0 90488657.087608337 127982003.88516235 0 0 0 0 15872524.610100627 96976363.66809082 0 96976363.66809082 118347626.45546722 0 0 0 0 24390267.668658778 80793585.377938271 0 80793585.377938271 130865263.58673096 0 0 0 0 21741778.733057976 98041082.072292328 0 98041082.072292328 124766207.4609375 0 0 0 0 8230837.4061546326 94095265.222579956 0 94095265.222579956 124378136.25447083 0 0 0 0 7216911.0302858353 102690131.96122742 0 102690131.96122742 100938055.6842041 0 0 0 0 1290903.2613716125 83425800.071578979 0 83425800.071578979 146578080.92782593 0 0 0 0 -9484376.2417602539 13749141.984268188 0 13749141.984268188 13502844.725746155 0 0 0 0 -12429643.810682297 20474718.476400375 0 20474718.476400375 18616100.844711304 0 0 0 0 -11547224.777587891 37077031.342422485 0 37077031.342422485 54226084.069671631 0 0 0 0 16301412.264266968 9855902.6158599854 0 9855902.6158599854 35417710.363571167 0 0 0 0 -251151.4344625473 26465336.503194809 0 26465336.503194809 18963615.42930603 0 0 0 0 2046399.9902915955 13487944.26974678 0 13487944.26974678 11604409.347381592 0 0 0 0 3211236.2824172974 9325402.6177215576 0 9325402.6177215576 -7048407.0189819336 0 0 0 0 -3422133.534866333 17857917.439453125 0 17857917.439453125 30738901.339294434 0 0 0 0 2787930.8717651367 47139356.034820557 0 47139356.034820557 33195868.972473145 0 0 0 0 13315534.655784607 40493118.662605286 0 40493118.662605286 8003961.604675293 0 0 0 0 -10921089.676249504 3610440.1037731171 0 3610440.1037731171 6773089.4906616211 0 0 0 0 -23673080.750534058 3845877.0054092407 0 3845877.0054092407 14891987.615524292 0 0 0 0 -15293741.859383354 2845284.5572597086 0 2845284.5572597086 7649567.0547210872 0 0 0 0 -10815233.459632874 16645045.112266541 0 16645045.112266541 15896615.865463257 0 0 0 0 -29872071.840454102 -24812592.617279053 0 -24812592.617279053 9225929.4841384888 0 0 0 0 31170359.291130066 67560039.261383057 0 67560039.261383057 39985862.721992493 0 0 0 0 19185866.963569641 35943202.439849854 0 35943202.439849854 27664748.661216736 0 0 0 0 -61905050.899795532 2837771.9536132812 0 2837771.9536132812 14794359.901493073 0 0 0 0 24520529.855129242 49600523.773017883 0 49600523.773017883 60149043.404266357 0 0 0 0 -1697658.8012414332 -1048776.198518768 0 -1048776.198518768 -295782.93134492636 0 0 0 0 -3622442.2866090387 8949331.0979555771 0 8949331.0979555771 5756634.6282351762 0 0 0 0 -6234052.7842178345 4968005.547668457 0 4968005.547668457 2506045.3930664062 0 0 0 0 -7505449.8748397827 9655766.8992786407 0 9655766.8992786407 11508698.704284668 0 0 0 0 -2064904.3851662986 5977843.2079490125 0 5977843.2079490125 2463843.6775411591 0 0 0 0 -7928962.7874055393 889034.46926180273 0 889034.46926180273 1351285.6630208492 0 0 0 0 -46636965.220924377 4392256.1685791016 0 4392256.1685791016 47450290.601776123 0 0 0 0 757061.71267700195 7853576.6296081543 0 7853576.6296081543 20858986.55456543 0 0 0 0 14582199.104293823 23183243.759063721 0 23183243.759063721 15414514.683502197 0 0 0 0 -6428426.3201928847 1268718.705131717 0 1268718.705131717 855060.47252649814 0 0 0 0 2017627.2040252686 26598494.74899292 0 26598494.74899292 54290266.026168823 0 0 0 0 -31090547.917915344 42534333.133880615 0 42534333.133880615 88916218.032592773 0 0 0 0 -3239057.3203430176 53997076.398040771 0 53997076.398040771 84147465.256286621 0 0 0 0 15219200.428329468 46839869.888397217 0 46839869.888397217 59620745.649780273 0 0 0 0 9025229.5838699341 49347886.179412842 0 49347886.179412842 64841044.958602905 0 0 0 0 15220374.18388176 44802677.960594177 0 44802677.960594177 66960743.516387939 0 0 0 0 15077960.93938446 53302140.11138916 0 53302140.11138916 62802881.522033691 0 0 0 0 16589700.756004333 63463036.338287354 0 63463036.338287354 58819513.339904785 0 0 0 0 2233801.2084350586 64412337.637695312 0 64412337.637695312 78969785.07460022 0 0 0 0 13875923.418914795 78419933.209655762 0 78419933.209655762 80176203.068077087 0 0 0 0 10385996.227310181 70378498.103469849 0 70378498.103469849 81243378.36819458 0 0 0 0 14118902.661161423 77341851.393882751 0 77341851.393882751 73275103.628326416 0 0 0 0 1038434.6705284119 83526775.101928711 0 83526775.101928711 97280638.113220215 0 0 0 0 3367926.7957954407 93855414.535202026 0 93855414.535202026 111911597.97454834 0 0 0 0 -13429529.812296867 77439718.338068008 0 77439718.338068008 98450296.469146729 0 0 0 0 183669062.5745163 78190142.463989258 0 78190142.463989258 58904196.553909302 0 0 0 0 46999092.019199371 65080920.779785156 0 65080920.779785156 60754492.487640381 0 0 0 0 53408564.013999939 70020422.057159424 0 70020422.057159424 60724982.236358643 0 0 0 0 41505150.062446594 70595087.646514893 0 70595087.646514893 65304736.135009766 0 0 0 0 47680877.632972717 96186388.952529907 0 96186388.952529907 81522011.291809082 0 0 0 0 31135946.130104065 75707633.827133179 0 75707633.827133179 68937746.353179932 0 0 0 0 29621663.967131615 58416864.577764511 0 58416864.577764511 54458033.180603027 0 0 0 0 70611404.496746063 47813348.501785278 0 47813348.501785278 38482535.844467163 0 0 0 0 -8497270.0270877704 -8089048.0831690673 0 -8089048.0831690673 5257424.16750516 0 0 0 0 -48255044.44215107 -4938987.807967186 0 -4938987.807967186 23443399.306396484 0 0 0 0 -15779261.97299166 12837177.814687259 0 12837177.814687259 14756134.870147772 0 0 0 0 39685496.396389008 63102185.561626434 0 63102185.561626434 63727530.405731201 0 0 0 0 -2061979.0126085505 -3728688.3004084527 0 -3728688.3004084527 1508383.9793400764 0 0 0 0 -36552981.477142334 -35907837.90473938 0 -35907837.90473938 4791750.6309491992 0 0 0 0 -40104317.29253006 -25624645.808425903 0 -25624645.808425903 62695527.890869141 0 0 0 0 -19160277.141708374 -2310978.9185180664 0 -2310978.9185180664 4652757.0794073939 0 0 0 0 -24784191.84525013 21791108.575727463 0 21791108.575727463 44129638.873260498 0 0 0 0 3636847.7169265747 12740654.848186493 0 12740654.848186493 -21280427.46762085 0 0 0 0 -1779841.623298645 1066263.2062702179 0 1066263.2062702179 -66503713.675270081 0 0 0 0 10227556.877935693 32977924.52051226 0 32977924.52051226 15213720.886319224 0 0 0 0 7080768.4537506104 3255090.6705312729 0 3255090.6705312729 -119298354.83625793 0 0 0 0 10230080.060947463 4851371.8470018413 0 4851371.8470018413 -23872246.681177385 0 0 0 0 25830217.01616431 22649003.744471721 0 22649003.744471721 -41693273.59243644 0 0 0 0 -266880440.56171125 -15602477.114615798 0 -15602477.114615798 656668614.07562256 0 0 0 0 -268505235.47862244 179705884.56262207 0 179705884.56262207 75248881.373474121 0 0 0 0 6757896.9018175229 38355438.044875771 0 38355438.044875771 9765856.9134602845 0 0 0 0 -5762324.8746261597 31488820.615497589 0 31488820.615497589 -20491510.305519104 0 0 0 0 335132793.43551159 260173408.22632408 0 260173408.22632408 102312943.62860107 0 0 0 0 -3884741.5018844604 -65047399.713348389 0 -65047399.713348389 26022290.023071289 0 0 0 0 -137423486.04679871 -278629420.08718872 0 -278629420.08718872 1071297408.4692993 0 0 0 0 -13667089.287475586 39293842.073539734 0 39293842.073539734 -22891991.998588562 0 0 0 0 -17781690.829406738 34649476.956920624 0 34649476.956920624 5739051.9226226807 0 0 0 0 -510816.84641172737 6009154.8922534958 0 6009154.8922534958 -6631476.0715756137 0 0 0 0 11989804.849567369 31643094.644127913 0 31643094.644127913 5603152.051828891 0 0 0 0 542884262.06119537 910174664.50567627 0 910174664.50567627 -1297298377.0288696 0 0 0 0 3727650.3596496582 11322345.65637207 0 11322345.65637207 -30525931.966552734 0 0 0 0 12503871.804955218 37415368.942747369 0 37415368.942747369 809636.613141126 0 0 0 0 -4816166.6234901547 22043111.165176872 0 22043111.165176872 16173998.193975057 0 0 0 0 153190286.76270294 19368801.540786743 0 19368801.540786743 -167335104.01553345 0 0 0 0 -35548179.411804199 5354382.600189209 0 5354382.600189209 -106322418.2605505 0 0 0 0 8491797.7537776604 40526271.321490154 0 40526271.321490154 8083541.9161485136 0 0 0 0 -151215.88551814854 1710130.8393072672 0 1710130.8393072672 -2074733.6329662274 0 0 0 0 -18012312.766307831 30488801.879753113 0 30488801.879753113 61077800.473327637 0 0 0 0 -8312035.9957275391 33563082.401077271 0 33563082.401077271 -2073168.238494873 0 0 0 0 -2387492.1037063599 20507642.959564209 0 20507642.959564209 14731546.776275635 0 0 0 0 10977339.76285553 145895778.21434784 0 145895778.21434784 172461324.65293884 0 0 0 0 118991636.15338135 -84692232.223060608 0 -84692232.223060608 -108900516.85960388 0 0 0 0 -77345505.774986267 53973039.786342621 0 53973039.786342621 9393090.2031860352 0 0 0 0 2575898.9138450623 53571048.225509644 0 53571048.225509644 45599918.239639282 0 0 0 0 -42090306.526329041 51174733.891227722 0 51174733.891227722 98712526.034667969 0 0 0 0 11058679.44709298 35820731.092684962 0 35820731.092684962 -5444038.0171382502 0 0 0 0 -16626756.117919922 49413098.913406372 0 49413098.913406372 22195313.844223022 0 0 0 0 -13043925.382764816 57145934.34072113 0 57145934.34072113 381574.74417114258 0 0 0 0 -3680198.7113494873 42052671.088270187 0 42052671.088270187 -507515.19403076172 0 0 0 0 -2686468.0852508545 33913158.103096008 0 33913158.103096008 9109897.4652099609 0 0 0 0 -3373666.549654007 43972934.724908352 0 43972934.724908352 -1729119.5995330811 0 0 0 0 -1736953.4876629338 19064989.357672337 0 19064989.357672337 7171860.9104742836 0 0 0 0 -2118062.2843742371 42351068.493419647 0 42351068.493419647 -10377812.106445312 0 0 0 0 -4780610.481300354 40028278.916969299 0 40028278.916969299 -5972913.1918792725 0 0 0 0 4900488.5758319423 26919116.967415936 0 26919116.967415936 16446912.907115057 0 0 0 0 -591823820.04655457 306970329.57628632 0 306970329.57628632 6394620.3640289307 0 0 0 0 -507474698.15460205 126417009.59328461 0 126417009.59328461 -245555058.65802383 0 0 0 0 -218988329.03132629 256165581.37878418 0 256165581.37878418 -216806733.56300354 0 0 0 0 -1676610.9761740565 3296227.8042901931 0 3296227.8042901931 2658922.0504246345 0 0 0 0 -7231499.7601213455 47698128.710977554 0 47698128.710977554 -9750587.3772354126 0 0 0 0 -6135267.3958244324 32977017.15763092 0 32977017.15763092 -8655754.9391708374 0 0 0 0 -5067870.7015151978 41598051.755073547 0 41598051.755073547 9226513.943195343 0 0 0 0 395198212.34086609 481986297.58488464 0 481986297.58488464 -443929556.58235931 0 0 0 0 501011383.15275192 359355113.49718475 0 359355113.49718475 25644084.260444641 0 0 0 0 607380456.11779785 -149971741.02790833 0 -149971741.02790833 -52647727.457138062 0 0 0 0 -691072323.55604553 -135800399.86230087 0 -135800399.86230087 531779339.63586426 0 0 0 0 -692361955.66078186 191975804.99699783 0 191975804.99699783 319534748.33711243 0 0 0 0 -260297663.58547974 -699681213.54689789 0 -699681213.54689789 718717075.11071396 0 0 0 0 21130545.363067627 -9647559.1341400146 0 -9647559.1341400146 -25599997.90032959 0 0 0 0 -1028377.5894317627 168358441.23384476 0 168358441.23384476 -146508102.83135223 0 0 0 0 -166631909.58847046 100008970.43754578 0 100008970.43754578 -27636497.671638489 0 0 0 0 -160819601.79299927 175237168.00009918 0 175237168.00009918 -156193045.45667267 0 0 0 0 -342400477.83760071 266083416.35826874 0 266083416.35826874 -191391531.02372742 0 0 0 0 -113182895.08825684 119736230.55786133 0 119736230.55786133 -66776929.565589905 0 0 0 0 -140592687.83291626 41111320.375003815 0 41111320.375003815 -273856975.53260231 0 0 0 0 79573054.042999268 159666277.77120972 0 159666277.77120972 -84967136.737121582 0 0 0 0 24100861.69354248 55239991.520393372 0 55239991.520393372 -166538253.36201096 0 0 0 0 156462967.72377014 214181441.60956192 0 214181441.60956192 -57516575.469696045 0 0 0 0 182611168.20541382 95581211.664161682 0 95581211.664161682 -143577440.17946625 0 0 0 0 25659114.199649811 56877604.327453375 0 56877604.327453375 -49287502.820480347 0 0 0 0 174350003.83959961 198926633.20056152 0 198926633.20056152 -47397200.606403351 0 0 0 0 190393461.38180542 280545896.62281799 0 280545896.62281799 38758214.411304474 0 0 0 0 197027525.35945129 207985286.7404213 0 207985286.7404213 -106880451.07211304 0 0 0 0 126302678.18484497 205144494.05626678 0 205144494.05626678 -20171770.616550446 0 0 0 0 147649369.49055481 182930844.59893799 0 182930844.59893799 -70977608.981941223 0 0 0 0 108279183.77545166 146141528.95368004 0 146141528.95368004 -101208309.97780609 0 0 0 0 164185303.75090027 153016571.08599091 0 153016571.08599091 -47321897.176246405 0 0 0 0 94870344.320678711 162328115.75297642 0 162328115.75297642 -47397632.71856308 0 0 0 0 75727885.409973145 128455627.91677284 0 128455627.91677284 32580437.347091675 0 0 0 0 -23836564.66135025 44145775.214524031 0 44145775.214524031 -36058736.392448425 0 0 0 0 22779934.412200928 69721731.521406174 0 69721731.521406174 -105232156.47458649 0 0 0 0 -40555314.369018555 145918641.62675285 0 145918641.62675285 124857956.24534035 0 0 0 0 62663146.022674561 262821408.11052704 0 262821408.11052704 205822943.47113419 0 0 0 0 2395673.9388595745 1907702.1260786522 0 1907702.1260786522 -6501145.1773639936 0 0 0 0 -73294896.355782509 103840298.64642906 0 103840298.64642906 96014443.034360886 0 0 0 0 68757417.423117161 133806633.64141846 0 133806633.64141846 62416612.087749481 0 0 0 0 -741316.54052554409 43970670.712006927 0 43970670.712006927 -12430943.556338944 0 0 0 0 -25123886.167050362 89256166.604841232 0 89256166.604841232 54146466.360507965 0 0 0 0 -3714405.0181920705 38264563.225772902 0 38264563.225772902 -8288708.4380302131 0 0 0 0 15561811.165917248 36936712.987583868 0 36936712.987583868 -16933901.168932997 0 0 0 0 31458534.507110596 76667098.218452454 0 76667098.218452454 14404026.262527466 0 0 0 0 26768437.850578308 38061198.942611694 0 38061198.942611694 25811025.651508331 0 0 0 0 4778232.063873291 62795137.101333618 0 62795137.101333618 68963042.697666645 0 0 0 0 31776383.488002777 35231809.762056351 0 35231809.762056351 -5880979.6385955811 0 0 0 0 19897693.675994873 51983613.574501038 0 51983613.574501038 -12848118.163108826 0 0 0 0 4946204.4240646362 43462915.183120728 0 43462915.183120728 1619754.4001426697 0 0 0 0 24375169.672210693 25907854.075782776 0 25907854.075782776 8001392.9344329834 0 0 0 0 28097833.147087097 44388385.377746582 0 44388385.377746582 1165803.5519733429 0 0 0 0 24845980.881752014 38281158.913249969 0 38281158.913249969 -10277818.323944092 0 0 0 0 1169417.6321619516 24385769.748688634 0 24385769.748688634 -19433402.294773962 0 0 0 0 4184241.1533164978 29650227.454007149 0 29650227.454007149 -13714127.54624939 0 0 0 0 10189831.338031769 43675901.305053711 0 43675901.305053711 -9270571.3716659546 0 0 0 0 8027382.8328933716 48597078.927986145 0 48597078.927986145 2989696.9666137695 0 0 0 0 -6949218.1364212036 33721992.487716675 0 33721992.487716675 -13857032.952884674 0 0 0 0 6122968.3014144897 34698259.855602264 0 34698259.855602264 -29088113.496315002 0 0 0 0 4040026.2734843809 23738961.336861342 0 23738961.336861342 -24086596.399195984 0 0 0 0 630947529.67826891 87035741.865868568 0 87035741.865868568 -374572013.07289124 0 0 0 0 1106240.5175704956 35053666.250415802 0 35053666.250415802 -16764045.891319275 0 0 0 0 153341762.70724678 68209922.065301895 0 68209922.065301895 109493918.25007248 0 0 0 0 -58983320.236689627 504828677.53059006 0 504828677.53059006 -598377848.54692841 0 0 0 0 395692055.90956295 323900041.68410397 0 323900041.68410397 -103585682.15332031 0 0 0 0 -36865648.846112967 76100966.204046249 0 76100966.204046249 27860903.157939911 0 0 0 0 -574181376.15985847 -9936192.0909719467 0 -9936192.0909719467 82721538.988677979 0 0 0 0 -383366.81850682979 3461011.0498670377 0 3461011.0498670377 726643.42459686659 0 0 0 0 234369845.13232487 -300677172.11798191 0 -300677172.11798191 -783658004.01394272 0 0 0 0 309890564.40263283 75928881.078054428 0 75928881.078054428 -311780195.66621017 0 0 0 0 139710162.66964197 103671993.57341003 0 103671993.57341003 -358599672.71122074 0 0 0 0 11771423.76616621 319028487.31755257 0 319028487.31755257 -297994224.25751877 0 0 0 0 301332391.37003481 266713643.7038033 0 266713643.7038033 -366128406.72480011 0 0 0 0 -50122018.816877365 265535772.43559837 0 265535772.43559837 -133762123.62087727 0 0 0 0 79800909.396802664 222796563.55887032 0 222796563.55887032 -125081638.54458237 0 0 0 0 273361729.07137173 126598577.8780514 0 126598577.8780514 -178603145.61617661 0 0 0 0 -1087248.1792959652 11730857.546888646 0 11730857.546888646 4121417.562514862 0 0 0 0 -94068132.34333086 42965152.489818573 0 42965152.489818573 68300161.615940094 0 0 0 0 225425571.05562633 166384539.51222038 0 166384539.51222038 -182313394.95836449 0 0 0 0 193880286.36856318 106826011.19704866 0 106826011.19704866 -14981284.75592041 0 0 0 0 8433287.3118047714 147067108.94669151 0 147067108.94669151 111185547.11610031 0 0 0 0 81416378.901396155 182859064.49342537 0 182859064.49342537 99279247.87400198 0 0 0 0 -10175296.971809048 27848567.181316808 0 27848567.181316808 22377990.928563178 0 0 0 0 -6511063.0141277313 56523958.992128372 0 56523958.992128372 94509988.561161041 0 0 0 0 12603019.331882477 54300829.757713318 0 54300829.757713318 64281242.607620239 0 0 0 0 22734682.19302392 77591910.168445587 0 77591910.168445587 109104364.95608044 0 0 0 0 -66174249.255514264 47537051.609911919 0 47537051.609911919 99461963.214546204 0 0 0 0 -19245574.256076574 110722365.31373596 0 110722365.31373596 106304526.76254654 0 0 0 0 18212824.29123497 91844195.390823364 0 91844195.390823364 115579384.17755508 0 0 0 0 -106142423.60775554 72902643.58178997 0 72902643.58178997 90285499.169578552 0 0 0 0 3707831.0798714161 170065931.95943356 0 170065931.95943356 48549369.991024017 0 0 0 0 -74328264.590937138 136216154.46363831 0 136216154.46363831 39942764.154608727 0 0 0 0 -109822162.81917357 93649659.075706482 0 93649659.075706482 65876655.254943848 0 0 0 0 -2943733.0607740879 49566311.878185272 0 49566311.878185272 57040617.49194622 0 0 0 0 -31583615.148085117 29326569.745243073 0 29326569.745243073 50893142.142971039 0 0 0 0 -86926897.517123461 -13096545.290206909 0 -13096545.290206909 30241709.076957703 0 0 0 0 42102250.693643093 -36105806.183792114 0 -36105806.183792114 -54809971.077613831 0 0 0 0 32369949.094326735 18859967.051287651 0 18859967.051287651 -4811462.657541275 0 0 0 0 -79442385.598112106 -6179554.8307418823 0 -6179554.8307418823 26899368.095626831 0 0 0 0 -82655699.024637699 -125234957.86499405 0 -125234957.86499405 -42406584.626434326 0 0 0 0 -240003767.36097145 -76692800.361118317 0 -76692800.361118317 36031381.047790527 0 0 0 0 -255114357.12141258 85232035.987322092 0 85232035.987322092 13243295.944259644 0 0 0 0 -489711772.64562607 -110625943.64659882 0 -110625943.64659882 -42352645.049002774 0 0 0 0 -189651120.10618162 233880058.54385185 0 233880058.54385185 -41784383.275779724 0 0 0 0 -234554519.04040527 52128674.316801071 0 52128674.316801071 56766314.790481567 0 0 0 0 -646876541.33881998 97328211.196641922 0 97328211.196641922 23918167.771084309 0 0 0 0 -47550030.920649529 215059569.46684837 0 215059569.46684837 -102430950.27886391 0 0 0 0 33588276.625298023 332250043.77219772 0 332250043.77219772 -652981222.17248154 0 0 0 0 -501685347.1545825 506098471.96602058 0 506098471.96602058 -271130599.80046463 0 0 0 0 -545529116.45888472 440319764.94454575 0 440319764.94454575 -392059765.12098694 0 0 0 0 -351385272.3700881 93359270.386543274 0 93359270.386543274 -459406522.16711044 0 0 0 0 -537512266.01209641 463213382.00509262 0 463213382.00509262 -348378090.8429451 0 0 0 0 153074356.60651875 38397405.093818665 0 38397405.093818665 -177787534.22524261 0 0 0 0 772622.86291295011 534695.47547804378 0 534695.47547804378 -1004061.2962302845 0 0 0 0 505116.75481016445 804579.43464348745 0 804579.43464348745 -465627.02585473657 0 0 0 0 293155569.89508629 363056159.12134933 0 363056159.12134933 -527190260.48469925 0 0 0 0 777831831.60664845 73464065.169140577 0 73464065.169140577 196498491.65065002 0 0 0 0 757337998.11652565 280468363.86549377 0 280468363.86549377 -208872910.20716095 0 0 0 0 381004211.73242188 182549756.748806 0 182549756.748806 -176137866.05561066 0 0 0 0 196724719.62665606 238264377.69041634 0 238264377.69041634 145014898.25497437 0 0 0 0 886624460.34590435 301845873.95540237 0 301845873.95540237 -105246829.7604084 0 0 0 0 1271786680.8197556 -290629802.60992241 0 -290629802.60992241 161239622.01262808 0 0 0 0 -381255.04918059614 -745003.89477482066 0 -745003.89477482066 1060557.1886532139 0 0 0 0 -1654029616.6346054 838014840.00665283 0 838014840.00665283 125767537.27720642 0 0 0 0 2482511591.7837772 -3391271.5548219681 0 -3391271.5548219681 -265411659.6036129 0 0 0 0 12895454.668000221 19120347.368869781 0 19120347.368869781 24361240.012546539 0 0 0 0 528352.36700789584 2993722.1701734951 0 2993722.1701734951 -1240982.5280526951 0 0 0 0 608751883.87776756 -58498534.320175171 0 -58498534.320175171 292462561.94937706 0 0 0 0 1815535.7269657559 2489084.0549278455 0 2489084.0549278455 -1191797.230225822 0 0 0 0 19574813.782854497 17440642.427765369 0 17440642.427765369 -6409970.7359848022 0 0 0 0 844258001.56308937 328542786.89733315 0 328542786.89733315 3358256.324842453 0 0 0 0 -238454245.28464127 -62399545.264791489 0 -62399545.264791489 -200440123.57913208 0 0 0 0 -41722026.695663452 209470310.33287048 0 209470310.33287048 -112063777.60829115 0 0 0 0 29743555.973007202 -57085995.943048954 0 -57085995.943048954 -180949765.4900856 0 0 0 0 -782869656.54592514 294253471.8051548 0 294253471.8051548 -254212454.90430593 0 0 0 0 -508546164.28704071 -28561308.499778748 0 -28561308.499778748 -248730241.49980894 0 0 0 0 -1228607185.6006432 122934024.90745163 0 122934024.90745163 -22253321.523763657 0 0 0 0 -353785552.69214058 152306642.00762653 0 152306642.00762653 -138550224.91151237 0 0 0 0 -64386751.755897522 -1310279.1357345581 0 -1310279.1357345581 -186275716.72753334 0 0 0 0 -56594668.664543152 117992956.32924461 0 117992956.32924461 31569542.340260029 0 0 0 0 -229440004.38259888 223473324.52808571 0 223473324.52808571 -127512218.23389435 0 0 0 0 -341190768.96402359 72207079.22040844 0 72207079.22040844 24643002.852621078 0 0 0 0 -512054916.28491211 250072081.78133488 0 250072081.78133488 138220196.8392849 0 0 0 0 -108681630.53411698 385997074.86512274 0 385997074.86512274 184006982.84889412 0 0 0 0 477495126.02370453 99978264.824547768 0 99978264.824547768 274868837.03913116 0 0 0 0 -75187241.043746233 28771119.381135046 0 28771119.381135046 188695810.3458786 0 0 0 0 -57302547.292797565 145637843.45141017 0 145637843.45141017 269309847.65507698 0 0 0 0 -91624884.449718475 166807467.18075466 0 166807467.18075466 361664662.83832359 0 0 0 0 -46593460.657295227 77467895.552418709 0 77467895.552418709 163820368.34116268 0 0 0 0 -124008487.81170273 43191892.355849266 0 43191892.355849266 179481384.82328224 0 0 0 0 -3799464.787249092 -734681.12434547301 0 -734681.12434547301 594768.31699451245 0 0 0 0 9857816.8714909554 19111672.471574783 0 19111672.471574783 29625636.637702942 0 0 0 0 -17046623.302489221 -4097136.5992093086 0 -4097136.5992093086 13543843.498146057 0 0 0 0 1155629433.314415 900031256.99824572 0 900031256.99824572 250749356.66612625 0 0 0 0 404921802.70703506 622452364.98720932 0 622452364.98720932 110389070.47509384 0 0 0 0 665419933.65761566 330912867.51649094 0 330912867.51649094 331167353.636796 0 0 0 0 -9443488.8867683411 945449616.41677094 0 945449616.41677094 -115222690.68808174 0 0 0 0 4620534.3143337434 14066746.448242959 0 14066746.448242959 834644.12216882408 0 0 0 0 -35908888.359014511 -7735349.3221092224 0 -7735349.3221092224 -19051340.974739075 0 0 0 0 -42971981.38996768 -49356366.454748154 0 -49356366.454748154 21565293.475021362 0 0 0 0 83280482.911371231 102503590.44403458 0 102503590.44403458 122097356.98182678 0 0 0 0 10934092.362755179 25404345.389556885 0 25404345.389556885 51943896.160812378 0 0 0 0 -6085170.7970577478 50567734.181978226 0 50567734.181978226 142384775.05587387 0 0 0 0 50065835.91493535 50820131.114952087 0 50820131.114952087 44974387.512464523 0 0 0 0 7635390.1913092136 74105153.296678543 0 74105153.296678543 160526080.31796646 0 0 0 0 11622413.656312279 44896342.517264202 0 44896342.517264202 -18079087.808760725 0 0 0 0 30378005.238721132 69497927.359539032 0 69497927.359539032 137315657.21132469 0 0 0 0 79556687.370821923 133864713.49873328 0 133864713.49873328 144683970.13861847 0 0 0 0 -1049330.719703069 -272508.88725931104 0 -272508.88725931104 119754.47402802296 0 0 0 0 17649933.354043484 112424030.97470856 0 112424030.97470856 199768945.53117371 0 0 0 0 14831023.759254456 70398822.60092926 0 70398822.60092926 198058359.42375183 0 0 0 0 34665129.87090683 79218458.755355835 0 79218458.755355835 162594077.36260986 0 0 0 0 19820183.807033539 81379144.910079956 0 81379144.910079956 171371919.06539917 0 0 0 0 38654465.434686661 118546797.50876498 0 118546797.50876498 244619207.70202827 0 0 0 0 96975478.763160706 234375406.24290919 0 234375406.24290919 264873223.67600775 0 0 0 0 -8092878.1630541952 28553389.578396 0 28553389.578396 24798204.904332668 0 0 0 0 23447783.110179901 341084899.73542893 0 341084899.73542893 402208701.47983938 0 0 0 0 28462536.813910723 45438394.062273026 0 45438394.062273026 117739058.28956985 0 0 0 0 -44300508.056064472 41322474.025776222 0 41322474.025776222 137623989.81639481 0 0 0 0 16973592.641917214 46069494.689260542 0 46069494.689260542 -21497643.872549117 0 0 0 0 47004041.110160828 84160018.418014526 0 84160018.418014526 186683200.21485901 0 0 0 0 26367016.621295929 67674256.303024292 0 67674256.303024292 173526896.95156479 0 0 0 0 6131685.6462203693 56232107.612939976 0 56232107.612939976 -14858386.18180842 0 0 0 0 -8874031.4678436145 11780369.316846084 0 11780369.316846084 24774552.797305226 0 0 0 0 -1064775703.9915924 -109536145.36697388 0 -109536145.36697388 1223362760.3615265 0 0 0 0 -22487753.150047302 314228175.30039978 0 314228175.30039978 362862273.1055603 0 0 0 0 86201829.220355988 193500188.11287689 0 193500188.11287689 247150498.19287109 0 0 0 0 -62282075.906967163 132665927.86061096 0 132665927.86061096 183777155.97747803 0 0 0 0 -185167075.44311905 215277657.14776611 0 215277657.14776611 314164371.13598633 0 0 0 0 -341904682.54882812 194512861.33166504 0 194512861.33166504 436856307.91357422 0 0 0 0 -83635575.942832947 98499384.498664856 0 98499384.498664856 199162065.33901978 0 0 0 0 -1629563.4857940674 94024447.168144226 0 94024447.168144226 201489347.9065094 0 0 0 0 -8927569.8155212402 97906866.575725555 0 97906866.575725555 112610038.22912598 0 0 0 0 -54453426.807552338 123538750.4087677 0 123538750.4087677 146653906.7671814 0 0 0 0 -73014288.844741821 99792363.524398804 0 99792363.524398804 117478539.0690918 0 0 0 0 -29007664.221626282 61597326.191818237 0 61597326.191818237 163085314.98312378 0 0 0 0 -82290630.307159424 89694842.685714722 0 89694842.685714722 119909717.34231567 0 0 0 0 -59611445.625358582 122905039.15791321 0 122905039.15791321 167955265.19398499 0 0 0 0 -124720992.66265106 117600908.03282166 0 117600908.03282166 127645005.29415894 0 0 0 0 -75279220.666125774 128081705.59065533 0 128081705.59065533 73326250.367736816 0 0 0 0 -159273704.7429533 88795627.001115799 0 88795627.001115799 77347578.890075684 0 0 0 0 -130764103.97116089 96378513.724243164 0 96378513.724243164 78396088.124908447 0 0 0 0 -203794176.86122513 95618433.572187424 0 95618433.572187424 136507622.49694824 0 0 0 0 -206285221.53102112 70872450.450592041 0 70872450.450592041 128200288.36010742 0 0 0 0 -160079852.47364807 135786258.87921143 0 135786258.87921143 183965292.13137054 0 0 0 0 27264320.760601044 156146986.89084625 0 156146986.89084625 257399165.51708984 0 0 0 0 2743645.52942276 51947790.972015381 0 51947790.972015381 240825469.661026 0 0 0 0 3620307.6916122437 73625307.041501999 0 73625307.041501999 204357136.95394897 0 0 0 0 68269173.604164124 74020280.970901489 0 74020280.970901489 164888068.65299988 0 0 0 0 -15221393.192973137 93491320.842811584 0 93491320.842811584 202622076.12207031 0 0 0 0 49416951.031339169 137345884.8283329 0 137345884.8283329 175993379.61575317 0 0 0 0 193671058.37570381 139115905.2996521 0 139115905.2996521 168339680.3874054 0 0 0 0 -643637.73049802706 -1657225.221608242 0 -1657225.221608242 1004600.9278804958 0 0 0 0 148725961.74385643 236990762.66569519 0 236990762.66569519 165286167.87156677 0 0 0 0 18836041.184393883 167014290.47974777 0 167014290.47974777 384947875.0012207 0 0 0 0 128990508.52846909 61813821.579467773 0 61813821.579467773 293190813.77008057 0 0 0 0 107146857.86646307 214689088.57661152 0 214689088.57661152 318774668.94378662 0 0 0 0 23134708.811918259 115936400.09572601 0 115936400.09572601 268734573.94384766 0 0 0 0 79119483.59283638 283068240.01496887 0 283068240.01496887 380376627.16213989 0 0 0 0 -115650394.42087555 147329372.97451782 0 147329372.97451782 368144690.7530365 0 0 0 0 -112870040.52971925 -1597161.6485056877 0 -1597161.6485056877 269639858.35684204 0 0 0 0 -290040685.48215771 17830661.164466858 0 17830661.164466858 274247294.14755249 0 0 0 0 -128475015.15773487 -79695533.429458618 0 -79695533.429458618 84787304.360870361 0 0 0 0 -26698536.417712212 -12283643.661483765 0 -12283643.661483765 162962459.28750801 0 0 0 0 -27420448.737231255 38016612.979660034 0 38016612.979660034 178742020.69741821 0 0 0 0 62003788.540629506 106441900.08879089 0 106441900.08879089 206305886.78707886 0 0 0 0 56414225.469279706 37525125.007403374 0 37525125.007403374 192121529.68852234 0 0 0 0 -15045297.799318314 60866816.675201416 0 60866816.675201416 185194665.58918762 0 0 0 0 -20223221.81816864 106820000.42352295 0 106820000.42352295 300134800.97528458 0 0 0 0 24492484.571162224 103454980.36740112 0 103454980.36740112 122447050.95359039 0 0 0 0 25027150.156767964 95689540.018569946 0 95689540.018569946 153465073.36279297 0 0 0 0 25542350.158913851 57241649.951499939 0 57241649.951499939 164623559.64395142 0 0 0 0 8917187.151167281 40536849.738422014 0 40536849.738422014 -16415884.72808546 0 0 0 0 30086538.580105305 64068192.350318909 0 64068192.350318909 61410086.095581055 0 0 0 0 -12806350.49560225 100528545.97257805 0 100528545.97257805 135294239.65107727 0 0 0 0 -29009559.126155853 64624267.129455566 0 64624267.129455566 146781961.18552017 0 0 0 0 7304512.1104727359 46352638.225991622 0 46352638.225991622 -17560217.228791017 0 0 0 0 -9186734.6075919233 20176118.431247547 0 20176118.431247547 31244887.389558867 0 0 0 0 23570190.38101387 95440331.140335083 0 95440331.140335083 142635485.76931763 0 0 0 0 -8632138.9061741829 25008352.022083282 0 25008352.022083282 81303048.442626953 0 0 0 0 -102168067.40256333 -50558925.225252151 0 -50558925.225252151 118568535.50842285 0 0 0 0 -84061930.165393829 17515103.128097534 0 17515103.128097534 180190857.23629761 0 0 0 0 71671307.013656616 127256230.5716629 0 127256230.5716629 170513119.36935425 0 0 0 0 56002.00197563367 4937295.9960120581 0 4937295.9960120581 6633852.8480890244 0 0 0 0 18084669.441557169 80864395.460115433 0 80864395.460115433 136341034.69613647 0 0 0 0 2961579340.0608063 3002386138.8338242 0 3002386138.8338242 2246341037.9607849 0 0 0 0 3306444876.0623169 188387712.37142944 0 188387712.37142944 606908501.18569946 0 0 0 0 -1391345.0089424849 2616171.2245952487 0 2616171.2245952487 2398786.8378888816 0 0 0 0 1816834450.2679443 1176370074.5797043 0 1176370074.5797043 219833955.19509888 0 0 0 0 2102685424.697937 1414097615.6842499 0 1414097615.6842499 1210136499.2738838 0 0 0 0 1165256.9275512695 1219345152.0635986 0 1219345152.0635986 1782501317.5083313 0 0 0 0 942772965.98951721 2199143308.777977 0 2199143308.777977 2796440649.1163483 0 0 0 0 762878483.45596313 724215212.64508057 0 724215212.64508057 1039071852.910759 0 0 0 0 -2668371.1628263071 4788619.386202693 0 4788619.386202693 4087888.2451185882 0 0 0 0 759756531.65631485 696160419.03712177 0 696160419.03712177 808789558.7744751 0 0 0 0 862657224.90914917 812909355.70393372 0 812909355.70393372 821672073.40461731 0 0 0 0 861731343.52609253 794359843.06608582 0 794359843.06608582 601297715.93656921 0 0 0 0 1267737435.1405029 657297596.7274971 0 657297596.7274971 -109857079.28625488 0 0 0 0 1300053315.4062653 930524282.65290356 0 930524282.65290356 213598387.92727661 0 0 0 0 681071653.6619873 507983520.32514954 0 507983520.32514954 123991674.21932983 0 0 0 0 1141522621.5193176 529928602.99107361 0 529928602.99107361 -167293266.36853027 0 0 0 0 936490590.84078979 739093370.70084381 0 739093370.70084381 292423572.28610229 0 0 0 0 201655363.47149658 432612417.85823059 0 432612417.85823059 250795805.51751709 0 0 0 0 713601103.74234009 349861217.27754211 0 349861217.27754211 24203332.727539062 0 0 0 0 -7683143.1334686279 265710086.78900909 0 265710086.78900909 232667203.37019348 0 0 0 0 88362455.675079346 257296033.39331055 0 257296033.39331055 109108768.03524399 0 0 0 0 77991746.690582275 343465851.93264771 0 343465851.93264771 134601503.57721329 0 0 0 0 -25815571.713165283 81025249.114814758 0 81025249.114814758 -130488354.64364624 0 0 0 0 84850661.553482056 263008019.53813934 0 263008019.53813934 -133395656.68730164 0 0 0 0 -133554470.82415771 -140590528.93463135 0 -140590528.93463135 -386412071.69861132 0 0 0 0 304973797.3609314 -554213858.06289673 0 -554213858.06289673 -1181773530.1993637 0 0 0 0 354658373.2199707 435832612.39886475 0 435832612.39886475 87819433.410072327 0 0 0 0 1119442026.2926636 174729696.20378876 0 174729696.20378876 -886539964.32568359 0 0 0 0 273424409.72610474 238027080.39778137 0 238027080.39778137 -388339343.87390137 0 0 0 0 1447114301.768219 3858054908.0744171 0 3858054908.0744171 3635116033.7156067 0 0 0 0 1710048.6165686399 440268.05080147088 0 440268.05080147088 1683039.2800922394 0 0 0 0 2223730566.3605652 2513398985.2483292 0 2513398985.2483292 3908679264.68927 0 0 0 0 -23703683.195556641 -125650774.99393463 0 -125650774.99393463 -305825500.36726379 0 0 0 0 -72166275.866973877 126636302.97820091 0 126636302.97820091 -173007786.35479736 0 0 0 0 58839148.023925781 85083702.881622314 0 85083702.881622314 -210928341.43685913 0 0 0 0 5804029.5973510742 129842111.45817566 0 129842111.45817566 -248313028.15447998 0 0 0 0 2816214418.5585632 3506024588.2244473 0 3506024588.2244473 3757163282.1549072 0 0 0 0 8702634.3134369552 663476.01740819216 0 663476.01740819216 2050001.5270246714 0 0 0 0 2216530772.6367035 2471604739.9678345 0 2471604739.9678345 3831858962.95755 0 0 0 0 2056143620.1352539 2731448632.9671936 0 2731448632.9671936 3206836332.4472656 0 0 0 0 2199612952.7515564 2127471283.243515 0 2127471283.243515 2671653640.0731735 0 0 0 0 3139336409.0002136 2634518825.8485832 0 2634518825.8485832 3045001603.4694214 0 0 0 0 2078478544.6690369 2902461486.0253754 0 2902461486.0253754 2996208717.7107239 0 0 0 0 1168445885.1731415 2242252562.3415298 0 2242252562.3415298 3259888252.4233398 0 0 0 0 567092.35935974121 1864129314.6172562 0 1864129314.6172562 3023635231.7409058 0 0 0 0 1034632598.811512 2562027973.8499603 0 2562027973.8499603 2756422051.6416016 0 0 0 0 1087729088.475769 2004043356.2698135 0 2004043356.2698135 2628568953.5547104 0 0 0 0 834873.8050994873 3124380296.6593323 0 3124380296.6593323 1498444391.0150757 0 0 0 0 1203094722.9689884 2843461247.6486378 0 2843461247.6486378 2157220874.889267 0 0 0 0 1552018577.5513153 1546412040.5339317 0 1546412040.5339317 1738925432.4216003 0 0 0 0 2032574.0927949399 3945443.3735497445 0 3945443.3735497445 1103540.0912350714 0 0 0 0 1753860720.9443054 1500227067.8378754 0 1500227067.8378754 -610143765.02224731 0 0 0 0 2289761212.5520706 3632985626.1170349 0 3632985626.1170349 -2900952.9029998779 0 0 0 0 3594797.6224668007 4161573327.4427319 0 4161573327.4427319 3520580319.1916504 0 0 0 0 5913292936.9299717 1622074075.180479 0 1622074075.180479 -2628573495.1908264 0 0 0 0 3925417.5754787698 4332695.7125943005 0 4332695.7125943005 696636.8732932508 0 0 0 0 5513872843.6208801 3817279793.8150177 0 3817279793.8150177 -3487371601.1682587 0 0 0 0 1035669.0715556294 2647573.5252877027 0 2647573.5252877027 -125942.6757896468 0 0 0 0 3560902485.6576843 4418589771.8577423 0 4418589771.8577423 2815657141.0307007 0 0 0 0 -1243097063.2336121 308494010.18589783 0 308494010.18589783 974579340.98316193 0 0 0 0 4383615017.265873 1546919778.8868713 0 1546919778.8868713 -2286502456.4501648 0 0 0 0 2456705975.5779419 1604985118.467041 0 1604985118.467041 1393189428.8361206 0 0 0 0 2700096191.8978424 2001770795.9234695 0 2001770795.9234695 1623779155.9750061 0 0 0 0 45366490.956329346 1747815839.6842194 0 1747815839.6842194 2184105388.6003265 0 0 0 0 2036704140.4575806 2008715101.1769867 0 2008715101.1769867 2085636435.2886391 0 0 0 0 2450704450.9429016 2139437128.7178345 0 2139437128.7178345 1652440864.3206253 0 0 0 0 2397843347.5686035 1864108917.7038727 0 1864108917.7038727 1224692134.3720245 0 0 0 0 2722224542.895752 2683221061.2146454 0 2683221061.2146454 2387321766.7886963 0 0 0 0 2124234563.2191467 1850433235.3674927 0 1850433235.3674927 2408501332.7268982 0 0 0 0 2843428776.0117493 2395681975.9877625 0 2395681975.9877625 2782814874.1921692 0 0 0 0 2331796091.2999115 2717941586.6656933 0 2717941586.6656933 2579956422.9281006 0 0 0 0 18971765.28755109 -549103.91650143266 0 -549103.91650143266 1787333.3367808834 0 0 0 0 2327563667.4193115 3778137744.6434174 0 3778137744.6434174 2633244514.5209017 0 0 0 0 3368726862.0552368 3445394924.9602051 0 3445394924.9602051 2596757077.1950302 0 0 0 0 15638760.843742371 -72882751.071548462 0 -72882751.071548462 -59671767.43586731 0 0 0 0 118134330.71664429 43409130.008422852 0 43409130.008422852 -44843541.118821621 0 0 0 0 2859521950.0970917 1691217231.2423935 0 1691217231.2423935 1612459330.9063721 0 0 0 0 32444756.960557282 -680201.00396110117 0 -680201.00396110117 -211231.95255943388 0 0 0 0 92164647.674102783 -2236706.9810028076 0 -2236706.9810028076 -43577441.773177147 0 0 0 0 2246413946.8694916 2510191131.7234802 0 2510191131.7234802 5421636372.237854 0 0 0 0 5112523143.9706726 3835456908.5628815 0 3835456908.5628815 1327078799.3443298 0 0 0 0 3846200515.8101282 2827104090.4540896 0 2827104090.4540896 1303970723.4859619 0 0 0 0 5145063825.8382874 2729781925.0964508 0 2729781925.0964508 -610251687.83776855 0 0 0 0 -2236626077.8218689 3707058008.7555389 0 3707058008.7555389 2428520222.530777 0 0 0 0 2594650.2647403255 3394841.9696663711 0 3394841.9696663711 2360310.4775169045 0 0 0 0 1233798183.2967224 4266915898.3938141 0 4266915898.3938141 2410899055.3909149 0 0 0 0 2412201075.4251099 608167628.26669312 0 608167628.26669312 -1516858319.4719009 0 0 0 0 5027573643.7763367 2330255556.2977142 0 2330255556.2977142 -1136241832.3996277 0 0 0 0 3879129228.2314453 2462360170.0416412 0 2462360170.0416412 -150404134.78121948 0 0 0 0 4696119024.1184235 1902364412.189785 0 1902364412.189785 257065611.84701538 0 0 0 0 4645518339.5187759 2130116015.9836426 0 2130116015.9836426 -763859487.3515625 0 0 0 0 4686993167.7255249 2223836398.5414352 0 2223836398.5414352 1094271.6968231201 0 0 0 0 1209617370.22995 417945938.24383545 0 417945938.24383545 -218714865.31665039 0 0 0 0 -2743065267.7546539 1570340814.1587753 0 1570340814.1587753 464024064.34817505 0 0 0 0 652940637.19735718 2094653785.5025482 0 2094653785.5025482 -2460842.9115741896 0 0 0 0 -23918141.310546875 334482779.83961487 0 334482779.83961487 1066847.5628509521 0 0 0 0 77576533.705490112 94366256.949134827 0 94366256.949134827 -648603006.91381836 0 0 0 0 16213171.323215291 3698854.7101719603 0 3698854.7101719603 1985541.3661274612 0 0 0 0 7855438323.7019043 1546312323.1356049 0 1546312323.1356049 -895409317.78590393 0 0 0 0 -181420928.90216064 197823543.39790344 0 197823543.39790344 -111557908.69218445 0 0 0 0 18138835.439507913 7509410.3378182352 0 7509410.3378182352 6662649.9017445892 0 0 0 0 3953414679.7070312 2133846310.3516388 0 2133846310.3516388 189360795.13639832 0 0 0 0 12699310.364379883 53668805.481567383 0 53668805.481567383 -16531414.182800293 0 0 0 0 8922914.2109063417 9014038.487371847 0 9014038.487371847 -940088.7807328105 0 0 0 0 51222966.362579346 54088844.211730957 0 54088844.211730957 -27369029.842254639 0 0 0 0 91450428.026519775 -251829143.13737488 0 -251829143.13737488 -94173110.830833435 0 0 0 0 2891813.1251501441 2821279.6006269306 0 2821279.6006269306 -491445.42827887833 0 0 0 0 107122565.95724487 85560599.002868652 0 85560599.002868652 56669297.567474365 0 0 0 0 -3305132.5676574707 148754078.29772949 0 148754078.29772949 74528585.684814453 0 0 0 0 -4585183.9294128418 65052210.945266724 0 65052210.945266724 89642989.022888184 0 0 0 0 -83987011.8828125 120678598.82923889 0 120678598.82923889 120303742.01498413 0 0 0 0 -117789976.64449692 -36269660.317239761 0 -36269660.317239761 9448462.7528686523 0 0 0 0 41265592.436584473 60845849.875610352 0 60845849.875610352 10289711.172119141 0 0 0 0 39667403.883732796 83514802.315570831 0 83514802.315570831 23763686.673492432 0 0 0 0 134307849.50462341 152970811.6651001 0 152970811.6651001 45733815.588287354 0 0 0 0 73738627.019104004 9863110.1447906494 0 9863110.1447906494 -21814945.01171875 0 0 0 0 -67050032.046966553 22719951.348693848 0 22719951.348693848 51932494.237731934 0 0 0 0 7236912.6394123156 21914546.691820666 0 21914546.691820666 11633545.105607182 0 0 0 0 -13180506.053527832 64665048.934204102 0 64665048.934204102 55977506.616073608 0 0 0 0 25702918.04876709 6524957.5745697021 0 6524957.5745697021 5587286.6596679688 0 0 0 0 58784499.561523438 89431010.495910645 0 89431010.495910645 22589116.890800476 0 0 0 0 100632928.05056763 56280886.076675415 0 56280886.076675415 11612846.163360596 0 0 0 0 67945248.636322021 102621474.74212646 0 102621474.74212646 32331999.144836426 0 0 0 0 60233276.313690186 66995115.788024902 0 66995115.788024902 12112043.480163574 0 0 0 0 54738804.754058838 77008507.403411865 0 77008507.403411865 -4980370.1691894531 0 0 0 0 -24256588.789550781 100470161.58097839 0 100470161.58097839 147879093.25091553 0 0 0 0 5054949.0529679265 5145370.4374316931 0 5145370.4374316931 -1360009.6646312028 0 0 0 0 65302203.485809326 134723340.65309143 0 134723340.65309143 1628849.6052856445 0 0 0 0 75405677.637298584 108161426.03678894 0 108161426.03678894 26707918.80770874 0 0 0 0 58459923.242126465 119496357.74159241 0 119496357.74159241 84001026.468139648 0 0 0 0 3446555.5992379338 -4125.4022123627365 0 -4125.4022123627365 -4078276.0680857301 0 0 0 0 27403328.009460449 -25579333.975860596 0 -25579333.975860596 -59383043.81918335 0 0 0 0 38050068.127349854 79732845.502258301 0 79732845.502258301 86467105.231573105 0 0 0 0 12950127.524757385 -20064767.781806946 0 -20064767.781806946 -33121601.907348633 0 0 0 0 17694735.468868911 27125787.740138277 0 27125787.740138277 5001340.7696857005 0 0 0 0 135460519.86743164 47215291.584300995 0 47215291.584300995 -20474925.241455078 0 0 0 0 65314323.206192017 46204033.280960083 0 46204033.280960083 -25885615.805480957 0 0 0 0 8340833.9768764097 29568001.440163866 0 29568001.440163866 5842576.2282450199 0 0 0 0 4641413.8688049316 16773908.878509521 0 16773908.878509521 -122685.89614868164 0 0 0 0 6972578.6434326172 16773555.678741455 0 16773555.678741455 -2824828.5472946167 0 0 0 0 7479431.3393707275 15506540.281921387 0 15506540.281921387 326926.88024902344 0 0 0 0 6489443.7464551926 12586306.659779571 0 12586306.659779571 2913249.7032898515 0 0 0 0 8400347.529094696 16305623.336135864 0 16305623.336135864 -456873.9485168457 0 0 0 0 7885228.141784668 12754671.701446533 0 12754671.701446533 3125953.3161621094 0 0 0 0 62694190.884246826 62001113.629516602 0 62001113.629516602 1323038.8022155762 0 0 0 0 10624663.278381348 14614244.957611084 0 14614244.957611084 5063523.0217285156 0 0 0 0 2614923.6323852539 67641250.608032227 0 67641250.608032227 28247186.590133667 0 0 0 0 -1020935.7922113948 26912104.10031607 0 26912104.10031607 5383481.9389829338 0 0 0 0 -3757849.8440704346 21862030.733627319 0 21862030.733627319 -3120488.4663085938 0 0 0 0 114084.64706145227 239365.1773006171 0 239365.1773006171 -153843.08640140668 0 0 0 0 13656724.144897461 19211877.38760376 0 19211877.38760376 10348842.532714844 0 0 0 0 63999474.894195557 172139062.42280579 0 172139062.42280579 42903641.215591431 0 0 0 0 115617778.75445557 29590045.172943115 0 29590045.172943115 -27996792.341690063 0 0 0 0 53044367.439628601 106976401.52419662 0 106976401.52419662 -99869113.477050781 0 0 0 0 4708837.8504156843 4635578.7604227811 0 4635578.7604227811 424117.86261868477 0 0 0 0 5194755.533874087 22488327.145305388 0 22488327.145305388 15799979.071566358 0 0 0 0 -152848.52613067627 45631230.34475708 0 45631230.34475708 31780511.414245605 0 0 0 0 53794838.836547852 62473029.633692741 0 62473029.633692741 33903488.786712646 0 0 0 0 67036786.614471436 33056693.198501587 0 33056693.198501587 8789976.960357666 0 0 0 0 51692743.104806721 19706862.196475163 0 19706862.196475163 -11758090.858728636 0 0 0 0 64452429.578643799 15557815.645935059 0 15557815.645935059 -12462413.9870224 0 0 0 0 241895722.96697998 9126857.9101371765 0 9126857.9101371765 -86158229.152359009 0 0 0 0 42209538.083068848 112582110.408638 0 112582110.408638 124163096.08377075 0 0 0 0 26408407.055307388 59724403.265492439 0 59724403.265492439 -56674771.566879272 0 0 0 0 3566110.5751795024 9641132.9088751599 0 9641132.9088751599 1270937.5759161636 0 0 0 0 -38605754.545471191 29292413.901008606 0 29292413.901008606 2588093.2980575562 0 0 0 0 224180506.09075928 100450218.14768982 0 100450218.14768982 -141948566.94297791 0 0 0 0 60264557.488433838 159576286.53147888 0 159576286.53147888 -34015114.592971802 0 0 0 0 235469097.55192566 65979040.43447113 0 65979040.43447113 -60510131.860351562 0 0 0 0 243304155.32647705 60593000.190567017 0 60593000.190567017 -111843674.95272827 0 0 0 0 217674612.64498901 7366304.1705169678 0 7366304.1705169678 -75966534.513175964 0 0 0 0 211897561.71746826 17842511.425323486 0 17842511.425323486 -8039490.0329589844 0 0 0 0 170672550.96560669 189895683.35720825 0 189895683.35720825 131666249.78138733 0 0 0 0 163835637.83483315 135713015.8381834 0 135713015.8381834 -44643088.118896484 0 0 0 0 39115340.886993408 240689065.00387573 0 240689065.00387573 48610351.66569519 0 0 0 0 13810416.05657959 109017858.49279785 0 109017858.49279785 77939457.220901489 0 0 0 0 -12189772.477874756 227452530.49693298 0 227452530.49693298 128783485.93786049 0 0 0 0 31171075.374923706 247847655.40516663 0 247847655.40516663 131633068.51168823 0 0 0 0 346284171.71127319 232534044.62528229 0 232534044.62528229 15162659.511985779 0 0 0 0 223553434.57429504 138067704.77845764 0 138067704.77845764 69309856.530532837 0 0 0 0 -2198414.0860893466 2319478.2094123214 0 2319478.2094123214 1456626.1226772666 0 0 0 0 -46871192.057830811 2365371.9881591797 0 2365371.9881591797 -2164051.5209579468 0 0 0 0 -116245707.8635025 9001777.3561286926 0 9001777.3561286926 51063711.724395752 0 0 0 0 -980224.29760812223 17823186.411256865 0 17823186.411256865 3222541.5750924945 0 0 0 0 10553212.156364262 24069482.327856407 0 24069482.327856407 4661905.4082461298 0 0 0 0 30689917.139053345 24120259.341247559 0 24120259.341247559 1590509.2159576416 0 0 0 0 -25394827.123214722 29423379.970684052 0 29423379.970684052 27957283.901397705 0 0 0 0 8524773.0321502686 22260552.104984283 0 22260552.104984283 -17081181.423736572 0 0 0 0 12164643.78717041 7802431.4850769043 0 7802431.4850769043 -2339407.0968017578 0 0 0 0 24022524.84198124 19742157.04374706 0 19742157.04374706 430935.89239248633 0 0 0 0 -47037531.608917236 87452400.83581543 0 87452400.83581543 139971386.56541443 0 0 0 0 -24237321.996002197 44854938.769996643 0 44854938.769996643 9754695.7630310059 0 0 0 0 -6445002.5656738281 70029753.858810425 0 70029753.858810425 2434327.2537231445 0 0 0 0 -15793789.749099731 53505848.195022583 0 53505848.195022583 -22144108.581634521 0 0 0 0 -2079934.7914733887 32679900.292785645 0 32679900.292785645 -20770709.135455132 0 0 0 0 -41368384.835784912 45330758.356246948 0 45330758.356246948 1355314.7431488037 0 0 0 0 -3716927.1272814367 4428803.4097327366 0 4428803.4097327366 -780707.16418541968 0 0 0 0 42611177.159667969 22066068.540519714 0 22066068.540519714 -27062743.419281006 0 0 0 0 -37769480.44418335 31642203.683403015 0 31642203.683403015 5670715.0939407349 0 0 0 0 -2450204.2171936035 29088654.241668701 0 29088654.241668701 14687293.953826904 0 0 0 0 25537964.353973389 43871598.160629272 0 43871598.160629272 -23292034.087509155 0 0 0 0 85998638.650939941 -1882173.5286407471 0 -1882173.5286407471 3795361.3099365234 0 0 0 0 162034586.61894226 34799273.91583252 0 34799273.91583252 -40546873.354827881 0 0 0 0 -1329905.4229524862 373068.88859103993 0 373068.88859103993 -15526.645989596844 0 0 0 0 -106408071.80841064 29986171.241851807 0 29986171.241851807 35655040.97013855 0 0 0 0 33124693.314666748 20662961.080993652 0 20662961.080993652 -3063051.8704605103 0 0 0 0 9865757.8074951172 63671070.159439087 0 63671070.159439087 -82191682.082473755 0 0 0 0 31561225.520126343 73857610.146682739 0 73857610.146682739 -23475667.005493164 0 0 0 0 -26482437.909912109 58575767.213287354 0 58575767.213287354 14526386.295608521 0 0 0 0 -28109992.53332901 65471360.433235168 0 65471360.433235168 22461441.322967529 0 0 0 0 -92207355.636962891 110217441.49121094 0 110217441.49121094 -7956563.0302429199 0 0 0 0 -156961793.72103119 29111715.418872833 0 29111715.418872833 76110013.977294922 0 0 0 0 -1804486.1689868867 1824590.0760940611 0 1824590.0760940611 1622305.4499564469 0 0 0 0 -541052449.04417419 1237114008.221283 0 1237114008.221283 -158331377.53644562 0 0 0 0 326734248.62918091 145605035.31228638 0 145605035.31228638 -842820805.88475037 0 0 0 0 -620023250.84227371 -922750163.80149174 0 -922750163.80149174 837257372.01367188 0 0 0 0 -541140963.90994263 610655730.978302 0 610655730.978302 -231686796.14289856 0 0 0 0 -172932317.23278809 197204994.35176086 0 197204994.35176086 129329145.52441406 0 0 0 0 675218951.72723389 383219041.29692078 0 383219041.29692078 111080772.77125549 0 0 0 0 -133056708.86730957 424240329.5252533 0 424240329.5252533 680619600.35327148 0 0 0 0 -50765889.006774902 -15746378.956359863 0 -15746378.956359863 70307313.872728348 0 0 0 0 -39076384.684448242 52016277.525543213 0 52016277.525543213 10565573.285568237 0 0 0 0 -90341319.238534927 677373395.73602867 0 677373395.73602867 17918890.680480957 0 0 0 0 -1053193.2214785069 1343060.3465419337 0 1343060.3465419337 -932619.53194788098 0 0 0 0 -278117282.193573 17022010.579269409 0 17022010.579269409 -98877093.40447998 0 0 0 0 -246538133.15835571 -236473965.04227066 0 -236473965.04227066 -143994835.2086792 0 0 0 0 3260391.2686112076 23121392.839731507 0 23121392.839731507 -1811579.940109361 0 0 0 0 -302530179.37512207 -287763378.18559265 0 -287763378.18559265 481686036.13344574 0 0 0 0 699763531.50559998 -44753834.467868805 0 -44753834.467868805 -564470783.26222229 0 0 0 0 5388754.2674323767 22191610.601793051 0 22191610.601793051 -6198364.1953849271 0 0 0 0 -28620722.66254425 61708484.082893372 0 61708484.082893372 84926533.477508545 0 0 0 0 -12331287.565414429 16000599.681915283 0 16000599.681915283 66808955.602600098 0 0 0 0 7223856.0809669495 41869329.12556076 0 41869329.12556076 69605671.011459351 0 0 0 0 961745.19990539551 14843426.110557556 0 14843426.110557556 46167522.871170044 0 0 0 0 5180604.1062011719 23095704.715950012 0 23095704.715950012 57588919.687988281 0 0 0 0 -2981798.6966515612 12635496.68992335 0 12635496.68992335 16829700.978917941 0 0 0 0 824046.57262402773 2819935.2863622159 0 2819935.2863622159 4411458.562700972 0 0 0 0 -279764064.86193848 -13936586.104225159 0 -13936586.104225159 -24427654.597900391 0 0 0 0 -6752802.8730773926 25479379.75932312 0 25479379.75932312 71358796.944076538 0 0 0 0 -184917.51493970025 4393045.372730799 0 4393045.372730799 -653776.73632353544 0 0 0 0 -1003456.1040831432 3936139.2864842378 0 3936139.2864842378 -5885980.0372619331 0 0 0 0 -4980462.4488525391 9883846.2479095459 0 9883846.2479095459 -989424.41638946533 0 0 0 0 -3366498.5605830215 8555487.8164856583 0 8555487.8164856583 883454.18043375015 0 0 0 0 7967009.5390014648 11733753.438552856 0 11733753.438552856 2615999.3112030029 0 0 0 0 -707879.99143876135 16873852.341448888 0 16873852.341448888 4151510.6777933687 0 0 0 0 -7946286.6425323486 14852826.344223022 0 14852826.344223022 9037143.1481323242 0 0 0 0 -3179308.7243780494 14627419.044313259 0 14627419.044313259 7797472.3562409431 0 0 0 0 -5697771.3488823622 9383549.9818760678 0 9383549.9818760678 -1376144.5116303414 0 0 0 0 -6884891.0339355469 14309516.508926392 0 14309516.508926392 -2015502.2548217773 0 0 0 0 -9299656.6505126953 11477838.789733887 0 11477838.789733887 -1579283.5140380859 0 0 0 0 2004574.3008690849 11449216.309837487 0 11449216.309837487 -8295683.7072343826 0 0 0 0 -1869805.2303466797 11946486.536743164 0 11946486.536743164 -5358128.4716796875 0 0 0 0 6550214.5939619597 14248433.468734279 0 14248433.468734279 -4593194.0687921196 0 0 0 0 -6083528.6530761719 14494102.839874268 0 14494102.839874268 -4042256.7601928711 0 0 0 0 -533426.58472031355 9523035.8042785227 0 9523035.8042785227 12886562.952143498 0 0 0 0 -7485810.789855957 12923223.301589966 0 12923223.301589966 1981739.1805725098 0 0 0 0 4845765.6223569512 15949085.856789634 0 15949085.856789634 13156632.485502321 0 0 0 0 -1504211.1984863281 11455721.862243652 0 11455721.862243652 -5784394.8782653809 0 0 0 0 6136981.4115756843 14200942.188590094 0 14200942.188590094 -4072770.2387920022 0 0 0 0 -2167527.6982421875 10397152.441772461 0 10397152.441772461 -1904262.2321777344 0 0 0 0 115062474.05810547 65415934.091766357 0 65415934.091766357 27306393.041900635 0 0 0 0 1491199.2427041046 3635766.0051595122 0 3635766.0051595122 -809926.45083084702 0 0 0 0 30669459.236961365 50172688.563611984 0 50172688.563611984 27570690.545837402 0 0 0 0 -1513442.1825387534 6248839.6497899108 0 6248839.6497899108 10825295.61353536 0 0 0 0 1988999.9031066895 6679668.4422225952 0 6679668.4422225952 4013031.3808326721 0 0 0 0 5452659.0902388841 6583539.5471115336 0 6583539.5471115336 17514.657948449254 0 0 0 0 6410008.1001586914 10906036.093635559 0 10906036.093635559 23368672.90713501 0 0 0 0 -566855.09959411621 6985702.2588043213 0 6985702.2588043213 29025845.197692871 0 0 0 0 52667.365287780762 12382785.981109619 0 12382785.981109619 33925150.438690186 0 0 0 0 5055519.1671142578 5401580.3210525513 0 5401580.3210525513 14626535.881744385 0 0 0 0 8444686.2695770264 -1686287.470199585 0 -1686287.470199585 16199513.65145874 0 0 0 0 -852650.47758483887 -1263747.1306152344 0 -1263747.1306152344 27666451.035614014 0 0 0 0 3145933.2266168296 936542.25937277079 0 936542.25937277079 2734605.515992403 0 0 0 0 -619696.34803771973 10190964.009056091 0 10190964.009056091 30947917.81362915 0 0 0 0 373762995.73950195 145615795.76843262 0 145615795.76843262 21114550.697814941 0 0 0 0 153676535.20794678 32251126.277420044 0 32251126.277420044 11064057.780670166 0 0 0 0 191933.70680052042 1451268.7396165729 0 1451268.7396165729 1069287.6652025878 0 0 0 0 155453150.42031097 214405031.99495697 0 214405031.99495697 319598683.48034668 0 0 0 0 -204162.02252197266 -456436.54261016846 0 -456436.54261016846 -2354431.9563598633 0 0 0 0 84846793.949157715 -278421713.49162292 0 -278421713.49162292 364110932.28395271 0 0 0 0 19586246.86340332 1949845.3639755249 0 1949845.3639755249 -8652462.0587158203 0 0 0 0 3699775.3216247559 12713557.18170166 0 12713557.18170166 21567545.123321533 0 0 0 0 841965.02304840088 4015105.8259277344 0 4015105.8259277344 -943904.63403320312 0 0 0 0 -3372812.225353241 7766055.2845916748 0 7766055.2845916748 -1254957.3787231445 0 0 0 0 7577258.8058624268 20327328.267957687 0 20327328.267957687 -9568667.2987060547 0 0 0 0 1479734.4892616272 -1479653.4727020264 0 -1479653.4727020264 -5442415.2375030518 0 0 0 0 989115.20928160846 3678298.2355017513 0 3678298.2355017513 1303500.1028586514 0 0 0 0 -2631487.7874755859 3798717.1539611816 0 3798717.1539611816 -112090.45508629536 0 0 0 0 1148280078.1596603 183946727.64071655 0 183946727.64071655 -1339050371.8363037 0 0 0 0 2150623.5931789372 -1854219.9853296056 0 -1854219.9853296056 143760.10695312917 0 0 0 0 771109049.95782471 -299719185.77835083 0 -299719185.77835083 506386667.387146 0 0 0 0 -2155308.5738431048 -3324142.6827341542 0 -3324142.6827341542 902912.540368855 0 0 0 0 -13467734.520874023 812921083.58154297 0 812921083.58154297 -170790512.78939819 0 0 0 0 -10418173.265402637 803631.45004926622 0 803631.45004926622 3938541.3043623567 0 0 0 0 -21295017.571487427 13073919.985458374 0 13073919.985458374 1155974.549331665 0 0 0 0 -208613747.55849838 86817678.938148499 0 86817678.938148499 4171066.7052001953 0 0 0 0 -222516898.13052368 52071670.60798645 0 52071670.60798645 -20748277.250404358 0 0 0 0 76224874.051307708 -25754704.575389713 0 -25754704.575389713 -9477244.6015974581 0 0 0 0 55470.779927685857 -85286.732966914773 0 -85286.732966914773 3303010.0511933472 0 0 0 0 -8280189.7717285156 2647377.102432251 0 2647377.102432251 -5638690.0465126038 0 0 0 0 8113785.0476303101 -9956692.6270065308 0 -9956692.6270065308 -365948817.04232788 0 0 0 0 -10391279.983200073 3802182.7190322876 0 3802182.7190322876 20486309.131622314 0 0 0 0 -9887499.4128875732 3842242.6850585938 0 3842242.6850585938 -1051776.721408844 0 0 0 0 -31838172.348075867 17566304.508300781 0 17566304.508300781 15321108.452026367 0 0 0 0 -25423919.3450737 -1419650.5034217834 0 -1419650.5034217834 22277022.957061768 0 0 0 0 -2821855.1920166016 6043260.0157871246 0 6043260.0157871246 20443008.4347229 0 0 0 0 -4344536.3533325195 2338626.1503067017 0 2338626.1503067017 24433275.277183533 0 0 0 0 -7551186.0071411133 12009212.48059082 0 12009212.48059082 30586324.151626587 0 0 0 0 -25466730.72644043 -1115250.5294494629 0 -1115250.5294494629 76031618.722564697 0 0 0 0 -23029990.894733429 -3504645.6793289185 0 -3504645.6793289185 21256543.444519043 0 0 0 0 -2785833.1112805419 -732041.33871074021 0 -732041.33871074021 2132502.858150959 0 0 0 0 -27504213.805496216 -38433069.127243042 0 -38433069.127243042 156110492.58110428 0 0 0 0 -37112734.854187012 67834359.569839478 0 67834359.569839478 127462481.6333313 0 0 0 0 28046825.208717346 176181427.70001221 0 176181427.70001221 33461488.452423096 0 0 0 0 60315169.419578552 168602306.45305634 0 168602306.45305634 -36010356.40802002 0 0 0 0 -92527549.142883301 70915463.396530151 0 70915463.396530151 -46818730.491116524 0 0 0 0 -6595654.3816518784 -655781.95979193598 0 -655781.95979193598 3979029.5741191208 0 0 0 0 -141656383.18823242 63698887.878219604 0 63698887.878219604 -38023899.149236679 0 0 0 0 -151227392.33773041 145869104.33834076 0 145869104.33834076 -28853401.126678467 0 0 0 0 8232565.0581436157 149910181.43656158 0 149910181.43656158 -22517145.585800171 0 0 0 0 27308216.932571411 119557286.57121277 0 119557286.57121277 -25695.674825347833 0 0 0 0 -82972799.491376877 61119275.638433456 0 61119275.638433456 9479320.852355957 0 0 0 0 -89052943.676643372 94714739.987606049 0 94714739.987606049 -37073527.513153076 0 0 0 0 -157359728.50805664 105457586.72355652 0 105457586.72355652 -1262.2486988880325 0 0 0 0 184933558.37738228 105983657.77966481 0 105983657.77966481 -15132862.359130859 0 0 0 0 140794726.43650055 118147473.18860626 0 118147473.18860626 -23200.420516967773 0 0 0 0 68385648.75025177 71788006.097747803 0 71788006.097747803 1815971.0976104736 0 0 0 0 154480804.61753845 85925029.556350708 0 85925029.556350708 -14195636.586349487 0 0 0 0 18767950.209503174 111462008.20266914 0 111462008.20266914 65996027.216064453 0 0 0 0 153715353.69242859 120240563.22109985 0 120240563.22109985 -2400487.1978530884 0 0 0 0 98250761.749580383 21029254.309951782 0 21029254.309951782 -9799552.4634780884 0 0 0 0 58097151.554450989 184374552.72271729 0 184374552.72271729 -28970407.392990112 0 0 0 0 13095211.772613525 136661235.26345825 0 136661235.26345825 -66357724.752990723 0 0 0 0 -32670812.811447144 50887262.763824463 0 50887262.763824463 -36161037.192726135 0 0 0 0 1516383.5870343447 2061648.918501012 0 2061648.918501012 -2222741.1620138735 0 0 0 0 -58101567.912109375 47856220.324546814 0 47856220.324546814 -3571.0197601318359 0 0 0 0 62461377.760696411 -5765683.3447265625 0 -5765683.3447265625 -204741358.0645752 0 0 0 0 -11385301.846786499 69584128.934184074 0 69584128.934184074 97997652.754699707 0 0 0 0 -58917664.308425903 29737802.30884552 0 29737802.30884552 69322068.544548035 0 0 0 0 -41653519.935836792 -31758925.931999207 0 -31758925.931999207 287954726.87565613 0 0 0 0 -34836555.810440063 263233100.41972351 0 263233100.41972351 212167745.76373291 0 0 0 0 4681793.0566271022 23070532.832300752 0 23070532.832300752 -9342787.1150324047 0 0 0 0 15117805.822608948 153227776.36766052 0 153227776.36766052 -124428699.0005188 0 0 0 0 173922675.6648407 -2490288.8476257324 0 -2490288.8476257324 21095332.307052612 0 0 0 0 227795819.09428406 -202248986.65612793 0 -202248986.65612793 -253799038.99747467 0 0 0 0 5887158.055495739 22455716.025386736 0 22455716.025386736 -8388039.0353018083 0 0 0 0 -54528647.071212769 80819289.947128296 0 80819289.947128296 176950647.307621 0 0 0 0 -227211402.1115036 77815041.076099396 0 77815041.076099396 558388982.22134399 0 0 0 0 -1814527.9205821007 -156049.70857331157 0 -156049.70857331157 2145297.2402412891 0 0 0 0 70844594.285079956 370319553.49101257 0 370319553.49101257 182967485.25222015 0 0 0 0 9780512.6225891113 -20974547.212982178 0 -20974547.212982178 28540428.853469849 0 0 0 0 -19120130.596601486 10969136.216270447 0 10969136.216270447 20689467.848083496 0 0 0 0 -14445284.851457901 9985825.774674803 0 9985825.774674803 2646404.7354396358 0 0 0 0 285771836.43945694 -200156311.08598518 0 -200156311.08598518 108377262.24594116 0 0 0 0 -11588912.949604429 11436948.415183447 0 11436948.415183447 -4255167.3354979306 0 0 0 0 331538.16383245587 5534436.0505992249 0 5534436.0505992249 117549.51377896033 0 0 0 0 601165926.25949097 -166438254.16038513 0 -166438254.16038513 38016015.272415161 0 0 0 0 -53886129.123916626 -42551558.667533875 0 -42551558.667533875 67988545.574092865 0 0 0 0 -12659374.799674988 33606711.474304199 0 33606711.474304199 63425312.104522705 0 0 0 0 -13508280.143371582 2857213.7724761963 0 2857213.7724761963 29880720.781842887 0 0 0 0 -10810047.034408569 -3753324.2571716309 0 -3753324.2571716309 29906788.696373284 0 0 0 0 -11258940.066619873 -1632388.1249542236 0 -1632388.1249542236 24422883.166154623 0 0 0 0 -8622174.6904449463 871456.27694702148 0 871456.27694702148 15710254.575462341 0 0 0 0 -14657733.007720947 5472670.0726928711 0 5472670.0726928711 24608046.30663538 0 0 0 0 -1759257.9324951172 5393410.1149215698 0 5393410.1149215698 18657778.978134155 0 0 0 0 -8876489.3470050693 10201079.03466282 0 10201079.03466282 2328001.3768983148 0 0 0 0 -18409452.996834755 16997745.161016464 0 16997745.161016464 66233596.420379639 0 0 0 0 -11337947.703460693 8184927.6656646729 0 8184927.6656646729 19294101.799087524 0 0 0 0 -2792822.9946517944 26869387.903793335 0 26869387.903793335 -18879361.464141846 0 0 0 0 -7531989.094619751 28844498.194652557 0 28844498.194652557 15092869.982177734 0 0 0 0 -338679.30986022949 37380250.553634644 0 37380250.553634644 17350794.60043335 0 0 0 0 1898488.0965881348 31952369.574378967 0 31952369.574378967 24769433.872131348 0 0 0 0 18302980.250030518 41223974.492347717 0 41223974.492347717 4363087.6432342529 0 0 0 0 413578.49910683185 418745.44660505652 0 418745.44660505652 273972.8478133902 0 0 0 0 13600073.718521118 25799826.648780823 0 25799826.648780823 -1217044.7671127319 0 0 0 0 -1008361.913859196 2272866.4275899008 0 2272866.4275899008 859286.1457223352 0 0 0 0 -9284936.3774871826 5829633.6167221069 0 5829633.6167221069 8130165.4462432861 0 0 0 0 -324360.41255872697 818100.81477721035 0 818100.81477721035 158256.00696624443 0 0 0 0 -12987670.96988678 -26469121.528026581 0 -26469121.528026581 -20333245.441764832 0 0 0 0 5419803.0193710327 8914167.7724685669 0 8914167.7724685669 -45606941.918624878 0 0 0 0 -5594123.5954437256 46828784.956451416 0 46828784.956451416 -114123267.70648956 0 0 0 0 -74154062.493995667 95651102.457839966 0 95651102.457839966 -65003214.482788086 0 0 0 0 -203966885.74510193 24605691.509254456 0 24605691.509254456 15025505.938995361 0 0 0 0 -35923859.363433838 3763701.9019470215 0 3763701.9019470215 8823226.3977661133 0 0 0 0 -85749499.093120575 67021894.337944031 0 67021894.337944031 -6334409.8159790039 0 0 0 0 -36901701.145080566 35021347.240264893 0 35021347.240264893 18002430.654792786 0 0 0 0 -47949759.011505127 35154277.539489746 0 35154277.539489746 18383887.232818604 0 0 0 0 -36950636.064147949 5226952.0608825684 0 5226952.0608825684 28192685.025512695 0 0 0 0 -68043953.749588013 7870511.1317214966 0 7870511.1317214966 18767168.394897461 0 0 0 0 -28474731.636108398 12133897.929901123 0 12133897.929901123 17709550.878143311 0 0 0 0 -27371637.642364502 15951327.517120361 0 15951327.517120361 27369414.557800293 0 0 0 0 -11877163.627441406 46845052.421722412 0 46845052.421722412 -41252148.115913391 0 0 0 0 -29010326.848602295 46379013.763580322 0 46379013.763580322 -42348840.606719971 0 0 0 0 -26140196.463180542 36765208.38381958 0 36765208.38381958 -17668818.457000732 0 0 0 0 -43654435.01764679 54701511.253089905 0 54701511.253089905 -4825943.3889160156 0 0 0 0 -29547535.650970459 36980583.593109131 0 36980583.593109131 11336898.062164307 0 0 0 0 -31714510.181243896 45304268.004074097 0 45304268.004074097 22828838.713287354 0 0 0 0 -15396188.417922974 39843062.460235596 0 39843062.460235596 24421990.700897217 0 0 0 0 -21983893.695495605 33917210.798072815 0 33917210.798072815 31811505.495239258 0 0 0 0 -45368942.030899048 40334138.117263794 0 40334138.117263794 30324642.460418701 0 0 0 0 -7881935.0599212646 40497930.583053589 0 40497930.583053589 36662247.305145264 0 0 0 0 -30574500.677101135 40487863.471511841 0 40487863.471511841 36676633.785919189 0 0 0 0 -3725041.9239349365 19809791.841796875 0 19809791.841796875 49476053.227172852 0 0 0 0 -9092947.6181335449 11299633.397064209 0 11299633.397064209 36006809.152770996 0 0 0 0 -36002015.876739502 8710284.0805664062 0 8710284.0805664062 37710924.461639404 0 0 0 0 -22221885.534545898 4862098.5885925293 0 4862098.5885925293 50903392.629943848 0 0 0 0 -27317581.269104004 24626461.345092773 0 24626461.345092773 38359950.186618805 0 0 0 0 -50281952.077049255 32035707.016975403 0 32035707.016975403 39817461.183776855 0 0 0 0 -2572739.9581298828 16451573.930023193 0 16451573.930023193 39250584.379688263 0 0 0 0 -38117133.476730347 25233612.839294434 0 25233612.839294434 42149082.916259766 0 0 0 0 -17184450.790313721 10958912.373046875 0 10958912.373046875 58023976.669128418 0 0 0 0 -10013205.712757111 -261861.90139389038 0 -261861.90139389038 48971702.084197998 0 0 0 0 7238713.3545074463 52496267.167533875 0 52496267.167533875 13574108.023368835 0 0 0 0 -40320876.014419556 11841230.853210449 0 11841230.853210449 42586461.594955444 0 0 0 0 -54082612.649728775 78848855.947297096 0 78848855.947297096 4044893.3196563721 0 0 0 0 -4626036.6745861173 26847874.667706132 0 26847874.667706132 10258322.354145005 0 0 0 0 -22456457.242782593 29935763.96875 0 29935763.96875 31341094.49331665 0 0 0 0 -7547859.4922637939 30362488.1381073 0 30362488.1381073 31169525.014038086 0 0 0 0 -6260032.7031648606 26613841.164947838 0 26613841.164947838 11690602.83629442 0 0 0 0 -3488720.8330675662 23683301.960776106 0 23683301.960776106 12459100.983206995 0 0 0 0 -8116888.532875061 32632825.284885406 0 32632825.284885406 22686763.596191406 0 0 0 0 -6729631.5392456055 26886393.240745544 0 26886393.240745544 15189090.492767334 0 0 0 0 2197921.9111213684 36127275.05947113 0 36127275.05947113 9586456.9440612793 0 0 0 0 282406.61861419678 24197992.304595947 0 24197992.304595947 -1376701.9912338257 0 0 0 0 -1848317.8500358462 24397934.253127225 0 24397934.253127225 9956464.0159910992 0 0 0 0 2286393.964553833 38677852.45022583 0 38677852.45022583 25463934.499641418 0 0 0 0 38083941.965438843 57485109.147033691 0 57485109.147033691 17554882.219467163 0 0 0 0 32188150.849395752 27905909.761459351 0 27905909.761459351 14088336.351257324 0 0 0 0 -14677213.90489006 46072039.987782478 0 46072039.987782478 46381547.360534668 0 0 0 0 -14271336.940673828 8800009.0120239258 0 8800009.0120239258 16557774.079898834 0 0 0 0 -12669680.020742849 9554443.0344076455 0 9554443.0344076455 19711830.305479065 0 0 0 0 22705166.319675446 60825894.847558975 0 60825894.847558975 39196135.173461914 0 0 0 0 -21328417.990463257 25894356.819793701 0 25894356.819793701 64796534.683830261 0 0 0 0 -1810299.7058122419 1065545.8732521497 0 1065545.8732521497 -526994.36219790578 0 0 0 0 -8304209.7866596282 27145262.803611156 0 27145262.803611156 22743885.129964963 0 0 0 0 -7146105.2010192871 30537608.443717957 0 30537608.443717957 -6737083.3670806885 0 0 0 0 -60727834.778186798 4968766.5293579102 0 4968766.5293579102 38229085.881134033 0 0 0 0 -1060430.0258102417 22923135.456596375 0 22923135.456596375 -7143333.5241560936 0 0 0 0 -18009179.21572876 26676525.595848083 0 26676525.595848083 29586264.471817017 0 0 0 0 -516073.57234954834 25844718.51461792 0 25844718.51461792 -16382063.808059692 0 0 0 0 1415660.9824447632 17927874.642974854 0 17927874.642974854 -6334870.3320617676 0 0 0 0 4085412.2447108254 17018636.993584063 0 17018636.993584063 -9387173.809181951 0 0 0 0 26103238.238399506 18687140.717648506 0 18687140.717648506 -73106613.181461334 0 0 0 0 -170782.5193368271 4280338.9312473871 0 4280338.9312473871 266991.36109916447 0 0 0 0 22970316.925140381 48777546.888519287 0 48777546.888519287 -69778569.579433918 0 0 0 0 -7248264.7903289795 14406086.785251617 0 14406086.785251617 -24997440.237289429 0 0 0 0 219748.93223030865 23988178.699633349 0 23988178.699633349 5425481.419201225 0 0 0 0 400409.94146351516 17050366.653390862 0 17050366.653390862 8679419.6342765614 0 0 0 0 6077494.8513183594 14460145.324066162 0 14460145.324066162 -22367366.94834137 0 0 0 0 6372084.0796164647 9970460.4980874173 0 9970460.4980874173 -29765287.637029819 0 0 0 0 5495569.7861461639 28094336.251634598 0 28094336.251634598 -46193446.624347687 0 0 0 0 84393135.722747803 21278554.760004044 0 21278554.760004044 -47482377.827372551 0 0 0 0 -8457938.945274353 15488842.036178589 0 15488842.036178589 -31669649.449369907 0 0 0 0 -1763793.6436531991 4791142.5181518532 0 4791142.5181518532 -1634733.4122777469 0 0 0 0 28452608.546768188 13713868.707952499 0 13713868.707952499 -33283913.819012642 0 0 0 0 25012457.142211914 22264945.847815514 0 22264945.847815514 -10621738.668359756 0 0 0 0 28965579.455764771 28806836.057870865 0 28806836.057870865 -65170252.944587231 0 0 0 0 -1351204.8755493164 10268232.204400063 0 10268232.204400063 -56163967.617153168 0 0 0 0 3917347.0865619481 9628556.3256562129 0 9628556.3256562129 -14143671.475037018 0 0 0 0 -4886554.1489334106 57971815.23741436 0 57971815.23741436 -74955788.015220642 0 0 0 0 -39604150.559837341 76237661.748931885 0 76237661.748931885 -1490068.1853561401 0 0 0 0 -19491448.23387146 30052025.962661743 0 30052025.962661743 52157752.924690247 0 0 0 0 -1177301.1547920778 23178242.552820604 0 23178242.552820604 253127.05259169638 0 0 0 0 15561372.408090591 19603018.087021828 0 19603018.087021828 -63709568.600814819 0 0 0 0 21958274.913345337 46253589.635246277 0 46253589.635246277 -25504311.077766418 0 0 0 0 5180444.5198702961 17592122.718467355 0 17592122.718467355 -9800024.5576895215 0 0 0 0 240989.76756938547 1804851.9432973415 0 1804851.9432973415 5003828.7999930829 0 0 0 0 14675414.03302002 110169090.88985443 0 110169090.88985443 2468977.1216049194 0 0 0 0 85201152.84267807 75614504.180906296 0 75614504.180906296 -37230627.273086548 0 0 0 0 52050105.498389244 65269578.334130287 0 65269578.334130287 -5739502.3162231445 0 0 0 0 1754208.3891148418 21370005.20119857 0 21370005.20119857 -11143548.799692303 0 0 0 0 15007783.605072021 -27071831.544639587 0 -27071831.544639587 53702114.469745636 0 0 0 0 16172933.850265503 66707428.835454941 0 66707428.835454941 18940231.42565155 0 0 0 0 7559944.8820037842 51234994.040046692 0 51234994.040046692 -7708252.7009124756 0 0 0 0 -8238302.1902427673 -33424146.546774864 0 -33424146.546774864 64061782.414726257 0 0 0 0 3262305.321030125 3118151.9194377717 0 3118151.9194377717 -9068664.7565956861 0 0 0 0 46137112.067649841 14467414.205322266 0 14467414.205322266 -52533341.458503723 0 0 0 0 12688213.585800171 33737585.57800293 0 33737585.57800293 -63757779.735688686 0 0 0 0 3086617.14913477 25366206.555299953 0 25366206.555299953 -11801943.213909825 0 0 0 0 -2655218.0427780151 28551813.800458908 0 28551813.800458908 -52145921.440570831 0 0 0 0 -25200743.586273193 63524024.535640717 0 63524024.535640717 33361282.474514008 0 0 0 0 -65747568.316101074 69711114.25674057 0 69711114.25674057 38298448.906839371 0 0 0 0 -1669298.2647116482 18577720.462063316 0 18577720.462063316 -18470355.870343179 0 0 0 0 -61324168.014205933 -6182887.9939804077 0 -6182887.9939804077 -6480033.5455646515 0 0 0 0 -17840144.478408813 29327625.72084713 0 29327625.72084713 16267808.24687767 0 0 0 0 5835786.9781087115 30256101.025027044 0 30256101.025027044 -17975937.108243011 0 0 0 0 12846137.816375732 39612223.056106567 0 39612223.056106567 -15911156.281326294 0 0 0 0 2312285.0061035156 28672605.961612225 0 28672605.961612225 -73300341.789388657 0 0 0 0 21893328.650939941 16748330.622024536 0 16748330.622024536 22833525.980926514 0 0 0 0 -4365239.9781047851 32717660.857480079 0 32717660.857480079 -18283487.201957338 0 0 0 0 1504663.9388427734 12379865.873161316 0 12379865.873161316 -6588155.3377227783 0 0 0 0 564715.5518122986 30145036.793032221 0 30145036.793032221 -20221724.335438214 0 0 0 0 49018035.170204163 68410283.670331955 0 68410283.670331955 -42992328.142730713 0 0 0 0 11048588.297592163 14624148.948059082 0 14624148.948059082 -11793278.158935547 0 0 0 0 15143840.568712704 17747108.98486048 0 17747108.98486048 -1384772.2697830051 0 0 0 0 -40353354.086349487 52058378.497776985 0 52058378.497776985 41260832.454627991 0 0 0 0 -11773445.034759521 90701914.313692093 0 90701914.313692093 65992442.573028564 0 0 0 0 533122.21495974064 30358691.298765797 0 30358691.298765797 -31356572.891846173 0 0 0 0 -5955023.8468052521 2444429.9373178221 0 2444429.9373178221 7686615.1478710845 0 0 0 0 -18572761.039672852 61534448.420639038 0 61534448.420639038 14239111.790527344 0 0 0 0 -11805991.739196777 123252692.99234009 0 123252692.99234009 -82181173.32585144 0 0 0 0 -7837041.6290181875 30822200.593447052 0 30822200.593447052 -564624.0110969618 0 0 0 0 226024413.61895752 5853891.0307998657 0 5853891.0307998657 -28947494.769592285 0 0 0 0 -6663757.7608550861 1387673.0898709856 0 1387673.0898709856 1465630.208071962 0 0 0 0 6708941.340252772 20647759.466921732 0 20647759.466921732 -2617994.9386957958 0 0 0 0 8101157.2420349121 48798876.648841858 0 48798876.648841858 2178323.6078186035 0 0 0 0 563802.24652099609 45290705.042633057 0 45290705.042633057 18606169.472488403 0 0 0 0 29393486.214767456 51765746.601825714 0 51765746.601825714 12646014.988960266 0 0 0 0 48720479.344543457 41016003.524337769 0 41016003.524337769 2078898.5267562866 0 0 0 0 -3418447.1777907498 41492141.508059882 0 41492141.508059882 4225287.4480432123 0 0 0 0 -16118365.451812744 58279297.533813477 0 58279297.533813477 20262302.494903564 0 0 0 0 100665536.36691284 87460839.084907532 0 87460839.084907532 -10243895.233917236 0 0 0 0 12516470.703529358 57084099.85622406 0 57084099.85622406 -8816861.0924377441 0 0 0 0 -88237010.048103333 74976886.453170776 0 74976886.453170776 21493114.821922302 0 0 0 0 -400640.0190829318 34435661.141614504 0 34435661.141614504 12067972.262926638 0 0 0 0 -2317966.2301559448 99108232.437246323 0 99108232.437246323 3752163.9463195801 0 0 0 0 -90837304.520317078 16810214.792785645 0 16810214.792785645 11908422.925354004 0 0 0 0 72781458.78352356 56066719.342842102 0 56066719.342842102 -27219088.186889648 0 0 0 0 99458371.504302979 69733283.465759277 0 69733283.465759277 -22439677.822784424 0 0 0 0 94744397.886749268 179909341.89683533 0 179909341.89683533 128649592.86816406 0 0 0 0 180764899.09313965 77237401.861358643 0 77237401.861358643 -57203491.464477539 0 0 0 0 42294282.479980469 102539321.48590088 0 102539321.48590088 23086337.958786011 0 0 0 0 1582380.1307220459 110793213.48182678 0 110793213.48182678 25821772.760219574 0 0 0 0 47306628.99369812 60781709.648384094 0 60781709.648384094 -27616807.028518677 0 0 0 0 12671170.543304443 55806422.817550659 0 55806422.817550659 1735288.2059631348 0 0 0 0 33064806.893997192 24136071.178703308 0 24136071.178703308 -21538690.093765259 0 0 0 0 54166639.352554321 47558363.809043884 0 47558363.809043884 -4701866.9735660553 0 0 0 0 -945570.55301955342 26716143.462595478 0 26716143.462595478 -13859863.022972591 0 0 0 0 7568311.4514312744 54296496.091911316 0 54296496.091911316 -35597683.298562527 0 0 0 0 19238248.967575073 -11133035.3203125 0 -11133035.3203125 49489290.523956299 0 0 0 0 23374957.302902222 -6792937.9051361084 0 -6792937.9051361084 9395925.8055267334 0 0 0 0 26289962.961364746 -16731219.74041748 0 -16731219.74041748 53110295.069908142 0 0 0 0 -417646.21258844435 578002.46105735004 0 578002.46105735004 1197019.5286493897 0 0 0 0 24911866.434112549 -10981129.413734436 0 -10981129.413734436 19754213.117248535 0 0 0 0 9884576.1082266346 14028777.307247516 0 14028777.307247516 -11713915.928105064 0 0 0 0 41896444.775268555 29920712.726478577 0 29920712.726478577 -22589099.011993408 0 0 0 0 56875482.909004211 -48634986.965065002 0 -48634986.965065002 -61762738.039916992 0 0 0 0 88419469.997756958 24548406.947990417 0 24548406.947990417 6920128.820101738 0 0 0 0 397665649.10639 3599223.3738269806 0 3599223.3738269806 -8482141.5641479492 0 0 0 0 220766192.4825592 388686452.08699179 0 388686452.08699179 341574830.48947144 0 0 0 0 -10646711.750166163 9786959.0974591672 0 9786959.0974591672 2846797.012435399 0 0 0 0 1573106.027165845 -97589.409639030695 0 -97589.409639030695 -1245259.2020824179 0 0 0 0 -536793.36766780913 555305.60776148364 0 555305.60776148364 57982.803470216691 0 0 0 0 379270987.49024963 166630654.31478882 0 166630654.31478882 157207527.81427002 0 0 0 0 229711077.16299438 226900388.26802063 0 226900388.26802063 484217046.02836609 0 0 0 0 55023021.450508118 -60303510.551612854 0 -60303510.551612854 -35422178.955596924 0 0 0 0 -12192395.000389099 -19611534.449550629 0 -19611534.449550629 22746342.292114258 0 0 0 0 -48256360.900604248 -8007555.3972930908 0 -8007555.3972930908 19454415.816558838 0 0 0 0 2030012.6627407074 210837361.5042696 0 210837361.5042696 -33747211.977661133 0 0 0 0 -40429566.08581543 -77077352.209976196 0 -77077352.209976196 -10975391.31602478 0 0 0 0 617788598.4914856 138190320.42576599 0 138190320.42576599 -116823422.83790588 0 0 0 0 -11378567.085172012 11015194.740503944 0 11015194.740503944 -2543280.471571438 0 0 0 0 188813032.23226929 143692976.28525543 0 143692976.28525543 123200642.44006348 0 0 0 0 37175832.480712891 84593749.850875854 0 84593749.850875854 193079996.95236206 0 0 0 0 -81354920.9140625 308406954.16177368 0 308406954.16177368 484350111.16052246 0 0 0 0 -167662040.85726929 114161161.50949097 0 114161161.50949097 448404769.78845215 0 0 0 0 -239712659.2405014 -128940909.22064972 0 -128940909.22064972 210635740.11639404 0 0 0 0 73916374.11819458 -171941911.41682434 0 -171941911.41682434 -249929711.84284973 0 0 0 0 -5271865.6024515182 7421126.8104491383 0 7421126.8104491383 4891223.2604486383 0 0 0 0 138828023.3895874 -12748747.386016846 0 -12748747.386016846 -19090850.766174316 0 0 0 0 -18517976.196014404 72352443.629730225 0 72352443.629730225 -58877082.653396606 0 0 0 0 -36351451.060211182 18808065.213867188 0 18808065.213867188 49696321.317661285 0 0 0 0 -165316558.19015503 -24039546.45703125 0 -24039546.45703125 45689350.308855057 0 0 0 0 -5032724.5095341802 21238432.451281078 0 21238432.451281078 6658377.7097751983 0 0 0 0 15118896.420776367 30534312.933410645 0 30534312.933410645 19086295.415840149 0 0 0 0 -90294032.929626465 -75475906.507446289 0 -75475906.507446289 -60185249.284545898 0 0 0 0 15902016.481140137 43311256.049728394 0 43311256.049728394 2857577.7471618652 0 0 0 0 60514958.417503357 93395110.451591492 0 93395110.451591492 48507998.341552734 0 0 0 0 -85397635.335266113 -60633134.515045166 0 -60633134.515045166 17155050.868797302 0 0 0 0 -146896825.68938065 -88320180.805488586 0 -88320180.805488586 28532042.386352539 0 0 0 0 -108085947.26335263 22086141.045537233 0 22086141.045537233 119164344.57647705 0 0 0 0 -150067671.00241089 25984705.949401855 0 25984705.949401855 67203903.945083618 0 0 0 0 -108467079.51745987 1896238.4094634056 0 1896238.4094634056 -31418389.951141357 0 0 0 0 -41309951.804000854 101209027.60917664 0 101209027.60917664 136134095.10006714 0 0 0 0 -50188390.08001709 28789440.964813232 0 28789440.964813232 85410922.596633911 0 0 0 0 -37997674.940032959 94082647.701721191 0 94082647.701721191 261309891.60610962 0 0 0 0 75792562.086181641 116421488.43011475 0 116421488.43011475 118752664.3627243 0 0 0 0 410241629.71863937 274188346.25295639 0 274188346.25295639 93825735.652404785 0 0 0 0 108573190.87765503 219938613.65213013 0 219938613.65213013 419813489.02929688 0 0 0 0 85534840.579971313 58412516.54524231 0 58412516.54524231 138664385.66403198 0 0 0 0 112126421.31835938 -16254086.625854492 0 -16254086.625854492 345674349.42935944 0 0 0 0 -49507751.39276123 3307003.7718811035 0 3307003.7718811035 158736055.75976562 0 0 0 0 5968099.7492617518 11150441.288109593 0 11150441.288109593 -51940.794223845005 0 0 0 0 37202335.216278076 39507196.191616058 0 39507196.191616058 17360214.923118591 0 0 0 0 -207401.08613733575 34789002.084968351 0 34789002.084968351 17994413.924832851 0 0 0 0 6387788.9057617188 16026722.197410583 0 16026722.197410583 8570673.3612976074 0 0 0 0 26783190.688926697 24051506.34330368 0 24051506.34330368 -2631590.4558410645 0 0 0 0 28815953.962751791 23429994.995379779 0 23429994.995379779 -3411462.1533585303 0 0 0 0 1708539.7298445627 21060296.946784951 0 21060296.946784951 8561718.3552587628 0 0 0 0 -22901527.356170654 18183277.792022705 0 18183277.792022705 -4886101.1648368835 0 0 0 0 837015.07010355592 22756003.642289273 0 22756003.642289273 4814038.7073927522 0 0 0 0 59778588.547241211 90549258.715774536 0 90549258.715774536 85280296.136543274 0 0 0 0 -36751678.012313843 12774377.985244751 0 12774377.985244751 6347852.9502716064 0 0 0 0 -6090005.0383220389 3901915.5833591223 0 3901915.5833591223 3139121.2156566978 0 0 0 0 -122630270.48431396 -31337570.688850403 0 -31337570.688850403 32154422.079322815 0 0 0 0 -1632717.9399181306 407524.94687391818 0 407524.94687391818 1459550.5766198449 0 0 0 0 24269983.614990234 25260227.614990234 0 25260227.614990234 11061735.330883026 0 0 0 0 1403166.466861859 14806257.260133162 0 14806257.260133162 3198637.0394217446 0 0 0 0 38776040.042778015 33754146.985855103 0 33754146.985855103 8987694.6580963135 0 0 0 0 -712913.32465296611 6052925.9906472638 0 6052925.9906472638 314345.11552464962 0 0 0 0 14091856.031661987 11576510.459518433 0 11576510.459518433 29839676.734924316 0 0 0 0 -87239428.877601624 175039036.67260838 0 175039036.67260838 -310866441.5241394 0 0 0 0 -378191985.48522949 353151531.53249359 0 353151531.53249359 -33873706.325172424 0 0 0 0 -1035294446.8808975 349090325.40250587 0 349090325.40250587 117363279.88671875 0 0 0 0 -398645.25954015553 2150223.0733961686 0 2150223.0733961686 79200.336919248104 0 0 0 0 -120687725.00274658 703100252.58101654 0 703100252.58101654 -141391378.33931732 0 0 0 0 147553030.30166626 117567066.52493286 0 117567066.52493286 20445718.16985321 0 0 0 0 112167258.58337402 72703072.68705368 0 72703072.68705368 -55700059.931472778 0 0 0 0 3082634.3038593903 5181431.574676089 0 5181431.574676089 -1344883.3972916752 0 0 0 0 57992893.52255249 58131966.287628174 0 58131966.287628174 84981398.682754517 0 0 0 0 63826706.327758789 34476922.922584534 0 34476922.922584534 -24695516.510772705 0 0 0 0 8402236.7353515625 74319878.500656128 0 74319878.500656128 46563116.659965515 0 0 0 0 55887820.75340271 53517084.671657562 0 53517084.671657562 30655150.303878784 0 0 0 0 98861442.802612305 44792368.076858521 0 44792368.076858521 17434958.422210693 0 0 0 0 50379026.374961853 40861982.844661713 0 40861982.844661713 10835247.663772583 0 0 0 0 18623341.99520874 25118283.639503479 0 25118283.639503479 32977410.267333984 0 0 0 0 10044252.857727051 15512791.696029663 0 15512791.696029663 22583741.961105347 0 0 0 0 107917407.87042999 29827945.917038918 0 29827945.917038918 -103324317.45285034 0 0 0 0 -57943298.959350586 28796626.850250244 0 28796626.850250244 25715381.038709641 0 0 0 0 6210138.2847595215 38582892.78163147 0 38582892.78163147 -28633960.157226562 0 0 0 0 -220248791.23886108 71054279.583511353 0 71054279.583511353 -26133180.978088379 0 0 0 0 -16799461.723815918 -68835479.891433716 0 -68835479.891433716 -160703078.79187012 0 0 0 0 -7365726.2811889648 111942428.42724609 0 111942428.42724609 -98835710.612533569 0 0 0 0 173472342.70205688 62573781.46031189 0 62573781.46031189 -129353079.11830521 0 0 0 0 24333549.431610107 192239784.37568665 0 192239784.37568665 -222298931.74002075 0 0 0 0 170878787.30154419 38517786.897096634 0 38517786.897096634 -337868081.26119995 0 0 0 0 88209914.801300049 164346157.97395325 0 164346157.97395325 -158529181.36911011 0 0 0 0 46852436.323303223 216542489.50090027 0 216542489.50090027 -224400597.71994019 0 0 0 0 84839932.66305542 152550275.11064148 0 152550275.11064148 -14844356.615783691 0 0 0 0 366657757.49041748 196142683.99349976 0 196142683.99349976 -226585178.41242599 0 0 0 0 303440165.27267456 -46926745.475967407 0 -46926745.475967407 149992429.99029541 0 0 0 0 -3782987.0216369629 276205412.63687134 0 276205412.63687134 66258028.631546021 0 0 0 0 480969519.29440308 108974739.33377075 0 108974739.33377075 -165979542.81799316 0 0 0 0 -567834916.03504944 43588476.405830383 0 43588476.405830383 112453060.49804688 0 0 0 0 -6505822.2124225609 4767022.2330949754 0 4767022.2330949754 2743346.6040978208 0 0 0 0 -292574955.11077881 329531191.760849 0 329531191.760849 -38460118.331401825 0 0 0 0 98180562.427856445 189081332.58395386 0 189081332.58395386 -62474463.098205566 0 0 0 0 -251506952.69805908 -9951833.3390197754 0 -9951833.3390197754 12955500.603839874 0 0 0 0 -288447205.77258301 231210063.60646057 0 231210063.60646057 -24952335.050170898 0 0 0 0 -16092202.896240234 111508810.9683075 0 111508810.9683075 -7885975.7226867676 0 0 0 0 -39520281.206002086 46555775.814201467 0 46555775.814201467 -4265283.369271826 0 0 0 0 -94368505.780456543 72361381.002761841 0 72361381.002761841 35980578.618850708 0 0 0 0 -97772496.034057617 71179682.524856567 0 71179682.524856567 35842047.843214035 0 0 0 0 -36479853.603500366 77097276.707448483 0 77097276.707448483 80630343.313640594 0 0 0 0 -117933728.58789062 123295213.12994385 0 123295213.12994385 -4496393.0886306763 0 0 0 0 -102374668.55603027 70566711.168876648 0 70566711.168876648 38012188.987472534 0 0 0 0 -107771179.9276123 25453361.330352783 0 25453361.330352783 14692167.23231411 0 0 0 0 -100456745.69702148 72680089.395797729 0 72680089.395797729 40017857.878509521 0 0 0 0 -206492186.86758423 74202557.935058594 0 74202557.935058594 40018224.682983398 0 0 0 0 -64002113.076889038 56693945.6223526 0 56693945.6223526 12054956.804138184 0 0 0 0 -38175000.933837891 433235362.41177368 0 433235362.41177368 -316641654.07202148 0 0 0 0 -211433536.16436768 287691453.79882812 0 287691453.79882812 360597297.58921814 0 0 0 0 -23350974.375497665 19104842.18513386 0 19104842.18513386 11814664.790084474 0 0 0 0 11357392.584136963 361927878.77458191 0 361927878.77458191 -55712668.495391846 0 0 0 0 29257293.420257568 332411774.60463715 0 332411774.60463715 -27025980.42098999 0 0 0 0 66023521.597900391 316840081.48790741 0 316840081.48790741 -49358797.695922852 0 0 0 0 54837394.679931641 329644873.78341675 0 329644873.78341675 -48403629.823993683 0 0 0 0 12097519.518026352 -75443664.326982975 0 -75443664.326982975 113124866.83688354 0 0 0 0 -13892706.398135811 979611.72453732044 0 979611.72453732044 14384790.586664982 0 0 0 0 73788789.974594116 166693902.86668682 0 166693902.86668682 31135815.821800232 0 0 0 0 -159564476.01806641 97242552.942943573 0 97242552.942943573 67141491.973068237 0 0 0 0 -21974039.963706654 20197220.441731643 0 20197220.441731643 14495196.122105459 0 0 0 0 -36071637.830543727 42246337.785133377 0 42246337.785133377 -21717539.674286306 0 0 0 0 29533814.935211182 -1910869.9804172516 0 -1910869.9804172516 63993499.329097748 0 0 0 0 -14528498.787963867 82306987.802108765 0 82306987.802108765 45067537.067499161 0 0 0 0 -64041006.568050385 98884878.715096235 0 98884878.715096235 79388997.242069244 0 0 0 0 -11235859.139286771 13278738.944747411 0 13278738.944747411 -4248789.8862457462 0 0 0 0 -107647226.36167908 -24250041.224601746 0 -24250041.224601746 256385414.98684692 0 0 0 0 -3750995.2917175293 11802186.37210083 0 11802186.37210083 -297661.56323242188 0 0 0 0 -2705985.7714524418 17604370.351247013 0 17604370.351247013 -18625746.285893068 0 0 0 0 -11109305.735875636 19751708.915868729 0 19751708.915868729 -12223689.625857443 0 0 0 0 -3618909.2292785645 11010652.146690369 0 11010652.146690369 4429454.577041626 0 0 0 0 -14824150.949568793 24563745.610751051 0 24563745.610751051 -20687387.294561073 0 0 0 0 -35969902.689601898 203566818.32940221 0 203566818.32940221 53518717.874504089 0 0 0 0 -154774146.19519043 140966520.15339661 0 140966520.15339661 340921309.37470245 0 0 0 0 55621687.304694176 99884379.694813013 0 99884379.694813013 145786139.0975647 0 0 0 0 -317118943.24014282 276833499.99499512 0 276833499.99499512 65195447.193496704 0 0 0 0 -291719526.30380249 -3333668.3027954102 0 -3333668.3027954102 159697269.82540131 0 0 0 0 22991815.33493042 1984272.8585357666 0 1984272.8585357666 150795310.30978394 0 0 0 0 -32966375.149597168 -130806604.2551651 0 -130806604.2551651 -69562026.126800537 0 0 0 0 -109136237.08247375 -79925346.474121094 0 -79925346.474121094 -64052596.873291016 0 0 0 0 -341925367.12521362 -345167510.88289642 0 -345167510.88289642 -283379770.52545166 0 0 0 0 -8556604.9482574463 313482757.1150589 0 313482757.1150589 -218518773.59695435 0 0 0 0 -167040900.81835938 45248535.367370605 0 45248535.367370605 67723519.542007446 0 0 0 0 -884817298.84024048 152254024.25550842 0 152254024.25550842 58993920.651626587 0 0 0 0 -221890437.7769928 532402608.4899826 0 532402608.4899826 -558506997.72497559 0 0 0 0 10260070.846008301 183451164.15802002 0 183451164.15802002 -147759097.05404663 0 0 0 0 186628799.51243591 57244050.020401001 0 57244050.020401001 -358341284.43688965 0 0 0 0 -982467905.6782074 303176786.05929565 0 303176786.05929565 2541854.5732727051 0 0 0 0 816262.784692958 1639278.4491870254 0 1639278.4491870254 -593297.16092804819 0 0 0 0 136127935.09295654 -35675592.866737366 0 -35675592.866737366 -96776131.970962524 0 0 0 0 -371358349.43270874 -226843851.82631683 0 -226843851.82631683 322335862.58599854 0 0 0 0 -871790494.55218506 402219249.09513855 0 402219249.09513855 -323118246.52584839 0 0 0 0 359053738.43591309 115736264.58074188 0 115736264.58074188 -211164070.97645569 0 0 0 0 1322191.4796065241 -1661152.741272904 0 -1661152.741272904 570150.00517963152 0 0 0 0 82523986.902038574 100618195.02105713 0 100618195.02105713 117412233.05472183 0 0 0 0 -55310164.203613281 37179351.092498779 0 37179351.092498779 422244531.43057156 0 0 0 0 13506537.324447632 3464833.3143692017 0 3464833.3143692017 2628284.80519104 0 0 0 0 92974589.177482605 -11551831.900407791 0 -11551831.900407791 4891333.9317779541 0 0 0 0 118492949.96710205 -43749766.517116547 0 -43749766.517116547 -68938155.888969421 0 0 0 0 -3083588.755645752 -157150982.01361084 0 -157150982.01361084 -172135402.53847504 0 0 0 0 -42862168.951667786 -117085840.3254528 0 -117085840.3254528 67098861.630477905 0 0 0 0 44827407.782592773 -75834300.759872437 0 -75834300.759872437 73039154.584842682 0 0 0 0 -1212021.5010264218 10992738.548155013 0 10992738.548155013 -6394120.0079659894 0 0 0 0 -805179.99707968533 5555798.1867931262 0 5555798.1867931262 -3553243.5836231783 0 0 0 0 -18763137.641387939 24598850.81410408 0 24598850.81410408 -13264476.685050964 0 0 0 0 -28271622.733688354 43471390.427095413 0 43471390.427095413 -38854571.265235901 0 0 0 0 1257717.1584170461 3680659.8288886994 0 3680659.8288886994 -3193376.6400740203 0 0 0 0 14714197.406158447 25509752.067466736 0 25509752.067466736 -102224317.90738487 0 0 0 0 -2397821.2223052979 30693582.900531769 0 30693582.900531769 -44684926.66733551 0 0 0 0 -78805.826736450195 31579775.726272583 0 31579775.726272583 -48426258.13356781 0 0 0 0 -2606817.5455627441 38066723.937374115 0 38066723.937374115 -67168007.819259644 0 0 0 0 -16527243.000335693 32219932.580871582 0 32219932.580871582 -34686573.665031433 0 0 0 0 -8058501.4800109863 32253772.404846191 0 32253772.404846191 -46210275.09362793 0 0 0 0 13615.034744262695 25663987.259780884 0 25663987.259780884 -41152997.253089905 0 0 0 0 -13258996.814117432 27865187.434715271 0 27865187.434715271 -35055290.887695312 0 0 0 0 -7018340.6211242676 21928839.802864075 0 21928839.802864075 -34835736.36158967 0 0 0 0 -25874.996826529503 1688457.0620551184 0 1688457.0620551184 -4113945.0374220908 0 0 0 0 3997277.8132680058 -4720102.5665593222 0 -4720102.5665593222 1716179.7583961119 0 0 0 0 8720969.083770752 -38836752.706352234 0 -38836752.706352234 363904576.72995758 0 0 0 0 22731690.518409729 -5500986.323425293 0 -5500986.323425293 3985269.3468170166 0 0 0 0 -459259.48128628731 -4346344.9398755431 0 -4346344.9398755431 1867793.2540787542 0 0 0 0 -7034919.6575317383 19675794.463523865 0 19675794.463523865 -44427228.997436523 0 0 0 0 9165441.2504272461 -121415985.95848846 0 -121415985.95848846 1108699739.4476013 0 0 0 0 -2871.3244934082031 5718321.6005859375 0 5718321.6005859375 646819.205534935 0 0 0 0 4615062.8968112171 466412.2174134776 0 466412.2174134776 -4267938.5481712371 0 0 0 0 85155830.084136963 408591222.85067749 0 408591222.85067749 232652574.52056885 0 0 0 0 -1048951.8891296387 653635383.92563629 0 653635383.92563629 928475411.99447823 0 0 0 0 400317006.75378418 586462961.60842896 0 586462961.60842896 310198479.35355377 0 0 0 0 4075067.2989196777 861906026.28089142 0 861906026.28089142 126626494.02151489 0 0 0 0 267454077.80664062 348759851.27360916 0 348759851.27360916 -25422660.339447021 0 0 0 0 361498438.61352539 441540600.84062958 0 441540600.84062958 31957920.295692444 0 0 0 0 122710406.66369629 213358549.59866333 0 213358549.59866333 601520948.05168152 0 0 0 0 28669327.414367676 3883349.3652839661 0 3883349.3652839661 161011624.16801453 0 0 0 0 130305298.1366272 -39746259.845497131 0 -39746259.845497131 17981335.011993408 0 0 0 0 -449401803.05905151 258161553.10971832 0 258161553.10971832 43954668.562942028 0 0 0 0 -69274881.490829468 -20800899.739276886 0 -20800899.739276886 -96647051.126480103 0 0 0 0 196712800.06686401 267207756.81280518 0 267207756.81280518 215177756.52739334 0 0 0 0 360186073.56072998 345696492.9230957 0 345696492.9230957 62759072.886688232 0 0 0 0 -169742614.86688232 554100716.53344727 0 554100716.53344727 -17324701.173042297 0 0 0 0 357819552.9012146 241154263.40280151 0 241154263.40280151 -319899820.81352997 0 0 0 0 -400481962.30429077 179396756.53601074 0 179396756.53601074 251724511.79769897 0 0 0 0 -142903664.27175903 185866088.86978912 0 185866088.86978912 197421624.99634552 0 0 0 0 348296677.47802734 322641361.835495 0 322641361.835495 201736680.10901642 0 0 0 0 -18262125.417915344 459403270.2639122 0 459403270.2639122 218770174.3074646 0 0 0 0 1149712091.6620789 293332106.65209961 0 293332106.65209961 242214622.47428894 0 0 0 0 605142664.9909668 560171049.69693756 0 560171049.69693756 240521081.7454071 0 0 0 0 791648670.42059326 428439560.98510742 0 428439560.98510742 229552572.66177559 0 0 0 0 357859930.34101868 314780502.80087662 0 314780502.80087662 245400869.80117798 0 0 0 0 846940075.07626343 628819993.77140427 0 628819993.77140427 664185905.22317505 0 0 0 0 1569580861.809906 890244532.76386261 0 890244532.76386261 -49910747.158782959 0 0 0 0 777858.54873657227 170853477.97925949 0 170853477.97925949 170602265.50144958 0 0 0 0 -2518736.2611495405 4653955.0210004151 0 4653955.0210004151 4247017.1882551163 0 0 0 0 804206212.42523193 948281815.21713257 0 948281815.21713257 4131341.9469146729 0 0 0 0 689363584.79473877 371862871.61280823 0 371862871.61280823 -13074765.006011963 0 0 0 0 797455921.24266052 577204899.49554443 0 577204899.49554443 76050759.279449463 0 0 0 0 -8345183.1361999512 80277114.061138153 0 80277114.061138153 -147905374.67504883 0 0 0 0 2338452.8336791992 98800512.337070465 0 98800512.337070465 -183200272.487854 0 0 0 0 -995222.31721496582 81505999.03770256 0 81505999.03770256 -224656807.97564697 0 0 0 0 -22573485.855712891 128957697.29511261 0 128957697.29511261 -198806409.27107239 0 0 0 0 -15556503.920898438 107685601.97239685 0 107685601.97239685 -169369771.72229004 0 0 0 0 -12421678.140312195 90136191.71109581 0 90136191.71109581 -126582081.11382294 0 0 0 0 24251.725448608398 103506176.8231411 0 103506176.8231411 -171302372.22799683 0 0 0 0 -4298971.08984375 55579015.543491364 0 55579015.543491364 -111366373.98629189 0 0 0 0 26730337.347381592 82472280.655601501 0 82472280.655601501 -94846624.962064743 0 0 0 0 16533713.524459839 77670219.540678024 0 77670219.540678024 -154309269.89154053 0 0 0 0 -34973413.808761597 99641567.382827759 0 99641567.382827759 -69918913.423019409 0 0 0 0 7922237.1510925293 81968398.314815521 0 81968398.314815521 -65671008.807282448 0 0 0 0 -22098687.716217041 97547128.995204926 0 97547128.995204926 -75950827.202526093 0 0 0 0 -63667708.529205322 141547826.04121399 0 141547826.04121399 -102499469.39776611 0 0 0 0 -62972217.563293457 52059633.458183289 0 52059633.458183289 -132977377.16714478 0 0 0 0 16028211.633239746 58452239.544281006 0 58452239.544281006 -119951395.80076981 0 0 0 0 -27138633.329467773 111253811.18657684 0 111253811.18657684 -3271557.1126441956 0 0 0 0 21530531.100274965 6967835.8081270289 0 6967835.8081270289 -5237060.0174903441 0 0 0 0 17751166.829650879 86698091.697727203 0 86698091.697727203 -132303346.66295624 0 0 0 0 4899490.2186889648 8778881.9782867432 0 8778881.9782867432 -3118280.6410598755 0 0 0 0 11330986.97354126 13305856.472135544 0 13305856.472135544 -13593490.420845032 0 0 0 0 16790471.716589138 11125914.551091366 0 11125914.551091366 -10555854.85016587 0 0 0 0 3474529.8310791105 1487186.2851499915 0 1487186.2851499915 -1894551.7484628409 0 0 0 0 21991141.779205322 70231541.449363708 0 70231541.449363708 -278879300.74626923 0 0 0 0 -105421870.26870728 108138697.32574844 0 108138697.32574844 -63155669.492198944 0 0 0 0 17208702.073699951 24765862.913047791 0 24765862.913047791 10913326.668487549 0 0 0 0 12415564.169781938 13686405.083032031 0 13686405.083032031 495921.5815921165 0 0 0 0 4253735.0419006348 27104475.468963623 0 27104475.468963623 43512894.139701843 0 0 0 0 -35318782.231277466 -94843416.900588989 0 -94843416.900588989 -5524049.4608764648 0 0 0 0 68930.875352203846 3976352.6243236214 0 3976352.6243236214 803949.32760768128 0 0 0 0 3932309.8905639648 15883082.016319275 0 15883082.016319275 30879036.555740356 0 0 0 0 24002642.528320312 30950125.434066772 0 30950125.434066772 16216662.539428711 0 0 0 0 19602897.837142944 21675047.733160019 0 21675047.733160019 10008963.081497192 0 0 0 0 27693321.806533813 11071115.073097229 0 11071115.073097229 -36577618.885704041 0 0 0 0 49087466.853027344 45209376.248046875 0 45209376.248046875 11894106.256329536 0 0 0 0 19035759.576717913 5956805.3693548441 0 5956805.3693548441 -10055857.402932793 0 0 0 0 -125741729.58622491 -21691342.710047334 0 -21691342.710047334 -11989249.471244812 0 0 0 0 -529628.32721174508 -1429896.5712826476 0 -1429896.5712826476 -1707781.259300068 0 0 0 0 -55511656.395126343 253446158.56863785 0 253446158.56863785 -841393345.43003464 0 0 0 0 -130460867.06790161 -332423547.13922501 0 -332423547.13922501 -460346279.03548431 0 0 0 0 211820799.10571289 -68942010.857315063 0 -68942010.857315063 -624109094.13864267 0 0 0 0 174071390.25968933 -389240560.50852776 0 -389240560.50852776 -902014687.92188263 0 0 0 0 230800696.92382812 -254690004.24525452 0 -254690004.24525452 -627724970.77125764 0 0 0 0 82334245.906051636 -151455741.95233917 0 -151455741.95233917 -526599576.90923309 0 0 0 0 -83041488.011413574 -325062824.87215805 0 -325062824.87215805 -634427387.30335045 0 0 0 0 202496591.93203735 -128748232.31551361 0 -128748232.31551361 -777139193.50460052 0 0 0 0 553351.76858817041 7251540.9550490566 0 7251540.9550490566 2458130.7889264864 0 0 0 0 -1112487.5443572998 1673399.6688251495 0 1673399.6688251495 3426586.3379669189 0 0 0 0 97430084.746765137 355959714.33092117 0 355959714.33092117 177793742.91123199 0 0 0 0 -2580911.518157959 99847179.184661865 0 99847179.184661865 -165273429.75614548 0 0 0 0 4753948.6019739658 7285249.6254770216 0 7285249.6254770216 -481510.00592597947 0 0 0 0 -4814330.3420410156 3569716.7266540527 0 3569716.7266540527 13854718.064788818 0 0 0 0 -11262770.469474792 69873064.741701126 0 69873064.741701126 -225635338.53253174 0 0 0 0 -1311601.769019857 4545417.5109640341 0 4545417.5109640341 -1124747.0137601048 0 0 0 0 -69242.93408203125 19848801.555221558 0 19848801.555221558 2229184.3177843094 0 0 0 0 -146327.41844853759 3639290.4806113057 0 3639290.4806113057 2935073.5037921229 0 0 0 0 -5443506921.7894897 -1935967123.0331268 0 -1935967123.0331268 2689785415.5786285 0 0 0 0 2198319.5851898193 1467832960.6468124 0 1467832960.6468124 -1541402671.1822014 0 0 0 0 186107446.06243896 -1031098788.3972206 0 -1031098788.3972206 -1784159012.8451262 0 0 0 0 -2432969.0505368114 4163470.7423699647 0 4163470.7423699647 -5255951.6348107308 0 0 0 0 1335881257.2549438 502932346.06373215 0 502932346.06373215 -2122199266.6956177 0 0 0 0 -630448145.12955856 112890546.72294998 0 112890546.72294998 66090527.214401245 0 0 0 0 -8612622.7254943848 60431679.146251678 0 60431679.146251678 -30014095.355827332 0 0 0 0 -8558736.7122679353 12660671.547842406 0 12660671.547842406 -13535610.563406833 0 0 0 0 -9856772.6126346588 56503283.850263596 0 56503283.850263596 19830825.861869812 0 0 0 0 -1072130.8984680176 41443099.175815582 0 41443099.175815582 -6982014.2156066895 0 0 0 0 -11811462.929656982 27814392.661178589 0 27814392.661178589 -14176740.71972084 0 0 0 0 -6517976.9921875 32468576.473266602 0 32468576.473266602 -16104270.104476929 0 0 0 0 -10006348.683708191 38678644.917898178 0 38678644.917898178 2639747.2496643066 0 0 0 0 -28800589.621612549 16343767.209568024 0 16343767.209568024 -42100059.711517334 0 0 0 0 -6172289.1707000732 36568345.265304565 0 36568345.265304565 -28546109.44708252 0 0 0 0 285472.32237243652 32931793.298160553 0 32931793.298160553 -43835257.901245117 0 0 0 0 13361773.988967896 52453350.637507439 0 52453350.637507439 -24698236.855667114 0 0 0 0 4522360.1804504395 29421254.304870605 0 29421254.304870605 -22983632.630283356 0 0 0 0 5965931.2180328369 25705142.474843979 0 25705142.474843979 -27171032.784988403 0 0 0 0 -6950298.7468261719 58195240.307258606 0 58195240.307258606 -49816683.222038269 0 0 0 0 -1221594.9750366211 20029064.046569824 0 20029064.046569824 -12967830.465415955 0 0 0 0 -8947588.8340110779 49255918.756923676 0 49255918.756923676 14785409.490066528 0 0 0 0 18069853.648223877 65770015.244743347 0 65770015.244743347 9909422.1962795258 0 0 0 0 214977410.48991776 -24170278.121368647 0 -24170278.121368647 -141147652.46084595 0 0 0 0 185717206.46033859 606731407.97775483 0 606731407.97775483 345863914.49505997 0 0 0 0 -15589123.703389689 20748866.806119867 0 20748866.806119867 -18530414.581258018 0 0 0 0 15403927.939941406 27176706.054496765 0 27176706.054496765 7247044.0998077393 0 0 0 0 407910762.53967285 443018898.80575562 0 443018898.80575562 -408532100.10529327 0 0 0 0 499261397.69792557 232881383.92955399 0 232881383.92955399 -1161765652.4781189 0 0 0 0 57312354.013717651 -314659437.31272411 0 -314659437.31272411 -1253875776.8000565 0 0 0 0 -432344486.65527344 -2740618.8210639954 0 -2740618.8210639954 301206446.2650795 0 0 0 0 149027449.22550964 -173850113.20242882 0 -173850113.20242882 -851712099.26429749 0 0 0 0 59752639.463531494 -120856142.91721725 0 -120856142.91721725 -474821610.53585339 0 0 0 0 142563981.95401001 -210294318.22458267 0 -210294318.22458267 -1024969099.5591354 0 0 0 0 48881763.917129517 -440141041.31517029 0 -440141041.31517029 -1458379642.0694036 0 0 0 0 2400257.3271120042 2016840.4544404224 0 2016840.4544404224 -3409812.4358326327 0 0 0 0 31273313.707672119 -325436281.17179489 0 -325436281.17179489 -826393079.32341385 0 0 0 0 5580594.5212955475 117835618.88355494 0 117835618.88355494 -513476553.60333252 0 0 0 0 15708645.364614487 99990175.173968077 0 99990175.173968077 -1301979992.562027 0 0 0 0 -246513274.16197205 138590911.60010147 0 138590911.60010147 44907041.985343933 0 0 0 0 -253442039.31346893 335961575.33104801 0 335961575.33104801 -605428755.94330215 0 0 0 0 160901617.69485474 152679140.42577362 0 152679140.42577362 -362492990.63558769 0 0 0 0 14000774.516265869 130461084.77677727 0 130461084.77677727 -520459677.07801723 0 0 0 0 -17598415.410858154 144655009.39063454 0 144655009.39063454 -46276702.620429993 0 0 0 0 -23249171.068840265 28628633.83619713 0 28628633.83619713 -19516909.727720346 0 0 0 0 132391142.89242554 342601532.00230598 0 342601532.00230598 294178134.09423447 0 0 0 0 30298409.744491577 -35389091.860588074 0 -35389091.860588074 121490344.91988373 0 0 0 0 19809044.446899414 316136259.34199524 0 316136259.34199524 326154606.51417923 0 0 0 0 -112540370.36956024 38079266.534597397 0 38079266.534597397 176522600.17286682 0 0 0 0 237039366.24624634 196503535.46818924 0 196503535.46818924 209579052.25172329 0 0 0 0 -125760237.14819336 90663888.366203308 0 90663888.366203308 53751176.713998795 0 0 0 0 -353011363.72277832 113015725.83134842 0 113015725.83134842 269477736.66612625 0 0 0 0 -71652251.104476929 148813835.49821234 0 148813835.49821234 112622075.77694702 0 0 0 0 314641980.60974121 262024076.69003296 0 262024076.69003296 132165649.55188942 0 0 0 0 -471984565.51483917 -139903840.76667356 0 -139903840.76667356 150097338.21379852 0 0 0 0 -196581443.81933594 -64668151.643435478 0 -64668151.643435478 278873346.51377869 0 0 0 0 -36261066.309555054 124495150.85255718 0 124495150.85255718 -11944839.250183105 0 0 0 0 130725139.41209745 231373820.40609521 0 231373820.40609521 495774304.64710999 0 0 0 0 -456386.47564148903 1798189.232463114 0 1798189.232463114 -2871939.0086834952 0 0 0 0 -121256882.40052795 107537007.2596283 0 107537007.2596283 52311637.431438446 0 0 0 0 -54190991.069011688 94203446.768613338 0 94203446.768613338 -16499298.767372131 0 0 0 0 -73354399.227771759 133844381.76522255 0 133844381.76522255 57097028.5313797 0 0 0 0 -4023626.5633200444 2084833.1538727134 0 2084833.1538727134 1914932.8536986075 0 0 0 0 8746992.0255737305 202111577.85012817 0 202111577.85012817 -108116286.59192467 0 0 0 0 280127169.32301331 92157228.417467117 0 92157228.417467117 -97268193.845287323 0 0 0 0 -259520677.84220123 -10997648.600644112 0 -10997648.600644112 -4048332.7043037415 0 0 0 0 254049923.22852325 -469433936.10634613 0 -469433936.10634613 -281408985.03388596 0 0 0 0 -102676015.89186096 -93136107.552499771 0 -93136107.552499771 -87843110.746744394 0 0 0 0 -521173584.95477295 -348769088.24062538 0 -348769088.24062538 -228473635.00384521 0 0 0 0 84331808.07661438 -25318153.790246964 0 -25318153.790246964 -1007199115.1627159 0 0 0 0 56168019.608879089 35733660.96435976 0 35733660.96435976 22775930.157268524 0 0 0 0 1919394.6339759827 269131152.16772175 0 269131152.16772175 -212491378.51473999 0 0 0 0 872428.26742553711 277194061.55226755 0 277194061.55226755 -223559634.82497406 0 0 0 0 65096765.949066162 94650198.571365356 0 94650198.571365356 -111814124.74318361 0 0 0 0 -175640732.32192993 218214783.56655502 0 218214783.56655502 -100387505.21757555 0 0 0 0 -483794828.04357147 290841228.65916634 0 290841228.65916634 -14495765.032844543 0 0 0 0 -278076883.68536377 569819695.74080658 0 569819695.74080658 -510811340.00046539 0 0 0 0 -67528475.134719849 95283547.706886292 0 95283547.706886292 -70547034.339889526 0 0 0 0 -340026518.6494751 49943085.837791443 0 49943085.837791443 47187246.229621887 0 0 0 0 101769328.89995062 30167560.993039846 0 30167560.993039846 -52990164.023414612 0 0 0 0 34253027.837905884 -286000585.06871414 0 -286000585.06871414 -717132995.13237762 0 0 0 0 -68057413.272872925 181174869.25776291 0 181174869.25776291 -439672649.93990326 0 0 0 0 6494178.7351866215 5806892.0157690793 0 5806892.0157690793 -8522546.3686139397 0 0 0 0 101651787.83057654 17486581.480915651 0 17486581.480915651 -9258983.717880249 0 0 0 0 7984934.4445800781 8798907.4720726013 0 8798907.4720726013 -3807535.1916503906 0 0 0 0 7734291.6218261719 6446081.5648918152 0 6446081.5648918152 -3492721.2295837402 0 0 0 0 4349990.541611053 5955763.1729476862 0 5955763.1729476862 -14784.690462566912 0 0 0 0 30923519.655105591 5446409.9040279388 0 5446409.9040279388 -2998360.4482088089 0 0 0 0 3176140.41653533 -1413838.5053155422 0 -1413838.5053155422 375844.9673442021 0 0 0 0 89974013.072692871 -143084.65769386292 0 -143084.65769386292 -66199378.837985992 0 0 0 0 -128544632.07421875 11105178.64074707 0 11105178.64074707 33726336.204681396 0 0 0 0 5767873.1236572266 6711504.5147819519 0 6711504.5147819519 -2901661.0949325562 0 0 0 0 15993930.904207096 16830170.919468738 0 16830170.919468738 2588010.7144168802 0 0 0 0 388740.80209350586 13272687.828697205 0 13272687.828697205 -7104655.723110199 0 0 0 0 -9768611.8369445801 99052840.124343872 0 99052840.124343872 -53979269.526069641 0 0 0 0 -41298237.714406967 -11812650.47205925 0 -11812650.47205925 46044527.726974487 0 0 0 0 -6025640.3903149813 58743.311127521098 0 58743.311127521098 3627928.8545378707 0 0 0 0 18842947.874699138 8280561.3921288401 0 8280561.3921288401 1133184.4396593794 0 0 0 0 156644516.95776367 -43140386.184234619 0 -43140386.184234619 -5938889.5870361328 0 0 0 0 94382107.083953857 49471700.023994446 0 49471700.023994446 22711066.806393623 0 0 0 0 27937041.716026306 57149822.25229454 0 57149822.25229454 38171626.410713196 0 0 0 0 135130569.04922485 54267430.785837173 0 54267430.785837173 -107339846.5459671 0 0 0 0 59640799.688583374 145726347.63484383 0 145726347.63484383 -281297944.59301758 0 0 0 0 14725574.265541077 129903899.09121323 0 129903899.09121323 -63117369.369781494 0 0 0 0 -12499623.584922791 42410541.893054962 0 42410541.893054962 12973589.777008057 0 0 0 0 8200344.2297058105 23830439.228797913 0 23830439.228797913 -157358662.54443264 0 0 0 0 42056188.307945251 178137276.08490562 0 178137276.08490562 -452575574.45075607 0 0 0 0 -12277775.075057983 127367132.15206909 0 127367132.15206909 -94401731.966658592 0 0 0 0 48059932.581771851 68521844.974742889 0 68521844.974742889 -116785284.09439468 0 0 0 0 6203315.5654754639 85913380.584953308 0 85913380.584953308 -137298157.02361965 0 0 0 0 8134186.9280700684 110077793.78713226 0 110077793.78713226 -79581570.08323288 0 0 0 0 61932282.92539978 14477009.91396904 0 14477009.91396904 -166919551.76291847 0 0 0 0 51089166.58821106 25287695.646832466 0 25287695.646832466 -55025617.896263123 0 0 0 0 10900064.273956299 132399480.67001343 0 132399480.67001343 -305365480.00329971 0 0 0 0 407698147.90843201 -124234345.01682472 0 -124234345.01682472 -242855985.30528641 0 0 0 0 225266626.09466171 -28656312.924136162 0 -28656312.924136162 -620243821.12417221 0 0 0 0 220397875.29103088 27947447.43280983 0 27947447.43280983 -339053631.65006924 0 0 0 0 86765426.777124405 296485389.82784176 0 296485389.82784176 -119612107.37021255 0 0 0 0 11647710.214431763 176390419.18451309 0 176390419.18451309 -108294878.28206253 0 0 0 0 -270497850.31284332 427208172.2092247 0 427208172.2092247 -366482838.5726738 0 0 0 0 -1889067.7774825543 -1108369.9877425693 0 -1108369.9877425693 1486871.5836973153 0 0 0 0 -47618504.822059631 196259241.19212151 0 196259241.19212151 -248075227.73261261 0 0 0 0 8472638.5158081055 269589573.96175766 0 269589573.96175766 -216181169.54862785 0 0 0 0 145248982.52698517 280905089.08799934 0 280905089.08799934 -379107152.21802521 0 0 0 0 200428035.06735229 106107039.66477394 0 106107039.66477394 -229423638.41903353 0 0 0 0 -3146904.6407772303 -1959262.5223552249 0 -1959262.5223552249 2214487.0492586233 0 0 0 0 56388792.634538651 183906131.94157934 0 183906131.94157934 -144668517.33132553 0 0 0 0 93196739.157066345 83078945.440439224 0 83078945.440439224 -166859589.09447479 0 0 0 0 -38280777.553634644 105681865.71813774 0 105681865.71813774 -170045897.56387377 0 0 0 0 -7466628.6062240601 158084370.52051401 0 158084370.52051401 -205902182.25194931 0 0 0 0 -1987654.6354763508 -1242915.0558144338 0 -1242915.0558144338 1448617.7076482382 0 0 0 0 -136075950.63313293 270120532.40811539 0 270120532.40811539 -425362359.60958099 0 0 0 0 -85824079.837295532 -106879423.55985451 0 -106879423.55985451 -359312782.49347258 0 0 0 0 -64551390.343383789 48433591.266940594 0 48433591.266940594 -39345269.688812256 0 0 0 0 -52661643.823158264 49967165.904464722 0 49967165.904464722 -160421177.53156662 0 0 0 0 -133960046.59088135 8604126.2710037231 0 8604126.2710037231 -6112138.176322937 0 0 0 0 7394715.4649276733 31284419.364360809 0 31284419.364360809 -29390838.915391922 0 0 0 0 -26492973.624862671 12503382.168727875 0 12503382.168727875 -115550787.48536301 0 0 0 0 -6516191.0427137762 7515676.8064825833 0 7515676.8064825833 -2776322.0178714842 0 0 0 0 28573314.803848267 19145170.734579086 0 19145170.734579086 -50048517.630955696 0 0 0 0 -63008564.319580078 178774239.166646 0 178774239.166646 -200363961.89985275 0 0 0 0 -39842489.567367554 138263045.78242683 0 138263045.78242683 -218002194.82613754 0 0 0 0 85822395.946399689 14826796.495494843 0 14826796.495494843 -27692500.13111496 0 0 0 0 -5233941.34801884 2847549.7945297249 0 2847549.7945297249 1397409.3324085325 0 0 0 0 -29967178.169403076 158363803.05649757 0 158363803.05649757 -195081162.73852634 0 0 0 0 -37694961.638031006 148580489.32452202 0 148580489.32452202 -156283158.86725235 0 0 0 0 -232466594.02056503 309280336.65981579 0 309280336.65981579 -115049480.37566376 0 0 0 0 -157482212.05381775 137232692.84997177 0 137232692.84997177 45656116.113367081 0 0 0 0 169393754.49524689 245376769.15884781 0 245376769.15884781 -27188085.908924103 0 0 0 0 394078797.21270752 34625765.932312965 0 34625765.932312965 -9599794.4277648926 0 0 0 0 -2328010.0074999705 581902.13839931041 0 581902.13839931041 1338150.9863322861 0 0 0 0 22900165.168479919 43400402.658737183 0 43400402.658737183 -9803125.185344398 0 0 0 0 89502952.782579422 178478292.16380119 0 178478292.16380119 99343239.241462708 0 0 0 0 -43094257.753108978 119897288.99636316 0 119897288.99636316 -42900867.393369675 0 0 0 0 -74457636.605957031 42559395.205575943 0 42559395.205575943 3890267.6219587326 0 0 0 0 202520387.06723261 -22350047.169833064 0 -22350047.169833064 -26124556.162002563 0 0 0 0 413710026.02455139 -9761467.3525009155 0 -9761467.3525009155 -27247803.428253174 0 0 0 0 -1291966.1090247482 1482926.3388955109 0 1482926.3388955109 624029.08893834986 0 0 0 0 -92150844.677168846 114762508.1032517 0 114762508.1032517 288401198.36589432 0 0 0 0 252968873.51979065 377206699.45853233 0 377206699.45853233 199120789.71023273 0 0 0 0 4976094.4319381714 112477643.92908669 0 112477643.92908669 -264931010.59156227 0 0 0 0 898502.07716019452 1404106.8836289886 0 1404106.8836289886 -916138.73912488576 0 0 0 0 -26659512.258168459 188552266.25579929 0 188552266.25579929 84543196.69316864 0 0 0 0 -31813552.971473694 256076252.6884079 0 256076252.6884079 59922940.546047211 0 0 0 0 16907900.640922546 52237378.289703369 0 52237378.289703369 -351135379.2375145 0 0 0 0 31112686.984647751 -41850604.602534294 0 -41850604.602534294 -492802052.03829193 0 0 0 0 -31570518.623277664 60418801.63736248 0 60418801.63736248 -351856471.83536911 0 0 0 0 -438466447.8128891 519103993.11096191 0 519103993.11096191 -597037388.27518749 0 0 0 0 31706615.751983643 -51076286.406824112 0 -51076286.406824112 -642456378.7664299 0 0 0 0 -187294893.88733673 -97323544.888216019 0 -97323544.888216019 -203857682.54454041 0 0 0 0 52206210.372535706 456665197.9802475 0 456665197.9802475 -481518983.78561401 0 0 0 0 -309469.90598859638 -1300096.855453331 0 -1300096.855453331 -446700.34139817208 0 0 0 0 181588328.08791351 -210693261.65950775 0 -210693261.65950775 -201870016.98218155 0 0 0 0 75769686.785263062 49084432.805492401 0 49084432.805492401 -47963689.129901886 0 0 0 0 78673304.411239624 57722370.257804871 0 57722370.257804871 -80827202.926113129 0 0 0 0 112529889.22238159 52351288.421638489 0 52351288.421638489 -59375809.909999847 0 0 0 0 134663497.24800301 23188325.123623371 0 23188325.123623371 -39056921.730728149 0 0 0 0 127501923.71362305 -19678705.458438873 0 -19678705.458438873 -25498127.258712769 0 0 0 0 7220983.6043979637 803630.54428416677 0 803630.54428416677 -8313759.0655565932 0 0 0 0 -187138230.29080963 383901652.36042976 0 383901652.36042976 -563049864.50859833 0 0 0 0 -159175161.70877075 261924484.58383369 0 261924484.58383369 -301817805.20384312 0 0 0 0 -438745196.40406799 300814114.94807053 0 300814114.94807053 -156574012.5560379 0 0 0 0 -163525307.64065552 136907670.10748291 0 136907670.10748291 -547442730.9311676 0 0 0 0 -198212825.09589386 128702707.76095772 0 128702707.76095772 -91357704.201805115 0 0 0 0 -231632714.17848969 272126438.30267334 0 272126438.30267334 -302126839.28903198 0 0 0 0 -40203445.309036255 -9445940.4398956299 0 -9445940.4398956299 -7006666.9101638794 0 0 0 0 -47816893.859764099 -7074073.9449672699 0 -7074073.9449672699 8726114.6756896973 0 0 0 0 -23579332.055885315 36431.455370903015 0 36431.455370903015 -11580814.815734863 0 0 0 0 -47999540.506408691 -2736038.9647750854 0 -2736038.9647750854 14182260.890228271 0 0 0 0 -49936817.674407959 -14495852.496246338 0 -14495852.496246338 -12914530.489562988 0 0 0 0 1371731.183180362 2281400.1678365842 0 2281400.1678365842 -10162.358126410283 0 0 0 0 -46504182.124176025 -21685850.544418335 0 -21685850.544418335 -25083876.588684082 0 0 0 0 -45376808.773605347 -3168551.4480018616 0 -3168551.4480018616 11748533.23815155 0 0 0 0 -12153215.448453516 -1342640.0851808339 0 -1342640.0851808339 9026593.4028375037 0 0 0 0 -71258595.750343323 15219494.17824173 0 15219494.17824173 -60817765.490064621 0 0 0 0 -471170003.84226227 154789473.6929512 0 154789473.6929512 35954845.134101868 0 0 0 0 -438306320.77514267 523913754.31251621 0 523913754.31251621 -306232324.60321808 0 0 0 0 -151202793.1389389 379412583.18787575 0 379412583.18787575 -235993057.36331177 0 0 0 0 -634025811.9523201 238111475.46834087 0 238111475.46834087 -306129.04370117188 0 0 0 0 3126480.2287451364 2080650.4854968116 0 2080650.4854968116 42585.951533652842 0 0 0 0 17947832.163192749 -19591909.768707275 0 -19591909.768707275 -12686506.423820496 0 0 0 0 -44929620.224609375 37069982.215408325 0 37069982.215408325 27417837.846740723 0 0 0 0 27201105.328754343 27070631.532846723 0 27070631.532846723 13582963.583718676 0 0 0 0 76403973.669181824 43352163.854385376 0 43352163.854385376 -23463110.960945129 0 0 0 0 80609145.845848083 34611192.13237381 0 34611192.13237381 -37664469.52507019 0 0 0 0 66175006.522644043 55084811.69355011 0 55084811.69355011 -26979346.542974472 0 0 0 0 78683762.855255127 50474589.879928589 0 50474589.879928589 -25632454.251220703 0 0 0 0 56166106.775501251 46947463.48733139 0 46947463.48733139 25578354.187301636 0 0 0 0 -40300523.692764282 -23228811.365123749 0 -23228811.365123749 10505004.191864014 0 0 0 0 116447256.11672974 94642855.582460403 0 94642855.582460403 41791355.895201683 0 0 0 0 49955186.705724254 25418546.292698942 0 25418546.292698942 -12881096.384073658 0 0 0 0 -16599912.368312411 15699345.424680956 0 15699345.424680956 34825468.793721154 0 0 0 0 -35662668.833473206 -9594983.5042381287 0 -9594983.5042381287 4433252.7030410767 0 0 0 0 -51900534.80909729 737710.05186843872 0 737710.05186843872 46253814.279907227 0 0 0 0 -51262693.294921875 3835980.3886489868 0 3835980.3886489868 43121640.980178833 0 0 0 0 125274965.64544678 137593444.69973755 0 137593444.69973755 112767642.32094049 0 0 0 0 -15358899.599194296 14026423.187621206 0 14026423.187621206 33993442.478357404 0 0 0 0 -620462.68359375 48783350.357120037 0 48783350.357120037 121278544.3943634 0 0 0 0 154875055.12057495 156113331.53876972 0 156113331.53876972 89303883.695820808 0 0 0 0 126001213.3815918 140239582.14115906 0 140239582.14115906 155899638.20422363 0 0 0 0 -49996188.500976562 -1931161.0546035767 0 -1931161.0546035767 41893153.455062866 0 0 0 0 -48987140.528747559 9954921.5950737 0 9954921.5950737 51316454.595993042 0 0 0 0 -45991172.389160156 12150191.392810822 0 12150191.392810822 32263782.78515625 0 0 0 0 -548362.11016844492 -953774.37721846998 0 -953774.37721846998 136050.02167528309 0 0 0 0 -50953423.276992798 -6705747.9818954468 0 -6705747.9818954468 66337501.173522949 0 0 0 0 -48346062.239776611 633613.21955871582 0 633613.21955871582 44291382.906635284 0 0 0 0 -49892627.520904541 -2605027.1254272461 0 -2605027.1254272461 50687895.407592773 0 0 0 0 -55008172.590194702 14873534.46257782 0 14873534.46257782 57784423.894378662 0 0 0 0 -48840573.838134766 11027511.164012909 0 11027511.164012909 58158052.243881226 0 0 0 0 -54673951.915771484 17622708.093460083 0 17622708.093460083 79764479.466892242 0 0 0 0 -44940786.242843628 135294.32590484619 0 135294.32590484619 54326299.191730499 0 0 0 0 -26916579.311653137 -29203443.99446106 0 -29203443.99446106 90447963.444061279 0 0 0 0 -39624580.924423218 -19637797.959915161 0 -19637797.959915161 48595675.261838913 0 0 0 0 -16854158.056526184 -7588694.1688957214 0 -7588694.1688957214 14343102.299713135 0 0 0 0 -4887185.5864609815 -184612.35174470767 0 -184612.35174470767 4241945.6452420801 0 0 0 0 -10739557.175029755 -26954640.645975113 0 -26954640.645975113 57636699.278896332 0 0 0 0 -20558063.15385437 -7553021.4518251419 0 -7553021.4518251419 72134525.855903625 0 0 0 0 4736023.2041549683 -53296001.675512314 0 -53296001.675512314 106986657.36225891 0 0 0 0 -93072527.031204224 88131.72212600708 0 88131.72212600708 306075278.08827972 0 0 0 0 -105935340.51106262 48757611.250415802 0 48757611.250415802 121926643.19198227 0 0 0 0 -71936029.646766663 66572177.128383636 0 66572177.128383636 83206974.868339539 0 0 0 0 -74359052.735771179 12137212.282196522 0 12137212.282196522 145367782.81733704 0 0 0 0 -16055527.477416992 177238844.06356049 0 177238844.06356049 -107025952.51408386 0 0 0 0 -16507363.394507647 113414707.90276936 0 113414707.90276936 41330156.045059204 0 0 0 0 -206376561.65737152 214372090.16431427 0 214372090.16431427 163953891.7313118 0 0 0 0 -121069722.46136665 -21831622.418862343 0 -21831622.418862343 232270873.21135712 0 0 0 0 -124506337.09931946 216107440.18543053 0 216107440.18543053 -261354274.95539093 0 0 0 0 -542596.01238884032 2766951.4195087887 0 2766951.4195087887 6253203.5980405957 0 0 0 0 62909518.725204468 48288461.393249512 0 48288461.393249512 -61054372.349760056 0 0 0 0 -2325221.0791969523 6100045.4658750594 0 6100045.4658750594 4546621.4937114269 0 0 0 0 15272799.632507324 73572634.294502258 0 73572634.294502258 -7829692.4677658081 0 0 0 0 -2363440.0532073975 52925620.966680527 0 52925620.966680527 48280894.5623703 0 0 0 0 -209479034.04697418 15294553.850467682 0 15294553.850467682 127398418.54030037 0 0 0 0 -9017021.0887947977 30782400.186077863 0 30782400.186077863 7987934.6812301241 0 0 0 0 444233996.84126663 326533588.91429901 0 326533588.91429901 1001312323.5377502 0 0 0 0 -408394945.58998108 162573433.15709043 0 162573433.15709043 28437080.938910484 0 0 0 0 -5388174.5670116451 -10792406.111779526 0 -10792406.111779526 43261647.21042832 0 0 0 0 1034125535.1587524 825266662.96744156 0 825266662.96744156 543507816.13658905 0 0 0 0 1953568298.0473328 920830807.41670227 0 920830807.41670227 825894816.13230896 0 0 0 0 592589104.93940735 1245219798.3705368 0 1245219798.3705368 1133725912.2480545 0 0 0 0 44316780.37701416 68707219.576855659 0 68707219.576855659 586424.43220901489 0 0 0 0 2750467.0859557837 44114526.7009978 0 44114526.7009978 4329222.5548305251 0 0 0 0 62631113.963276386 93555516.577659011 0 93555516.577659011 -107916799.62783241 0 0 0 0 62412070.196334839 99909399.391214371 0 99909399.391214371 -132593713.09547234 0 0 0 0 -1256532.7315368652 42792049.92105484 0 42792049.92105484 67097635.910830498 0 0 0 0 20486080.105430603 53063368.899041176 0 53063368.899041176 46650393.985107422 0 0 0 0 227944.03397369385 47561960.936332703 0 47561960.936332703 50815711.716331482 0 0 0 0 -9163502.5647897422 27447515.006519891 0 27447515.006519891 41714420.968112469 0 0 0 0 -11069752.878913879 42455735.647598267 0 42455735.647598267 49838809.797801971 0 0 0 0 -46564785.565185547 33481252.390048981 0 33481252.390048981 57759663.180210114 0 0 0 0 -28661036.085891724 74118800.928405762 0 74118800.928405762 38336602.191047668 0 0 0 0 -23956734.135093689 92946030.844856262 0 92946030.844856262 89671254.800933838 0 0 0 0 -46470286.97958374 48778538.786128998 0 48778538.786128998 92448749.990905762 0 0 0 0 -47054553.861151218 35937329.548567057 0 35937329.548567057 62365347.104278564 0 0 0 0 -51119668.938400269 27397363.619194031 0 27397363.619194031 72203320.345626831 0 0 0 0 -71033300.779273987 25530715.933607101 0 25530715.933607101 77569748.238998413 0 0 0 0 -11323775.839017894 19503400.697761294 0 19503400.697761294 42605279.127624549 0 0 0 0 -42358428.366281509 30471301.599889278 0 30471301.599889278 54668092.269241333 0 0 0 0 -46739851.56729126 26623257.78717804 0 26623257.78717804 50156724.209438324 0 0 0 0 -48210933.54107666 22565651.553543091 0 22565651.553543091 43991977.884101868 0 0 0 0 -3341898.8820705414 37326343.035904825 0 37326343.035904825 60953810.446865082 0 0 0 0 7279156.6514865234 9932425.7065346204 0 9932425.7065346204 7303671.7667103307 0 0 0 0 72027187.03717041 227152660.69991302 0 227152660.69991302 60812770.322146416 0 0 0 0 130561160.42144775 139074475.68219948 0 139074475.68219948 104978973.63844299 0 0 0 0 23141604.434173584 212459439.28798771 0 212459439.28798771 172627324.39094639 0 0 0 0 -237163242.56274414 158159569.01827812 0 158159569.01827812 221235954.82884121 0 0 0 0 -6979099.4208908081 338542688.59172821 0 338542688.59172821 107021428.68878174 0 0 0 0 -81522887.52746582 442258010.71970129 0 442258010.71970129 275634994.36789131 0 0 0 0 53832347.799835205 140163783.94494247 0 140163783.94494247 -60289599.732196808 0 0 0 0 2686760.9260960743 3004055.6247709841 0 3004055.6247709841 1601083.358110901 0 0 0 0 -135808455.81735229 369271878.05670786 0 369271878.05670786 -57508807.400029071 0 0 0 0 -96410603.556505203 8036587.7050410509 0 8036587.7050410509 62653047.367179871 0 0 0 0 50613298.736816406 40725366.945049286 0 40725366.945049286 8564070.0944042206 0 0 0 0 -166973347.14996338 88370440.695625305 0 88370440.695625305 12786440.358653188 0 0 0 0 -91391242.238056183 20848650.426972926 0 20848650.426972926 67654536.519081116 0 0 0 0 -472572281.75209045 -22444600.773800611 0 -22444600.773800611 248210899.5026347 0 0 0 0 -146001718.11550331 210585099.37090975 0 210585099.37090975 284787416.09470463 0 0 0 0 156095398.33218384 -404489299.6546309 0 -404489299.6546309 -249782888.03246129 0 0 0 0 -223506400.68164444 938128574.96974468 0 938128574.96974468 200108784.54832792 0 0 0 0 -253748455.67977905 237938823.8998332 0 237938823.8998332 -106404424.62907577 0 0 0 0 1980788.8766418248 17237495.303172708 0 17237495.303172708 2335091.0599692636 0 0 0 0 -205275166.79399109 -109026473.3479197 0 -109026473.3479197 -78692847.074629307 0 0 0 0 513290894.61218262 98241851.948850036 0 98241851.948850036 61920617.952765703 0 0 0 0 172963034.91137695 -109689254.23126554 0 -109689254.23126554 -42278965.298096657 0 0 0 0 -1540395.0928530246 402456.00104412436 0 402456.00104412436 1500805.6027431637 0 0 0 0 2188152409.9567871 633132337.87145782 0 633132337.87145782 -572778162.30234766 0 0 0 0 -4192.9453253298998 -1572661.1908392906 0 -1572661.1908392906 1964769.7484895119 0 0 0 0 -437970609.50205994 218285402.8152048 0 218285402.8152048 370942204.3603828 0 0 0 0 670245536.14181519 434823085.92841721 0 434823085.92841721 109746830.30980635 0 0 0 0 770362050.65701294 -41754081.088718891 0 -41754081.088718891 404828586.84084511 0 0 0 0 29231240.50982666 -6992199.3189923763 0 -6992199.3189923763 -109219122.58423615 0 0 0 0 -30926585.134643555 34880034.680003166 0 34880034.680003166 851202.87001037598 0 0 0 0 19461579.431686401 6589936.4792897701 0 6589936.4792897701 -38329491.580771446 0 0 0 0 8223195.1999651194 6300030.5169922374 0 6300030.5169922374 -8422320.9636319168 0 0 0 0 16070117.485595703 8174880.1853556633 0 8174880.1853556633 -22657158.906461239 0 0 0 0 -829504.29693651991 105303.38983827829 0 105303.38983827829 6777444.4326676074 0 0 0 0 1044242316.4449158 203890899.79429388 0 203890899.79429388 -210465189.93834305 0 0 0 0 881531.99109271169 491004.39877463505 0 491004.39877463505 -440464.57130002789 0 0 0 0 729858510.07998657 136263229.10623932 0 136263229.10623932 -245829003.99003792 0 0 0 0 805153538.1895752 366024346.61383438 0 366024346.61383438 366542920.62327194 0 0 0 0 299516298.71713257 86958149.861257553 0 86958149.861257553 7629399.1760044098 0 0 0 0 -42944571.412729263 -44542928.148165405 0 -44542928.148165405 -3999445.1758766174 0 0 0 0 3107369.8318221471 159687.2779520154 0 159687.2779520154 -2288484.0428166045 0 0 0 0 748282931.58703613 -168453559.94532394 0 -168453559.94532394 -131987642.65637779 0 0 0 0 412370322.83105469 483744275.24740219 0 483744275.24740219 155364501.49619865 0 0 0 0 62329979.16973877 -127239874.36013031 0 -127239874.36013031 30313402.610916138 0 0 0 0 252926218.34417725 276435028.13212967 0 276435028.13212967 70022124.311664581 0 0 0 0 316318342.05041504 86711538.125617981 0 86711538.125617981 -10598853.071735382 0 0 0 0 23419397.292922974 12019791.807698727 0 12019791.807698727 -59296964.722517014 0 0 0 0 17768777.327285767 7707036.6688420773 0 7707036.6688420773 -36689052.555208206 0 0 0 0 16188780.254272461 -7353773.6248960495 0 -7353773.6248960495 -32177990.478778839 0 0 0 0 28721593.639831543 3168441.8245239258 0 3168441.8245239258 -49698092.448307037 0 0 0 0 42125416.610473633 4858969.4122047424 0 4858969.4122047424 -75664568.475280762 0 0 0 0 57145347.120788574 -7645565.6173706055 0 -7645565.6173706055 -65270206.360357285 0 0 0 0 23620019.790466309 39198406.817706108 0 39198406.817706108 -78455815.226409733 0 0 0 0 71327268.313817978 -131294161.23503321 0 -131294161.23503321 -93788337.588891029 0 0 0 0 82034522.822982788 97247446.894580841 0 97247446.894580841 13914759.09160614 0 0 0 0 7110493.3967588991 285870.690494515 0 285870.690494515 -12009118.277443126 0 0 0 0 70629447.265167236 20938860.800987244 0 20938860.800987244 17563889.476688385 0 0 0 0 40174301.891013853 30232601.87508582 0 30232601.87508582 -10735631.186372764 0 0 0 0 55695023.055587769 15402072.001808167 0 15402072.001808167 15731464.591896057 0 0 0 0 -226164021.10453796 -303287312.32114506 0 -303287312.32114506 -41619803.665710449 0 0 0 0 18394121.740844727 53686419.81803894 0 53686419.81803894 96044141.091453552 0 0 0 0 53843613.540771484 32159879.23789978 0 32159879.23789978 54688530.371788025 0 0 0 0 -157730654.10787964 -162409300.20930481 0 -162409300.20930481 -124557076.97231102 0 0 0 0 120494404.47149658 103790584.37871647 0 103790584.37871647 -307443090.11014938 0 0 0 0 -42091637.824317932 150038207.20941126 0 150038207.20941126 -54408159.874160767 0 0 0 0 973510.12279293919 -263058.77651403099 0 -263058.77651403099 -738162.95966301206 0 0 0 0 178710675.92016602 88579373.329972267 0 88579373.329972267 -645960609.9251709 0 0 0 0 118200401.55819702 70357980.936704636 0 70357980.936704636 -55795756.919672012 0 0 0 0 129714540.21386719 48390005.899799347 0 48390005.899799347 -9647012.6754903495 0 0 0 0 127918671.53011322 93416602.988337755 0 93416602.988337755 2281218.5443935394 0 0 0 0 88083732.541564941 78130049.022211075 0 78130049.022211075 8394301.0762827247 0 0 0 0 90112568.153915405 220089620.77473259 0 220089620.77473259 6761350.2871322632 0 0 0 0 223667133.01020432 157163424.45708936 0 157163424.45708936 137850376.38191795 0 0 0 0 148178509.34890747 205468964.93289375 0 205468964.93289375 136732087.89060783 0 0 0 0 179451103.23807526 87876754.499001741 0 87876754.499001741 50065330.995286942 0 0 0 0 93287802.711578369 96611452.895222664 0 96611452.895222664 154058226.48649669 0 0 0 0 125898495.09838867 74994172.930856705 0 74994172.930856705 -6719666.1795864105 0 0 0 0 124381320.98695374 7612393.8069791794 0 7612393.8069791794 -42449633.316717148 0 0 0 0 76617290.831329346 59979402.678400517 0 59979402.678400517 63822248.634874344 0 0 0 0 39975162.592999212 23636777.401298597 0 23636777.401298597 -11905376.564838901 0 0 0 0 27336444.746627808 915984.31796646118 0 915984.31796646118 -12953610.09705925 0 0 0 0 -5395974.9624023438 -13364181.218811035 0 -13364181.218811035 70064848.422204018 0 0 0 0 -2070840.6120300293 30389674.932765961 0 30389674.932765961 90048029.649353027 0 0 0 0 80664359.272377014 48461542.579788208 0 48461542.579788208 30122880.777893066 0 0 0 0 43610331.640589871 22167848.75620158 0 22167848.75620158 -12489915.697086971 0 0 0 0 29197500.663696289 80816935.134124756 0 80816935.134124756 62976076.537864685 0 0 0 0 47462185.172210693 83072590.540073395 0 83072590.540073395 -26172329.9034729 0 0 0 0 46039832.71333456 52913130.72193706 0 52913130.72193706 -22821533.938148499 0 0 0 0 -24160829.577091217 60143234.829251289 0 60143234.829251289 -6243391.9800643921 0 0 0 0 11738.300857543945 73231506.108100891 0 73231506.108100891 24143624.503313065 0 0 0 0 34703464.909034729 47789318.831274033 0 47789318.831274033 -5828984.9130783081 0 0 0 0 24113870.360397339 10346163.649707794 0 10346163.649707794 26457368.518353462 0 0 0 0 -33732002.384315491 68340875.691537857 0 68340875.691537857 42249753.641647339 0 0 0 0 23718746.360244751 19562769.270675659 0 19562769.270675659 55737779.071472168 0 0 0 0 84207669.903411865 -12360613.13835144 0 -12360613.13835144 31024997.004493713 0 0 0 0 37514023.355834961 -5673091.5022392273 0 -5673091.5022392273 64727722.313903809 0 0 0 0 34115763.07635498 28130138.992607117 0 28130138.992607117 56161368.744945526 0 0 0 0 11389237.699157715 19107521.511352539 0 19107521.511352539 58270494.686019897 0 0 0 0 -17492680.391639709 35436173.23923111 0 35436173.23923111 55252892.497123718 0 0 0 0 37168759.314590454 94792175.336299896 0 94792175.336299896 102907161.39682007 0 0 0 0 164711811.8609314 63651770.48720932 0 63651770.48720932 -13196329.04050827 0 0 0 0 -12769761.755126953 21026640.589519501 0 21026640.589519501 -472833.10800170898 0 0 0 0 20493207.459686279 107623186.65695953 0 107623186.65695953 -44410127.32094574 0 0 0 0 16670226.939056396 37549891.141746521 0 37549891.141746521 4250137.7499237061 0 0 0 0 162865117.17993164 -37682663.713348389 0 -37682663.713348389 21030603.44537735 0 0 0 0 71146377.128356934 18075311.226036072 0 18075311.226036072 -8789438.5770492554 0 0 0 0 40712490.423595428 -33515036.957666397 0 -33515036.957666397 165928169.28691864 0 0 0 0 150181699.72421265 103742933.78704834 0 103742933.78704834 52912114.623718262 0 0 0 0 171078830.12017822 -36509782.383739471 0 -36509782.383739471 43519370.084003448 0 0 0 0 -8977103.1029952765 7173830.6541413963 0 7173830.6541413963 8323834.5233379807 0 0 0 0 167073108.9871521 -40468335.350990295 0 -40468335.350990295 39609459.337142944 0 0 0 0 -33307360.701171875 50377911.613685608 0 50377911.613685608 109666187.86820221 0 0 0 0 -48867711.7396698 33607344.988265991 0 33607344.988265991 94208397.951507568 0 0 0 0 -60774006.373825073 42889093.219374657 0 42889093.219374657 76122106.371423721 0 0 0 0 24491241.93044119 25298384.15161249 0 25298384.15161249 12684146.245758884 0 0 0 0 41431546.601531982 64554449.996007919 0 64554449.996007919 -45839788.674312592 0 0 0 0 46820891.660018921 86710671.030033112 0 86710671.030033112 -67921935.16242981 0 0 0 0 6629829.0212554932 138475733.69961166 0 138475733.69961166 6483364.5309295654 0 0 0 0 -10345677.331172511 4262818.5529024191 0 4262818.5529024191 7325358.9535759892 0 0 0 0 -29000240.527420044 15389986.101442337 0 15389986.101442337 -37034127.649253845 0 0 0 0 248445.50317382812 113724647.0206871 0 113724647.0206871 -57646365.063453674 0 0 0 0 3207550.2134809177 2044957.6518582106 0 2044957.6518582106 -399284.59648397937 0 0 0 0 -44773505.649353027 7102960.2701702118 0 7102960.2701702118 -150600881.85945129 0 0 0 0 52368153.879646301 86787223.888564587 0 86787223.888564587 -221576796.28849792 0 0 0 0 1983715.9988129139 -1486975.6735022701 0 -1486975.6735022701 -1626398.5359708406 0 0 0 0 56915763.510925293 114678177.55078888 0 114678177.55078888 -220124248.96907425 0 0 0 0 42494558.819656372 71538196.08160305 0 71538196.08160305 -152177645.26379395 0 0 0 0 -99340919.361633301 82213624.143260956 0 82213624.143260956 -68031379.384455681 0 0 0 0 20854537.042297363 -103012300.19485855 0 -103012300.19485855 -21582998.666442871 0 0 0 0 47018326.852478027 2542834.4740180969 0 2542834.4740180969 -175433487.90556717 0 0 0 0 -26146773.016418457 47119437.333080292 0 47119437.333080292 157429162.69591904 0 0 0 0 -72974487.664764404 22261188.630670547 0 22261188.630670547 163709683.78651428 0 0 0 0 -5829323.6766357422 135513711.37211132 0 135513711.37211132 196254954.99947357 0 0 0 0 269837964.61950684 157586352.69754791 0 157586352.69754791 190317089.12343216 0 0 0 0 156481012.99609375 73842143.463249207 0 73842143.463249207 135781095.92733383 0 0 0 0 40201387.939605713 186762898.806427 0 186762898.806427 270471798.85152435 0 0 0 0 -47305332.084999084 44957389.962011218 0 44957389.962011218 444782580.49531555 0 0 0 0 128944973.52618408 280927672.46641922 0 280927672.46641922 472862737.31477356 0 0 0 0 92845855.112762451 191187670.42024231 0 191187670.42024231 268457318.21789551 0 0 0 0 -48778051.479328156 100454501.49009776 0 100454501.49009776 631923045.58807373 0 0 0 0 33377.204170718789 595411.45057460666 0 595411.45057460666 -796516.36272002384 0 0 0 0 238975935.35400391 279833361.8846283 0 279833361.8846283 316833549.69150448 0 0 0 0 372496369.62481689 202948789.2024231 0 202948789.2024231 74825592.890937805 0 0 0 0 914666.06661495566 1206338.9722887874 0 1206338.9722887874 -1555276.6551129282 0 0 0 0 76942025.640075684 -1031954.6315345764 0 -1031954.6315345764 366853751.2802887 0 0 0 0 79983193.751052856 19974687.732500076 0 19974687.732500076 147033160.98282623 0 0 0 0 111169277.79785156 116321384.36954117 0 116321384.36954117 117080162.65946198 0 0 0 0 -22137444.760192871 108364600.61304855 0 108364600.61304855 283155991.41877747 0 0 0 0 5668373.8129272461 85143834.146835327 0 85143834.146835327 191895156.8896904 0 0 0 0 7132349.5811767578 168859663.42879295 0 168859663.42879295 190210398.91576385 0 0 0 0 3017132.1027832031 12894693.618353844 0 12894693.618353844 -23447727.34195137 0 0 0 0 -10387611.769912452 17139306.125843868 0 17139306.125843868 3055560.9258119254 0 0 0 0 -8818220.3498840332 148467502.66082001 0 148467502.66082001 224114833.65876389 0 0 0 0 -60534290.242675781 198801350.65979767 0 198801350.65979767 218732324.62493896 0 0 0 0 28085598.270019531 154018199.71238708 0 154018199.71238708 199486516.85830307 0 0 0 0 5632135.3047180176 22846216.928535461 0 22846216.928535461 -24928538.629959106 0 0 0 0 41806542.539428711 -35582748.04182148 0 -35582748.04182148 43233925.262069702 0 0 0 0 -10743625.6866052 28566786.842917167 0 28566786.842917167 1764779.8740419336 0 0 0 0 8116998.2919311523 20081772.496691704 0 20081772.496691704 -27934001.481484413 0 0 0 0 -32422455.762649536 159337475.76519966 0 159337475.76519966 16562839.540527344 0 0 0 0 38133895.100250244 120783946.17561913 0 120783946.17561913 -165099861.7425766 0 0 0 0 32837915.272989392 32055590.654203087 0 32055590.654203087 2510852.5194911212 0 0 0 0 46223340.826080322 80667171.882258415 0 80667171.882258415 -147570204.5968399 0 0 0 0 43756735.171051025 61303642.41835022 0 61303642.41835022 -28077337.512144089 0 0 0 0 98942841.439254761 18062192.873046875 0 18062192.873046875 -18482940.890052795 0 0 0 0 42988064.633800924 36139378.338935688 0 36139378.338935688 -5883423.3242199384 0 0 0 0 6517324.0307006836 23707475.23633337 0 23707475.23633337 -29259934.095569611 0 0 0 0 7571655.3417816162 34303412.129777908 0 34303412.129777908 -53659705.282688141 0 0 0 0 8379694.6845397949 22183067.063847542 0 22183067.063847542 -34727142.857212067 0 0 0 0 14356190.973999023 10794210.155382156 0 10794210.155382156 -38912276.249514461 0 0 0 0 8425316.3055038452 7235051.3362292051 0 7235051.3362292051 -15713383.888848305 0 0 0 0 1559070.069732666 15089197.94368124 0 15089197.94368124 -24942460.974132538 0 0 0 0 4856861.2755432129 13593576.985737324 0 13593576.985737324 -25485943.400876999 0 0 0 0 11553001.886499226 7237466.4675319418 0 7237466.4675319418 -10450878.156080883 0 0 0 0 14188209.45789361 2715485.359849494 0 2715485.359849494 -16946997.062618256 0 0 0 0 12839050.454055786 4125064.918587923 0 4125064.918587923 -17167299.505429268 0 0 0 0 13995347.071746826 11557892.802628577 0 11557892.802628577 -10567032.073742449 0 0 0 0 14314598.249328032 6464038.1672916524 0 6464038.1672916524 -12131171.299141835 0 0 0 0 26468565.851333618 -5553243.2792963982 0 -5553243.2792963982 -23444928.964434624 0 0 0 0 833638.68779863417 757750.74293664098 0 757750.74293664098 -3141644.8827438229 0 0 0 0 -1347043.2729660571 8444702.3040771708 0 8444702.3040771708 -5594876.6876583919 0 0 0 0 30231975.764541626 34753331.653621197 0 34753331.653621197 -10159060.034314156 0 0 0 0 -41274016.984100342 168354847.35274804 0 168354847.35274804 -877771796.00563002 0 0 0 0 624054005.75771332 -798892984.48071063 0 -798892984.48071063 -1841883567.6456804 0 0 0 0 -101997880.01124954 1638854036.218925 0 1638854036.218925 -1186108135.5762453 0 0 0 0 -1201851296.9918518 -6502117.0926644504 0 -6502117.0926644504 -808484394.48726261 0 0 0 0 -1512826.8729771376 1478536.2659701742 0 1478536.2659701742 -667514.46101870516 0 0 0 0 -265645420.58538818 -6500676.555492878 0 -6500676.555492878 104202192.27509356 0 0 0 0 -71446742.955535889 -1296652188.2982638 0 -1296652188.2982638 -1858836662.4922297 0 0 0 0 39636111.987533569 11074793.399367809 0 11074793.399367809 -113141960.40037251 0 0 0 0 -448840568.13528442 262731491.81347418 0 262731491.81347418 -76375717.173193932 0 0 0 0 -66305145.698150635 56112922.590441942 0 56112922.590441942 -79239611.535944939 0 0 0 0 -58667227.28616333 83355797.754983902 0 83355797.754983902 -39083841.763347626 0 0 0 0 -84804678.942634583 35460413.700796127 0 35460413.700796127 -19789849.273405075 0 0 0 0 5788533.7598266602 -19483516.612295151 0 -19483516.612295151 -2636952.844086647 0 0 0 0 4764547.7256774902 11711423.59614706 0 11711423.59614706 -24341405.932403564 0 0 0 0 34537588.522949219 -13378235.691007614 0 -13378235.691007614 -3204214.4544677734 0 0 0 0 9844821.4724860489 1723378.3209063485 0 1723378.3209063485 -15399994.706579443 0 0 0 0 -58114657.222106934 92760595.705858231 0 92760595.705858231 40277608.167379379 0 0 0 0 -5487399.6270065308 113163525.12158298 0 113163525.12158298 -25691311.471591949 0 0 0 0 -38949830.086257935 24784625.790631771 0 24784625.790631771 323540.36252593994 0 0 0 0 114650115.7668457 42421196.784580231 0 42421196.784580231 -592045.74695587158 0 0 0 0 32351548.233123779 -30835367.139867544 0 -30835367.139867544 7752252.5144348145 0 0 0 0 47534513.839080811 143410860.22940445 0 143410860.22940445 120683872.17126465 0 0 0 0 42316335.153289795 121062447.06741524 0 121062447.06741524 46859283.764701843 0 0 0 0 -63624233.84173584 111392525.26372528 0 111392525.26372528 162906841.0417099 0 0 0 0 -59951229.671875 116709046.79867554 0 116709046.79867554 60677883.547924042 0 0 0 0 -92518870.738677979 120749368.42196083 0 120749368.42196083 73821058.845960617 0 0 0 0 -36153114.824035645 133849309.23337364 0 133849309.23337364 -8903001.2511062622 0 0 0 0 -81414583.251403809 119705533.05901909 0 119705533.05901909 17606678.993167877 0 0 0 0 -82327799.958003998 149381925.87164044 0 149381925.87164044 -38696747.132232666 0 0 0 0 -84903517.754646301 230524597.60557699 0 230524597.60557699 -130388722.67905426 0 0 0 0 -119261100.72189331 181271780.53077316 0 181271780.53077316 -38728961.475022711 0 0 0 0 -157815131.55508423 253557122.31100273 0 253557122.31100273 -129805488.89276862 0 0 0 0 -141559275.1852417 151096717.72294807 0 151096717.72294807 2435234.274623394 0 0 0 0 -93086939.832946777 185747119.04382706 0 185747119.04382706 -102896465.49589729 0 0 0 0 -207001119.69195557 125837507.03135872 0 125837507.03135872 -46213922.54315114 0 0 0 0 -126375311.0244751 203037042.94624758 0 203037042.94624758 -194510647.23695564 0 0 0 0 -250718885.81534576 458465058.35872078 0 458465058.35872078 -464323164.20502186 0 0 0 0 -91076390.928699493 302176304.27017152 0 302176304.27017152 -301720252.94869041 0 0 0 0 -54496797.571746826 154714731.48933494 0 154714731.48933494 -324231397.54923368 0 0 0 0 10964597.303359985 144823450.35471821 0 144823450.35471821 -386744963.20268965 0 0 0 0 -80080321.285980225 21143923.588121653 0 21143923.588121653 -1019383067.2829397 0 0 0 0 38243262.863235474 172187064.6687144 0 172187064.6687144 -362533574.50769186 0 0 0 0 39384956.711181641 136347230.23590827 0 136347230.23590827 -260640955.58154076 0 0 0 0 15677.395629882812 141678860.28622067 0 141678860.28622067 -166764014.51940393 0 0 0 0 -14562117.039031982 214929818.4263773 0 214929818.4263773 -269952526.15164638 0 0 0 0 -1558.5575561523438 163001404.5792799 0 163001404.5792799 -170469262.3560524 0 0 0 0 -16239345.850662231 193116457.84530163 0 193116457.84530163 -187709436.67968845 0 0 0 0 -45789994.417991638 148003869.10455203 0 148003869.10455203 -69342761.093437195 0 0 0 0 -58072118.672332764 167034350.98707962 0 167034350.98707962 -98628771.789580345 0 0 0 0 -28726623.293365479 180168136.57540512 0 180168136.57540512 -160038472.01506519 0 0 0 0 -42094.686908818672 145282823.67900953 0 145282823.67900953 -119427793.98098373 0 0 0 0 4875296.1747436523 106057990.2127285 0 106057990.2127285 -184759683.16984224 0 0 0 0 1045458.5991516113 91433387.150295258 0 91433387.150295258 79506253.421717644 0 0 0 0 -1636345.4724628925 -3989107.12846829 0 -3989107.12846829 1546331.7988147037 0 0 0 0 30916414.000106812 42657076.679021835 0 42657076.679021835 -36382383.032939911 0 0 0 0 -11437163.923400879 101793872.9744873 0 101793872.9744873 -88837296.716508865 0 0 0 0 -57722942.281921387 61085107.68406868 0 61085107.68406868 26244386.692024231 0 0 0 0 -71577925.56036377 83739409.078983307 0 83739409.078983307 7645092.9324159622 0 0 0 0 -80519324.091156006 50603521.208473206 0 50603521.208473206 24847397.972515106 0 0 0 0 -53835596.340515137 60924103.231461525 0 60924103.231461525 15541173.506141663 0 0 0 0 -53712281.710205078 57262419.84664917 0 57262419.84664917 15370167.677054644 0 0 0 0 -76451744.795959473 69110199.933006287 0 69110199.933006287 156501348.14710617 0 0 0 0 -29682390.93598938 73318488.303210258 0 73318488.303210258 124491395.49358368 0 0 0 0 -82596942.429321289 52843429.62789917 0 52843429.62789917 113746082.79252243 0 0 0 0 -87414729.399124146 73495513.455379486 0 73495513.455379486 46253887.529411316 0 0 0 0 -75758894.28527832 35967977.757461548 0 35967977.757461548 69830036.111968994 0 0 0 0 -45556989.123046875 42244506.486680031 0 42244506.486680031 -4451572.8025054932 0 0 0 0 -34218024.229335785 -13905392.460296154 0 -13905392.460296154 75370263.765975952 0 0 0 0 -39224490.388305664 25614994.873596191 0 25614994.873596191 29870987.914108276 0 0 0 0 -1821082.386932373 125950797.53626442 0 125950797.53626442 -133815034.54271317 0 0 0 0 3343958.5165401846 -2510892.1596132163 0 -2510892.1596132163 -2765395.5199832805 0 0 0 0 24930574.073608398 71274109.743370056 0 71274109.743370056 -167466499.77225828 0 0 0 0 -16233294.278015137 9191475.9602279663 0 9191475.9602279663 -28349675.199508667 0 0 0 0 -7189084.1655883789 -9685929.5282669067 0 -9685929.5282669067 7440027.0836639404 0 0 0 0 -48168782.337585449 80974126.872406006 0 80974126.872406006 -90785542.594963074 0 0 0 0 -42840790.048950195 63670013.226585388 0 63670013.226585388 -57062480.798034668 0 0 0 0 -51729157.523925781 73280788.600891113 0 73280788.600891113 -95517591.105461121 0 0 0 0 -27820683.718322754 97569665.113708496 0 97569665.113708496 -114142515.05409241 0 0 0 0 -70938700.151672363 33633602.483825684 0 33633602.483825684 -161920476.7199707 0 0 0 0 -42975249.145874023 24706385.282432556 0 24706385.282432556 58790832.807407379 0 0 0 0 -924059.44910909235 -2168863.9394144677 0 -2168863.9394144677 842036.10830264771 0 0 0 0 3059356.8426513672 99405106.920936584 0 99405106.920936584 -194476109.68569565 0 0 0 0 -66891974.312011719 70512249.957054138 0 70512249.957054138 78274144.332288742 0 0 0 0 -60059966.113235474 51731772.170512199 0 51731772.170512199 25437965.001068115 0 0 0 0 -57367929.520385742 43757006.951847076 0 43757006.951847076 23717114.777236938 0 0 0 0 -103276459.49572754 71777427.56388092 0 71777427.56388092 -201108826.18487549 0 0 0 0 -50687207.245483398 100718648.85742188 0 100718648.85742188 -15796564.633041382 0 0 0 0 -322583.34619140625 90798071.347522736 0 90798071.347522736 -203401477.14806414 0 0 0 0 1884295.9253478497 -1553534.0196572766 0 -1553534.0196572766 -1658643.5328959543 0 0 0 0 -70332031.664321899 57669304.662002563 0 57669304.662002563 202365488.56391907 0 0 0 0 -48978087.937194824 116806960.11136627 0 116806960.11136627 91779405.494995117 0 0 0 0 6613187.2947387695 84641760.624160767 0 84641760.624160767 -120355336.54943466 0 0 0 0 -50420089.561157227 42466036.711088181 0 42466036.711088181 88224669.708465576 0 0 0 0 -49514682.835418701 57362006.305177689 0 57362006.305177689 -27182965.895935059 0 0 0 0 -51274956.652618408 66437632.671340942 0 66437632.671340942 114448269.28856277 0 0 0 0 -50613780.97203064 89375134.317739487 0 89375134.317739487 9326307.7102127075 0 0 0 0 -16409508.417724609 162306277.0110836 0 162306277.0110836 143145744.51560593 0 0 0 0 -28526982.33404541 96865600.235274315 0 96865600.235274315 35765068.408164978 0 0 0 0 -48004191.687805176 118917139.18319321 0 118917139.18319321 84337706.418665409 0 0 0 0 -33156268.763122559 134994432.54612732 0 134994432.54612732 20485615.507232666 0 0 0 0 -24692075.890487671 94209306.221715927 0 94209306.221715927 20954802.362930298 0 0 0 0 73271550.468597412 93424060.770442963 0 93424060.770442963 20177065.69340992 0 0 0 0 -23940.350727581728 96041101.415401757 0 96041101.415401757 2806755.0080413818 0 0 0 0 1411922.8495788574 68378002.044021606 0 68378002.044021606 25745059.135557175 0 0 0 0 22810.477557182323 95130843.263731614 0 95130843.263731614 71049818.684921265 0 0 0 0 24766654.032012939 101974693.02619171 0 101974693.02619171 -207476326.08510971 0 0 0 0 21975818.747055054 100216580.67264175 0 100216580.67264175 68365965.706626892 0 0 0 0 -3554433.5554656982 80946903.623994827 0 80946903.623994827 88384551.648101807 0 0 0 0 1000223753.7463872 747957514.91098356 0 747957514.91098356 -216115888.98805237 0 0 0 0 648051149.19254208 273704978.02287674 0 273704978.02287674 -142061701.57754135 0 0 0 0 2748667.1906102509 -1097719.2710907254 0 -1097719.2710907254 -4675479.3569127806 0 0 0 0 742970873.32947779 -95824172.916633606 0 -95824172.916633606 -1063944645.3163757 0 0 0 0 -297913848.61733723 720495724.24288177 0 720495724.24288177 1675690.6837444305 0 0 0 0 -245155169.28578079 201136174.89947224 0 201136174.89947224 782601273.16847229 0 0 0 0 -210347514.24050736 136841275.82202864 0 136841275.82202864 441635242.70137024 0 0 0 0 1395326.7919082642 638250717.97801399 0 638250717.97801399 547608799.75366592 0 0 0 0 -61535045.985712051 438617897.88020325 0 438617897.88020325 410724500.04515028 0 0 0 0 590694109.11899948 341240567.3778286 0 341240567.3778286 -103753679.0357666 0 0 0 0 607794148.01569748 410525664.53129578 0 410525664.53129578 -290750480.23495483 0 0 0 0 18609075.03060627 461979749.89560699 0 461979749.89560699 -122766454.32961464 0 0 0 0 258122929.04530525 31544581.256032944 0 31544581.256032944 -19076913.895568848 0 0 0 0 -2843763.9660918713 -70908341.152091265 0 -70908341.152091265 -42697072.36025238 0 0 0 0 559095918.13914108 79052543.888694763 0 79052543.888694763 84730083.479302406 0 0 0 0 197308162.1390667 -10973181.416748047 0 -10973181.416748047 68436425.350803375 0 0 0 0 362870622.77815914 336191469.74025345 0 336191469.74025345 -79705615.753522873 0 0 0 0 606443425.36700249 161907406.23072433 0 161907406.23072433 37173243.91544342 0 0 0 0 569122995.98993134 297685376.68674421 0 297685376.68674421 151841790.02368927 0 0 0 0 505258989.83000565 86171973.797462463 0 86171973.797462463 100381584.75435448 0 0 0 0 3224825.436230558 -1688469.2283167448 0 -1688469.2283167448 -4497957.680566866 0 0 0 0 512974496.12473667 -111589492.67223632 0 -111589492.67223632 121681913.80257797 0 0 0 0 541362991.98802304 137377495.94117188 0 137377495.94117188 171209693.17789459 0 0 0 0 717894357.30378866 -229090425.64623213 0 -229090425.64623213 317519031.71228027 0 0 0 0 788318337.98235178 152099773.94233418 0 152099773.94233418 148651018.51960754 0 0 0 0 619338567.26341414 187292583.73516846 0 187292583.73516846 82519996.350231171 0 0 0 0 613055481.48140633 110620578.62005043 0 110620578.62005043 582335399.19911194 0 0 0 0 568354335.07777715 -129003203.05035877 0 -129003203.05035877 155911440.66690826 0 0 0 0 846469675.98736084 145435277.42898178 0 145435277.42898178 74946258.274772644 0 0 0 0 338231492.06085014 260506152.77161407 0 260506152.77161407 38986448.992721558 0 0 0 0 -94079071.254715919 324990593.50760269 0 324990593.50760269 50521240.713134766 0 0 0 0 253848240.75358009 133893557.44918442 0 133893557.44918442 -129813610.23256111 0 0 0 0 200689796.33768654 116537500.37753296 0 116537500.37753296 270534688.34640503 0 0 0 0 253072812.65849495 226781811.01086807 0 226781811.01086807 42316025.476203918 0 0 0 0 746653904.68465805 187625681.13342667 0 187625681.13342667 259349203.1606369 0 0 0 0 94180959.690900803 405346508.70556259 0 405346508.70556259 954648657.87360382 0 0 0 0 -28135349.942557335 120409022.87938881 0 120409022.87938881 342700816.00439453 0 0 0 0 -179427362.28130317 67726897.635533452 0 67726897.635533452 282832235.20320129 0 0 0 0 -178697186.42499161 44997342.158103943 0 44997342.158103943 599152841.66526031 0 0 0 0 -149816250.79199219 248393095.74011612 0 248393095.74011612 451407335.4592762 0 0 0 0 -224916375.94412613 195222485.61258698 0 195222485.61258698 310483200.45621681 0 0 0 0 -167495291.89445114 78878837.533241272 0 78878837.533241272 292938383.71686077 0 0 0 0 -124891305.95323944 137742447.41893768 0 137742447.41893768 203739124.72575378 0 0 0 0 -155586242.32997131 150866787.09345245 0 150866787.09345245 220962826.85095215 0 0 0 0 -178188433.75361443 96455450.581567764 0 96455450.581567764 269196362.66197205 0 0 0 0 -157542732.21881866 235018526.41912842 0 235018526.41912842 3474203.5425338745 0 0 0 0 -160861515.71468925 346829691.97617912 0 346829691.97617912 -220962414.20645142 0 0 0 0 -298020821.44678688 247302347.14919662 0 247302347.14919662 8822447.4211578369 0 0 0 0 20416339.617974281 218133057.0737896 0 218133057.0737896 -729746803.30367661 0 0 0 0 -258092596.4393425 97164960.138183594 0 97164960.138183594 -94928405.319741249 0 0 0 0 -132619091.48056412 279098189.16757679 0 279098189.16757679 4259374.4090042114 0 0 0 0 -11484966.179393768 233657160.91110992 0 233657160.91110992 154997182.79945374 0 0 0 0 35121042.125579834 144770555.26502609 0 144770555.26502609 79300508.999610901 0 0 0 0 117339435.8144989 208243575.78819275 0 208243575.78819275 -159265488.77613068 0 0 0 0 92807307.087771654 125117172.17456436 0 125117172.17456436 -36708696.641143799 0 0 0 0 63651789.514755249 273165792.55199814 0 273165792.55199814 25205585.317977905 0 0 0 0 11542846.006206512 247664105.51680374 0 247664105.51680374 32755734.121242523 0 0 0 0 38113508.966285706 296831616.56260681 0 296831616.56260681 29112615.417952538 0 0 0 0 -10514068.734523773 287123068.2457962 0 287123068.2457962 83706593.17868042 0 0 0 0 -101648595.45721054 190176433.71377945 0 190176433.71377945 13975229.956115723 0 0 0 0 -28821431.692230225 223580534.3897171 0 223580534.3897171 -70293139.59264946 0 0 0 0 -237428961.05325317 162956911.04714966 0 162956911.04714966 -112125685.57855225 0 0 0 0 -76969750.812301636 53961977.814804077 0 53961977.814804077 -39808208.596439362 0 0 0 0 -77917420.505081177 101799059.42504883 0 101799059.42504883 146595580.45848083 0 0 0 0 -8571618.9899978638 286961000.65422058 0 286961000.65422058 27746561.018677711 0 0 0 0 -70958560.829557419 311731790.61561394 0 311731790.61561394 45896995.30368042 0 0 0 0 30387777.52796936 540074202.76107788 0 540074202.76107788 241143363.89084625 0 0 0 0 -1826508.2680393569 8799212.6765030697 0 8799212.6765030697 2737775.9294986622 0 0 0 0 -104779610.61179352 125164502.9545517 0 125164502.9545517 551627885.43725204 0 0 0 0 -80164130.80291748 377657379.33472443 0 377657379.33472443 490979470.18044662 0 0 0 0 44387519.567417145 361992114.83843613 0 361992114.83843613 114362997.05386353 0 0 0 0 5663311.7008895874 293404677.57859802 0 293404677.57859802 105827536.52475739 0 0 0 0 -20274834.231573105 270522131.6500206 0 270522131.6500206 184178741.63070679 0 0 0 0 116758052.50390625 1142830.1925811768 0 1142830.1925811768 48101669.535583496 0 0 0 0 -23435580.720825195 56580272.125007629 0 56580272.125007629 180006498.21575928 0 0 0 0 115644529.94806671 404165217.50338745 0 404165217.50338745 -139530579.91348362 0 0 0 0 -283947360.15342712 480804906.18476295 0 480804906.18476295 -264598297.47806931 0 0 0 0 -236817864.68658447 430016150.94664764 0 430016150.94664764 -211266553.2594223 0 0 0 0 -14925320.996590614 30646694.356803894 0 30646694.356803894 48543122.412101746 0 0 0 0 20639930.608878136 41619836.686916351 0 41619836.686916351 33664102.85515213 0 0 0 0 -5466903.913479805 204896592.35665798 0 204896592.35665798 -456031819.19059563 0 0 0 0 -1205963.1705528633 3480843.139164689 0 3480843.139164689 3146367.9337287508 0 0 0 0 486287678.57781982 147764810.47546387 0 147764810.47546387 -492754788.61328125 0 0 0 0 -54680.494376916438 107040.19475777261 0 107040.19475777261 -51520.981575973332 0 0 0 0 -135604092.88737106 -216968549.69383049 0 -216968549.69383049 -318448215.81228638 0 0 0 0 19204625.255946159 6594400.6026420593 0 6594400.6026420593 28923987.467720032 0 0 0 0 -1137215087.5430756 -867509273.30020905 0 -867509273.30020905 323037524.69075775 0 0 0 0 -997185449.55618286 -970936331.93087006 0 -970936331.93087006 -13816179.165863037 0 0 0 0 716229959.08112717 520618304.30160713 0 520618304.30160713 -121820684.03569412 0 0 0 0 444741.27540268004 -409839.35094325431 0 -409839.35094325431 -292467.01854336262 0 0 0 0 -1102735192.4606361 590383977.2617178 0 590383977.2617178 -310349661.65394592 0 0 0 0 -1804337334.2610779 76218083.808761597 0 76218083.808761597 228837149.37386322 0 0 0 0 -707490463.7353363 405560583.6971283 0 405560583.6971283 -146353464.69689178 0 0 0 0 -61212708.1068573 113054158.57019424 0 113054158.57019424 383750762.66853714 0 0 0 0 132203255.90364361 769804771.01099491 0 769804771.01099491 -1099617960.7958069 0 0 0 0 -3107245.2475001551 2086321.6170463189 0 2086321.6170463189 1116320.3248363426 0 0 0 0 -9555091.5830990877 4909057.7211906631 0 4909057.7211906631 3346400.1684188424 0 0 0 0 69428608.451667786 40630859.554885864 0 40630859.554885864 23100182.287315369 0 0 0 0 138022765.07683563 241647488.77709198 0 241647488.77709198 140087360.83897525 0 0 0 0 8245119.7341375351 91511503.149898529 0 91511503.149898529 137732271.29922485 0 0 0 0 178332244.04225349 68375520.813838959 0 68375520.813838959 2326008.7660923004 0 0 0 0 215858735.25981498 322246604.73380184 0 322246604.73380184 -359112424.31632233 0 0 0 0 83395183.354708195 394723032.26153469 0 394723032.26153469 231770811.98606873 0 0 0 0 236215357.48083973 242548217.14981842 0 242548217.14981842 -50714756.05332756 0 0 0 0 75511830.190137863 349110375.13080263 0 349110375.13080263 -31839559.72504425 0 0 0 0 130427281.02708149 188726954.53279495 0 188726954.53279495 -13944359.043434143 0 0 0 0 303191815.81624222 164307044.40433121 0 164307044.40433121 -12090513.645389318 0 0 0 0 365819241.65002537 25463913.335916519 0 25463913.335916519 31186025.082852364 0 0 0 0 239485275.43285084 110264576.22278023 0 110264576.22278023 -3792715.0925598145 0 0 0 0 424511033.80907249 165352872.82369041 0 165352872.82369041 -107113683.28981495 0 0 0 0 186252519.44963276 256595046.39237452 0 256595046.39237452 -8929865.9320487976 0 0 0 0 249448913.94314623 243604969.98213387 0 243604969.98213387 -76508247.180076599 0 0 0 0 -67744129.203281403 27906867.32616806 0 27906867.32616806 -97805194.740867615 0 0 0 0 -1282966367.1127453 -174975469.05367994 0 -174975469.05367994 72260236.637557983 0 0 0 0 -168165.56843462586 1840878.1324974531 0 1840878.1324974531 -1015425.9967085104 0 0 0 0 -157336.36162213655 3672237.8559710262 0 3672237.8559710262 1808329.0107079074 0 0 0 0 -1468568703.1280441 1132184504.1298008 0 1132184504.1298008 -232154909.11506844 0 0 0 0 -897889718.41854286 506733023.16583538 0 506733023.16583538 -17113903.717811584 0 0 0 0 261091530.15608788 94079393.571006775 0 94079393.571006775 -20101650.629066467 0 0 0 0 -718998952.8041153 386790681.42564392 0 386790681.42564392 -272512732.47011185 0 0 0 0 -439474219.03725433 -21015383.943126678 0 -21015383.943126678 46691659.828414917 0 0 0 0 -351406632.45587921 28042005.897443771 0 28042005.897443771 48605552.44071579 0 0 0 0 -66951.318710993975 2331212.6688531302 0 2331212.6688531302 556720.4746945384 0 0 0 0 -346900028.85915756 26868298.053661346 0 26868298.053661346 -88858494.892763138 0 0 0 0 -21898.433626195649 2622669.1628853539 0 2622669.1628853539 2427160.2072775923 0 0 0 0 -1351117415.4755745 523415874.60441685 0 523415874.60441685 308610398.58148956 0 0 0 0 -702426280.86703491 -195332959.01968384 0 -195332959.01968384 -74797879.296264648 0 0 0 0 -1595776688.4177837 211316002.24878502 0 211316002.24878502 158887932.62720871 0 0 0 0 -156813065.50970459 316221948.42084217 0 316221948.42084217 -86868459.707542419 0 0 0 0 -65584732.360984802 125516104.57021523 0 125516104.57021523 311634492.59925175 0 0 0 0 179643717.31752348 242760501.48328209 0 242760501.48328209 8073444.687702179 0 0 0 0 536333647.97553635 213104942.24438667 0 213104942.24438667 -70036326.38428688 0 0 0 0 499842461.44583035 135009023.81293106 0 135009023.81293106 47693512.323841095 0 0 0 0 733786413.5138607 48395983.995271683 0 48395983.995271683 -94995730.305294037 0 0 0 0 -320899.3697868851 502865.04316560738 0 502865.04316560738 2199066.5034031551 0 0 0 0 1302497244.0447249 -105762589.5627408 0 -105762589.5627408 -105161813.84843826 0 0 0 0 675356136.33486795 133348112.02312088 0 133348112.02312088 -31171040.430801392 0 0 0 0 175694939.80156517 380176577.78712273 0 380176577.78712273 8189200.0867996216 0 0 0 0 312233033.32722855 533356169.01931763 0 533356169.01931763 -354528288.72670746 0 0 0 0 172101479.042961 366396765.08877301 0 366396765.08877301 13280513.305801392 0 0 0 0 -47302020.546893835 325901297.56597614 0 325901297.56597614 33214834.468894958 0 0 0 0 -447339081.67859071 67613958.394007683 0 67613958.394007683 -206394520.13476562 0 0 0 0 -609533248.48711538 751137630.13080978 0 751137630.13080978 -241412334.41025925 0 0 0 0 -101412212.80371785 141414147.92988396 0 141414147.92988396 117657348.11374283 0 0 0 0 83500996.863118708 358741146.72240639 0 358741146.72240639 -301556209.70558167 0 0 0 0 -464222570.08613682 168561575.31698608 0 168561575.31698608 168680936.50651932 0 0 0 0 -171767878.63213015 305204757.35721779 0 305204757.35721779 93502175.365337372 0 0 0 0 -214130768.71071672 167518470.35831451 0 167518470.35831451 198649970.56933212 0 0 0 0 -62532574.367443085 120172619.81724358 0 120172619.81724358 -83581561.006370544 0 0 0 0 -28404442.729330063 372092334.43869972 0 372092334.43869972 -299985074.65579224 0 0 0 0 172758849.57141066 127186271.71457481 0 127186271.71457481 -25974204.968050003 0 0 0 0 194795701.50084296 -121674264.45924211 0 -121674264.45924211 3101033.7878608704 0 0 0 0 878235666.35943389 99156372.334013939 0 99156372.334013939 -542499808.37985229 0 0 0 0 668474222.70900857 -273056200.02516031 0 -273056200.02516031 -283678258.79341888 0 0 0 0 1136846.1329349638 -400122.39606404584 0 -400122.39606404584 -2078765.2148148045 0 0 0 0 517248225.56084991 35687525.679816723 0 35687525.679816723 627005145.69811249 0 0 0 0 -10952070.573655128 531442709.51434898 0 531442709.51434898 165463335.68542099 0 0 0 0 88093097.532954216 506391409.45753479 0 506391409.45753479 -198578960.98197174 0 0 0 0 -31541297.706131458 411197828.90853405 0 411197828.90853405 -320586486.57248688 0 0 0 0 143367627.3120079 23970604.330703735 0 23970604.330703735 -326346105.28219414 0 0 0 0 -272235.90137046872 1483832.7192659499 0 1483832.7192659499 1579956.6793912761 0 0 0 0 447523322.24294871 -221081291.3481636 0 -221081291.3481636 -295377630.85379028 0 0 0 0 -139064.374743497 2736926.8306402769 0 2736926.8306402769 2731291.581921367 0 0 0 0 61659324.037267685 181291469.40478134 0 181291469.40478134 -357764803.10702944 0 0 0 0 818276120.12455428 161937024.48519659 0 161937024.48519659 -294975493.73971558 0 0 0 0 -154980707.69320622 143061333.42111826 0 143061333.42111826 631943862.65763092 0 0 0 0 153423482.3004545 -366513492.50086403 0 -366513492.50086403 353420279.04832649 0 0 0 0 544430935.03387678 482648594.59849548 0 482648594.59849548 -5515870.3815727234 0 0 0 0 740323058.49462271 -15327053.08013773 0 -15327053.08013773 -304731347.62054825 0 0 0 0 128541221.1523867 -65332819.664104462 0 -65332819.664104462 692886211.79600334 0 0 0 0 1742523.1001927592 2678262.0771316327 0 2678262.0771316327 -1802726.9452354889 0 0 0 0 -129108723.03734934 635717392.79444504 0 635717392.79444504 -166696952.04799557 0 0 0 0 -306858757.27573204 -29680494.945392609 0 -29680494.945392609 586251811.85416508 0 0 0 0 -160329809.08363438 391818741.06641388 0 391818741.06641388 -18553394.517425537 0 0 0 0 -494315.81202122569 1614829.8285979321 0 1614829.8285979321 1802210.5995310843 0 0 0 0 -62304596.976009846 -352178617.27242661 0 -352178617.27242661 470342902.36815262 0 0 0 0 176473731.96937561 270805821.47929382 0 270805821.47929382 23865365.753531456 0 0 0 0 -310218192.59915435 -909146697.76881981 0 -909146697.76881981 -510348010.18236685 0 0 0 0 5773389.4689079896 11307382.270718735 0 11307382.270718735 -6781212.4965441711 0 0 0 0 15262313.433555603 14950363.025781631 0 14950363.025781631 -5911767.2344055176 0 0 0 0 -1125531.6080627441 12269199.873497009 0 12269199.873497009 3627238.5417613983 0 0 0 0 -473469.50595664978 18883593.754571468 0 18883593.754571468 -158865.37006500829 0 0 0 0 -5235381.1795692444 7934476.5068216324 0 7934476.5068216324 737521.11861419678 0 0 0 0 -288448987.80688572 -229436305.48742199 0 -229436305.48742199 454283710.83207703 0 0 0 0 491489210.90910912 241775824.64852715 0 241775824.64852715 -230798765.88807297 0 0 0 0 4782183.8785427343 12435452.325844694 0 12435452.325844694 -6370744.2291113324 0 0 0 0 62334411.421350479 97000920.870984077 0 97000920.870984077 -87257001.555294037 0 0 0 0 241030357.47894573 -45652209.202417374 0 -45652209.202417374 -4548622.5930957794 0 0 0 0 6774974.5910132006 9087591.3402332775 0 9087591.3402332775 -4742011.1770813502 0 0 0 0 -2284431.0197792053 18166239.680175781 0 18166239.680175781 -4161949.8097381592 0 0 0 0 -1649186.9864245802 11510851.611587076 0 11510851.611587076 4880712.4117107429 0 0 0 0 42061660.127334595 -19325859.535240173 0 -19325859.535240173 -50483534.001960754 0 0 0 0 9541141.8434451371 13151392.980778692 0 13151392.980778692 -1276326.8700834922 0 0 0 0 -3625262.9788665771 40189555.045787811 0 40189555.045787811 55237209.494419098 0 0 0 0 119594950.69302368 62367458.66097641 0 62367458.66097641 -27507988.51811409 0 0 0 0 -9778663.8312561885 3339306.1389831002 0 3339306.1389831002 4804556.9488956239 0 0 0 0 242027646.76948833 -53197291.867769241 0 -53197291.867769241 -135627847.07970238 0 0 0 0 172294429.28796959 -121186660.40683556 0 -121186660.40683556 -142137818.38818693 0 0 0 0 -23401934.166963577 80975448.546438217 0 80975448.546438217 -182809741.04249048 0 0 0 0 377412871.1393795 -96304540.172344208 0 -96304540.172344208 -116613990.78462029 0 0 0 0 107033864.00986767 -97559987.841067314 0 -97559987.841067314 -106120435.09106827 0 0 0 0 24761927.70236969 -58579601.890182495 0 -58579601.890182495 39117771.360168457 0 0 0 0 -49624772.573898315 -118090253.55453873 0 -118090253.55453873 551998852.80430794 0 0 0 0 345438214.8578701 283441108.14354825 0 283441108.14354825 141237787.31532288 0 0 0 0 113899935.7255249 137082754.56448174 0 137082754.56448174 49151869.461605072 0 0 0 0 227765022.63995934 186375443.50427842 0 186375443.50427842 -40703617.468299866 0 0 0 0 84152830.151153564 136747545.28541183 0 136747545.28541183 -5553348.5646209717 0 0 0 0 106769644.95298767 113510545.33902836 0 113510545.33902836 -22377008.869499207 0 0 0 0 56286993.111328125 153332641.65552902 0 153332641.65552902 30436896.237609863 0 0 0 0 -37676087.519973755 103655417.81260872 0 103655417.81260872 4190166.0612716675 0 0 0 0 78080438.956188202 107973491.31343985 0 107973491.31343985 -103986046.63546753 0 0 0 0 -62671998.368713379 47212567.930641174 0 47212567.930641174 -83545613.561707497 0 0 0 0 -179738705.47601318 159275405.14873219 0 159275405.14873219 24883643.480674744 0 0 0 0 -38455877.95281744 82202570.215048611 0 82202570.215048611 6697559.8072357178 0 0 0 0 -40880177.279518127 1337943.8376636505 0 1337943.8376636505 196550763.10725021 0 0 0 0 -272075133.00535583 14536909.976474762 0 14536909.976474762 227764261.89318848 0 0 0 0 -113518661.00730133 130828067.25861549 0 130828067.25861549 -1440938.6015586853 0 0 0 0 442310.05369378626 1194607.1260899175 0 1194607.1260899175 -720837.28061302379 0 0 0 0 -174211427.78359985 159289879.69551086 0 159289879.69551086 28072793.210952759 0 0 0 0 11518064.782997344 14619988.352712696 0 14619988.352712696 243991.80490462855 0 0 0 0 -170815422.64025879 91342918.671913147 0 91342918.671913147 64313724.320022583 0 0 0 0 -184162925.7347126 158120711.43236399 0 158120711.43236399 1196698.3889770508 0 0 0 0 -336711955.55165863 79882932.938457489 0 79882932.938457489 -9994046.4063835144 0 0 0 0 -172844533.50061035 171944516.02825928 0 171944516.02825928 10981248.928695679 0 0 0 0 -187911819.63618279 168286186.48435545 0 168286186.48435545 25000303.540924072 0 0 0 0 -15307679.415672302 21405107.930435181 0 21405107.930435181 -5179555.5434513092 0 0 0 0 1943708.7183685303 12858408.11346817 0 12858408.11346817 -9229704.0419769287 0 0 0 0 4929884.759017298 12133500.001795379 0 12133500.001795379 3672493.2484674864 0 0 0 0 -102666896.22390747 -61007142.212532043 0 -61007142.212532043 -84172715.747932434 0 0 0 0 -17166177.598508835 26585131.917338371 0 26585131.917338371 -5430436.3111801147 0 0 0 0 -159174600.29542542 162288636.26582336 0 162288636.26582336 15895112.942874908 0 0 0 0 -162325353.04571533 51672720.423404694 0 51672720.423404694 70924487.542816162 0 0 0 0 -212514347.39048386 -38157799.223184586 0 -38157799.223184586 99595881.887908936 0 0 0 0 -37976310.603500366 45634644.056365967 0 45634644.056365967 53977237.412765503 0 0 0 0 -100770870.35065842 -50028657.249885559 0 -50028657.249885559 76927471.276748657 0 0 0 0 -345427599.25704956 -161216318.83562851 0 -161216318.83562851 28711934.702411652 0 0 0 0 176708695.13402557 -173832836.8328805 0 -173832836.8328805 -221358789.66604614 0 0 0 0 -589569189.24432373 -473254767.18355179 0 -473254767.18355179 -111617676.00709534 0 0 0 0 -246471570.50138855 81127575.83883667 0 81127575.83883667 -147620375.86931896 0 0 0 0 -898090412.55361938 335816074.6603775 0 335816074.6603775 -149288923.45065686 0 0 0 0 93287803.269835472 341433242.88978696 0 341433242.88978696 -964315770.1778183 0 0 0 0 -113253300.61806107 -95909265.401438236 0 -95909265.401438236 71547401.799785614 0 0 0 0 62224090.584774017 188185167.37941074 0 188185167.37941074 -223377638.53490067 0 0 0 0 125359722.62776184 81907706.376075745 0 81907706.376075745 -667188281.85387802 0 0 0 0 -6368915.5910797119 -83011712.564126968 0 -83011712.564126968 -380228816.6470356 0 0 0 0 8122368.4367370605 152933464.25146675 0 152933464.25146675 -380695281.59308052 0 0 0 0 121999788.90844727 -33807853.827198029 0 -33807853.827198029 -231879502.20594025 0 0 0 0 1055823.2987961844 2178399.4292358756 0 2178399.4292358756 -1352815.6937949602 0 0 0 0 -106346094.66557312 187737512.71317959 0 187737512.71317959 150586289.91305161 0 0 0 0 141315864.87563324 -248282912.6128788 0 -248282912.6128788 -258108496.91676903 0 0 0 0 -132813961.99426651 169808353.32399178 0 169808353.32399178 -118886537.60903549 0 0 0 0 -150729.65660752449 -1443914.0938739665 0 -1443914.0938739665 -492480.5029575713 0 0 0 0 95436308.223068237 183428975.23318291 0 183428975.23318291 -612109087.79668617 0 0 0 0 73267199.854705811 -32725151.619907379 0 -32725151.619907379 -3514134.3749828339 0 0 0 0 84937365.664489746 6709376.8358383179 0 6709376.8358383179 -32127301.594108582 0 0 0 0 78112036.226455688 23942775.79139328 0 23942775.79139328 84126856.670639038 0 0 0 0 315222807.33916092 -137867973.82281399 0 -137867973.82281399 -206896068.26497269 0 0 0 0 222519315.78697205 111157928.29707909 0 111157928.29707909 -843560518.87274933 0 0 0 0 -163921670.09205627 1077223796.2337265 0 1077223796.2337265 -655883560.24364853 0 0 0 0 35520062.433059692 977725416.23281479 0 977725416.23281479 -1056242060.9585552 0 0 0 0 -8589720.2247390747 233664367.21207112 0 233664367.21207112 -283417003.97605133 0 0 0 0 -1071001453.4606133 525155483.4866972 0 525155483.4866972 -319460662.71712494 0 0 0 0 -427608.8758113347 -1338392.6247669533 0 -1338392.6247669533 -2476627.9530462958 0 0 0 0 -325536398.39896393 1375186734.0869341 0 1375186734.0869341 -647354788.7173996 0 0 0 0 -1130263849.2017975 1561746156.6232109 0 1561746156.6232109 -281719130.76158524 0 0 0 0 410140212.60274887 -963628577.55516768 0 -963628577.55516768 -638636494.26442337 0 0 0 0 193633227.31159401 32363987.623544693 0 32363987.623544693 -1978733.9295959473 0 0 0 0 -1144739.4065617695 -3446365.8118882105 0 -3446365.8118882105 -4118385.7381504513 0 0 0 0 116042081.74897766 -27033436.609882355 0 -27033436.609882355 -47420697.953121185 0 0 0 0 132495968.0267868 9190499.8180389404 0 9190499.8180389404 25658756.157802582 0 0 0 0 -216556.69593290333 -2282771.3583423533 0 -2282771.3583423533 -1032139.6207656562 0 0 0 0 109593500.76465607 22904559.960876465 0 22904559.960876465 17448419.332141876 0 0 0 0 -197943504.88733673 155540119.98077011 0 155540119.98077011 59426379.030490875 0 0 0 0 362341675.22366333 19743211.159538269 0 19743211.159538269 -221109314.25144577 0 0 0 0 -34401800.427041769 -9307107.0468053818 0 -9307107.0468053818 -12863556.897850037 0 0 0 0 243901668.721982 -188476257.06066132 0 -188476257.06066132 64570023.99252677 0 0 0 0 -4838730.5550900213 950138.92300110683 0 950138.92300110683 3360399.9634149857 0 0 0 0 195622438.93567085 -116549636.5603466 0 -116549636.5603466 121633277.59786606 0 0 0 0 159585115.66379309 -104265074.2980032 0 -104265074.2980032 120479407.73014069 0 0 0 0 127590606.8177309 -87261762.129532814 0 -87261762.129532814 56271531.855190277 0 0 0 0 -23500247.995620728 16584930.880263329 0 16584930.880263329 2129225.3365058899 0 0 0 0 -4937260.9441632852 1962148.9133377606 0 1962148.9133377606 3792799.9543454032 0 0 0 0 -2094821674.6135559 896428592.54520416 0 896428592.54520416 22877244.074214935 0 0 0 0 2996542.6375733837 2008476.5486363322 0 2008476.5486363322 -2339601.8879912384 0 0 0 0 21317873.120037079 32138139.520457745 0 32138139.520457745 -806914462.7794342 0 0 0 0 -44973223.067058563 30165942.029310226 0 30165942.029310226 -725828.21889543533 0 0 0 0 8563838.6547250375 13619871.587300073 0 13619871.587300073 7618961.4842485469 0 0 0 0 -337974737.49494171 627635106.3424263 0 627635106.3424263 -654924007.82568359 0 0 0 0 -142596659.12955475 562941863.41809082 0 562941863.41809082 -800987961.14771056 0 0 0 0 -421931028.20439529 569329220.41512299 0 569329220.41512299 -356992137.3801384 0 0 0 0 -270521380.14469147 74394767.060668945 0 74394767.060668945 234737692.63705826 0 0 0 0 -98545617.584152222 334375951.44379425 0 334375951.44379425 -855556099.87057686 0 0 0 0 -173730605.15561295 186083178.00380325 0 186083178.00380325 -380848679.94013977 0 0 0 0 10493965.68939209 270480107.52454376 0 270480107.52454376 -1339348023.9163263 0 0 0 0 8582215.4169946779 12232917.420627777 0 12232917.420627777 9162845.3710558619 0 0 0 0 -66075823.834489822 163876978.41125488 0 163876978.41125488 29877644.171180725 0 0 0 0 -273710957.9382782 931508422.49642324 0 931508422.49642324 -1302613054.5061035 0 0 0 0 -2119443.670123742 -114239.45465921611 0 -114239.45465921611 1825673.7388338707 0 0 0 0 531010258.16096592 -60861957.983639717 0 -60861957.983639717 172082806.76231766 0 0 0 0 5764957.5534022842 10238890.503519205 0 10238890.503519205 10308599.032698967 0 0 0 0 204336989.46298981 420793858.26811981 0 420793858.26811981 235660169.23682785 0 0 0 0 -67774654.324251175 -119850084.64687729 0 -119850084.64687729 -190536026.56455612 0 0 0 0 -680178782.29734421 1611080539.7906551 0 1611080539.7906551 -899673760.12979126 0 0 0 0 -161346425.03239441 1942047659.9945564 0 1942047659.9945564 -2285374824.7255783 0 0 0 0 -298563710.24563599 -85662672.033833981 0 -85662672.033833981 -455231477.50980377 0 0 0 0 152417418.34027672 1705854131.9679308 0 1705854131.9679308 1115849457.15625 0 0 0 0 -1266130055.7580528 1170713085.6052628 0 1170713085.6052628 4363725058.5703125 0 0 0 0 1607228050.6651306 1741613955.0785637 0 1741613955.0785637 1185376102.502903 0 0 0 0 134747379.66414165 -50948596.512051105 0 -50948596.512051105 2123317163.5156784 0 0 0 0 1411511175.8201523 -556667416.33896637 0 -556667416.33896637 246392522.67882538 0 0 0 0 -367925975.95964622 38919492.339289188 0 38919492.339289188 -547689465.3770752 0 0 0 0 -2283889.9004974365 378688524.17089462 0 378688524.17089462 -233086631.09242249 0 0 0 0 -83691684.869747162 -341663821.32822227 0 -341663821.32822227 295977337.39808273 0 0 0 0 344714904.31798553 -193332317.90608215 0 -193332317.90608215 -432916825.31707668 0 0 0 0 -3185775.5624084473 -344676660.62702179 0 -344676660.62702179 108363361.41158104 0 0 0 0 197037752.26109314 -98552476.135307312 0 -98552476.135307312 108523985.46898079 0 0 0 0 332254219.71468353 499897801.50798416 0 499897801.50798416 236869919.37082672 0 0 0 0 -5142012.2777786255 516636097.40501595 0 516636097.40501595 644246560.09871292 0 0 0 0 -928210.69275330007 -1882488.3683247399 0 -1882488.3683247399 163714.53402560949 0 0 0 0 475930548.79286194 742634200.16218567 0 742634200.16218567 126024459.42268372 0 0 0 0 616594648.26361847 544649198.15560913 0 544649198.15560913 -1456697.5610809326 0 0 0 0 738499218.87911987 621416331.20829773 0 621416331.20829773 30692130.678573608 0 0 0 0 1236757343.78302 814247021.59860992 0 814247021.59860992 28501316.297624707 0 0 0 0 633893244.99898529 503153725.28591156 0 503153725.28591156 -2278496.3158569336 0 0 0 0 872580194.94225311 468130525.19338036 0 468130525.19338036 -205563911.97441101 0 0 0 0 680441428.59262085 346596756.32751465 0 346596756.32751465 -185752548.21007919 0 0 0 0 2577677.8421938028 5250718.6551353484 0 5250718.6551353484 2158601.4903415702 0 0 0 0 -373102204.82833862 65220727.465179443 0 65220727.465179443 84327176.100570679 0 0 0 0 294217290.42288208 -20262895.33272171 0 -20262895.33272171 -119247531.86903 0 0 0 0 -552428797.10757446 105588045.69280243 0 105588045.69280243 -201287992.9682579 0 0 0 0 297203670.56560135 -371597007.111763 0 -371597007.111763 63876059.922119141 0 0 0 0 6644702.039846465 5916390.0501151048 0 5916390.0501151048 -4397780.2576873219 0 0 0 0 1533482881.3609314 -195295621.4438591 0 -195295621.4438591 -549056969.97202682 0 0 0 0 943642900.77464294 1498502185.2912979 0 1498502185.2912979 1468543166.3578415 0 0 0 0 453285226.87347412 803058355.47987175 0 803058355.47987175 844154664.13290405 0 0 0 0 901515939.46920776 382704565.9488678 0 382704565.9488678 -28343729.206069946 0 0 0 0 2099807499.9603653 1069525958.1133385 0 1069525958.1133385 133167653.17492676 0 0 0 0 -60865136.881820679 125780062.97547531 0 125780062.97547531 -319393904.83672571 0 0 0 0 -185301294.54144287 173776545.35552788 0 173776545.35552788 -40072761.965454102 0 0 0 0 -103936361.4464035 381808934.07910538 0 381808934.07910538 -311294937.90333939 0 0 0 0 -137209227.90548325 377863473.14204025 0 377863473.14204025 -290402326.05002975 0 0 0 0 -137874.34878968168 -1238882.5965683796 0 -1238882.5965683796 -477542.25977322087 0 0 0 0 169481527.42009258 -50678206.292050123 0 -50678206.292050123 -109790877.29957581 0 0 0 0 -190785669.97001648 284435689.3502121 0 284435689.3502121 -205811744.52258492 0 0 0 0 161177023.91745758 79359713.914234161 0 79359713.914234161 -374514604.23809242 0 0 0 0 120056145.31938934 42851820.913566589 0 42851820.913566589 -71639155.997955322 0 0 0 0 -1528380.6697803549 -3692977.0614880323 0 -3692977.0614880323 -1624488.9100459367 0 0 0 0 38661301.941394806 129712857.30076885 0 129712857.30076885 -153107706.39347458 0 0 0 0 -324495259.95286083 262669186.36462879 0 262669186.36462879 99967011.302890778 0 0 0 0 183132718.10190582 418578565.31650925 0 418578565.31650925 146128317.36860275 0 0 0 0 84426401.683319092 229669556.72712898 0 229669556.72712898 -122422322.13186932 0 0 0 0 4908514.7596244812 388758268.76137829 0 388758268.76137829 327260807.5236969 0 0 0 0 94555224.475594997 123943982.17283738 0 123943982.17283738 -119369995.61703491 0 0 0 0 -120010694.13531494 167450415.09110641 0 167450415.09110641 -15123733.181335449 0 0 0 0 205888797.32544708 112029370.68659973 0 112029370.68659973 -7835566.38372612 0 0 0 0 3930709.0642127991 48974075.286783218 0 48974075.286783218 -51722964.798072815 0 0 0 0 524756037.72589111 158837256.74771118 0 158837256.74771118 202924174.13117981 0 0 0 0 169289100.33921814 276758454.8564682 0 276758454.8564682 512440144.1772995 0 0 0 0 58692370.946834564 -183697394.13961697 0 -183697394.13961697 420979939.6492691 0 0 0 0 -1749853.4010857195 -276668.39065451175 0 -276668.39065451175 1793590.701560352 0 0 0 0 244323806.67192078 366849357.29062653 0 366849357.29062653 212869554.91726685 0 0 0 0 584029300.24824524 322110539.02293396 0 322110539.02293396 560963840.76086807 0 0 0 0 181736834.96024323 155115777.28996277 0 155115777.28996277 493013551.96034241 0 0 0 0 259454903.92743874 444714043.90256786 0 444714043.90256786 498927698.25661469 0 0 0 0 200220369.59338379 320839951.79797363 0 320839951.79797363 659253845.23287964 0 0 0 0 277412613.27981567 342872250.93623352 0 342872250.93623352 329866924.73240995 0 0 0 0 111835051.83939362 378174242.26384735 0 378174242.26384735 546527854.63587952 0 0 0 0 148982511.8006897 312895544.99613571 0 312895544.99613571 811008905.65179443 0 0 0 0 271125285.95783997 433323213.64664459 0 433323213.64664459 564757317.41376114 0 0 0 0 13067356.050668232 -5641830.1557222717 0 -5641830.1557222717 -13963370.787844013 0 0 0 0 189604858.30570984 498686161.97406006 0 498686161.97406006 933532011.13290405 0 0 0 0 445505358.18273926 -304982623.00949097 0 -304982623.00949097 -406875080.48073006 0 0 0 0 525225051.63628387 152290218.88537788 0 152290218.88537788 -61252380.881851196 0 0 0 0 789455684.67537308 -524115128.22782326 0 -524115128.22782326 44637678.134521484 0 0 0 0 -575644251.55206299 -53728816.088027954 0 -53728816.088027954 1108009660.1155548 0 0 0 0 -52641428.334671021 -9525310.9886474609 0 -9525310.9886474609 -266492260.5340271 0 0 0 0 -336182550.19081116 -12073783.666252136 0 -12073783.666252136 -346810089.94629669 0 0 0 0 -222063934.46516418 -259451516.26643372 0 -259451516.26643372 156404083.56248283 0 0 0 0 -719737497.20901489 480267541.03531647 0 480267541.03531647 -101558681.68423653 0 0 0 0 285599965.71033859 306690818.57928848 0 306690818.57928848 765456326.56103516 0 0 0 0 370181138.19107819 413717161.53047562 0 413717161.53047562 698340058.21987724 0 0 0 0 568948670.43997955 855359126.30595779 0 855359126.30595779 1175990491.1752968 0 0 0 0 6786874.1193438396 -2317282.2079420947 0 -2317282.2079420947 -5541490.773705706 0 0 0 0 -26230727.506652832 -1759327.4835281372 0 -1759327.4835281372 -350235855.80706406 0 0 0 0 129058665.40155029 -132349015.01861572 0 -132349015.01861572 -1134716274.3489075 0 0 0 0 1576834.978451781 -658481.49635273591 0 -658481.49635273591 -1168630.8358383011 0 0 0 0 -347779453.05786133 577731566.08161163 0 577731566.08161163 2244893967.7783203 0 0 0 0 431715880.13482666 1788313217.3562088 0 1788313217.3562088 2449931083.8296356 0 0 0 0 779651476.49871826 443168536.29310989 0 443168536.29310989 392528395.84535217 0 0 0 0 309799760.53518677 437618832.0410881 0 437618832.0410881 -154793195.04512787 0 0 0 0 306031500.53889465 451179864.36305618 0 451179864.36305618 561018032.9055748 0 0 0 0 -25159369.268388748 255429918.6721189 0 255429918.6721189 160872834.11978149 0 0 0 0 -13634272.796444893 -59697045.477024555 0 -59697045.477024555 236934047.16577148 0 0 0 0 205750327.56503296 105285863.89021301 0 105285863.89021301 168329182.21789551 0 0 0 0 26053772.067928314 60792980.557506561 0 60792980.557506561 -4146002.4386711121 0 0 0 0 13000876.475203983 34860277.051832438 0 34860277.051832438 28853741.688302513 0 0 0 0 2629252.0735032046 76973151.937833518 0 76973151.937833518 16703681.322757509 0 0 0 0 58027405.21708452 24250146.933415845 0 24250146.933415845 -78873161.124774292 0 0 0 0 274121013.54803467 118129402.43418884 0 118129402.43418884 -11485794.553543091 0 0 0 0 281889182.0123291 158668632.31704712 0 158668632.31704712 -49078346.354309082 0 0 0 0 159206586.45129395 177218096.63160706 0 177218096.63160706 453907121.62793732 0 0 0 0 -1210173.6945856661 -2348261.4470390994 0 -2348261.4470390994 -4018959.654324092 0 0 0 0 26636564.40886879 62746941.497096062 0 62746941.497096062 -22809721.37753582 0 0 0 0 31946511.638435364 63630180.534274101 0 63630180.534274101 -46623468.101654053 0 0 0 0 8046663.1712565422 80729872.107924938 0 80729872.107924938 12733454.899187088 0 0 0 0 9994178.7211723328 85314758.708698273 0 85314758.708698273 1094332.8558177948 0 0 0 0 13325873.502552032 78443367.168783188 0 78443367.168783188 10607120.871480942 0 0 0 0 407948.708152771 142411819.62675858 0 142411819.62675858 238543311.34248352 0 0 0 0 6605148.9351739436 39881283.66775658 0 39881283.66775658 -13745516.510499462 0 0 0 0 12225735.752023697 79698806.601032257 0 79698806.601032257 10124924.528903484 0 0 0 0 14267124.668498993 75375672.898444653 0 75375672.898444653 12114596.118808746 0 0 0 0 254574341.30574036 299028717.71331787 0 299028717.71331787 206437589.73231506 0 0 0 0 2242198.1251259279 24746237.668479409 0 24746237.668479409 14907196.913400806 0 0 0 0 10403110.330026399 11190291.880736219 0 11190291.880736219 -11483421.073812775 0 0 0 0 750664498.42459869 376549739.55986404 0 376549739.55986404 87646409.325637817 0 0 0 0 621172297.58376312 432949412.22083092 0 432949412.22083092 136687141.46772766 0 0 0 0 305605258.12976074 539990985.37725067 0 539990985.37725067 366551370.35640717 0 0 0 0 376504970.9644928 544209367.1961441 0 544209367.1961441 228042793.74201584 0 0 0 0 333096719.60429382 508976283.69519043 0 508976283.69519043 283502007.76506042 0 0 0 0 -6395113.9095230103 388010252.49803543 0 388010252.49803543 360470047.56242371 0 0 0 0 6186242.9842834473 669432768.91701889 0 669432768.91701889 311439073.21350861 0 0 0 0 186007422.64060593 482514470.08935356 0 482514470.08935356 406360602.26785278 0 0 0 0 93530443.811782837 462722043.45141602 0 462722043.45141602 539938612.83979797 0 0 0 0 152956268.16925812 524079968.2507782 0 524079968.2507782 380429852.52384949 0 0 0 0 234910966.015625 363860211.78005219 0 363860211.78005219 533785802.27853489 0 0 0 0 185041606.8646698 421842223.20342636 0 421842223.20342636 477910820.87452316 0 0 0 0 19346726.894415289 -9958537.4899599887 0 -9958537.4899599887 -32911761.768881343 0 0 0 0 256918858.34579468 421438555.55065536 0 421438555.55065536 475040607.50676727 0 0 0 0 315580137.31694031 371567938.28414154 0 371567938.28414154 327735725.62637138 0 0 0 0 -107678725.30154419 238304910.94702148 0 238304910.94702148 322116040.43996429 0 0 0 0 4597441.6508423835 10084230.631602682 0 10084230.631602682 8255778.6494763121 0 0 0 0 22249760.786805607 38169055.270947076 0 38169055.270947076 -49160053.76177597 0 0 0 0 235906389.15734863 366632009.54991913 0 366632009.54991913 157610190.18052673 0 0 0 0 -365752713.16110229 -92890741.820037842 0 -92890741.820037842 151639441.0000267 0 0 0 0 122457190.82128906 64805448.663452148 0 64805448.663452148 -318034951.15140533 0 0 0 0 323772082.8399353 229315890.62152863 0 229315890.62152863 150898112.55713654 0 0 0 0 305368596.6738739 377445638.1761322 0 377445638.1761322 301091814.42391968 0 0 0 0 12218830.27556017 35052094.348498732 0 35052094.348498732 -54113701.482365966 0 0 0 0 68376144.237892151 249326196.8033371 0 249326196.8033371 281389994.19673157 0 0 0 0 168318391.45777893 160873783.92920685 0 160873783.92920685 129422853.4958663 0 0 0 0 -60170191.709404945 22273230.038982391 0 22273230.038982391 81898657.167129517 0 0 0 0 98648419.313140869 246979888.7149353 0 246979888.7149353 188320478.43649673 0 0 0 0 -46844569.989313267 35407282.372335248 0 35407282.372335248 26090335.246117674 0 0 0 0 280803941.01598358 265137413.15512276 0 265137413.15512276 6033264.8342895508 0 0 0 0 311596123.89810181 323236216.91690063 0 323236216.91690063 114215846.70985031 0 0 0 0 312768347.62633133 159255205.27989197 0 159255205.27989197 11507847.117462158 0 0 0 0 -7465821.0516967773 115487585.57048035 0 115487585.57048035 131770656.93873596 0 0 0 0 -26415437.730149828 5945912.0835668519 0 5945912.0835668519 22243563.203141898 0 0 0 0 415160589.91358566 130823677.66052914 0 130823677.66052914 -253835.26110839844 0 0 0 0 389683997.91498947 264874687.5958519 0 264874687.5958519 -39118488.146514893 0 0 0 0 26225388.325515747 45427824.380401611 0 45427824.380401611 -53654045.642726898 0 0 0 0 29943953.145495415 61706073.015386105 0 61706073.015386105 -36898432.58769989 0 0 0 0 -32818874.276824951 4401001.0914077759 0 4401001.0914077759 17588197.394287109 0 0 0 0 -29301960.341518708 39870938.618456885 0 39870938.618456885 31645691.491681859 0 0 0 0 -27641420.154059835 30212310.894512065 0 30212310.894512065 25449999.066479251 0 0 0 0 -1997582.881768804 19797516.968641452 0 19797516.968641452 23778597.004829872 0 0 0 0 34045680.726551056 18861389.677398682 0 18861389.677398682 27151177.054904938 0 0 0 0 -40497707.536422729 14740860.141765594 0 14740860.141765594 11111744.598884583 0 0 0 0 -40233892.121681213 18163010.943399429 0 18163010.943399429 15456214.542221069 0 0 0 0 -35639702.830950163 19534662.652968392 0 19534662.652968392 26537730.433448341 0 0 0 0 -35377702.667654105 5325351.9192248229 0 5325351.9192248229 19417224.058772542 0 0 0 0 -150035056.49821472 -5921112.4313521385 0 -5921112.4313521385 6014579.7135795653 0 0 0 0 3188305.2491874695 18586192.330348969 0 18586192.330348969 33352042.664405823 0 0 0 0 325725679.69548416 8407216.8789286613 0 8407216.8789286613 -69552445.133692741 0 0 0 0 104473417.6444397 251292860.64393759 0 251292860.64393759 48083007.448963046 0 0 0 0 -101888691.17404938 168813985.41580248 0 168813985.41580248 371433694.89222622 0 0 0 0 212919431.98296738 127103646.97796005 0 127103646.97796005 -65189369.243228912 0 0 0 0 15801040.576196671 120494790.92998505 0 120494790.92998505 63092852.022171021 0 0 0 0 -108267286.32894135 -33539782.931440353 0 -33539782.931440353 49886844.732880592 0 0 0 0 -227052211.22498703 132029244.04356766 0 132029244.04356766 193568644.42630005 0 0 0 0 -6152109.4936334696 39299262.942160189 0 39299262.942160189 15677498.832466193 0 0 0 0 2196108.0890198089 4524051.5665328344 0 4524051.5665328344 6423146.6998089738 0 0 0 0 35162259.600753784 216145129.59461927 0 216145129.59461927 -100617783.40504026 0 0 0 0 -62001161.096694946 154706452.79317284 0 154706452.79317284 -138811498.2891407 0 0 0 0 30581309.779312134 39514108.837877989 0 39514108.837877989 -46473027.984013557 0 0 0 0 8390073.6580836996 988619.69859411195 0 988619.69859411195 -5843533.4475837024 0 0 0 0 3574103.9322518357 3565180.965227183 0 3565180.965227183 -758922.26796658151 0 0 0 0 10344722.588188171 312099317.85717845 0 312099317.85717845 50397847.519405365 0 0 0 0 120648710.88901711 421613092.99580914 0 421613092.99580914 154003439.70764494 0 0 0 0 77387364.6289711 8705407.3113242388 0 8705407.3113242388 -27115807.115058422 0 0 0 0 199672876.41807556 312550297.55094576 0 312550297.55094576 45526999.946306229 0 0 0 0 -10742238.634849548 170625262.86898577 0 170625262.86898577 -41448854.264226079 0 0 0 0 -94627759.16582489 169113124.03847373 0 169113124.03847373 716654535.5927825 0 0 0 0 426312094.95452118 96241965.601441562 0 96241965.601441562 -5537459.2679562569 0 0 0 0 357731894.17267036 357051180.45327699 0 357051180.45327699 51493831.530160904 0 0 0 0 -150086718.77489471 181456327.38399303 0 181456327.38399303 188955959.05258191 0 0 0 0 -89639299.830386162 89581329.060133144 0 89581329.060133144 -76385210.378320217 0 0 0 0 -300953151.32844543 -233632539.49568295 0 -233632539.49568295 178746301.57241929 0 0 0 0 339704562.55187988 -228298218.46873212 0 -228298218.46873212 16719296.634025812 0 0 0 0 -29933486.202236176 73327188.390881538 0 73327188.390881538 34804416.786903381 0 0 0 0 1912916.9006099701 98426512.05611515 0 98426512.05611515 -13317263.220417976 0 0 0 0 26155712.728626251 76420862.465211868 0 76420862.465211868 -71026299.968093872 0 0 0 0 -1789868.3629875183 109726371.79486942 0 109726371.79486942 -47766739.670046806 0 0 0 0 -244729123.05947876 -114651330.11949563 0 -114651330.11949563 -58492372.643074736 0 0 0 0 -16627047.846637893 34917281.003735021 0 34917281.003735021 10433673.231733084 0 0 0 0 216257908.08979607 28094167.20736742 0 28094167.20736742 -163828149.84472179 0 0 0 0 -22558130.064579621 34240792.192078203 0 34240792.192078203 7191236.0260017561 0 0 0 0 84516682.901229858 58130704.56951046 0 58130704.56951046 22043324.307552338 0 0 0 0 -6336034.0776176453 65758394.733538628 0 65758394.733538628 38234151.441815525 0 0 0 0 28686553.869628906 36511916.544552803 0 36511916.544552803 44642773.48506546 0 0 0 0 33631518.102869034 50255890.583219528 0 50255890.583219528 38395883.379470736 0 0 0 0 -3249607.8304811679 32854174.050256416 0 32854174.050256416 -13648921.55951811 0 0 0 0 -7073213.0554046631 410102707.91616631 0 410102707.91616631 132680591.47241211 0 0 0 0 -259739293.46665192 422387210.90146637 0 422387210.90146637 -67135579.335296631 0 0 0 0 281169404.82217407 25161283.654220581 0 25161283.654220581 -190110211.49732208 0 0 0 0 -116438422.63197327 221057415.45293808 0 221057415.45293808 205195895.83325958 0 0 0 0 207680874.21828461 244097832.7509079 0 244097832.7509079 -609579897.82772064 0 0 0 0 53217613.548049927 53525120.421085119 0 53525120.421085119 17028477.456041396 0 0 0 0 256731232.43089294 20993851.769992828 0 20993851.769992828 -74504969.434249878 0 0 0 0 6350075.2515761405 32651155.860447992 0 32651155.860447992 -19764326.646833517 0 0 0 0 35367373.765892267 66840731.802510515 0 66840731.802510515 25748857.666296959 0 0 0 0 -67648111.74962616 -12417133.582166076 0 -12417133.582166076 -91966296.56338501 0 0 0 0 47307798.727340698 -51842488.804389954 0 -51842488.804389954 -145711458.89861012 0 0 0 0 153476632.17299652 168663026.62808311 0 168663026.62808311 -165116462.18244028 0 0 0 0 -50441935.305725098 25126504.931940079 0 25126504.931940079 -46688402.595022202 0 0 0 0 -101625448.89741516 -42660221.375705957 0 -42660221.375705957 -132304416.71865082 0 0 0 0 56441506.52661705 64845347.825044662 0 64845347.825044662 22325471.923144341 0 0 0 0 -29067739.393674523 38595269.383449294 0 38595269.383449294 7765192.6591056809 0 0 0 0 -3182315.8689117432 50945644.219364166 0 50945644.219364166 7432285.4265556335 0 0 0 0 29188385.493091583 37441999.86371994 0 37441999.86371994 10558111.101355135 0 0 0 0 28199096.205440924 41568118.460414194 0 41568118.460414194 -32685792.363823261 0 0 0 0 -880961586.76678896 -162597735.29401398 0 -162597735.29401398 323793459.96643829 0 0 0 0 9417069.5265468564 26815589.801184781 0 26815589.801184781 -11615908.31582115 0 0 0 0 -37230689.165399902 25502308.90414267 0 25502308.90414267 12738010.594814183 0 0 0 0 -35159613.473758698 17903617.500530243 0 17903617.500530243 18052333.008322537 0 0 0 0 -69946346.510575294 22642433.956825256 0 22642433.956825256 82295489.415344238 0 0 0 0 23331911.239128113 31115881.500314713 0 31115881.500314713 -17348746.787658691 0 0 0 0 -36290991.442795023 15454316.334672209 0 15454316.334672209 17250910.464541145 0 0 0 0 -958228.74264462665 812858.65429870505 0 812858.65429870505 856249.6814694982 0 0 0 0 -57755362.196418762 -106458994.15200806 0 -106458994.15200806 15463294.473693848 0 0 0 0 -28815270.501670837 3741852.6573791504 0 3741852.6573791504 46382481.838104248 0 0 0 0 -36482587.780166626 -33512200.964233398 0 -33512200.964233398 87640403.572494507 0 0 0 0 -1961477.8151070881 -97845.894710704684 0 -97845.894710704684 2098019.7373177372 0 0 0 0 -1499948.8631962086 3518944.5676742857 0 3518944.5676742857 -1700756.8437671028 0 0 0 0 390271627.91931927 704587550.02945709 0 704587550.02945709 267778084.05545044 0 0 0 0 264926452.19095039 -203833799.42131042 0 -203833799.42131042 174083829.58309937 0 0 0 0 -36766669.963802338 -214339903.05019379 0 -214339903.05019379 740729599.00006866 0 0 0 0 -23987229.283445358 -129450579.32554626 0 -129450579.32554626 170653499.00921631 0 0 0 0 668813226.71233892 389736711.76481247 0 389736711.76481247 296441242.19652557 0 0 0 0 614971160.32576108 579198404.46304321 0 579198404.46304321 73702107.959012985 0 0 0 0 619246994.61369503 495293852.24414825 0 495293852.24414825 222271592.85491943 0 0 0 0 458928137.13646841 537429766.64987183 0 537429766.64987183 582092013.16348016 0 0 0 0 1726293375.2700806 45746760.955314636 0 45746760.955314636 1982971.0560722351 0 0 0 0 678193325.38854504 325787810.3717823 0 325787810.3717823 -156799570.95592499 0 0 0 0 1853322.1283807275 -1152055.7742612809 0 -1152055.7742612809 -2076821.8683868647 0 0 0 0 3469086477.2855873 894715418.46258545 0 894715418.46258545 -164595991.10602057 0 0 0 0 1082104884.3163433 -822625439.53603554 0 -822625439.53603554 476130981.99926758 0 0 0 0 -78710590.52532196 -121159865.75328827 0 -121159865.75328827 448453431.67439651 0 0 0 0 -1732907531.1302414 -410800332.48181152 0 -410800332.48181152 -1184625568.561697 0 0 0 0 -709703137.14794636 1512587913.8201733 0 1512587913.8201733 62765417.192199707 0 0 0 0 2564761213.7757721 -1202982447.9778366 0 -1202982447.9778366 -191889347.31036377 0 0 0 0 -1551986602.5522242 2055616404.691185 0 2055616404.691185 681717579.58732605 0 0 0 0 842971.86697268486 4319431.1493124897 0 4319431.1493124897 6319295.0122844949 0 0 0 0 -2172707713.2935181 1474956058.1307259 0 1474956058.1307259 1558945815.467865 0 0 0 0 -1388243812.3820648 -221973857.77237701 0 -221973857.77237701 2223447550.1866798 0 0 0 0 -430863084.7257309 796024349.99673462 0 796024349.99673462 852143607.43284607 0 0 0 0 -1147957628.9057181 1201319590.4114323 0 1201319590.4114323 1709701653.1651917 0 0 0 0 21773212.071450569 18640016.054271042 0 18640016.054271042 -16523469.683573216 0 0 0 0 4452415147.9391632 1258749425.1612396 0 1258749425.1612396 -69479087.971583366 0 0 0 0 2697387931.1391506 4931797750.068985 0 4931797750.068985 2880475243.1189728 0 0 0 0 4746800492.8878422 705135428.09318542 0 705135428.09318542 -873529512.46354675 0 0 0 0 1359128988.7940521 1156026209.0610218 0 1156026209.0610218 139415575.48309326 0 0 0 0 919264671.73483276 1427705791.8262358 0 1427705791.8262358 927300900.70157623 0 0 0 0 -18851618.384189606 73578138.759208679 0 73578138.759208679 72427448.879351616 0 0 0 0 -34555033.324061036 23267844.362024821 0 23267844.362024821 -5541323.6506772805 0 0 0 0 690013981.72134399 519015798.1395359 0 519015798.1395359 742087439.79231787 0 0 0 0 1104941857.7995453 297903896.51715088 0 297903896.51715088 -773050413.70812988 0 0 0 0 -1303250427.9581146 -306016858.8180542 0 -306016858.8180542 -41348898.834951401 0 0 0 0 1068988111.0094299 -139729577.69205475 0 -139729577.69205475 -1448487176.7998753 0 0 0 0 437997.96646713093 7529659.1698438879 0 7529659.1698438879 -2367287.3782868772 0 0 0 0 22610370.679092407 56281188.92383194 0 56281188.92383194 -62952638.500156403 0 0 0 0 -31502261.096440651 15148846.542155407 0 15148846.542155407 -754643.05147346482 0 0 0 0 -862039647.16145325 2045864598.1843734 0 2045864598.1843734 2019117957.3428535 0 0 0 0 47557909.313211441 136495085.47766876 0 136495085.47766876 79561033.037528992 0 0 0 0 -58638915.446678162 153910569.50424194 0 153910569.50424194 213568576.854496 0 0 0 0 -136369270.8277626 63282711.111190796 0 63282711.111190796 235157934.75208282 0 0 0 0 -69789971.255462646 72630836.590965271 0 72630836.590965271 172782311.16445351 0 0 0 0 -132065283.85515213 97405693.735847473 0 97405693.735847473 177942697.84178162 0 0 0 0 -47225100.045781136 -156965290.64253235 0 -156965290.64253235 261082787.31648254 0 0 0 0 -150079441.24143982 41652367.941322327 0 41652367.941322327 304260594.89752197 0 0 0 0 -80871223.106342316 23390961.09815979 0 23390961.09815979 167466860.81983948 0 0 0 0 -80712834.035251617 -36028333.955429077 0 -36028333.955429077 213992718.3710022 0 0 0 0 -61330925.948778152 -25106945.716964722 0 -25106945.716964722 140337261.5710907 0 0 0 0 -64515984.320602417 -2243124.111541748 0 -2243124.111541748 144136445.14135551 0 0 0 0 -50975504.020914078 -64756526.701471329 0 -64756526.701471329 225852846.21850586 0 0 0 0 -34982590.090467453 27396014.391048431 0 27396014.391048431 16284585.52684021 0 0 0 0 -51106318.910847671 19991265.373003006 0 19991265.373003006 10369354.060129054 0 0 0 0 -55441205.626045227 21276696.537155151 0 21276696.537155151 92773087.679992676 0 0 0 0 -58238675.151926041 -2337663.0364246368 0 -2337663.0364246368 79302219.905090332 0 0 0 0 -18169736.983268738 76915074.252937317 0 76915074.252937317 86541956.967056274 0 0 0 0 -48734497.741767883 56088982.507095337 0 56088982.507095337 96943360.270998001 0 0 0 0 -83387966.409492493 36280774.204669952 0 36280774.204669952 102626737.68275452 0 0 0 0 505471933.37130737 553917401.26755524 0 553917401.26755524 426912234.45301056 0 0 0 0 -46782053.498463631 27641284.102735519 0 27641284.102735519 35879201.765548706 0 0 0 0 -38367815.517474644 27506524.620574251 0 27506524.620574251 -4579761.6761588715 0 0 0 0 724165056.85709381 261014587.19628859 0 261014587.19628859 -68228699.278282166 0 0 0 0 434442024.37792969 177457375.34628391 0 177457375.34628391 -13085932.032291412 0 0 0 0 210327035.7331543 256106531.92278767 0 256106531.92278767 51168207.948997498 0 0 0 0 296929199.42042542 274159040.0595541 0 274159040.0595541 53590339.177886963 0 0 0 0 -9017182.7017693967 -3929536.9447410814 0 -3929536.9447410814 7114243.2375849225 0 0 0 0 453399836.38615417 155912295.74125767 0 155912295.74125767 -123263386.46509552 0 0 0 0 16251612.924194336 47390255.578706741 0 47390255.578706741 15291478.605692387 0 0 0 0 -129158698.81552124 26452928.573001862 0 26452928.573001862 23720596.920904875 0 0 0 0 -23841995.441126123 14048685.485394605 0 14048685.485394605 7107638.0911963973 0 0 0 0 -140467882.58126831 140686617.17153752 0 140686617.17153752 -138132350.58623648 0 0 0 0 -1517661.9728927612 89048248.052999496 0 89048248.052999496 44776961.803035736 0 0 0 0 282587269.73910522 34613960.287115574 0 34613960.287115574 -30052662.932876587 0 0 0 0 337883171.22546387 -26367987.51067543 0 -26367987.51067543 -88949346.119522572 0 0 0 0 383065787.03038025 125173976.86576557 0 125173976.86576557 -114448312.51134157 0 0 0 0 462547174.56853485 22629449.517078876 0 22629449.517078876 -216167809.02352905 0 0 0 0 252836118.67976379 -145690228.48550797 0 -145690228.48550797 -192685996.06744766 0 0 0 0 292655667.56549072 -80063089.447718143 0 -80063089.447718143 -120769970.46963739 0 0 0 0 398854285.17243958 -70042479.109985828 0 -70042479.109985828 -331203410.62550545 0 0 0 0 596550198.35223389 110527987.00898027 0 110527987.00898027 -241435599.01554108 0 0 0 0 194343643.78962708 -189743324.35667229 0 -189743324.35667229 -298353837.95192528 0 0 0 0 184460762.81690216 -90762685.227564812 0 -90762685.227564812 -535816903.44762039 0 0 0 0 137340694.00338745 44834974.472803116 0 44834974.472803116 -55842712.350226879 0 0 0 0 -407079183.07270813 -183889044.98089457 0 -183889044.98089457 -100030343.50442886 0 0 0 0 -158050429.78779793 -46188782.101572216 0 -46188782.101572216 110046994.7810421 0 0 0 0 529369297.26186371 -124520661.16357136 0 -124520661.16357136 -7553176.9800043106 0 0 0 0 133220698.09537125 146999497.02204347 0 146999497.02204347 372650452.82219124 0 0 0 0 533377512.03501892 382791781.05304766 0 382791781.05304766 510124380.03866398 0 0 0 0 106116471.64071655 63219248.655994892 0 63219248.655994892 153883798.83478689 0 0 0 0 -165041862.73617172 42649677.058714151 0 42649677.058714151 343833358.89168978 0 0 0 0 -435790822.20500946 198500767.06560653 0 198500767.06560653 117661710.43656659 0 0 0 0 203024547.84015465 493909430.44225919 0 493909430.44225919 246690565.60813713 0 0 0 0 -9271221.024842076 8087327.2678600997 0 8087327.2678600997 4494627.0719190463 0 0 0 0 322478715.89358521 -15158324.700723648 0 -15158324.700723648 -50822277.320073605 0 0 0 0 -2331886.4767884314 2641967.6713530682 0 2641967.6713530682 1642936.829868047 0 0 0 0 849540916.4236145 50011723.26809144 0 50011723.26809144 87548611.885244489 0 0 0 0 -269245657.19226456 -337632167.08069044 0 -337632167.08069044 311953543.60994279 0 0 0 0 597863.8487489596 947046.68811444938 0 947046.68811444938 979489.29337337951 0 0 0 0 -381498002.08275604 -247637750.1894269 0 -247637750.1894269 460628964.13041067 0 0 0 0 -50560743.637893677 14020005.606108904 0 14020005.606108904 140009075.37656021 0 0 0 0 -48639391.38961792 66976463.71740818 0 66976463.71740818 -46705202.623538494 0 0 0 0 2141149.3293642737 2582936.4488335922 0 2582936.4488335922 1560812.561183319 0 0 0 0 534093362.80578232 -631955996.38535023 0 -631955996.38535023 157592668.93047452 0 0 0 0 -429391254.95632935 1017754154.4354738 0 1017754154.4354738 519562257.75931799 0 0 0 0 3735693.3790439367 3516013.8965591192 0 3516013.8965591192 398790.079758693 0 0 0 0 40952606.596496582 370797084.97201777 0 370797084.97201777 -204059021.48187065 0 0 0 0 -81317538.597610474 294655094.69346428 0 294655094.69346428 119336505.06097984 0 0 0 0 -17148744.665309906 84337646.457974315 0 84337646.457974315 -37329828.080348015 0 0 0 0 -32170508.589416504 157038200.69230318 0 157038200.69230318 -124416899.3685894 0 0 0 0 -19996587.433822632 197052174.60607624 0 197052174.60607624 -214471013.21053028 0 0 0 0 -25059750.844863892 -138426260.73728812 0 -138426260.73728812 246998977.55750382 0 0 0 0 -130427449.86651611 -88987814.093301296 0 -88987814.093301296 885133239.11011624 0 0 0 0 7964547.4396057129 -66700485.629976988 0 -66700485.629976988 370117722.97944546 0 0 0 0 247044433.84155273 -10756789.173675627 0 -10756789.173675627 -522877900.36870611 0 0 0 0 261719104.53729248 -348239058.20563161 0 -348239058.20563161 84432613.882794082 0 0 0 0 -50991093.582107544 302771974.45533347 0 302771974.45533347 -415446483.55570018 0 0 0 0 84178704.035324097 -159462651.83404034 0 -159462651.83404034 17689654.803909719 0 0 0 0 -31687184.131866455 -45708542.545693159 0 -45708542.545693159 -89799553.114400864 0 0 0 0 91787627.244750977 -51348369.726459026 0 -51348369.726459026 -225589937.00482172 0 0 0 0 8980265.0261306763 8410885.8272352219 0 8410885.8272352219 -111899361.48239493 0 0 0 0 8785213.0726600289 -19264240.129656188 0 -19264240.129656188 -75458588.524251938 0 0 0 0 4225347.07762146 5238156.8619183302 0 5238156.8619183302 -108039876.63173652 0 0 0 0 44921535.145755768 298515876.44218922 0 298515876.44218922 41067389.978069305 0 0 0 0 -109690685.20742798 40768701.522297859 0 40768701.522297859 -3332529.8789314032 0 0 0 0 114159769.98423004 40712327.420994639 0 40712327.420994639 -4203540.6190357208 0 0 0 0 4556498.2714071199 4455852.7643287629 0 4455852.7643287629 -366743.99883806705 0 0 0 0 -1434502.5804818571 2833522.8437746949 0 2833522.8437746949 1465137.4057536777 0 0 0 0 1331554.3118980825 4751829.4241362493 0 4751829.4241362493 2393550.1212294325 0 0 0 0 -85602482.486524582 105010163.58253342 0 105010163.58253342 -253314437.03483868 0 0 0 0 66732196.650131226 100457241.50339079 0 100457241.50339079 -490333118.39365101 0 0 0 0 -250539208.42129517 -84674036.014793396 0 -84674036.014793396 -20727898.636499405 0 0 0 0 -256642556.08224487 -524677879.35272789 0 -524677879.35272789 -302808964.1175766 0 0 0 0 111308304.16926575 293355949.29213524 0 293355949.29213524 -412954264.61288929 0 0 0 0 -510015879.17716408 19184394.516882777 0 19184394.516882777 136770365.96722603 0 0 0 0 -410018500.8813324 397516009.89303303 0 397516009.89303303 160984916.1569519 0 0 0 0 -254009706.59022522 166536111.69251823 0 166536111.69251823 92621091.410362244 0 0 0 0 -244065071.1889801 153237909.86520004 0 153237909.86520004 95073613.220289707 0 0 0 0 -204400005.64687347 105828423.94631863 0 105828423.94631863 125025283.61198997 0 0 0 0 -277334664.54139709 23440047.620109081 0 23440047.620109081 43447735.749313354 0 0 0 0 16047438.962890625 -16104107.699581146 0 -16104107.699581146 -7961785.6667299271 0 0 0 0 56433679.570449829 -12242865.152096748 0 -12242865.152096748 -39562538.136295319 0 0 0 0 7432128.4748561885 11318282.765117306 0 11318282.765117306 7284934.774626201 0 0 0 0 -46575772.030433655 52579133.704762936 0 52579133.704762936 37377846.957834244 0 0 0 0 -31372013.465209961 67610002.599702835 0 67610002.599702835 49035119.614265442 0 0 0 0 51117804.358093262 8993080.5590190887 0 8993080.5590190887 18986200.014373779 0 0 0 0 11787916.520297633 7037558.0781407263 0 7037558.0781407263 -9185578.8189121112 0 0 0 0 -6505519.8805103302 13157694.582066536 0 13157694.582066536 1032494.7409439087 0 0 0 0 21319187.273269653 76816513.37392807 0 76816513.37392807 -36554750.007514954 0 0 0 0 5463516.6908383518 14227736.825091748 0 14227736.825091748 15464035.645369878 0 0 0 0 -285564887.36659241 307804534.56930351 0 307804534.56930351 17663000.218267441 0 0 0 0 75686851.986923218 173961067.22139931 0 173961067.22139931 -11844152.322001457 0 0 0 0 -232048126.35514832 161607324.99854565 0 161607324.99854565 44407456.762439728 0 0 0 0 129080288.9145813 284818623.47929764 0 284818623.47929764 151790881.13758087 0 0 0 0 2903359.151863683 8059052.7063140515 0 8059052.7063140515 10383762.693175849 0 0 0 0 23830239.840423584 -335977193.87372971 0 -335977193.87372971 -309311868.53722572 0 0 0 0 -29165461.615081787 -39612985.776090622 0 -39612985.776090622 -58141222.894281387 0 0 0 0 509155.68249210529 -1290770.1263817865 0 -1290770.1263817865 10895287.918208938 0 0 0 0 -6108780.7931729332 393433.64437957946 0 393433.64437957946 5144154.3990438096 0 0 0 0 -92499237.2747612 -73136932.680204391 0 -73136932.680204391 -16311915.384140015 0 0 0 0 -223854848.41228867 175136888.14364338 0 175136888.14364338 -139516726.95487976 0 0 0 0 267591977.21969604 600871635.09648895 0 600871635.09648895 469981425.00967503 0 0 0 0 935214015.73735046 1276183168.1937656 0 1276183168.1937656 899079427.58955383 0 0 0 0 2019717.655982852 1875462.0726541206 0 1875462.0726541206 -377083.06949565932 0 0 0 0 36578348.865683556 177581443.75040978 0 177581443.75040978 1003836572.6608124 0 0 0 0 7869745.8385305405 -148780652.41972733 0 -148780652.41972733 142710709.82824326 0 0 0 0 -1818207.811057061 3443161.3958466202 0 3443161.3958466202 990527.80613266584 0 0 0 0 -106573451.54956055 58330124.069545746 0 58330124.069545746 55702262.209114075 0 0 0 0 -832158.73497208208 1131318.8230327331 0 1131318.8230327331 548846.78832258377 0 0 0 0 -569655608.77407837 -35110334.734617233 0 -35110334.734617233 54185715.121393144 0 0 0 0 152646353.42334366 208451256.93729234 0 208451256.93729234 -330660635.73442078 0 0 0 0 -174371754.05621338 244391601.25520134 0 244391601.25520134 116994279.89642715 0 0 0 0 582667045.82215881 650811900.35088634 0 650811900.35088634 -135485350.99383545 0 0 0 0 564011660.43612671 702294594.19555092 0 702294594.19555092 -261642591.33086801 0 0 0 0 141702062.21511841 652686056.51343894 0 652686056.51343894 57050132.237205505 0 0 0 0 705522250.44606018 970517301.27815819 0 970517301.27815819 40959909.726309776 0 0 0 0 382806598.92144775 734900506.28618622 0 734900506.28618622 -81355356.774433136 0 0 0 0 1089492471.9333954 548079508.3426981 0 548079508.3426981 -9639167.483039856 0 0 0 0 420466517.17886353 917619996.49147034 0 917619996.49147034 653393283.44174767 0 0 0 0 1591288367.8001022 1526177186.283247 0 1526177186.283247 -705273681.32645798 0 0 0 0 269120393.83710098 1206856970.3496017 0 1206856970.3496017 74018126.953277588 0 0 0 0 4404136.6038572378 5299375.3806525432 0 5299375.3806525432 -4310950.0849955212 0 0 0 0 97687397.870685577 53109905.482981682 0 53109905.482981682 -5074572.1143951416 0 0 0 0 -168747841.32434845 -1444834639.1568451 0 -1444834639.1568451 1824309838.7418017 0 0 0 0 364630435.15168762 1303177309.9332399 0 1303177309.9332399 788965963.5351038 0 0 0 0 -371970302.11535645 565699212.76922989 0 565699212.76922989 2419600755.548851 0 0 0 0 -331971067.43225098 679992109.80851936 0 679992109.80851936 1172171931.2889862 0 0 0 0 115332587.31057739 69220005.942485809 0 69220005.942485809 1533485188.065712 0 0 0 0 2031011633.4430084 478466183.56875992 0 478466183.56875992 -391861098.53931999 0 0 0 0 543101.77147850767 2510994.7703335974 0 2510994.7703335974 4158964.561377041 0 0 0 0 1546959924.8072128 -401064027.80397272 0 -401064027.80397272 308399902.1680603 0 0 0 0 -3598595.7498540618 332342.35972062498 0 332342.35972062498 3326369.8329921495 0 0 0 0 103374291.36448669 235932588.48935509 0 235932588.48935509 975462702.49779892 0 0 0 0 68612332.633056641 -481573955.53109741 0 -481573955.53109741 -129208135.40032959 0 0 0 0 -5431195.0948829651 -163406503.3375864 0 -163406503.3375864 113666724.3155899 0 0 0 0 1004628336.1595688 1019556522.0536957 0 1019556522.0536957 856695451.77245712 0 0 0 0 -617124.65006316453 -3041494.9829840697 0 -3041494.9829840697 4969764.9063310102 0 0 0 0 -956160248.32520485 379394200.0129261 0 379394200.0129261 1665833045.2575111 0 0 0 0 408880455.43121338 492237083.41577339 0 492237083.41577339 419996810.25508308 0 0 0 0 280110974.39299011 863417413.5140419 0 863417413.5140419 1028065437.6651611 0 0 0 0 -7692409.7289428711 705101282.97127533 0 705101282.97127533 999830081.88277292 0 0 0 0 -56228278.080108643 804938425.67289734 0 804938425.67289734 1213061715.5824897 0 0 0 0 -50662330.741439819 858085122.00841331 0 858085122.00841331 1214469439.3934097 0 0 0 0 14686242.299957275 -85003336.24716568 0 -85003336.24716568 722462659.24463558 0 0 0 0 -17399910.182174683 626300258.88748169 0 626300258.88748169 668979756.22133636 0 0 0 0 -79809843.753112793 739001006.2609272 0 739001006.2609272 2065416902.469593 0 0 0 0 222449422.68051147 -664219140.95658112 0 -664219140.95658112 1501177708.5164146 0 0 0 0 168654029.60645294 -339779735.87897015 0 -339779735.87897015 -212736176.40644836 0 0 0 0 212099821.29742432 29324194.983298302 0 29324194.983298302 33452106.849161148 0 0 0 0 339211808.42538452 102188685.19418716 0 102188685.19418716 -304687383.77796745 0 0 0 0 183220014.78608704 -210010577.20010757 0 -210010577.20010757 -411008963.22246552 0 0 0 0 -987882481.43201447 400734561.19912243 0 400734561.19912243 1388220306.8352127 0 0 0 0 -825645790.06257629 751054293.16672325 0 751054293.16672325 1965907526.0506916 0 0 0 0 909879902.40713501 961122495.64447784 0 961122495.64447784 530560293.26497269 0 0 0 0 1310643323.3063202 -340848871.8668251 0 -340848871.8668251 -160347985.12570572 0 0 0 0 311013340.65869141 143430271.40232468 0 143430271.40232468 -212409717.93894958 0 0 0 0 471397167.62355804 289790233.30010843 0 289790233.30010843 -1271306885.5267181 0 0 0 0 688961982.14967346 -132390481.7111721 0 -132390481.7111721 -1792814729.6309166 0 0 0 0 -237471282.00985718 71187452.376272202 0 71187452.376272202 -102091227.57030296 0 0 0 0 -220197322.65546417 6143428.5369095802 0 6143428.5369095802 -866005384.53210068 0 0 0 0 7194640.8945259545 8672780.0230495818 0 8672780.0230495818 579746.36879226752 0 0 0 0 120258406.76141357 340426728.08431816 0 340426728.08431816 -815460124.21806645 0 0 0 0 492720056.95196152 -235312520.47018623 0 -235312520.47018623 -60908239.720646858 0 0 0 0 -11107874.190223694 -12704450.948804379 0 -12704450.948804379 -30287091.685398102 0 0 0 0 3521528.1526975557 -1413396.1014838014 0 -1413396.1014838014 -5421541.5378221665 0 0 0 0 396261442.84570312 845854188.62059879 0 845854188.62059879 -1895203829.89221 0 0 0 0 23007470.789832145 9044590.310495656 0 9044590.310495656 -21268536.159754105 0 0 0 0 24653549.194335938 32677855.033622742 0 32677855.033622742 -1310394.958152771 0 0 0 0 -11999483.051513672 3784149.5160979033 0 3784149.5160979033 -317305507.25706971 0 0 0 0 -84347639.268913269 -90130346.389960885 0 -90130346.389960885 -435566802.92875791 0 0 0 0 11535179.282911576 27636433.35934604 0 27636433.35934604 961127.94989880966 0 0 0 0 -235238894.55981445 237383459.04497147 0 237383459.04497147 -621562397.37468624 0 0 0 0 21294583.003234863 741553555.23431778 0 741553555.23431778 -639627484.40085149 0 0 0 0 278579735.17543793 -96440411.536807775 0 -96440411.536807775 -773403445.92028046 0 0 0 0 -226843269.05825806 581698395.31424809 0 581698395.31424809 -1088163813.8660841 0 0 0 0 -392541146.67056274 -156457676.82600784 0 -156457676.82600784 -1532819627.1655388 0 0 0 0 75786.199148152024 586521.2162544094 0 586521.2162544094 570653.83082837053 0 0 0 0 24443141.154943466 30186912.601091385 0 30186912.601091385 -15901707.210823059 0 0 0 0 59770101.694366455 13253338.946496964 0 13253338.946496964 -14396803.711574554 0 0 0 0 10585207.282538071 13784878.439362846 0 13784878.439362846 -11756145.365765754 0 0 0 0 -115272342.76901245 -325906276.02508318 0 -325906276.02508318 -462471194.15867209 0 0 0 0 78299258.821762085 34329512.651946068 0 34329512.651946068 447832.55326843262 0 0 0 0 332799904.38132477 786826184.52340794 0 786826184.52340794 -368351576.47479057 0 0 0 0 196207415.36494446 -188254638.21410656 0 -188254638.21410656 -700719008.56254768 0 0 0 0 -22292461.893127441 301167267.43251038 0 301167267.43251038 189937559.77046967 0 0 0 0 43504427.423233509 -365990199.00313377 0 -365990199.00313377 -418742156.18365097 0 0 0 0 -557196688.54214096 246482486.75377488 0 246482486.75377488 998949514.7657547 0 0 0 0 -553350559.90474391 -295226528.86117458 0 -295226528.86117458 -331639573.07330322 0 0 0 0 3340578.8404805153 -3541376.3295604503 0 -3541376.3295604503 -2066627.8241606997 0 0 0 0 272031634.84381104 586921422.05301833 0 586921422.05301833 430078169.45255852 0 0 0 0 64700293.896446228 588728189.75415206 0 588728189.75415206 166097151.93710327 0 0 0 0 -162919645.48462677 266239504.57732296 0 266239504.57732296 226247783.7765553 0 0 0 0 303535332.95285034 -244388627.94718003 0 -244388627.94718003 -206380393.43529415 0 0 0 0 383421107.90074158 -90720203.387546539 0 -90720203.387546539 76935032.033275604 0 0 0 0 -1255.6052293516695 533812.56263923086 0 533812.56263923086 3010107.0329425465 0 0 0 0 69530022.568786621 440294653.63061714 0 440294653.63061714 766527502.43896675 0 0 0 0 1665932691.9841919 99673135.382192612 0 99673135.382192612 151395390.38522339 0 0 0 0 694605095.26681519 -219970998.27990532 0 -219970998.27990532 130028233.81452751 0 0 0 0 840046642.4193058 606039093.6197741 0 606039093.6197741 334532439.63204575 0 0 0 0 -51693292.742864132 446056552.68625534 0 446056552.68625534 462939011.61886597 0 0 0 0 69580163.713378906 440166883.08190727 0 440166883.08190727 363073913.38665771 0 0 0 0 -404189213.05124664 279486872.55376244 0 279486872.55376244 763219070.09990692 0 0 0 0 20889397.732275009 -409105654.84134102 0 -409105654.84134102 -120326337.29716492 0 0 0 0 -131840346.46571732 -430877233.42308617 0 -430877233.42308617 1346421447.6293709 0 0 0 0 1013992128.0663757 1163511413.4597301 0 1163511413.4597301 1259837991.2748375 0 0 0 0 758772137.80039978 89490617.001779556 0 89490617.001779556 -474034088.16962433 0 0 0 0 101745455.90104675 163950764.47013855 0 163950764.47013855 -470297598.78595781 0 0 0 0 -381852347.93570328 -206822563.52677155 0 -206822563.52677155 -216693991.81746483 0 0 0 0 -9522033.4834346771 170307660.38658905 0 170307660.38658905 254409448.5832901 0 0 0 0 5886378.7562978826 -6342152.516761506 0 -6342152.516761506 -3511629.8244945444 0 0 0 0 -70089785.45441246 381646190.91390419 0 381646190.91390419 153219940.79351807 0 0 0 0 -412386779.19447136 215786281.6427021 0 215786281.6427021 343458376.83511734 0 0 0 0 -192530170.15396881 370533225.03544617 0 370533225.03544617 463836656.44953918 0 0 0 0 -771225224.719203 -455103495.21978855 0 -455103495.21978855 241940394.34696198 0 0 0 0 5978947.2679949608 -6636807.86777783 0 -6636807.86777783 -3100197.0003496315 0 0 0 0 -572235739.7827301 -40971550.095163345 0 -40971550.095163345 462063002.89493942 0 0 0 0 -418495398.01321411 46160743.725463867 0 46160743.725463867 257816206.21891022 0 0 0 0 -402617710.13666987 -155433087.54474068 0 -155433087.54474068 1304420006.7834702 0 0 0 0 557471453.71487021 1027565417.6878548 0 1027565417.6878548 860817399.09337616 0 0 0 0 -50486592.094415665 399713809.45655441 0 399713809.45655441 230481984.5929718 0 0 0 0 -48640533.252105713 342034932.56784821 0 342034932.56784821 221621614.82524109 0 0 0 0 7425229.9877128601 285836091.92735291 0 285836091.92735291 377914175.97570801 0 0 0 0 -74517104.68875885 401963717.65818787 0 401963717.65818787 240731846.45050812 0 0 0 0 17128870.43157959 362606345.525177 0 362606345.525177 249325331.70805359 0 0 0 0 146027680.48274612 163916686.24324036 0 163916686.24324036 -291714548.43969727 0 0 0 0 218948235.23400307 94050170.737224579 0 94050170.737224579 134185271.94832611 0 0 0 0 390486048.43830252 18203336.054445267 0 18203336.054445267 -415753663.2104187 0 0 0 0 1981082.3635359118 3792593.9156224504 0 3792593.9156224504 -2784101.9111888707 0 0 0 0 74760754.436401367 195623035.20074463 0 195623035.20074463 -305371690.42140198 0 0 0 0 -7412267.9766845703 453416148.03688812 0 453416148.03688812 533273708.26972032 0 0 0 0 -164731938.0758934 306393484.0760498 0 306393484.0760498 538357355.48558044 0 0 0 0 -56076936.715606689 306665856.78799438 0 306665856.78799438 -22979674.64251709 0 0 0 0 3798455.534147962 2324999.8636563867 0 2324999.8636563867 -3128566.8987713251 0 0 0 0 385877113.8584137 346070369.74708557 0 346070369.74708557 259834204.88833165 0 0 0 0 -46167237.952184677 44187550.926174164 0 44187550.926174164 -330132515.60191345 0 0 0 0 -30456116.835557938 107546863.69252777 0 107546863.69252777 -113715341.99934387 0 0 0 0 9235370.243347168 223448920.83062744 0 223448920.83062744 -304526339.01187801 0 0 0 0 -39425343.054893494 158423281.20186615 0 158423281.20186615 51846.951812744141 0 0 0 0 -47468310.783289671 228755705.13211679 0 228755705.13211679 -13860803.83505249 0 0 0 0 -45866426.8058424 279485672.84799767 0 279485672.84799767 -160440908.06158447 0 0 0 0 -34360900.320343018 143481191.70379639 0 143481191.70379639 -215361508.03074646 0 0 0 0 -46452697.367965698 121345655.25134277 0 121345655.25134277 -62643394.126083374 0 0 0 0 53890201.49671936 1096605.2188415527 0 1096605.2188415527 -16267909.533948898 0 0 0 0 -20688185.661441803 102405277.07255554 0 102405277.07255554 -134327891.94219971 0 0 0 0 126390260.61753416 -26743717.337181091 0 -26743717.337181091 -564771400.88993835 0 0 0 0 17576785.537514329 -23931276.445140839 0 -23931276.445140839 43550698.246017456 0 0 0 0 2177286.8969023181 11584513.280958522 0 11584513.280958522 3183847.0679210462 0 0 0 0 179243414.67215347 125597673.85617065 0 125597673.85617065 -463995417.50773621 0 0 0 0 292259918.94762421 -22762167.035943031 0 -22762167.035943031 -293687614.29077148 0 0 0 0 1709018.3162984313 -1646026.2031766418 0 -1646026.2031766418 -482796.94649823755 0 0 0 0 -66369059.199501038 -926747.83559417725 0 -926747.83559417725 39560480.166009903 0 0 0 0 572852131.94617653 608184729.66143417 0 608184729.66143417 101074429.77696228 0 0 0 0 -682805315.35547638 -96093450.292816162 0 -96093450.292816162 -49786491.879516602 0 0 0 0 3180411.3396826331 -3201917.1537881587 0 -3201917.1537881587 -2425738.979531616 0 0 0 0 -435155211.67144203 -160987776.38955331 0 -160987776.38955331 -88875459.017555237 0 0 0 0 -499601688.36673737 380168459.47061157 0 380168459.47061157 479936527.1539917 0 0 0 0 88631525.588759422 420730147.08286691 0 420730147.08286691 494335518.27110291 0 0 0 0 274813021.77976608 593482485.21913147 0 593482485.21913147 299703621.91386414 0 0 0 0 749982000.84260559 91120473.340835571 0 91120473.340835571 -459237851.29272461 0 0 0 0 97992527.756881714 115634199.9152832 0 115634199.9152832 -17604553.340662956 0 0 0 0 103633556.4169693 120455200.10268021 0 120455200.10268021 135570167.46505737 0 0 0 0 -7943465.677947998 -191820929.96492004 0 -191820929.96492004 32704302.794380188 0 0 0 0 -268919618.79210663 50193433.522026062 0 50193433.522026062 618742257.08467102 0 0 0 0 -299736097.86797333 -355379836.47163391 0 -355379836.47163391 203365836.84953308 0 0 0 0 -18408676.909194946 -106886550.00881958 0 -106886550.00881958 -365806918.23083496 0 0 0 0 -3391236.1312103271 15500121.43526268 0 15500121.43526268 -198111.81990814209 0 0 0 0 38275674.791378021 82327033.391914368 0 82327033.391914368 15336385.788860321 0 0 0 0 7643766.3675681381 6844739.3067361228 0 6844739.3067361228 -2950544.9856379628 0 0 0 0 1832962.3707767017 13899207.855726788 0 13899207.855726788 14627311.715407852 0 0 0 0 793422.88706016541 5414508.3658080101 0 5414508.3658080101 -765039.06079101562 0 0 0 0 13529461.775719643 12286238.185946371 0 12286238.185946371 8074212.5112035051 0 0 0 0 1693467.2114105336 5260664.0227403045 0 5260664.0227403045 2619715.2757495344 0 0 0 0 -121853.65855407715 13548625.187294006 0 13548625.187294006 695403.64588928223 0 0 0 0 139683.47946166992 14774383.474746704 0 14774383.474746704 -50920.527870178223 0 0 0 0 160561.71591186523 14950112.857502937 0 14950112.857502937 153711.23065948486 0 0 0 0 9115950.6373923346 20494414.514406946 0 20494414.514406946 18843051.921886131 0 0 0 0 20059956.479617812 39602785.359973535 0 39602785.359973535 17724945.609683447 0 0 0 0 32503962.43208313 7991655.0235033035 0 7991655.0235033035 1519939.6614980698 0 0 0 0 27342427.80016128 24744204.640745886 0 24744204.640745886 14130448.580376999 0 0 0 0 3008101.7308273315 13971143.675777435 0 13971143.675777435 -4948197.4816131592 0 0 0 0 18698442.597290326 15657300.655974399 0 15657300.655974399 -1956980.6269440837 0 0 0 0 -13950938.669128418 94192942.185760498 0 94192942.185760498 -433914645.07885361 0 0 0 0 6077662.7849745005 21135335.837089539 0 21135335.837089539 5787558.0230512433 0 0 0 0 -6770324.3932800293 17620635.043167114 0 17620635.043167114 -176439326.85697937 0 0 0 0 38608985.688539982 72529974.843712538 0 72529974.843712538 -41235984.95670414 0 0 0 0 70161952.365257263 57030959.491848469 0 57030959.491848469 -52042911.121192932 0 0 0 0 22935273.441697579 7346108.4477224331 0 7346108.4477224331 -13873742.467303909 0 0 0 0 103369433.64826202 29265167.704982162 0 29265167.704982162 -50053608.257400513 0 0 0 0 3764306.3189444374 5113916.0411823429 0 5113916.0411823429 -1527550.7164248698 0 0 0 0 62642728.418178558 3299797.0684831142 0 3299797.0684831142 -41589360.049127579 0 0 0 0 10053471.729530334 15613992.800317764 0 15613992.800317764 -6278891.6010169983 0 0 0 0 48642855.981231689 18262334.290916443 0 18262334.290916443 -51365965.84256506 0 0 0 0 21527462.685638428 37243660.663906574 0 37243660.663906574 -39520719.129310608 0 0 0 0 14292526.035649091 15890686.241404492 0 15890686.241404492 -2066105.7325083814 0 0 0 0 26004836.197174072 10894272.636384964 0 10894272.636384964 -436529.18868112564 0 0 0 0 16836855.775797367 43990134.78074646 0 43990134.78074646 70061273.018596649 0 0 0 0 28304015.994041622 108062676.84400368 0 108062676.84400368 185506532.93771362 0 0 0 0 -20777433.514746189 45697931.188949585 0 45697931.188949585 97821915.309753418 0 0 0 0 67988446.321342468 -35681852.45993042 0 -35681852.45993042 -175436932.3080349 0 0 0 0 -43409984.565603256 60488329.608520508 0 60488329.608520508 47480252.695922852 0 0 0 0 4004171.1854140423 22154678.211074308 0 22154678.211074308 9548585.0501185786 0 0 0 0 -33475940.215763092 46536026.445800781 0 46536026.445800781 42416725.128890991 0 0 0 0 -24198442.756403446 33834997.135028839 0 33834997.135028839 57348167.402038574 0 0 0 0 -45355055.101921082 51712423.411613464 0 51712423.411613464 63675488.69691658 0 0 0 0 -7120664.9000701904 2111534.6866388321 0 2111534.6866388321 -27956899.993692398 0 0 0 0 -450909.69910144806 55541316.287147522 0 55541316.287147522 -6906067.8861541748 0 0 0 0 9022435.8404264878 47871177.53677918 0 47871177.53677918 26194916.866722122 0 0 0 0 3389396.248295784 94065651.008483887 0 94065651.008483887 -9980555.6304168701 0 0 0 0 13454344.936544418 93018949.471763611 0 93018949.471763611 91593234.288516998 0 0 0 0 94458.876773829455 2343398.3331751348 0 2343398.3331751348 -2029208.900484629 0 0 0 0 103027812.77420938 67255767.792999268 0 67255767.792999268 -8770491.0528717041 0 0 0 0 -24895183.816596329 36198142.367256165 0 36198142.367256165 -15673954.402420044 0 0 0 0 12698531.050278723 30883190.475726981 0 30883190.475726981 -2698798.9535580277 0 0 0 0 -56724616.460583687 21407183.238353729 0 21407183.238353729 24203629.716087341 0 0 0 0 85008240.727265596 129618331.9397583 0 129618331.9397583 107827055.98944855 0 0 0 0 -4592356.2888576873 3759819.6487094816 0 3759819.6487094816 4566892.0659368895 0 0 0 0 -80649307.842674255 -45908393.466064453 0 -45908393.466064453 55196873.053253174 0 0 0 0 -167539173.3558197 104321390.34378815 0 104321390.34378815 165586657.65022755 0 0 0 0 -86524542.982318878 -28962576.009292603 0 -28962576.009292603 146570708.10178375 0 0 0 0 -88065548.653297782 2222101.0754928589 0 2222101.0754928589 67499618.129104614 0 0 0 0 167127833.72233582 217783146.74429321 0 217783146.74429321 277718702.34840965 0 0 0 0 -47488667.542294502 21437501.055126756 0 21437501.055126756 22737941.146953583 0 0 0 0 178720229.79522514 316467250.71435642 0 316467250.71435642 326419041.13865662 0 0 0 0 -43361963.244150952 12104623.054403223 0 12104623.054403223 24015631.731305823 0 0 0 0 -56760834.612839699 132367295.95349932 0 132367295.95349932 114187988.79772186 0 0 0 0 -4622485.2594337463 37019727.416133881 0 37019727.416133881 49962360.855794907 0 0 0 0 -194009726.81615829 251727736.56471252 0 251727736.56471252 -142469973.08905792 0 0 0 0 46797055.091365814 127456537.61623287 0 127456537.61623287 -11041247.468383789 0 0 0 0 35200507.86803627 -9184362.1137523651 0 -9184362.1137523651 -26564112.732749939 0 0 0 0 26851781.191864014 -64454290.464950562 0 -64454290.464950562 -70760357.545954704 0 0 0 0 76418181.184990883 -29085866.826078415 0 -29085866.826078415 -61247988.266746521 0 0 0 0 115130511.11505556 -30819933.175124168 0 -30819933.175124168 -461194176.43683624 0 0 0 0 -66881103.649539948 647716116.56070328 0 647716116.56070328 -280569239.69937897 0 0 0 0 -106785585.91609287 -396710739.25920868 0 -396710739.25920868 -72263083.527194977 0 0 0 0 52962590.05850029 285065737.7433548 0 285065737.7433548 -732129062.33332825 0 0 0 0 -212235230.70734024 106185536.87449074 0 106185536.87449074 240705522.24169159 0 0 0 0 -343734352.68278313 433636190.6856842 0 433636190.6856842 353068355.05605507 0 0 0 0 2698961.7288681907 6166965.4262238499 0 6166965.4262238499 -4375656.5891422257 0 0 0 0 316480957.39407492 -302824269.80735302 0 -302824269.80735302 -146718059.76377869 0 0 0 0 -212616726.62970543 -264893441.06860352 0 -264893441.06860352 239389142.48861694 0 0 0 0 1417772.4313660634 4221022.2631773129 0 4221022.2631773129 44660.296243097633 0 0 0 0 -98409955.068954468 -33579598.470230103 0 -33579598.470230103 -48303199.518356323 0 0 0 0 -15226131.668369293 -399462661.06118011 0 -399462661.06118011 -832773362.1893034 0 0 0 0 -209446631.98776436 -92862932.426696777 0 -92862932.426696777 -223260776.1354866 0 0 0 0 -29724502.744780362 -39490997.979873657 0 -39490997.979873657 201181709.94791746 0 0 0 0 92654119.525424957 56053128.40247345 0 56053128.40247345 -9546538.1701965332 0 0 0 0 -269225740.59122813 36300155.109060287 0 36300155.109060287 121048724.73204041 0 0 0 0 528615033.02235794 84312244.792905807 0 84312244.792905807 355773725.67114258 0 0 0 0 -185029525.46313477 136857657.73281097 0 136857657.73281097 82086030.682285309 0 0 0 0 7312920.6459960938 111524725.15532684 0 111524725.15532684 79791492.657138824 0 0 0 0 -6127510.8496674672 3889898.2880826406 0 3889898.2880826406 4523403.8011959605 0 0 0 0 -83871958.507453918 -86973842.568145752 0 -86973842.568145752 34716211.701705933 0 0 0 0 -34849302.835227966 53922568.261671066 0 53922568.261671066 -404476080.27970886 0 0 0 0 -21043563.644260406 223477458.15301085 0 223477458.15301085 -562177611.18054199 0 0 0 0 134624733.20558167 -183195449.67826843 0 -183195449.67826843 -1073806814.9322662 0 0 0 0 121091100.07827759 -99407134.460018158 0 -99407134.460018158 -592707450.0209198 0 0 0 0 64099709.269294739 16566841.795022011 0 16566841.795022011 -757169273.0340271 0 0 0 0 61568383.691864014 -57132727.89918232 0 -57132727.89918232 -615403495.66348267 0 0 0 0 303484352.16393423 497257642.12080574 0 497257642.12080574 517226747.57214355 0 0 0 0 -158869471.79107666 862405132.77911758 0 862405132.77911758 423869106.17235184 0 0 0 0 6881224.1949605793 32044494.569264673 0 32044494.569264673 -55748133.453616396 0 0 0 0 197433459.90661383 365960482.64029598 0 365960482.64029598 385272139.90478516 0 0 0 0 315274833.70013428 327775718.50052643 0 327775718.50052643 359948599.22882366 0 0 0 0 -3042819.1928170845 848244.97488634288 0 848244.97488634288 2329061.1521331742 0 0 0 0 -301366841.03005981 341785402.90129852 0 341785402.90129852 -756911040.81965637 0 0 0 0 7772015.2287708372 33553827.692398548 0 33553827.692398548 -55950519.312206559 0 0 0 0 -399423301.17132568 1433975523.1618805 0 1433975523.1618805 -399702087.2479248 0 0 0 0 1041541829.774231 4422748.0206451416 0 4422748.0206451416 808228799.80275345 0 0 0 0 281808084.77282715 406643648.33171844 0 406643648.33171844 371839737.86676025 0 0 0 0 288054165.36872864 289943544.46139526 0 289943544.46139526 283668748.5536747 0 0 0 0 207708199.93101501 246934475.3501358 0 246934475.3501358 315773674.66913033 0 0 0 0 2198423.7672481537 -30617097.255508423 0 -30617097.255508423 -34058268.41677475 0 0 0 0 559515.96522140503 -9014712.1417732239 0 -9014712.1417732239 783972.85127639771 0 0 0 0 -37111692.370459639 5150911.6348084938 0 5150911.6348084938 27972319.857479654 0 0 0 0 210647234.64505005 232597818.08551788 0 232597818.08551788 363137533.40145874 0 0 0 0 187363363.47565079 341196126.0358572 0 341196126.0358572 497001080.63964844 0 0 0 0 396520062.9864502 418260525.86142731 0 418260525.86142731 380289920.08896828 0 0 0 0 1758897.2641601562 159004004.34053802 0 159004004.34053802 396941793.07161474 0 0 0 0 265979250.66068268 691360671.45448494 0 691360671.45448494 706047248.16000366 0 0 0 0 264275036.14309692 424151511.07997131 0 424151511.07997131 586208973.86287689 0 0 0 0 48230387.93409729 402733592.72746277 0 402733592.72746277 274183400.26598549 0 0 0 0 8592311.2893522605 30558980.725748576 0 30558980.725748576 -55015759.56137348 0 0 0 0 -65624856.356681824 -49892257.401082993 0 -49892257.401082993 79052630.770618439 0 0 0 0 -19591573.108329169 -1851282.1021197531 0 -1851282.1021197531 41191677.764393337 0 0 0 0 30428710.271069527 546655698.83234596 0 546655698.83234596 530797191.54330444 0 0 0 0 176560598.87533569 258859754.29067993 0 258859754.29067993 41793381.828125 0 0 0 0 -29358028.776989263 155066.51361836679 0 155066.51361836679 33694385.49990008 0 0 0 0 -55429861.444671631 -21215969.833768845 0 -21215969.833768845 3258588.2818984985 0 0 0 0 -65841213.991157532 -72209653.631031036 0 -72209653.631031036 -22538701.008615494 0 0 0 0 -31241799.697502136 3186511.7630386353 0 3186511.7630386353 273570729.77996826 0 0 0 0 1872357.0600415841 2299893.4803587459 0 2299893.4803587459 -1791695.78850656 0 0 0 0 -35552492.900642395 -78998974.331716537 0 -78998974.331716537 -100506396.46831131 0 0 0 0 -21376162.699272156 -17568237.905433655 0 -17568237.905433655 -50486907.596675873 0 0 0 0 -52261861.411804438 -36765015.784847975 0 -36765015.784847975 -13181948.40083313 0 0 0 0 -12770920.677009344 -43739202.332661152 0 -43739202.332661152 -4413455.3999061584 0 0 0 0 3140299.3078659531 4322179.3455952033 0 4322179.3455952033 -3294346.9922434129 0 0 0 0 39274928.105360031 208229869.9843998 0 208229869.9843998 388505180.17188263 0 0 0 0 -62523642.991958618 114024353.63411522 0 114024353.63411522 360946172.29074097 0 0 0 0 114389865.98392105 189119274.73859406 0 189119274.73859406 350156649.06814575 0 0 0 0 110613089.93963432 182302261.28922939 0 182302261.28922939 373009713.33513641 0 0 0 0 118310936.90617561 196587946.54128456 0 196587946.54128456 342256111.74986267 0 0 0 0 3441783.0558051197 1826320.8750236724 0 1826320.8750236724 1083904.9412126616 0 0 0 0 -241591283.00461578 -24449451.731731415 0 -24449451.731731415 104265882.19476318 0 0 0 0 274555415.65097046 252089968.35748672 0 252089968.35748672 179715157.02912807 0 0 0 0 524563445.01471329 362579990.55261421 0 362579990.55261421 212130133.92462158 0 0 0 0 132284210.70149994 269234608.56802368 0 269234608.56802368 417904680.59435272 0 0 0 0 206314863.56769371 180103776.93577576 0 180103776.93577576 246279169.68752289 0 0 0 0 91884181.636989594 140730513.47284698 0 140730513.47284698 241701637.89495087 0 0 0 0 104064851.67079926 92853172.277690887 0 92853172.277690887 117660181.55374146 0 0 0 0 10261762.587564468 21767263.477468491 0 21767263.477468491 193906001.81866455 0 0 0 0 -49428623.463026524 8952560.6949179173 0 8952560.6949179173 289404647.88814545 0 0 0 0 29862988.98513031 105671758.79063416 0 105671758.79063416 328570358.27597809 0 0 0 0 48603516.367698669 93182185.649282455 0 93182185.649282455 308772180.69380188 0 0 0 0 -50241844.062660217 319934.91222000122 0 319934.91222000122 275711116.84113503 0 0 0 0 -9972838.8600540161 96849292.538614273 0 96849292.538614273 219060290.49157238 0 0 0 0 -11365232.04279995 79345985.162937641 0 79345985.162937641 74288396.23935318 0 0 0 0 -123678112.41191101 9594636.739648819 0 9594636.739648819 96673408.411136627 0 0 0 0 -55574473.96791029 -34779506.540070176 0 -34779506.540070176 116859519.18785477 0 0 0 0 -21801470.138655186 -391660160.53521252 0 -391660160.53521252 120977140.84298706 0 0 0 0 -16129033.668655396 240454066.65256882 0 240454066.65256882 417604505.24785995 0 0 0 0 214367714.16806126 633538548.11359024 0 633538548.11359024 1034635654.0248489 0 0 0 0 -353473558.41795206 -254634221.64571381 0 -254634221.64571381 1250012567.5201578 0 0 0 0 681655936.4286902 45906323.459041595 0 45906323.459041595 -415926340.95915985 0 0 0 0 7259499.2972408719 3557710.9290476535 0 3557710.9290476535 -5197686.9777107984 0 0 0 0 224361026.74756765 31237462.103054047 0 31237462.103054047 22738517.062820435 0 0 0 0 1368911135.0140634 427392947.50941849 0 427392947.50941849 -365619678.99067688 0 0 0 0 6556496.2013729215 2880599.1213888973 0 2880599.1213888973 -4360084.3337571081 0 0 0 0 -182455742.31216145 143995453.27859306 0 143995453.27859306 212815094.69851685 0 0 0 0 -97589107.198055267 -45979360.07003212 0 -45979360.07003212 316003468.81574059 0 0 0 0 184632592.60388184 -21349085.642173767 0 -21349085.642173767 -44455459.513736725 0 0 0 0 2787616.205888391 5408384.8970686132 0 5408384.8970686132 -3906566.838617865 0 0 0 0 31983135.788150787 -48672859.166624069 0 -48672859.166624069 -23253813.675067902 0 0 0 0 -103502517.26510572 170764655.16687393 0 170764655.16687393 190956108.84242249 0 0 0 0 152126947.92155457 -123594282.11393356 0 -123594282.11393356 63768778.332271576 0 0 0 0 -73854090.21062851 116891993.15041733 0 116891993.15041733 602908910.73966408 0 0 0 0 2997795.3321460467 1573564.4546860382 0 1573564.4546860382 -2198432.8426256161 0 0 0 0 -103384171.14845753 175686285.1441288 0 175686285.1441288 501363191.95848846 0 0 0 0 30555803.562033653 211050252.63977432 0 211050252.63977432 476331972.71212769 0 0 0 0 178472110.97204208 179250503.44408989 0 179250503.44408989 326745827.35043716 0 0 0 0 98065487.908287048 25300357.5025177 0 25300357.5025177 450739103.6789093 0 0 0 0 -15726676.625537872 107046131.94754791 0 107046131.94754791 412348973.0898819 0 0 0 0 -74519925.714378357 184089083.33959579 0 184089083.33959579 339269803.86828947 0 0 0 0 18902787.869308472 236245381.0885849 0 236245381.0885849 341407022.33099365 0 0 0 0 67035344.47632122 128135373.92447186 0 128135373.92447186 267360067.63050842 0 0 0 0 -53723084.774505615 64323856.884273529 0 64323856.884273529 251587547.53270149 0 0 0 0 4146890.3376603127 127851997.10163832 0 127851997.10163832 136020257.92921448 0 0 0 0 -108431233.58613968 106528805.06069946 0 106528805.06069946 136028580.44920731 0 0 0 0 -63959547.924766541 177360859.91046524 0 177360859.91046524 52217221.37308979 0 0 0 0 22698515.994205475 114621367.09145355 0 114621367.09145355 257792957.50961685 0 0 0 0 18127371.260412216 116083165.12383461 0 116083165.12383461 349423695.5491066 0 0 0 0 107958842.64336967 133814003.35790443 0 133814003.35790443 161373952.38674927 0 0 0 0 -15479615.399516582 53353225.016890049 0 53353225.016890049 218203200.72937775 0 0 0 0 42643303.117271423 141987437.31217957 0 141987437.31217957 119980353.57448196 0 0 0 0 61468184.384326935 87774914.918319702 0 87774914.918319702 136997368.39719963 0 0 0 0 278556784.82008076 152877472.84231567 0 152877472.84231567 87886805.465683937 0 0 0 0 115255871.83476758 164116378.16756201 0 164116378.16756201 278110658.540802 0 0 0 0 65048192.438381195 202916859.16922379 0 202916859.16922379 287356012.72816086 0 0 0 0 216839099.99680376 405590466.12262821 0 405590466.12262821 521499196.59107208 0 0 0 0 -5814882.9963560104 198308272.73420525 0 198308272.73420525 523011046.95181274 0 0 0 0 1686549.4616172854 -3139110.2041242267 0 -3139110.2041242267 4813776.671974564 0 0 0 0 -11245956.400840759 -417578519.06507492 0 -417578519.06507492 145339130.92593956 0 0 0 0 988780074.39538515 500430293.21102619 0 500430293.21102619 283121582.86674881 0 0 0 0 476295344.20384187 142914086.98343849 0 142914086.98343849 72724599.719612122 0 0 0 0 225867155.06663236 25990425.852324486 0 25990425.852324486 60446302.723316193 0 0 0 0 161021936.27635527 44223842.379823685 0 44223842.379823685 68412437.465869904 0 0 0 0 190411447.09390438 25721305.449683189 0 25721305.449683189 9565914.141254425 0 0 0 0 7559430.8752844566 -1432592.881568609 0 -1432592.881568609 12339328.979110055 0 0 0 0 143283740.33079165 -10139641.969239235 0 -10139641.969239235 -13419393.562267303 0 0 0 0 74565311.215855122 33380193.593903065 0 33380193.593903065 -40317252.745901108 0 0 0 0 39317545.732685089 82924089.220946312 0 82924089.220946312 -37994588.585769415 0 0 0 0 108165143.85227394 60380602.175237656 0 60380602.175237656 -34211608.070763588 0 0 0 0 202524382.59497833 59060000.198303223 0 59060000.198303223 -3090513.3739776611 0 0 0 0 104376550.74401593 75128165.676243782 0 75128165.676243782 -5715674.5158615112 0 0 0 0 124082847.09987354 80948057.285013199 0 80948057.285013199 65256274.925428391 0 0 0 0 136090320.5426774 136955724.72979116 0 136955724.72979116 35867466.238700867 0 0 0 0 62913033.406801224 89379028.985696793 0 89379028.985696793 5069215.9710445404 0 0 0 0 18401908.983247757 178695912.00060129 0 178695912.00060129 -33248425.399078369 0 0 0 0 -3900751.4532394409 127905314.9065361 0 127905314.9065361 -45103019.532226562 0 0 0 0 2983733.9063606262 57759907.366796494 0 57759907.366796494 18890815.740730286 0 0 0 0 -173858542.79600143 126141013.19581795 0 126141013.19581795 14006524.416194916 0 0 0 0 3436905.9700479112 7325490.2762545599 0 7325490.2762545599 2286935.037286941 0 0 0 0 21342.643165588379 20337061.684253693 0 20337061.684253693 -3975932.383102417 0 0 0 0 21381212.669674329 31548530.311907019 0 31548530.311907019 17220492.563682217 0 0 0 0 576358.59167671204 117246793.78505707 0 117246793.78505707 13608898.760489702 0 0 0 0 -2610951.9298400879 7102479.7191791534 0 7102479.7191791534 7529927.2516479492 0 0 0 0 20525911.248514511 24622836.662499554 0 24622836.662499554 3598035.831843242 0 0 0 0 3370000.5095348358 97547101.662997246 0 97547101.662997246 -28258761.786236763 0 0 0 0 79396056.991590977 131800029.81226492 0 131800029.81226492 -16992645.832157135 0 0 0 0 68899593.166615486 97733947.867723465 0 97733947.867723465 -58097354.339428902 0 0 0 0 118475560.56576538 3665077.3786010742 0 3665077.3786010742 -90221992.694992065 0 0 0 0 45779916.730094887 39512430.358908586 0 39512430.358908586 23259378.693621606 0 0 0 0 24085203.104695458 10812670.435205482 0 10812670.435205482 -15456770.65580529 0 0 0 0 37625067.141021729 25742442.640914917 0 25742442.640914917 -16510968.119987488 0 0 0 0 10797873.172679668 18303204.318035893 0 18303204.318035893 7862396.8372774795 0 0 0 0 53677183.272071838 42933109.816856384 0 42933109.816856384 -4951557.8587188721 0 0 0 0 14385430.320191704 18100213.252076752 0 18100213.252076752 16715896.693795342 0 0 0 0 51483543.973144531 21917361.403503418 0 21917361.403503418 8797318.4247169495 0 0 0 0 20252413.405418396 59418173.322839737 0 59418173.322839737 561064.65342712402 0 0 0 0 54672942.621734619 51498088.958236694 0 51498088.958236694 -16186834.063842773 0 0 0 0 57534160.453735352 68898549.565093994 0 68898549.565093994 -56921655.839766502 0 0 0 0 -119145475.05400848 185033664.53853607 0 185033664.53853607 16745150.507171631 0 0 0 0 55166160.935646519 43004131.770249672 0 43004131.770249672 19991849.152779929 0 0 0 0 90946009.254083216 26675442.712776184 0 26675442.712776184 -75093058.670563698 0 0 0 0 111824991.14089203 105751630.44617462 0 105751630.44617462 -89416494.307357788 0 0 0 0 4104609.2386542279 32374460.742365643 0 32374460.742365643 62664412.465822615 0 0 0 0 -384364.45832830295 23319964.279201731 0 23319964.279201731 66434588.419565946 0 0 0 0 -163747532.03211212 95981007.764937401 0 95981007.764937401 123566324.44851875 0 0 0 0 43820253.518371582 74899741.21228981 0 74899741.21228981 43258175.850654602 0 0 0 0 50331130.494074821 100175959.81359076 0 100175959.81359076 75646801.334533691 0 0 0 0 -14956242.548915863 131382718.28326511 0 131382718.28326511 41489929.716666505 0 0 0 0 36511766.715866089 76641575.622484684 0 76641575.622484684 38210382.757480621 0 0 0 0 19114430.960588757 13691865.80655577 0 13691865.80655577 -11378765.579103474 0 0 0 0 180692581.8351078 145148662.68144405 0 145148662.68144405 53536760.105834961 0 0 0 0 129632948.19308472 92884704.465587616 0 92884704.465587616 55415114.903338432 0 0 0 0 1087477.8414521888 -3375357.8430134347 0 -3375357.8430134347 -3462905.9441201636 0 0 0 0 178405868.33705139 123623089.56171989 0 123623089.56171989 40325401.09916687 0 0 0 0 146462000.00584412 142733154.38368225 0 142733154.38368225 50550858.46472168 0 0 0 0 157836447.90077972 138875737.54733276 0 138875737.54733276 45300346.931354523 0 0 0 0 137651370.80088043 151681769.72381592 0 151681769.72381592 102512289.56148148 0 0 0 0 247586392.17202759 157334960.36275101 0 157334960.36275101 110932046.46214676 0 0 0 0 137692671.28677115 119121441.44190621 0 119121441.44190621 99322457.244407654 0 0 0 0 545358.35106658936 18160487.790458679 0 18160487.790458679 8720966.8588409424 0 0 0 0 3614530.8723144531 27865834.943130493 0 27865834.943130493 11048915.398635864 0 0 0 0 15702168.557523996 23858500.51905559 0 23858500.51905559 16109041.882975128 0 0 0 0 16345133.184820469 5645671.9536699653 0 5645671.9536699653 -13640824.960252192 0 0 0 0 1232514.1188659668 11711119.606651306 0 11711119.606651306 13049114.076770782 0 0 0 0 4921781.8194122314 11830263.711044312 0 11830263.711044312 -130389.38874816895 0 0 0 0 5414207.5451049805 16190949.309234619 0 16190949.309234619 10822978.935150146 0 0 0 0 16445419.476400688 14725074.280106284 0 14725074.280106284 1933965.0203212257 0 0 0 0 16503904.58165741 25088982.808849335 0 25088982.808849335 11053312.67376709 0 0 0 0 133117.02535198629 998244.60742011666 0 998244.60742011666 2572581.8739227764 0 0 0 0 19528222.848016739 28477385.603972435 0 28477385.603972435 34825192.6953125 0 0 0 0 30906928.981231689 34737299.238868713 0 34737299.238868713 21388128.617717743 0 0 0 0 13817394.076644897 16584397.464660645 0 16584397.464660645 25944275.682296753 0 0 0 0 10857997.262542725 35417738.044113159 0 35417738.044113159 88683391.504821777 0 0 0 0 57601469.971359253 44415788.181312561 0 44415788.181312561 31922077.870010376 0 0 0 0 5937038.0197657794 15096287.063965935 0 15096287.063965935 22967421.243881717 0 0 0 0 31638022.518878937 37443199.189460754 0 37443199.189460754 31080485.942520142 0 0 0 0 20770220.125592794 20716105.589636844 0 20716105.589636844 -25694915.346063528 0 0 0 0 19696249.463005066 106135343.48764801 0 106135343.48764801 69885342.484481812 0 0 0 0 83196193.74773407 73623657.672193527 0 73623657.672193527 9681166.0720844269 0 0 0 0 174156065.82623291 84353786.392333984 0 84353786.392333984 67132885.98677063 0 0 0 0 100882719.89525223 116384250.35559082 0 116384250.35559082 97666711.283233643 0 0 0 0 35142989.216209412 -108205942.9499588 0 -108205942.9499588 175193293.90933228 0 0 0 0 5696690.6711825617 5381814.4109873977 0 5381814.4109873977 9123474.6700225919 0 0 0 0 6597873.8400498331 6168628.2098797336 0 6168628.2098797336 5720651.7224845886 0 0 0 0 -27825706.632141113 255992946.62787247 0 255992946.62787247 212372234.27938843 0 0 0 0 225155283.11584473 -34408416.687408447 0 -34408416.687408447 305160368.71685791 0 0 0 0 159818290.25021362 115590458.14416885 0 115590458.14416885 39002937.648620605 0 0 0 0 -428770560.36715698 -88580594.13820076 0 -88580594.13820076 26523826.543151855 0 0 0 0 2981558.5455775298 2933065.7449069247 0 2933065.7449069247 -2055559.922958836 0 0 0 0 34358220.511108398 873156160.28269958 0 873156160.28269958 -1290799280.9875793 0 0 0 0 -861384559.02545166 649212227.80671692 0 649212227.80671692 -210294966.57183123 0 0 0 0 -288209983.5569458 -104758360.1746521 0 -104758360.1746521 -242211447.66439915 0 0 0 0 -53096338.961883545 -17009715.334014893 0 -17009715.334014893 -38450153.408432007 0 0 0 0 2129230.7881421447 1338531.5243963152 0 1338531.5243963152 2395424.3612529486 0 0 0 0 -380766558.43457031 224885090.79282761 0 224885090.79282761 238701818.29467773 0 0 0 0 19154307.95905304 102342343.54181671 0 102342343.54181671 -159566192.3600769 0 0 0 0 247495009.42904663 333015712.31425476 0 333015712.31425476 -101805919.30984497 0 0 0 0 -2034178.4323883057 58812362.373947144 0 58812362.373947144 166250730.4977417 0 0 0 0 75710769.02406311 -34555531.058757782 0 -34555531.058757782 50341557.715270996 0 0 0 0 -53567177.558227539 72927491.199584961 0 72927491.199584961 -35849045.527572632 0 0 0 0 -728013395.19342041 289048184.49200439 0 289048184.49200439 -110646794.82041168 0 0 0 0 -164739253.43507767 -39592804.838869095 0 -39592804.838869095 -144271231.39974976 0 0 0 0 -233618474.24758911 422509923.64044189 0 422509923.64044189 -108964196.3401947 0 0 0 0 -241202738.70245361 121476156.29722595 0 121476156.29722595 -227444854.13398743 0 0 0 0 34508460.971908569 105521593.40093231 0 105521593.40093231 -157961277.37699127 0 0 0 0 -27824895.586181641 -49987354.483573914 0 -49987354.483573914 -494415297.83032227 0 0 0 0 26214558.402633667 21779053.78074646 0 21779053.78074646 -193052149.09166718 0 0 0 0 -42385103.954033852 -62964104.784972668 0 -62964104.784972668 -33043090.368377686 0 0 0 0 3851863.2937316895 -980184.37925720215 0 -980184.37925720215 52294552.158798218 0 0 0 0 719820.13088989258 14153538.889266968 0 14153538.889266968 33809779.999816895 0 0 0 0 -1331871.2689509392 -26215424.996285915 0 -26215424.996285915 7560475.6097717285 0 0 0 0 5933043.6272639409 6513582.0215188675 0 6513582.0215188675 3126578.6605324447 0 0 0 0 34447724.454574585 4078545.4997329712 0 4078545.4997329712 33200224.206085205 0 0 0 0 25359604.562408447 82546396.417396545 0 82546396.417396545 -96469803.476287842 0 0 0 0 1758485.6934989076 1944913.3773722537 0 1944913.3773722537 935280.30264759064 0 0 0 0 25456609.201453209 25175739.92767334 0 25175739.92767334 3782371.0812530518 0 0 0 0 151427626.98724937 256681580.19312859 0 256681580.19312859 106874799.3175354 0 0 0 0 110676572.13832855 48675042.559007645 0 48675042.559007645 -144757530.30180359 0 0 0 0 333289.6719750464 -695494.2409972921 0 -695494.2409972921 -151647.00883588381 0 0 0 0 267388337.56338501 222123149.55488586 0 222123149.55488586 -1052060826.2895494 0 0 0 0 -55073934.136810303 372963577.52461243 0 372963577.52461243 424286251.46551037 0 0 0 0 -323381176.59128189 404543541.30819893 0 404543541.30819893 -403682845.91435242 0 0 0 0 67329569.336387634 532369194.58875275 0 532369194.58875275 -461070531.99838257 0 0 0 0 35477848.125076294 85581024.236709595 0 85581024.236709595 -99666991.420303345 0 0 0 0 177086233.77113342 386599684.3151474 0 386599684.3151474 -211738196.63902283 0 0 0 0 -2613056.0210723877 521569104.19084167 0 521569104.19084167 207387589.26483154 0 0 0 0 -163846669.67636108 450459692.2991333 0 450459692.2991333 -241380471.83498383 0 0 0 0 -330746932.22842407 676494020.26257324 0 676494020.26257324 -1337489643.1236115 0 0 0 0 -453969833.21200562 -206746348.40221405 0 -206746348.40221405 -629940679.34814453 0 0 0 0 -503521032.44058228 345461372.65066528 0 345461372.65066528 -259841124.21362305 0 0 0 0 -148654024.14224243 180755405.79397583 0 180755405.79397583 -243317631.20626831 0 0 0 0 -901735490.25695801 160455866.07562256 0 160455866.07562256 16313747.459350586 0 0 0 0 -140579689.20956421 541540741.58901978 0 541540741.58901978 -519422285.49416733 0 0 0 0 -198948610.44348145 313515555.53440857 0 313515555.53440857 -531390565.44894409 0 0 0 0 -55268272.484558105 347946659.47964478 0 347946659.47964478 -327313586.00048828 0 0 0 0 -287821927.57173157 540459541.09405518 0 540459541.09405518 22095994.305206299 0 0 0 0 -650697036.4081459 928240500.0969944 0 928240500.0969944 -1155888881.6169128 0 0 0 0 -278436088.25395203 505322081.40441895 0 505322081.40441895 -168085950.49452209 0 0 0 0 3519287.582767643 2473597.6201585978 0 2473597.6201585978 -2032866.0668220818 0 0 0 0 -520539573.6902771 1000785087.3835602 0 1000785087.3835602 -1266012896.9992065 0 0 0 0 -643839718.56286621 962663818.60300446 0 962663818.60300446 -983412984.00915527 0 0 0 0 -333264509.47888184 255304251.98699951 0 255304251.98699951 113983930.37573242 0 0 0 0 -368045512.75830078 693932366.60351562 0 693932366.60351562 -868835502.73641968 0 0 0 0 -578609416.24133301 943550742.41351318 0 943550742.41351318 -1063339861.6043243 0 0 0 0 -496066111.05358887 1050683763.7624207 0 1050683763.7624207 -978196862.62765503 0 0 0 0 -523220259.25115967 701781496.91833496 0 701781496.91833496 -435298652.82800293 0 0 0 0 -610396335.79107666 1090045400.6107178 0 1090045400.6107178 -1267022385.8461761 0 0 0 0 -524451563.73181152 1049040448.5586395 0 1049040448.5586395 -1299196095.8342896 0 0 0 0 -597525302.66152954 982312551.82527161 0 982312551.82527161 -1343494753.7315674 0 0 0 0 -597898355.41121292 1037553035.6007671 0 1037553035.6007671 -1273902835.2765503 0 0 0 0 -630372021.75222778 720058516.80740356 0 720058516.80740356 -1038397780.0518646 0 0 0 0 32765327.063568115 39267120.712051392 0 39267120.712051392 -30825976.546844482 0 0 0 0 -165436805.20588684 -83071388.702659607 0 -83071388.702659607 -17398845.795352936 0 0 0 0 4164126.4345341474 3610212.7266064882 0 3610212.7266064882 -796603.35828617215 0 0 0 0 -2353048.6260070279 281422.90175245702 0 281422.90175245702 630444.73792248964 0 0 0 0 -324672425.9815979 -71373971.90499115 0 -71373971.90499115 963123.08419799805 0 0 0 0 -480210991.06013489 454323903.86398315 0 454323903.86398315 -1030527104.8125 0 0 0 0 -652936515.94302368 841782270.81939697 0 841782270.81939697 -945557502.61489868 0 0 0 0 319240.82107072324 93635.03523991257 0 93635.03523991257 -542311.7653490752 0 0 0 0 -359437701.68128967 -33642650.149833679 0 -33642650.149833679 80919777.549129486 0 0 0 0 -11093318.467697144 248999898.56454468 0 248999898.56454468 389615510.51875305 0 0 0 0 188659287.31114578 -251824965.20916748 0 -251824965.20916748 -76500428.557876587 0 0 0 0 -397339026.12825775 77171774.203765869 0 77171774.203765869 533132601.54963684 0 0 0 0 333219138.18695068 274397787.49505806 0 274397787.49505806 -132713635.48236084 0 0 0 0 5255960.3473563828 2415908.4344293475 0 2415908.4344293475 -2496025.4904420972 0 0 0 0 447445488.21743774 -106293628.15464783 0 -106293628.15464783 -29525964.725904465 0 0 0 0 -1584432.742401123 -30660675.778663635 0 -30660675.778663635 268610420.33137512 0 0 0 0 -14972.74592590332 -23377666.936157227 0 -23377666.936157227 64801849.703811646 0 0 0 0 -3081412.9009971619 81758389.791550636 0 81758389.791550636 232338134.80200195 0 0 0 0 -146279.22092437744 91096628.293960571 0 91096628.293960571 64902164.385162354 0 0 0 0 120487035.76834488 78019284.421571732 0 78019284.421571732 53443316.198608398 0 0 0 0 259616151.2769413 168567811.89755726 0 168567811.89755726 49906548.829925537 0 0 0 0 -12302198.772453308 211420627.28043747 0 211420627.28043747 53376001.014266968 0 0 0 0 -184890045.75313568 97978570.286903381 0 97978570.286903381 -138760244.92485809 0 0 0 0 70049838.457626343 123116019.50060272 0 123116019.50060272 -143330397.15313721 0 0 0 0 -43390183.736206055 190378744.99027252 0 190378744.99027252 67913280.335548401 0 0 0 0 527047.12907356024 -1138911.9895796999 0 -1138911.9895796999 -235970.70997948525 0 0 0 0 -72205927.630462646 341684469.88474274 0 341684469.88474274 -124360138.2307272 0 0 0 0 120707864.60845947 148526498.6220932 0 148526498.6220932 -330809335.34983826 0 0 0 0 212533.6622074917 -863560.24290987849 0 -863560.24290987849 -119341.03708556853 0 0 0 0 -225096411.45343018 164837134.22058105 0 164837134.22058105 549407334.97187996 0 0 0 0 -108939371.11633301 200172396.78927612 0 200172396.78927612 -154440440.28378296 0 0 0 0 228733830.63291168 152474010.26332092 0 152474010.26332092 -723093571.56253052 0 0 0 0 434862559.86193085 94745663.342819214 0 94745663.342819214 -241251377.27685547 0 0 0 0 -109611457.03559875 -172017683.26806641 0 -172017683.26806641 -73471998.165054321 0 0 0 0 -15054223.138275146 133801868.87307739 0 133801868.87307739 -240681832.60717154 0 0 0 0 -1722341.8086242676 90255625.417144775 0 90255625.417144775 -100739200.29071045 0 0 0 0 -54348101.953048706 98350625.354248047 0 98350625.354248047 24220772.672546387 0 0 0 0 18642247.575492859 19418156.351448059 0 19418156.351448059 1504897.6580505371 0 0 0 0 37095460.987976074 50676052.542686462 0 50676052.542686462 26375046.347808838 0 0 0 0 7675342.5894800108 21573185.654417381 0 21573185.654417381 5909480.0216093957 0 0 0 0 45838369.836959839 28118646.310272217 0 28118646.310272217 -364208.71310424805 0 0 0 0 29852916.120391846 27917159.739807129 0 27917159.739807129 1962163.5020751953 0 0 0 0 17357614.605670929 13830430.412288666 0 13830430.412288666 -3766920.712890625 0 0 0 0 11264855.391402464 24555359.392291784 0 24555359.392291784 603565.20265591145 0 0 0 0 18185181.601150513 10215351.514389038 0 10215351.514389038 -7022083.1735992432 0 0 0 0 7383986.6419785898 12043187.214104027 0 12043187.214104027 -8223908.2542119473 0 0 0 0 26967915.66696167 10628473.740036011 0 10628473.740036011 -4218572.6850280762 0 0 0 0 26066207.45598422 10893488.244342715 0 10893488.244342715 -1799086.7571079731 0 0 0 0 39468453.449886322 7826789.7423706055 0 7826789.7423706055 -5587976.1309204102 0 0 0 0 -6244313.8896865845 22711094.709434509 0 22711094.709434509 19128490.756668091 0 0 0 0 67672560.212722778 8268610.3822250366 0 8268610.3822250366 -6455768.2489929199 0 0 0 0 222812.04860623367 639179.86397855729 0 639179.86397855729 -764351.41736365855 0 0 0 0 22548145.692926582 22389251.164245974 0 22389251.164245974 5942687.0597547442 0 0 0 0 31615988.2603302 21416345.867630005 0 21416345.867630005 -3178078.4485778809 0 0 0 0 11763487.252429446 25784404.387216177 0 25784404.387216177 8564784.2822379917 0 0 0 0 19167948.978136063 18736547.459817886 0 18736547.459817886 2425566.973236084 0 0 0 0 114448266.00608826 51688024.609970093 0 51688024.609970093 4182178.3345031738 0 0 0 0 17659224.80056496 10864014.462649237 0 10864014.462649237 4269673.0818255544 0 0 0 0 25499274.667129517 11070394.410995483 0 11070394.410995483 8740707.5855026245 0 0 0 0 20158279.42457962 14309803.853366852 0 14309803.853366852 1572925.7633361816 0 0 0 0 31509266.00649764 23610043.440653495 0 23610043.440653495 9902736.3810840249 0 0 0 0 11566717.83073207 25464196.779137604 0 25464196.779137604 15119476.48925817 0 0 0 0 22181239.071365356 20372865.902889252 0 20372865.902889252 3306493.2708930969 0 0 0 0 21953098.666912079 24021523.665969849 0 24021523.665969849 -512793.8118057251 0 0 0 0 38033281.762493134 34236558.129346848 0 34236558.129346848 8004415.674621582 0 0 0 0 9304427.022609584 25217856.192975417 0 25217856.192975417 1262652.2104910016 0 0 0 0 12433630.16305542 37312985.716674805 0 37312985.716674805 5486607.8296356201 0 0 0 0 25230414.634328842 21605058.3647995 0 21605058.3647995 6561516.1079530716 0 0 0 0 24784587.252632622 29171234.859068487 0 29171234.859068487 6474707.6632426679 0 0 0 0 1980244.9484786987 26685829.894775391 0 26685829.894775391 22481472.38898468 0 0 0 0 9697474.4627451822 20465707.559611432 0 20465707.559611432 3143500.6840511039 0 0 0 0 42399347.413962364 28469212.556911469 0 28469212.556911469 -5031988.3767318726 0 0 0 0 38851613.974921227 46124974.390850067 0 46124974.390850067 24460437.148422241 0 0 0 0 26918532.260089874 26681566.92616272 0 26681566.92616272 1162932.2223434448 0 0 0 0 16235435.233543221 22002851.018096317 0 22002851.018096317 -3445509.345633328 0 0 0 0 49862036.173189163 30311470.483943939 0 30311470.483943939 -1631653.9947662354 0 0 0 0 33261432.114970207 27097575.523046494 0 27097575.523046494 14606138.300415039 0 0 0 0 18848010.191226963 17118205.796817511 0 17118205.796817511 -501247.73957319558 0 0 0 0 10209717.118795909 14501333.813282195 0 14501333.813282195 -5488149.3163752556 0 0 0 0 46486309.885719299 40083209.346862793 0 40083209.346862793 11778426.660247803 0 0 0 0 16290258.838305961 16904207.764178675 0 16904207.764178675 -6676642.5236054957 0 0 0 0 35227462.281169891 35729771.340911865 0 35729771.340911865 418803.34719848633 0 0 0 0 34505585.930940807 25845759.754696369 0 25845759.754696369 -4389870.3503417969 0 0 0 0 7684911.3854604792 12409179.871548176 0 12409179.871548176 -14820251.832786709 0 0 0 0 80586695.377371788 86577937.592056274 0 86577937.592056274 -5197814.841053009 0 0 0 0 -676680.72097892594 2539938.0092503875 0 2539938.0092503875 -957626.40400598943 0 0 0 0 50269218.296660662 -59926284.483837128 0 -59926284.483837128 -182544318.38998413 0 0 0 0 -65237344.644508362 205579748.27500916 0 205579748.27500916 -28154256.756462097 0 0 0 0 42450012.741800308 34973013.899116516 0 34973013.899116516 6020538.108215332 0 0 0 0 75417384.684276581 79877623.487236023 0 79877623.487236023 -24361157.064727783 0 0 0 0 42149012.626318932 38435221.198822021 0 38435221.198822021 -11615782.819274902 0 0 0 0 63329524.086550713 49497385.328796387 0 49497385.328796387 11860672.835460663 0 0 0 0 48199501.200017929 27789581.485702515 0 27789581.485702515 5529699.5257720947 0 0 0 0 66291899.603988647 17810470.371841431 0 17810470.371841431 11002722.434631348 0 0 0 0 -113911293.58567429 191410685.79037476 0 191410685.79037476 112734833.89678955 0 0 0 0 -1288803.4136225935 883225.98717140406 0 883225.98717140406 756416.37062142789 0 0 0 0 -83856621.418230057 126513733.1867218 0 126513733.1867218 5708454.2107391357 0 0 0 0 -15298570.795863628 133837013.08652115 0 133837013.08652115 -46705292.27331543 0 0 0 0 8820273.0703239441 43874155.555023193 0 43874155.555023193 45861974.315551758 0 0 0 0 -651573963.29145813 218581806.1734314 0 218581806.1734314 -312708918.60509443 0 0 0 0 16977015.848088264 169347807.98966217 0 169347807.98966217 296745612.31166077 0 0 0 0 1793288.5404617302 548268.7456664592 0 548268.7456664592 3646269.456583444 0 0 0 0 -36543784.184695244 243242602.19404221 0 243242602.19404221 -169973120.14932251 0 0 0 0 277391648.58267975 -701242444.9364624 0 -701242444.9364624 -308438168.92752075 0 0 0 0 296290510.31865907 165036623.60321236 0 165036623.60321236 2082736.5171203613 0 0 0 0 -115761466.73529339 87832739.387557983 0 87832739.387557983 242347687.85560608 0 0 0 0 207770014.33773851 -106728991.35012245 0 -106728991.35012245 -48197683.958312988 0 0 0 0 -79200364.435640335 -131376181.54142761 0 -131376181.54142761 12544265.654701233 0 0 0 0 9251224.9305953979 81405022.278030396 0 81405022.278030396 3224143.1452735662 0 0 0 0 -38819533.833366394 -29290824.859207153 0 -29290824.859207153 159507945.90221405 0 0 0 0 128753900.85896683 61570688.844657898 0 61570688.844657898 -147077301.90562439 0 0 0 0 51866819.872444153 41618936.605133057 0 41618936.605133057 5957929.2672403455 0 0 0 0 8331223.8303120332 14726226.636501592 0 14726226.636501592 -12428440.628953382 0 0 0 0 -84952613.255606651 119290642.28878784 0 119290642.28878784 80836746.035171509 0 0 0 0 52767935.333411217 44177240.206890106 0 44177240.206890106 12647227.197357178 0 0 0 0 49834093.674729109 38692558.04129982 0 38692558.04129982 16236451.888824463 0 0 0 0 49903675.503009796 39078573.076194763 0 39078573.076194763 12224885.214025974 0 0 0 0 15099716.773926605 17611269.32683076 0 17611269.32683076 -2486957.9118485749 0 0 0 0 10205442.953102522 24124271.559724268 0 24124271.559724268 -4519362.0018533468 0 0 0 0 33394836.332945466 41211667.257483959 0 41211667.257483959 -758681.0731048584 0 0 0 0 30348326.567626953 22223790.337112427 0 22223790.337112427 -7942883.6846160889 0 0 0 0 28683731.183892488 22860017.122491166 0 22860017.122491166 -18805893.806161165 0 0 0 0 51703668.615119934 97540924.689060211 0 97540924.689060211 -69468828.098268509 0 0 0 0 34874284.814297199 17836848.467811435 0 17836848.467811435 -33487910.652258106 0 0 0 0 59285669.036545753 -96655499.160927236 0 -96655499.160927236 21881260.511444092 0 0 0 0 -2360044.085773468 44823575.507583618 0 44823575.507583618 37517300.961082458 0 0 0 0 -2016194.650592804 47095061.392672539 0 47095061.392672539 6465854.2226257324 0 0 0 0 38311366.488307953 28780667.199531555 0 28780667.199531555 14453856.045497894 0 0 0 0 -43654163.38168335 62090627.131019592 0 62090627.131019592 15174331.739051819 0 0 0 0 31056918.073315706 28552663.575996339 0 28552663.575996339 -3945427.9201979004 0 0 0 0 12288290.415576935 73810276.197856903 0 73810276.197856903 -41609269.077384949 0 0 0 0 57559329.166740417 75196963.201011658 0 75196963.201011658 -2053084.1179199219 0 0 0 0 17451150.540193535 26322208.66630476 0 26322208.66630476 -1723879.2514456809 0 0 0 0 3197293.6437568665 51955817.121673584 0 51955817.121673584 -1926498.7442474365 0 0 0 0 2732542.3458139524 3525333.4177601859 0 3525333.4177601859 2424664.7183131501 0 0 0 0 66302416.077316284 43096212.540222168 0 43096212.540222168 33896769.640136719 0 0 0 0 111221672.02376556 119219413.31288147 0 119219413.31288147 -23405215.671998024 0 0 0 0 63557727.18255806 55370007.639816284 0 55370007.639816284 -3757510.496307373 0 0 0 0 6300452.8822250366 50325890.420097351 0 50325890.420097351 47277315.315917969 0 0 0 0 8031659.8228578568 42045983.796154976 0 42045983.796154976 43429286.066467285 0 0 0 0 8212829.8452148438 45225778.731964111 0 45225778.731964111 46322200.094818115 0 0 0 0 -10085875.414207458 66172802.957138062 0 66172802.957138062 15159753.44682312 0 0 0 0 17542334.132888503 22661706.900112972 0 22661706.900112972 -8703089.381188266 0 0 0 0 28322741.780784607 34041315.272926331 0 34041315.272926331 52529527.210083008 0 0 0 0 23869369.355758667 18268747.137849808 0 18268747.137849808 57839936.167572021 0 0 0 0 20298823.263938904 46887442.217948914 0 46887442.217948914 48061852.103038788 0 0 0 0 -25491676.743091583 23646851.359649658 0 23646851.359649658 -26669181.075897217 0 0 0 0 -19436380.613913536 67444980.523111343 0 67444980.523111343 31978446.997268677 0 0 0 0 47279424.532241821 86238906.722240448 0 86238906.722240448 -42452708.135749817 0 0 0 0 35037376.973552704 28648725.992593765 0 28648725.992593765 -110842731.947052 0 0 0 0 26619085.355514526 30584903.653587341 0 30584903.653587341 -27712950.205396175 0 0 0 0 111003574.5111084 63469561.606399536 0 63469561.606399536 6178121.6751098633 0 0 0 0 29416176.085376825 17634837.01790674 0 17634837.01790674 -20993135.617775444 0 0 0 0 142569502.72169495 24762011.745269775 0 24762011.745269775 -33530109.672584534 0 0 0 0 2632589.7756018005 1621657.9973559547 0 1621657.9973559547 815467.05387810618 0 0 0 0 64816132.305679321 61609130.125217438 0 61609130.125217438 52986403.165351868 0 0 0 0 5868296.8432767764 -6605671.3731850786 0 -6605671.3731850786 -7781809.4198591691 0 0 0 0 -29848912.377593994 -23135860.777137756 0 -23135860.777137756 -27835995.65145874 0 0 0 0 34363156.599081062 9655983.1592870727 0 9655983.1592870727 -15675375.486894719 0 0 0 0 2279343.0538864136 15588985.80888176 0 15588985.80888176 12539767.648750305 0 0 0 0 27385988.925764084 40673258.601655006 0 40673258.601655006 -222896.89181900024 0 0 0 0 249887493.01905251 -41950793.563798904 0 -41950793.563798904 -34309542.938156128 0 0 0 0 -23170124.83385849 30726721.700668335 0 30726721.700668335 31824440.961248398 0 0 0 0 1915425.4797964823 1823634.0950708911 0 1823634.0950708911 -1484485.9144414701 0 0 0 0 22778427.039489746 -14263324.023700714 0 -14263324.023700714 20122824.949260712 0 0 0 0 109935702.12531281 -6911922.0139160156 0 -6911922.0139160156 -44060184.684043884 0 0 0 0 85431310.611549377 47232826.581977844 0 47232826.581977844 -104844147.89615631 0 0 0 0 -31714965.664234161 53975023.183872223 0 53975023.183872223 -8920188.8453826904 0 0 0 0 228380166.8494339 332642547.88749599 0 332642547.88749599 -106762984.88450956 0 0 0 0 8848528.6382997259 8589152.7144439947 0 8589152.7144439947 -7491992.1527356133 0 0 0 0 21003640.119622082 12438763.813758736 0 12438763.813758736 -22234751.806701291 0 0 0 0 355041777.67338562 -42523732.900137424 0 -42523732.900137424 146482751.4173913 0 0 0 0 207001160.95970154 420907602.30520248 0 420907602.30520248 -266609275.29965186 0 0 0 0 339937773.70657587 107026172.41791099 0 107026172.41791099 -563307313.44595242 0 0 0 0 -131109053.56804466 -28460999.877444983 0 -28460999.877444983 90346048.702041626 0 0 0 0 141411847.32355499 128707817.07053486 0 128707817.07053486 -218094030.24792224 0 0 0 0 89039737.822873116 11091658.895939529 0 11091658.895939529 24290467.219655991 0 0 0 0 6850991.7896157475 3658559.2624655236 0 3658559.2624655236 65809.091008328833 0 0 0 0 106131885.04624176 20972386.955940187 0 20972386.955940187 -117053599.7300384 0 0 0 0 15240345.715900421 98722362.822900772 0 98722362.822900772 653476479.79306734 0 0 0 0 120460895.81900024 127974640.29453194 0 127974640.29453194 -69385542.226638794 0 0 0 0 88398252.343900204 -212551579.46591616 0 -212551579.46591616 -166718743.93245602 0 0 0 0 -101480588.11391544 191003685.44150257 0 191003685.44150257 -44520474.353250504 0 0 0 0 22499383.267954748 22820439.317480162 0 22820439.317480162 14548752.906116929 0 0 0 0 51230583.661819458 180444254.8783102 0 180444254.8783102 -197709929.25020421 0 0 0 0 142818349.5030365 12504465.037913322 0 12504465.037913322 8249705.1078939438 0 0 0 0 167425588.3556366 72602665.320642471 0 72602665.320642471 -113104605.45409584 0 0 0 0 60698404.336154699 73133269.812547207 0 73133269.812547207 16403782.256196976 0 0 0 0 20638089.756218921 39469693.837449349 0 39469693.837449349 21712657.623057816 0 0 0 0 73707879.387359619 84197154.168371201 0 84197154.168371201 -39328436.01250267 0 0 0 0 -43754667.536582947 130839445.52762604 0 130839445.52762604 -15452284.268297195 0 0 0 0 9450514.8393019754 17326868.178853892 0 17326868.178853892 23168.294030629098 0 0 0 0 -1235521.3900299072 24559950.563861847 0 24559950.563861847 9849804.2974662781 0 0 0 0 28344075.666837178 39159549.852531664 0 39159549.852531664 19760793.933456898 0 0 0 0 16241289.63599968 21138800.439050674 0 21138800.439050674 -10547393.881011963 0 0 0 0 23174979.124183655 23447474.607254028 0 23447474.607254028 1390579.471786499 0 0 0 0 25643372.230527878 29930642.960166931 0 29930642.960166931 2448811.7360992432 0 0 0 0 24607666.387463503 29710124.648291405 0 29710124.648291405 8297320.0002910122 0 0 0 0 48343288.087983131 42624492.159937859 0 42624492.159937859 676206.59255981445 0 0 0 0 28120727.102215935 40512231.173289798 0 40512231.173289798 -11136627.5871138 0 0 0 0 23680492.32069397 31762453.201301575 0 31762453.201301575 6555059.3384246826 0 0 0 0 43283300.43536377 18468021.157730103 0 18468021.157730103 25201370.389953613 0 0 0 0 36148700.926021993 6491469.3992800042 0 6491469.3992800042 -43943267.519022718 0 0 0 0 1750582.6409351071 1125407.3096395098 0 1125407.3096395098 716423.10546595603 0 0 0 0 26655228.723107778 24726135.39465791 0 24726135.39465791 -15873174.253347604 0 0 0 0 34688750.350812912 29524014.738330841 0 29524014.738330841 -29110097.896842957 0 0 0 0 25175815.006446838 54393969.2774086 0 54393969.2774086 -25759361.032039642 0 0 0 0 62776807.604797363 32354146.807067871 0 32354146.807067871 33038046.255187988 0 0 0 0 44889352.32465744 60239924.021263123 0 60239924.021263123 -3063701.2903442383 0 0 0 0 7092885.4225654602 38838934.585536957 0 38838934.585536957 9521501.9232177734 0 0 0 0 45807634.99080658 56997104.343788147 0 56997104.343788147 7658773.2718505859 0 0 0 0 2096480.5615701014 1471938.1588599291 0 1471938.1588599291 842364.65326244757 0 0 0 0 21447196.881168917 24181873.952295326 0 24181873.952295326 -17182434.272741493 0 0 0 0 12486848.138748292 22752451.512915544 0 22752451.512915544 12686974.742437383 0 0 0 0 30852164.320522308 46560628.894064903 0 46560628.894064903 73585027.070962906 0 0 0 0 62489729.194259644 178843345.7309761 0 178843345.7309761 116222896.94401538 0 0 0 0 55197941.515090942 229263533.49346542 0 229263533.49346542 454521619.97731447 0 0 0 0 143244.03826904297 176551669.30665016 0 176551669.30665016 404399910.9770813 0 0 0 0 -5961518.6896290183 1736950.3436209373 0 1736950.3436209373 10852460.705111429 0 0 0 0 70738011.204395294 147317020.73803043 0 147317020.73803043 225147848.05064011 0 0 0 0 6813036.6551207006 3220298.3915753341 0 3220298.3915753341 -6190061.0737084523 0 0 0 0 816356.57342529297 18192000.732257843 0 18192000.732257843 37986992.753833771 0 0 0 0 -11348800.574604064 7240041.5892147068 0 7240041.5892147068 10099227.106283788 0 0 0 0 5564994.4194488525 23430083.1204319 0 23430083.1204319 43254217.226066589 0 0 0 0 114495403.32058716 43598420.982561111 0 43598420.982561111 109835404.6361618 0 0 0 0 41745823.525466919 168182937.24655342 0 168182937.24655342 305457866.20695496 0 0 0 0 -11693356.764678955 254049164.63847637 0 254049164.63847637 843911215.05205917 0 0 0 0 290031045.1060791 449661089.31536102 0 449661089.31536102 350032134.30777144 0 0 0 0 249096063.52455521 164247262.33524251 0 164247262.33524251 -105470944.74321747 0 0 0 0 616089.42680384219 751017.76242266223 0 751017.76242266223 3354503.5995922433 0 0 0 0 98928151.000686646 578387919.73650885 0 578387919.73650885 719174282.33288002 0 0 0 0 176033407.86000061 58981888.951318741 0 58981888.951318741 596407287.36950207 0 0 0 0 -8687594.4454469681 243531725.75224417 0 243531725.75224417 533622416.74312782 0 0 0 0 -75665.282806396484 209116937.50285816 0 209116937.50285816 461291540.83665466 0 0 0 0 -120585.46894836426 183508878.83127642 0 183508878.83127642 292512041.86232662 0 0 0 0 -44423805.861816406 77282517.669754982 0 77282517.669754982 550121069.66686261 0 0 0 0 100833.01161193848 141459262.66330409 0 141459262.66330409 -166783139.5735178 0 0 0 0 -54513996.249328613 28354917.33567369 0 28354917.33567369 230059666.02318138 0 0 0 0 -32560713.38051796 153532549.97076684 0 153532549.97076684 109142338.62872791 0 0 0 0 -1111295311.8672485 -370803525.84779501 0 -370803525.84779501 -177832120.16973972 0 0 0 0 -321461545.44099426 94456338.311927557 0 94456338.311927557 -860839.04821968079 0 0 0 0 -18761286.76361084 182814062.09356391 0 182814062.09356391 -302601215.58199048 0 0 0 0 -169196228.41627502 -102010128.53401518 0 -102010128.53401518 -233746454.2604475 0 0 0 0 -231083193.54891968 153112789.08836365 0 153112789.08836365 229931224.48285913 0 0 0 0 -291039551.19070435 188113891.09705591 0 188113891.09705591 214445002.31177425 0 0 0 0 -89561471.184844971 320892730.37488937 0 320892730.37488937 389425252.13909245 0 0 0 0 -97009969.896820068 34899268.345629692 0 34899268.345629692 317543604.44419384 0 0 0 0 18395139.442176819 214861552.04635477 0 214861552.04635477 442443969.21992683 0 0 0 0 -47239493.261016846 268039343.94208622 0 268039343.94208622 447684271.30083656 0 0 0 0 321806252.09667206 421508002.77770948 0 421508002.77770948 501307858.4500351 0 0 0 0 59457446.387084961 451478435.39429569 0 451478435.39429569 568543486.80284309 0 0 0 0 124268577.3140564 425353822.81264973 0 425353822.81264973 409860745.16989899 0 0 0 0 193987799.88839722 557625782.26920605 0 557625782.26920605 337358860.05320549 0 0 0 0 60652648.366882324 497631859.1119833 0 497631859.1119833 329194349.37797928 0 0 0 0 104383252.43893433 355166034.73643875 0 355166034.73643875 224958161.69722605 0 0 0 0 332312747.94903564 480783841.75454712 0 480783841.75454712 180432005.32715607 0 0 0 0 338987144.5894165 694812786.90978718 0 694812786.90978718 309315211.97762299 0 0 0 0 -58800176.940155029 788245975.37686634 0 788245975.37686634 559863117.84766293 0 0 0 0 -4971304.5703544617 540966839.15967679 0 540966839.15967679 467314157.625494 0 0 0 0 -145479382.35717773 476389400.81839466 0 476389400.81839466 440749939.02919006 0 0 0 0 -265587883.98905182 469322945.56279707 0 469322945.56279707 516649440.89814186 0 0 0 0 -667926747.30529785 228711348.52675414 0 228711348.52675414 393691259.29192209 0 0 0 0 -462912496.26295471 689084701.37558818 0 689084701.37558818 535925322.33755159 0 0 0 0 -222821120.79193115 583603631.61146307 0 583603631.61146307 498420566.7780304 0 0 0 0 96351713.969360352 1094839042.8122203 0 1094839042.8122203 955333333.98100376 0 0 0 0 -300344299.79951477 440331448.88223505 0 440331448.88223505 722649884.00954437 0 0 0 0 -178913957.43628693 372012039.81523681 0 372012039.81523681 59065217.849413872 0 0 0 0 -799876200.3918457 635215133.80260825 0 635215133.80260825 -49411516.424326658 0 0 0 0 1541697498.4032898 2517187760.4516177 0 2517187760.4516177 1403237184.6013162 0 0 0 0 -562722062.927948 -118907010.80823231 0 -118907010.80823231 2274312049.8911037 0 0 0 0 -871974313.38043976 1189118717.9613957 0 1189118717.9613957 972627702.14437485 0 0 0 0 1620003911.451355 -1688473293.8155293 0 -1688473293.8155293 815664608.59323263 0 0 0 0 655348444.44888306 1720860250.1366889 0 1720860250.1366889 2088809182.7551916 0 0 0 0 2326712364.0760803 1034583010.5615509 0 1034583010.5615509 144079292.96313667 0 0 0 0 1121000585.3724365 926370723.47934675 0 926370723.47934675 243745087.24636841 0 0 0 0 894066270.45880127 646931659.5218811 0 646931659.5218811 109424978.66086674 0 0 0 0 2143068860.9652061 -59474303.156634808 0 -59474303.156634808 -28472994.710348129 0 0 0 0 878882459.3110199 710273666.78910971 0 710273666.78910971 -1742923.2312889099 0 0 0 0 1651949601.2514038 -759483212.30624676 0 -759483212.30624676 775161512.44163704 0 0 0 0 -5836071.5762731954 3203572.2446496263 0 3203572.2446496263 9248675.6912351102 0 0 0 0 -18965389.761474609 -308844912.65016937 0 -308844912.65016937 567470450.92680359 0 0 0 0 1253036524.6501465 -167746052.0657177 0 -167746052.0657177 -56340957.67804718 0 0 0 0 -100032810.17089844 82560763.521380424 0 82560763.521380424 126373292.32356071 0 0 0 0 1852546.1088490188 16523358.511741489 0 16523358.511741489 15083963.579227094 0 0 0 0 -875737.44484215975 1697615.8691277429 0 1697615.8691277429 908961.30603070278 0 0 0 0 346707872.67272949 -352742263.71996403 0 -352742263.71996403 -57341795.987586975 0 0 0 0 45491544.740234375 128556903.0069809 0 128556903.0069809 -274649741.39785194 0 0 0 0 365525709.24261475 675527489.463377 0 675527489.463377 170384995.48299122 0 0 0 0 809558549.99255371 242352892.58239555 0 242352892.58239555 -57853435.560894012 0 0 0 0 1450542467.8778076 301622521.98807526 0 301622521.98807526 -177812211.76789856 0 0 0 0 662040331.14349365 174536599.69329071 0 174536599.69329071 -84887019.760238647 0 0 0 0 162793234.06689453 147733146.50739098 0 147733146.50739098 45428506.522346497 0 0 0 0 293345343.95153809 403302746.52214622 0 403302746.52214622 47510430.603414536 0 0 0 0 703732118.76912308 568701629.05890465 0 568701629.05890465 97568612.749202728 0 0 0 0 177535422.53082275 235408716.53053665 0 235408716.53053665 143562844.52940369 0 0 0 0 424800350.28317261 297169122.02546692 0 297169122.02546692 73774962.376316071 0 0 0 0 129170227.89321899 187528124.47849274 0 187528124.47849274 96178764.847799778 0 0 0 0 100769026.30950928 36513384.442600131 0 36513384.442600131 -31623560.659311295 0 0 0 0 159497419.39109421 160603321.17842054 0 160603321.17842054 21192001.076820374 0 0 0 0 -96333584.176574707 17963064.560029984 0 17963064.560029984 103419897.89771748 0 0 0 0 -38087862.412567139 -7748348.057012558 0 -7748348.057012558 70577719.188158035 0 0 0 0 4151681.0363311768 74409016.084443569 0 74409016.084443569 120455212.37617874 0 0 0 0 -21775488.237976074 69144276.639499664 0 69144276.639499664 102989914.51923752 0 0 0 0 42325831.590164185 171525026.94796753 0 171525026.94796753 257125515.73381042 0 0 0 0 -32651249.106916711 -9081723.2871787846 0 -9081723.2871787846 38761241.703349456 0 0 0 0 -10384238.843902588 -24592619.04391861 0 -24592619.04391861 30480302.315156937 0 0 0 0 -52392740.116111755 21458804.050174236 0 21458804.050174236 191014277.51545715 0 0 0 0 -5915786.5841217041 73995533.366805077 0 73995533.366805077 140710602.17590523 0 0 0 0 78034640.291442871 154150878.27383232 0 154150878.27383232 196281955.56558609 0 0 0 0 6203372.7216644287 199035525.09635496 0 199035525.09635496 406523170.5219841 0 0 0 0 -47436343.827667236 111549470.63033295 0 111549470.63033295 290687667.28121185 0 0 0 0 -58406547.916900635 127728808.22455788 0 127728808.22455788 1159857471.4393196 0 0 0 0 -6116936.2931266427 12431777.589319231 0 12431777.589319231 18821326.634396806 0 0 0 0 8576722.5978088379 101257931.54455185 0 101257931.54455185 287561645.41129303 0 0 0 0 31820634.119384766 66972450.296699524 0 66972450.296699524 14487929.344619751 0 0 0 0 -14673014.978047416 15941101.896803943 0 15941101.896803943 12777242.029248115 0 0 0 0 -11528349.785446167 33249374.379601479 0 33249374.379601479 20571963.846183777 0 0 0 0 -2570525.2899169922 39386362.356513977 0 39386362.356513977 45088415.55519104 0 0 0 0 -5542619.1203359291 29336693.424262978 0 29336693.424262978 21025664.788663015 0 0 0 0 -76482411.043289185 99813158.186193466 0 99813158.186193466 120622006.50122833 0 0 0 0 -27247711.265655518 12175865.351966858 0 12175865.351966858 118789239.20113564 0 0 0 0 17664400.245982334 10048646.874373592 0 10048646.874373592 -13646261.536567088 0 0 0 0 11470257.735336304 30843954.358600616 0 30843954.358600616 23410105.790016174 0 0 0 0 1897234.2648567408 41502299.452323347 0 41502299.452323347 -23196805.084603701 0 0 0 0 8521001.9355773926 144936605.97007751 0 144936605.97007751 710471143.92562866 0 0 0 0 91804285.422058105 480218056.84382629 0 480218056.84382629 553573399.73405075 0 0 0 0 1240371.8548167646 43315754.078026719 0 43315754.078026719 -6345187.0277542081 0 0 0 0 -147420171.05004883 481125431.16403198 0 481125431.16403198 1163083168.108139 0 0 0 0 -248603355.16229248 -236129648.33273315 0 -236129648.33273315 232026675.6917572 0 0 0 0 -8769214.2613220215 26909671.548988342 0 26909671.548988342 12358305.151109695 0 0 0 0 -9395761.6994289309 11122748.902693132 0 11122748.902693132 24229940.983733494 0 0 0 0 42593686.364059448 -35322804.661762238 0 -35322804.661762238 354669627.06351852 0 0 0 0 -392395.56041148305 49823261.826899841 0 49823261.826899841 5866566.3829654222 0 0 0 0 4414737.5984954834 33443117.880691528 0 33443117.880691528 -5527737.9798774719 0 0 0 0 -36986965.661979586 -16607077.240749337 0 -16607077.240749337 68010213.965562433 0 0 0 0 4247316.3823490292 39337605.117472768 0 39337605.117472768 -3801440.9162349692 0 0 0 0 -28666120.665359497 -177524343.11756134 0 -177524343.11756134 250246335.16679382 0 0 0 0 -2146780.2143554688 9404887.5296096802 0 9404887.5296096802 31750554.492946625 0 0 0 0 105574072.64958191 -117913402.82464218 0 -117913402.82464218 -245172594.64030457 0 0 0 0 -2432869.0749230683 45587323.630397864 0 45587323.630397864 -12770590.914189 0 0 0 0 -3020170.1317560971 -731142.38326834515 0 -731142.38326834515 8734665.5996843949 0 0 0 0 251819064.39050293 -252600743.9173584 0 -252600743.9173584 508480552.06794739 0 0 0 0 176267126.24661255 401001731.29549408 0 401001731.29549408 314431512.61375427 0 0 0 0 931720.01683288813 43488529.748643845 0 43488529.748643845 13217206.283718806 0 0 0 0 2709906.8439254761 23976327.148866653 0 23976327.148866653 -15069303.999416351 0 0 0 0 162745442.91874695 344807391.53645325 0 344807391.53645325 213167349.00131226 0 0 0 0 2152281.1251992136 45964186.347064629 0 45964186.347064629 -18219455.671667859 0 0 0 0 364153058.12646484 447151325.16394043 0 447151325.16394043 252196762.30227661 0 0 0 0 -17481582.653930664 234455632.58317566 0 234455632.58317566 352291321.92735291 0 0 0 0 -272321860.93206787 495308010.00358582 0 495308010.00358582 748038682.29183197 0 0 0 0 -240318595.75466919 244239323.11233521 0 244239323.11233521 1314064335.3507462 0 0 0 0 122371027.11524963 55462629.800563812 0 55462629.800563812 980963972.29925537 0 0 0 0 -152465464.0524292 106416179.67033386 0 106416179.67033386 940105314.48600769 0 0 0 0 -8920964.0661315918 48004949.526794434 0 48004949.526794434 1371354031.9910889 0 0 0 0 -19638757.416900635 278191594.78242493 0 278191594.78242493 1085211908.7700195 0 0 0 0 60862815.170654297 120668264.59992981 0 120668264.59992981 1729036104.1490784 0 0 0 0 26560825.134620667 -93174483.903486252 0 -93174483.903486252 1337169330.9613037 0 0 0 0 40166342.060028076 98548553.14982605 0 98548553.14982605 980141823.55551147 0 0 0 0 -129184462.72386169 -80579688.866455078 0 -80579688.866455078 1605941997.9146423 0 0 0 0 1674067.3417519778 37527336.694240361 0 37527336.694240361 -18557396.243195411 0 0 0 0 -184435903.87426758 44913239.384063721 0 44913239.384063721 1456258785.4220657 0 0 0 0 -99597899.360015869 -86949329.477584839 0 -86949329.477584839 1390769914.2886963 0 0 0 0 46714258.606384277 8230340.7331390381 0 8230340.7331390381 1452610585.8782501 0 0 0 0 -20240464.930938721 -118385124.20599747 0 -118385124.20599747 1436763486.1306763 0 0 0 0 -456889.56119641662 34938567.45232214 0 34938567.45232214 -6796182.6808855906 0 0 0 0 -269368215.22024536 10280780.984428406 0 10280780.984428406 22149008.963310242 0 0 0 0 71113130.368133545 -23977443.766967773 0 -23977443.766967773 2260509969.552124 0 0 0 0 251296939.59008789 463804449.70916748 0 463804449.70916748 1717576999.0887299 0 0 0 0 37446102.355621338 -223187137.85771179 0 -223187137.85771179 1978866795.1241684 0 0 0 0 7163162.7328166142 40882677.181264125 0 40882677.181264125 -13720740.522211375 0 0 0 0 38181578.748016357 89811035.91784668 0 89811035.91784668 88620083.41317749 0 0 0 0 -54554903.449752808 156353085.44548416 0 156353085.44548416 41037081.563316822 0 0 0 0 -172393041.16346741 83575252.018177032 0 83575252.018177032 70654106.818954468 0 0 0 0 -68705826.226959229 -28900709.212966919 0 -28900709.212966919 2483225.3898925781 0 0 0 0 -81494058.764678955 214248241.67480469 0 214248241.67480469 -90222796.434963226 0 0 0 0 106970808.10261536 40830204.243831635 0 40830204.243831635 35351136.400939941 0 0 0 0 34825108.518249512 87668447.302894592 0 87668447.302894592 19716458.239929199 0 0 0 0 -34774006.130477905 123957089.38654327 0 123957089.38654327 248321152.65013123 0 0 0 0 15203240.532348633 9724918.8072509766 0 9724918.8072509766 22467191.848892212 0 0 0 0 -5655544.3497208655 8994502.9890486598 0 8994502.9890486598 32925271.473949343 0 0 0 0 105696483.77749634 36348407.038589478 0 36348407.038589478 20059215.129302979 0 0 0 0 758984.16366098076 2317534.1914092191 0 2317534.1914092191 -1228235.0645874031 0 0 0 0 -41285776.075553894 83060658.043076515 0 83060658.043076515 233228227.67001724 0 0 0 0 -9516542.1164245605 178226877.48891068 0 178226877.48891068 261343274.7598114 0 0 0 0 -108976324.94517899 160557325.86996794 0 160557325.86996794 484425140.48693085 0 0 0 0 65014056.000892639 264099183.09021568 0 264099183.09021568 360018907.06546402 0 0 0 0 -9621608.8218442351 4512093.1639401689 0 4512093.1639401689 5920239.7536500245 0 0 0 0 -41582022.966323853 145139918.55711365 0 145139918.55711365 338167218.35546494 0 0 0 0 -87581089.361984253 94922214.676589966 0 94922214.676589966 310024658.59075928 0 0 0 0 153789414.87692261 122288799.26237297 0 122288799.26237297 121847365.64466858 0 0 0 0 -7941900.8317433596 7910214.1124587245 0 7910214.1124587245 10606613.073931418 0 0 0 0 -16428368.153686523 10213913.222639084 0 10213913.222639084 20934001.168513298 0 0 0 0 -18073945.415634155 210327776.32516289 0 210327776.32516289 401617201.64782715 0 0 0 0 361491802.60043335 272804636.7655983 0 272804636.7655983 207631271.66184998 0 0 0 0 -17682623.729576111 299037995.11263084 0 299037995.11263084 802550290.05879211 0 0 0 0 -71715369.741363525 114207325.86898804 0 114207325.86898804 335350409.70288086 0 0 0 0 27384705.109573364 -68929595.677013397 0 -68929595.677013397 72589084.887908936 0 0 0 0 -35141475.233080864 1400105.8025979325 0 1400105.8025979325 30809909.429962493 0 0 0 0 38765143.90524292 352387647.0321579 0 352387647.0321579 567295271.29820251 0 0 0 0 -74947395.241363525 -47884721.43957901 0 -47884721.43957901 514524487.63374662 0 0 0 0 -10863860.391816225 -7816994.3538774699 0 -7816994.3538774699 9647592.1352516338 0 0 0 0 -20837191.20791626 16588028.764088154 0 16588028.764088154 17455705.193706512 0 0 0 0 -58113861.407852173 22052104.575122833 0 22052104.575122833 46988293.864082336 0 0 0 0 -108543688.8291626 46429016.084468842 0 46429016.084468842 80875760.20621109 0 0 0 0 -12086566.588532746 14302353.055824086 0 14302353.055824086 33759094.892151102 0 0 0 0 -14870658.926971436 8399638.8360004425 0 8399638.8360004425 13284049.220961094 0 0 0 0 -2976994.1520690918 10601529.219547272 0 10601529.219547272 14969707.299816132 0 0 0 0 -15020590.97354126 10337715.434497833 0 10337715.434497833 20063764.974593163 0 0 0 0 2234734842.3553314 626955589.33029914 0 626955589.33029914 -992995750.21586227 0 0 0 0 -5235568.0696105957 14528631.956977844 0 14528631.956977844 17188895.679848671 0 0 0 0 -3537919686.6217041 -1680414346.5457573 0 -1680414346.5457573 566199456.57290268 0 0 0 0 -27136228.880386353 12537161.181414366 0 12537161.181414366 16383031.510713577 0 0 0 0 -21141990.274902329 13118207.682265153 0 13118207.682265153 14145344.132829782 0 0 0 0 -325966053.0690918 1212022445.4547501 0 1212022445.4547501 -33466930.580824852 0 0 0 0 -843201673.48522949 624471860.48360729 0 624471860.48360729 1264680204.2134876 0 0 0 0 -847952668.38586426 683903198.67955875 0 683903198.67955875 543621002.30042744 0 0 0 0 -1785262548.0969181 -735144709.60216868 0 -735144709.60216868 71432588.401912689 0 0 0 0 -1978942702.3422852 706017752.75675869 0 706017752.75675869 883634651.224123 0 0 0 0 -4347179.4903089404 8911625.731347613 0 8911625.731347613 -2257221.8259535572 0 0 0 0 -160002782.58505249 -928454320.96809149 0 -928454320.96809149 -1088250707.6647015 0 0 0 0 156683039.00042725 61854457.852576256 0 61854457.852576256 117313081.91782439 0 0 0 0 664784750.95158005 1042902705.5791856 0 1042902705.5791856 1279550845.3200412 0 0 0 0 607867483.19712067 854243849.7743901 0 854243849.7743901 1478673276.9115376 0 0 0 0 511856435.1217041 -453542591.92070997 0 -453542591.92070997 548018142.73249614 0 0 0 0 -398177410.07855225 -376040211.22806299 0 -376040211.22806299 589041555.45533466 0 0 0 0 881217025.86026001 1189490488.9254723 0 1189490488.9254723 1048723282.0677905 0 0 0 0 -1127517780.6811333 2451746648.4049611 0 2451746648.4049611 951750641.42070293 0 0 0 0 -727115058.79742432 1116209835.4844456 0 1116209835.4844456 476408007.11449265 0 0 0 0 -675375483.73627615 934273704.02194083 0 934273704.02194083 793588195.08695984 0 0 0 0 -660195215.4541626 161243854.84625471 0 161243854.84625471 704212338.35281253 0 0 0 0 48817172.138015747 22359275.471450806 0 22359275.471450806 -23519090.617379189 0 0 0 0 -718033741.56416321 110126840.09476662 0 110126840.09476662 380790006.30003786 0 0 0 0 -290012301.53897095 -220490292.97756481 0 -220490292.97756481 340073684.45425498 0 0 0 0 -55709673.882095337 -210522327.14552736 0 -210522327.14552736 -579941103.3682251 0 0 0 0 -16307820.248550192 21367639.595587589 0 21367639.595587589 -2832907.0853242655 0 0 0 0 -203689573.38046265 413816475.34938008 0 413816475.34938008 507777226.11160064 0 0 0 0 -304476276.61339569 -83667961.345204592 0 -83667961.345204592 -23394979.882398605 0 0 0 0 215047467.5213623 714125536.41862488 0 714125536.41862488 -679877188.89175797 0 0 0 0 -308286788.21081543 164932002.71946907 0 164932002.71946907 295400863.88231468 0 0 0 0 -301275978.69390869 203211155.68412971 0 203211155.68412971 493470207.42604256 0 0 0 0 -11834663.09061569 17280502.199515026 0 17280502.199515026 11000138.913700545 0 0 0 0 -1299272.8526029587 21353470.619371653 0 21353470.619371653 28254102.741048813 0 0 0 0 -5802229.5331573486 10426612.767526627 0 10426612.767526627 20893627.750707626 0 0 0 0 1313072.4295018464 20263918.55818348 0 20263918.55818348 8832387.992438361 0 0 0 0 2464206.3822631836 20706081.719933271 0 20706081.719933271 23943179.478630066 0 0 0 0 -11106463.873308502 1978271.0854646191 0 1978271.0854646191 3593719.8659362486 0 0 0 0 -275281397.34228516 -303316656.51111603 0 -303316656.51111603 79482475.3776474 0 0 0 0 -247099095.00286865 -422390799.89278412 0 -422390799.89278412 552970041.02523804 0 0 0 0 -1288494325.3890686 773491805.92497253 0 773491805.92497253 -388293472.9598465 0 0 0 0 -201748378.53173065 -889687842.0840168 0 -889687842.0840168 -2540932255.5026855 0 0 0 0 -3648562.8015434444 4250149.4840053767 0 4250149.4840053767 3286960.1390558332 0 0 0 0 1090422.0783536732 2305701.583932668 0 2305701.583932668 -236065.97892323881 0 0 0 0 -215072820.85020447 301568987.90373993 0 301568987.90373993 -2361459939.3666534 0 0 0 0 2712188349.9306488 1565404254.0154457 0 1565404254.0154457 -716472757.06755066 0 0 0 0 2501200.9139230549 -4535368.2731104493 0 -4535368.2731104493 4796231.2386683002 0 0 0 0 1787629789.8199806 2003667936.0492716 0 2003667936.0492716 -530703364.79753876 0 0 0 0 -1230549341.6512146 -1985557440.2360878 0 -1985557440.2360878 900859717.77052307 0 0 0 0 -1150039338.0961876 -574141795.06828189 0 -574141795.06828189 395393381.97480774 0 0 0 0 -1295774354.3477516 551373949.52915764 0 551373949.52915764 -1169888113.9389267 0 0 0 0 -655830844.40594482 -485903716.94812393 0 -485903716.94812393 404349020.17322016 0 0 0 0 -82071182.049621582 600737503.67458344 0 600737503.67458344 -435449744.64137268 0 0 0 0 -79223215.708343506 356646937.46122742 0 356646937.46122742 -3000963145.1835556 0 0 0 0 -1521716042.0637589 698862826.02892685 0 698862826.02892685 -67606520.670959473 0 0 0 0 118001033.3843689 -354557038.18363571 0 -354557038.18363571 536531147.83719349 0 0 0 0 517391738.54632568 1214017544.7491188 0 1214017544.7491188 -24680824.005320549 0 0 0 0 -81604151.939788818 -88062218.174827218 0 -88062218.174827218 1777422137.9723783 0 0 0 0 -1532783.207929729 366983.14011651278 0 366983.14011651278 1103365.0601260029 0 0 0 0 -279128899.36172485 229350038.40104079 0 229350038.40104079 790808252.23926926 0 0 0 0 10482890.119672805 17038410.937006123 0 17038410.937006123 -8607130.5580947455 0 0 0 0 -598127333.46228027 138506327.7905407 0 138506327.7905407 1726527075.2501869 0 0 0 0 505291762.58236885 1005254120.5070421 0 1005254120.5070421 1529226866.0931282 0 0 0 0 -444536395.24325562 -237019371.88543952 0 -237019371.88543952 735340690.69154394 0 0 0 0 -213045932.39045715 107334601.72224689 0 107334601.72224689 1013358582.1284487 0 0 0 0 153707907.0184021 -297733227.82078898 0 -297733227.82078898 289104662.14975727 0 0 0 0 3681267.381653443 6305586.2179165855 0 6305586.2179165855 -3067452.161278828 0 0 0 0 80928617.041015625 23467644.506364822 0 23467644.506364822 -189966171.9439106 0 0 0 0 79305100.856140137 7216019.0843429565 0 7216019.0843429565 -85677343.503087997 0 0 0 0 52574461.842254639 -6638361.6849746704 0 -6638361.6849746704 -8650763.993894577 0 0 0 0 415240.26383298356 20021170.272552446 0 20021170.272552446 -5901142.9575903285 0 0 0 0 18205138.241690636 33706163.546502888 0 33706163.546502888 -45481755.705907822 0 0 0 0 -40169189.992440224 139166354.5782423 0 139166354.5782423 -173281557.51345062 0 0 0 0 619883236.34518433 197866445.56523514 0 197866445.56523514 -252784887.11205292 0 0 0 0 -420233.05376360565 2720995.9467814863 0 2720995.9467814863 2319707.9144699238 0 0 0 0 1011895720.1403198 732053672.10539246 0 732053672.10539246 -141616520.15084839 0 0 0 0 1308798414.8397827 628470240.36977386 0 628470240.36977386 -1263335217.9391174 0 0 0 0 983033139.41130066 817911136.68851852 0 817911136.68851852 367080947.05157471 0 0 0 0 791326759.10679626 457751877.110672 0 457751877.110672 919047082.25071716 0 0 0 0 836680706.56526184 470581464.7424469 0 470581464.7424469 263489294.64039612 0 0 0 0 -87741376.645313263 499779912.93467498 0 499779912.93467498 -594965461.05576229 0 0 0 0 89692423.245025635 73237886.511735916 0 73237886.511735916 -114562807.2218132 0 0 0 0 911203674.7618103 -159027680.57774544 0 -159027680.57774544 -1581386901.3839436 0 0 0 0 1286437033.3560944 404899780.76275635 0 404899780.76275635 -27823286.609298706 0 0 0 0 1124595898.803009 551886388.4058075 0 551886388.4058075 118742602.32794189 0 0 0 0 1624807648.1524582 955655852.05037308 0 955655852.05037308 55991033.781677246 0 0 0 0 1255196225.5335388 473808450.4978714 0 473808450.4978714 -62243163.71244812 0 0 0 0 -140979141.91104126 -728682804.33355379 0 -728682804.33355379 695041011.28775787 0 0 0 0 2488047.9378814809 -10338362.666565582 0 -10338362.666565582 20943820.896529533 0 0 0 0 1138122932.3130188 821010573.12220764 0 821010573.12220764 912039060.63729858 0 0 0 0 1244981847.7290039 753950954.97296143 0 753950954.97296143 -191711834.05838776 0 0 0 0 -93462481.044670105 57283852.213234901 0 57283852.213234901 41567892.395782471 0 0 0 0 64148800.632080078 760202.80613708496 0 760202.80613708496 57505415.44380188 0 0 0 0 673914854.91220093 797507509.0257988 0 797507509.0257988 41083666.754211426 0 0 0 0 17611582.170211792 -4389299.9977722168 0 -4389299.9977722168 58052329.195168972 0 0 0 0 34800032.378025055 7588777.4712305069 0 7588777.4712305069 64820179.353406906 0 0 0 0 -3958902.3766721636 10001132.199289627 0 10001132.199289627 3814860.0133128278 0 0 0 0 556690479.7323761 47809859.966007233 0 47809859.966007233 941852779.23017883 0 0 0 0 -909496.92606756091 9569213.8361170925 0 9569213.8361170925 7185682.8823160976 0 0 0 0 813270880.32696533 237045610.86341858 0 237045610.86341858 1457538875.9959335 0 0 0 0 923092672.40615845 176079429.06752014 0 176079429.06752014 391194064.80779266 0 0 0 0 512529891.12825012 978135387.23720169 0 978135387.23720169 224111104.62445068 0 0 0 0 1556109197.4460144 -126429022.79380035 0 -126429022.79380035 1191712273.9269028 0 0 0 0 86830351.390914917 179021613.82665634 0 179021613.82665634 139776547.07049227 0 0 0 0 -69430801.364059448 5254623.8136444092 0 5254623.8136444092 -37847386.453620911 0 0 0 0 336816700.2800293 86911189.789291382 0 86911189.789291382 -1174503780.7539062 0 0 0 0 169240.18484781682 -96187.233666900545 0 -96187.233666900545 -1201661.5875973031 0 0 0 0 14095866.440666888 29335963.744181283 0 29335963.744181283 -55326540.634256311 0 0 0 0 176480772.92018127 80953299.919090271 0 80953299.919090271 149644199.48048782 0 0 0 0 882348717.13449097 575444546.01295471 0 575444546.01295471 132875551.89938354 0 0 0 0 477209277.50947571 769245874.9009552 0 769245874.9009552 615488972.91915894 0 0 0 0 -94884001.150438309 -31148644.27495575 0 -31148644.27495575 1124040788.2195435 0 0 0 0 109608219.61694336 367505835.29924011 0 367505835.29924011 1154307133.820282 0 0 0 0 135993248.64361572 644484080.93811035 0 644484080.93811035 595462906.3990593 0 0 0 0 308079093.13105011 1188701894.5882492 0 1188701894.5882492 2253201360.9675903 0 0 0 0 -68823483.052841187 -275190396.34773254 0 -275190396.34773254 488514967.25471497 0 0 0 0 58708546.721786499 -361111862.27220154 0 -361111862.27220154 240006074.36737823 0 0 0 0 -6492362.2556611747 -8592518.363182351 0 -8592518.363182351 7959548.8698174059 0 0 0 0 912818109.17042542 804028806.04440308 0 804028806.04440308 493427504.66446686 0 0 0 0 436567673.78330284 1736079158.0210948 0 1736079158.0210948 971632298.55142212 0 0 0 0 -382309039.50802612 1811153837.5812378 0 1811153837.5812378 -50277086.485794067 0 0 0 0 -1069144822.8350983 -333465968.87072754 0 -333465968.87072754 -50290155.630607605 0 0 0 0 437551291.54762268 1118764592.0867004 0 1118764592.0867004 1790642375.3734131 0 0 0 0 85280997.638168454 97504769.508085445 0 97504769.508085445 99432707.706619263 0 0 0 0 1001378.5605206303 43223172.103610441 0 43223172.103610441 15853807.792304251 0 0 0 0 27720613.120106183 8323482.2541004969 0 8323482.2541004969 -63781341.191444695 0 0 0 0 3050856.4146844223 -1076549.6232847013 0 -1076549.6232847013 -15325625.398528449 0 0 0 0 2210818247.5346069 776486774.12304688 0 776486774.12304688 1807145391.4401245 0 0 0 0 4920299.084942922 22634815.7349139 0 22634815.7349139 -31654264.518044867 0 0 0 0 38908833.940124512 55367827.572296143 0 55367827.572296143 43623936.542121887 0 0 0 0 1186966689.8739853 1563813751.4869003 0 1563813751.4869003 1009858679.2209473 0 0 0 0 -529962999.12501526 26218916.515441895 0 26218916.515441895 2136204665.1164513 0 0 0 0 69372557.546264648 270343609.84300804 0 270343609.84300804 106206190.13714218 0 0 0 0 -1463644886.7306976 -717155979.30135345 0 -717155979.30135345 2098300010.8005028 0 0 0 0 30694234.008605957 74830609.685203552 0 74830609.685203552 78049461.835021973 0 0 0 0 14583159.476249225 35019098.809018403 0 35019098.809018403 -39563999.396760158 0 0 0 0 -5268906.558807373 30629977.608360291 0 30629977.608360291 100629061.36132812 0 0 0 0 6498648.9835870638 2315205.5451750671 0 2315205.5451750671 -5687977.6086635701 0 0 0 0 758462690.9176178 703677215.2040863 0 703677215.2040863 1012042595.478508 0 0 0 0 -7093347.4792688638 32653850.385362368 0 32653850.385362368 41363817.131882749 0 0 0 0 2126905206.6239929 1426132655.2582321 0 1426132655.2582321 -106280285.2540741 0 0 0 0 9894894.7269283272 33461063.926428102 0 33461063.926428102 -26613003.563615859 0 0 0 0 1145204676.6270466 777627386.26658535 0 777627386.26658535 346939980.9335022 0 0 0 0 1997074511.3373108 967887710.70591736 0 967887710.70591736 289759207.79891968 0 0 0 0 65909601.373275757 -4488713.7238092422 0 -4488713.7238092422 -20877527.474731445 0 0 0 0 82440259.36114502 13572496.172439575 0 13572496.172439575 -27923632.940093994 0 0 0 0 -73175364.618682861 57422328.239860535 0 57422328.239860535 58685083.214385986 0 0 0 0 1812461894.6683807 521553406.37129211 0 521553406.37129211 351364702.79846191 0 0 0 0 18039151.937669255 25642897.282434471 0 25642897.282434471 -42490745.696916372 0 0 0 0 34481740.291748047 -89192758.308692932 0 -89192758.308692932 -88500061.467926025 0 0 0 0 144735502.82266235 77880584.779457092 0 77880584.779457092 -64276245.18183136 0 0 0 0 2430048.8961057961 735522.9041894041 0 735522.9041894041 -2165292.8522948064 0 0 0 0 141085895.23178101 -39794483.486412048 0 -39794483.486412048 -138650215.23310089 0 0 0 0 73187141.96862793 684023675.88562012 0 684023675.88562012 6176241401.2010193 0 0 0 0 3301480489.6062622 742550700.6741333 0 742550700.6741333 -392343539.70080566 0 0 0 0 1763357593.501358 1334151317.6052399 0 1334151317.6052399 2129094276.2888184 0 0 0 0 1202225.099360466 1050872.3389106393 0 1050872.3389106393 -3923786.3786939699 0 0 0 0 1878081144.2523499 -390254460.46765137 0 -390254460.46765137 2086401721.737793 0 0 0 0 2296068054.0418091 237956550.0486145 0 237956550.0486145 1595153850.603302 0 0 0 0 3577606780.5371399 1312862099.6263885 0 1312862099.6263885 2156594732.3820801 0 0 0 0 1916979058.4033203 2181003279.169342 0 2181003279.169342 4810687608.4782715 0 0 0 0 987020302.11334229 789765175.96133423 0 789765175.96133423 2935053332.8538818 0 0 0 0 -307745509.13644409 -163518424.51779175 0 -163518424.51779175 4293778872.9329834 0 0 0 0 815911984.13208008 903076435.54464722 0 903076435.54464722 3220066160.9719238 0 0 0 0 981274027.16687012 616600062.8565979 0 616600062.8565979 1902592998.6971436 0 0 0 0 1592229149.2867584 1323082932.7631836 0 1323082932.7631836 2711881175.5144043 0 0 0 0 657596639.16278076 695946403.02246094 0 695946403.02246094 2126078343.0310974 0 0 0 0 763784015.01208496 822844756.16192627 0 822844756.16192627 2234332375.243947 0 0 0 0 34271338.524169922 -301269368.33837891 0 -301269368.33837891 2784753129.9284668 0 0 0 0 437399007.31774902 294046862.19732666 0 294046862.19732666 2245081110.5413723 0 0 0 0 316890802.44682312 457876003.18563843 0 457876003.18563843 1385043639.4989929 0 0 0 0 1172675300.3016052 315604566.21292114 0 315604566.21292114 464206140.66622162 0 0 0 0 862010403.08988953 235360639.72138977 0 235360639.72138977 1811519878.131073 0 0 0 0 705382042.47457886 -180703670.09216309 0 -180703670.09216309 831296958.59501648 0 0 0 0 178755001.02824402 90581442.584857941 0 90581442.584857941 408602038.06958008 0 0 0 0 -844954121.0340271 36736279.153999329 0 36736279.153999329 898904334.9848938 0 0 0 0 -985468634.64872742 803248419.88638306 0 803248419.88638306 193606501.74120712 0 0 0 0 -630215814.44128418 195993183.03749084 0 195993183.03749084 111998116.48459816 0 0 0 0 -7459718.7928040922 17692336.279026829 0 17692336.279026829 66986952.808321953 0 0 0 0 -439503957.45778275 549359940.50531769 0 549359940.50531769 -562390916.95791626 0 0 0 0 -4448379.35427472 3486815.0128472801 0 3486815.0128472801 8240168.7183325663 0 0 0 0 1198221497.6570101 464912691.39429379 0 464912691.39429379 -1020667235.9212036 0 0 0 0 -1115415572.0248108 -96267895.678497314 0 -96267895.678497314 505951541.80678558 0 0 0 0 -13778794.37487793 -222875231.29296875 0 -222875231.29296875 277765041.3063736 0 0 0 0 38641270.410934448 -385449903.75382996 0 -385449903.75382996 175327728.51557159 0 0 0 0 -211381421.12625122 -250316263.65744019 0 -250316263.65744019 105988340.46974182 0 0 0 0 -361495963.3288269 -185381923.4759903 0 -185381923.4759903 164918776.33374786 0 0 0 0 -1007215917.0748558 154561549.70957947 0 154561549.70957947 429687409.23620605 0 0 0 0 -511637572.88902283 51909966.307907104 0 51909966.307907104 95853533.504871368 0 0 0 0 -435563098.67880249 -327143360.50033951 0 -327143360.50033951 639767916.11187744 0 0 0 0 -61118530.354125977 -218417146.52174377 0 -218417146.52174377 484428716.65394592 0 0 0 0 574315407.33978271 -364086895.55911255 0 -364086895.55911255 620855072.54248047 0 0 0 0 -74706850.556045532 -224968556.37968826 0 -224968556.37968826 1098877403.5962219 0 0 0 0 1291439823.7515259 -514413694.68347168 0 -514413694.68347168 1111541390.5626526 0 0 0 0 563930982.65075684 -242886246.2673645 0 -242886246.2673645 1024433762.4556732 0 0 0 0 641644882.00198364 -316994099.00845337 0 -316994099.00845337 540019101.15181351 0 0 0 0 1144632453.5500488 -262614381.66960144 0 -262614381.66960144 524848433.57015991 0 0 0 0 29548609.585220337 -382464679.57446098 0 -382464679.57446098 633901438.1229248 0 0 0 0 731851208.62255859 471585264.48614502 0 471585264.48614502 1906568269.340991 0 0 0 0 1698191593.8934631 461428524.55264282 0 461428524.55264282 1041063953.3989258 0 0 0 0 1009066365.3803101 370079710.39944458 0 370079710.39944458 1039562430.8579221 0 0 0 0 1335452895.8704834 335158868.51174927 0 335158868.51174927 1636551204.6439362 0 0 0 0 1752866510.2517853 114605034.66628265 0 114605034.66628265 918939387.09436035 0 0 0 0 992196193.04721069 -128235810.46035767 0 -128235810.46035767 905289660.3656311 0 0 0 0 1000600208.7998352 -27729718.077880859 0 -27729718.077880859 212202909.04885864 0 0 0 0 836896035.99981689 -50482196.444213867 0 -50482196.444213867 512577366.81669617 0 0 0 0 1388618105.2296143 126405582.82394409 0 126405582.82394409 564465026.04064941 0 0 0 0 832434292.21530151 120072125.44116211 0 120072125.44116211 260746199.26907349 0 0 0 0 935719698.03921509 169115511.6335144 0 169115511.6335144 711618899.22644043 0 0 0 0 944593798.02349854 345112791.1210022 0 345112791.1210022 578728760.80171204 0 0 0 0 621718409.3752594 402530737.5044632 0 402530737.5044632 755540793.51184082 0 0 0 0 922467321.22995186 489448802.54183435 0 489448802.54183435 772184166.91516113 0 0 0 0 584330623.44307709 98303106.719010353 0 98303106.719010353 259169528.5609436 0 0 0 0 680489484.39801025 222911297.91725159 0 222911297.91725159 -37806026.492584229 0 0 0 0 722427217.2010498 -85114482.942962646 0 -85114482.942962646 -66350433.441162109 0 0 0 0 582068383.14746094 -43280075.82510376 0 -43280075.82510376 212465688.18798828 0 0 0 0 583840664.76095581 39795618.301269531 0 39795618.301269531 -382351433.92807007 0 0 0 0 435302430.23175049 40495970.69442749 0 40495970.69442749 -115229452.84106445 0 0 0 0 431790569.65707397 66889489.67350769 0 66889489.67350769 -127046678.57563782 0 0 0 0 521242414.48301697 271030969.57836151 0 271030969.57836151 -301525956.02758789 0 0 0 0 66273252.984176636 -221545210.08909035 0 -221545210.08909035 164839261.46612549 0 0 0 0 478432163.55438232 -424621237.46337891 0 -424621237.46337891 262300544.18063354 0 0 0 0 680175905.40570068 -265498561.97393799 0 -265498561.97393799 23265607.31035614 0 0 0 0 536733244.81390381 -158320089.03176498 0 -158320089.03176498 304127424.95233154 0 0 0 0 551451730.71679688 -55813010.017227173 0 -55813010.017227173 -295657125.04724121 0 0 0 0 296858979.73104858 -141120106.00570679 0 -141120106.00570679 -14119066.824775696 0 0 0 0 364162400.02059937 -280318731.97305298 0 -280318731.97305298 -69602224.263397217 0 0 0 0 46479753.071502686 -122340600.49751282 0 -122340600.49751282 -139399219.88240051 0 0 0 0 202700027.99887085 -150145701.82287788 0 -150145701.82287788 -262523915.7986145 0 0 0 0 270609586.54656601 71288525.962762833 0 71288525.962762833 -474906589.67062378 0 0 0 0 53738339.593841553 139057546.69792175 0 139057546.69792175 -438796777.66957855 0 0 0 0 -28462200.9453125 17955575.896514893 0 17955575.896514893 -362132717.43499756 0 0 0 0 324409727.71627808 -43009897.69203186 0 -43009897.69203186 -290567839.63375092 0 0 0 0 352121686.82382202 221874350.76498413 0 221874350.76498413 -444955902.95558167 0 0 0 0 226978920.78548813 393127945.98712349 0 393127945.98712349 -800702015.19381714 0 0 0 0 388341165.54928589 122695406.15364075 0 122695406.15364075 -654797751.45976257 0 0 0 0 302909275.10635376 468759613.02780151 0 468759613.02780151 -741629558.12980652 0 0 0 0 277145932.40009689 245577882.0179863 0 245577882.0179863 -633332018.59915161 0 0 0 0 -49585802.520065308 683614415.95874023 0 683614415.95874023 -782186008.51646423 0 0 0 0 -994288.34600954503 931888.93296054751 0 931888.93296054751 832350.64989416301 0 0 0 0 -207939708.02581787 303674643.81506348 0 303674643.81506348 -587873448.41470718 0 0 0 0 -46935287.919677734 197404692.00222778 0 197404692.00222778 -551518928.55929565 0 0 0 0 107708555.75842285 35687014.213623047 0 35687014.213623047 -445115777.17678833 0 0 0 0 -23940514.022453308 191247031.08596802 0 191247031.08596802 -707925331.5333252 0 0 0 0 -80748482.525665283 178200165.33995819 0 178200165.33995819 -562426192.30541992 0 0 0 0 -227292260.96914673 178089922.65467072 0 178089922.65467072 -437122018.45663452 0 0 0 0 -246065015.40748596 48629537.668617249 0 48629537.668617249 -37938385.930664062 0 0 0 0 -113489796.63659668 56621402.539983749 0 56621402.539983749 -307889222.05044556 0 0 0 0 -184597588.6427002 -94202678.405555725 0 -94202678.405555725 -170421443.62207031 0 0 0 0 5775912.6362304688 -57386717.632446289 0 -57386717.632446289 -313878777.43412018 0 0 0 0 -177417065.09354877 -184132333.84153461 0 -184132333.84153461 -22199993.961242676 0 0 0 0 70432621.814422607 -249299608.17105293 0 -249299608.17105293 -83050879.456634521 0 0 0 0 -241377685.04690933 -158503826.79753304 0 -158503826.79753304 -13089267.510864258 0 0 0 0 -320640336.15040588 -146253400.8291626 0 -146253400.8291626 -12323130.672698975 0 0 0 0 -337808221.71524811 -48963961.117355347 0 -48963961.117355347 -136026907.64387512 0 0 0 0 -370314683.01815796 -4444572.9821929932 0 -4444572.9821929932 -212040022.73498535 0 0 0 0 -380794122.77964783 417890071.07328033 0 417890071.07328033 -345123512.69709015 0 0 0 0 -395298835.46913147 448362710.32592773 0 448362710.32592773 -964266007.01751709 0 0 0 0 -251978580.5343399 397245708.93294907 0 397245708.93294907 -449628878.52993774 0 0 0 0 -130855498.9914856 216762466.65272522 0 216762466.65272522 -424269913.76708984 0 0 0 0 -217741795.69771576 388038337.52150345 0 388038337.52150345 -649752732.57469177 0 0 0 0 -804021589.97158813 926109627.85638428 0 926109627.85638428 -813356146.54687881 0 0 0 0 13223243.09161377 20060221.16204834 0 20060221.16204834 -10490930.714691162 0 0 0 0 1306633.2903951854 699294.5021129474 0 699294.5021129474 -596331.91593127698 0 0 0 0 -712525913.74502563 568236464.72093964 0 568236464.72093964 -875614783.69231033 0 0 0 0 -18120438.451507568 131573173.81245422 0 131573173.81245422 -738267836.01446533 0 0 0 0 -51968002.456115723 -7413112.7828216553 0 -7413112.7828216553 -385185.19552612305 0 0 0 0 -718507.45600340515 3419184.0544130355 0 3419184.0544130355 1806170.7212139368 0 0 0 0 -969077580.03244019 1196583479.7896881 0 1196583479.7896881 -906222393.10304737 0 0 0 0 274258.64506442845 -42646.180723823607 0 -42646.180723823607 -1009330.2430760264 0 0 0 0 -860855102.75773621 830427130.96934509 0 830427130.96934509 -1337895527.6224518 0 0 0 0 -307161623.56082153 742656020.91934204 0 742656020.91934204 -1384359111.6676331 0 0 0 0 -331788382.9627533 1024308847.5717468 0 1024308847.5717468 -1102117498.3970642 0 0 0 0 -161375111.71412659 813007073.94887543 0 813007073.94887543 -1368125405.8791504 0 0 0 0 -738979764.05593872 1021221613.9973602 0 1021221613.9973602 -1324309645.9300537 0 0 0 0 -804426315.72735596 843802660.15042114 0 843802660.15042114 -1170859359.2061005 0 0 0 0 -932693544.59676743 1087350595.2803841 0 1087350595.2803841 -1316266944.3251953 0 0 0 0 -861340425.11465454 732737123.0912323 0 732737123.0912323 -1105015932.4672852 0 0 0 0 -1069115787.3433458 1258290271.8801279 0 1258290271.8801279 -1620705130.0821228 0 0 0 0 -1072578010.5533752 925217319.91714478 0 925217319.91714478 -1348742191.1065521 0 0 0 0 -1263358608.0455399 996646053.82154655 0 996646053.82154655 -1621233712.0462646 0 0 0 0 -661344564.08927917 1022276284.2622681 0 1022276284.2622681 -1667528182.5227661 0 0 0 0 -897916524.57217407 1251381921.6535034 0 1251381921.6535034 -2046498830.4775391 0 0 0 0 -632582727.65368652 1143700059.8931503 0 1143700059.8931503 -1602431575.9383755 0 0 0 0 -510411941.84138489 743814811.03598022 0 743814811.03598022 -1542342615.8760376 0 0 0 0 -1197426064.7985535 1927610514.0607834 0 1927610514.0607834 -2224572139.4006653 0 0 0 0 -1215863884.1952515 2142207403.9624634 0 2142207403.9624634 -2041632787.4596939 0 0 0 0 -1881679468.566597 1659130641.3894119 0 1659130641.3894119 -1566835910.9931335 0 0 0 0 -1131143705.2257519 1327157506.7443676 0 1327157506.7443676 -2140718827.1446075 0 0 0 0 -1452555226.2563782 1067970713.8220215 0 1067970713.8220215 -1715109970.8473969 0 0 0 0 -1195778031.5446777 1013639824.2890778 0 1013639824.2890778 -1327008219.9575958 0 0 0 0 -1022857454.9663963 1554641874.7162037 0 1554641874.7162037 -1633804716.8922882 0 0 0 0 -775835848.46850586 2006820365.786972 0 2006820365.786972 -1900002017.1268158 0 0 0 0 -951195385.28294373 1445167534.5776825 0 1445167534.5776825 -1518875100.8048096 0 0 0 0 -1220766583.8147278 2073363719.4232941 0 2073363719.4232941 -1897516016.5665894 0 0 0 0 -969531558.93591309 1916343628.9320831 0 1916343628.9320831 -1887809120.2967529 0 0 0 0 -383136784.17922974 1570037636.4785004 0 1570037636.4785004 -1784587242.6289215 0 0 0 0 -687028577.06005096 1253620700.1547546 0 1253620700.1547546 -1454783653.2850037 0 0 0 0 -620463824.22576904 1241318685.8553772 0 1241318685.8553772 -1477361010.9369202 0 0 0 0 -696806116.25222778 852868130.65020752 0 852868130.65020752 -1187883458.9308319 0 0 0 0 -906609165.84684753 1217751473.6604462 0 1217751473.6604462 -1313921714.7348633 0 0 0 0 -685627845.65194702 1349289021.8628693 0 1349289021.8628693 -1584855338.5187683 0 0 0 0 -564803432.48782349 986881920.23954582 0 986881920.23954582 -1258960615.4883423 0 0 0 0 -508943975.35873413 1070307388.6299438 0 1070307388.6299438 -1151464591.5569458 0 0 0 0 -362772829.80857849 826289397.77142334 0 826289397.77142334 -1301016037.3970642 0 0 0 0 -18098390.434356689 3284414.2509155273 0 3284414.2509155273 -15733792.225326538 0 0 0 0 -27148488.059234619 268642516.90992737 0 268642516.90992737 -750264887.06898499 0 0 0 0 -359292651.86132812 673086840.01437378 0 673086840.01437378 -1142245286.6658554 0 0 0 0 -670394394.40374756 962898745.04240417 0 962898745.04240417 -1035180886.6664124 0 0 0 0 -4237249.021130532 1497020.6375689134 0 1497020.6375689134 1568976.3007982373 0 0 0 0 -99358444.96559906 425059243.14104462 0 425059243.14104462 -716514983.74127197 0 0 0 0 3036721.8848884851 1536696.9497830793 0 1536696.9497830793 -15574.675176627934 0 0 0 0 -139443779.55853271 301514629.43991089 0 301514629.43991089 -626881184.66772461 0 0 0 0 -186296605.40021515 1392395737.0961266 0 1392395737.0961266 -1834275384.7842712 0 0 0 0 -398755255.69464111 954389119.2804184 0 954389119.2804184 -1310708565.8580933 0 0 0 0 -345876112.99700928 943920842.61927795 0 943920842.61927795 -1387865483.4001694 0 0 0 0 -320282780.46313477 478141807.27653503 0 478141807.27653503 -826566678.95544434 0 0 0 0 194063427.75730896 1060033055.4831133 0 1060033055.4831133 -1706929469.7002869 0 0 0 0 233173441.75540161 732228645.33546448 0 732228645.33546448 -1594973971.9818726 0 0 0 0 -432034647.81880188 1639831798.5687637 0 1639831798.5687637 -2009649612.4652519 0 0 0 0 -391820.27209472656 1029036421.6998138 0 1029036421.6998138 -2283818560.0615082 0 0 0 0 -735738992.74006653 1605435613.2437592 0 1605435613.2437592 -2481296733.8438263 0 0 0 0 -274978718.23950958 1537948142.9004135 0 1537948142.9004135 -3107578543.7858124 0 0 0 0 -982421344.4858017 2737193507.0650635 0 2737193507.0650635 -2723993001.552887 0 0 0 0 -192393133.88690186 1317102461.579895 0 1317102461.579895 -1947826206.953064 0 0 0 0 -572537228.59523773 1871073723.6553078 0 1871073723.6553078 -2226421539.1856842 0 0 0 0 -656007908.46917725 2255396194.2140789 0 2255396194.2140789 -2038443834.0049744 0 0 0 0 -761570732.32948303 2038141493.7754669 0 2038141493.7754669 -1985089297.0392761 0 0 0 0 -742953776.33399963 2232881956.8400345 0 2232881956.8400345 -2040016329.4413872 0 0 0 0 -1118299418.383194 1975781470.4492455 0 1975781470.4492455 -1390733286.7073059 0 0 0 0 -761197511.51959229 2245960115.8774834 0 2245960115.8774834 -2025369954.0505219 0 0 0 0 -1214540364.1826019 2246644605.550209 0 2246644605.550209 -1956182819.4509583 0 0 0 0 -2053289855.2579803 1044033725.5354843 0 1044033725.5354843 -289490281.22771072 0 0 0 0 -1177326764.5921936 2096052718.7543411 0 2096052718.7543411 -1613810937.4285736 0 0 0 0 -1400017357.8219299 2379108277.3070679 0 2379108277.3070679 -1576258407.8464966 0 0 0 0 -4704722305.3949356 1481540633.41366 0 1481540633.41366 -242515262.96839905 0 0 0 0 -799873104.01373291 -166045870.08993912 0 -166045870.08993912 83183710.738769531 0 0 0 0 189334.33201645315 5192704.2061148807 0 5192704.2061148807 -9935413.5184278265 0 0 0 0 -2628618152.1244812 3966090215.0687294 0 3966090215.0687294 -3588773665.6624069 0 0 0 0 -523839893.4004364 1401809343.2601433 0 1401809343.2601433 -5417209560.2323456 0 0 0 0 -2397516228.2266312 1011242552.6170921 0 1011242552.6170921 -2329779370.8399048 0 0 0 0 -838661576.08880615 1634470455.7251968 0 1634470455.7251968 -2093729034.6611023 0 0 0 0 -412408618.681427 1068528613.9290543 0 1068528613.9290543 -1182332032.6534729 0 0 0 0 -305615470.08966827 809237150.19960785 0 809237150.19960785 -1559707747.3364105 0 0 0 0 -402764351.24142456 890619445.609375 0 890619445.609375 -1321268579.5200119 0 0 0 0 -720006168.55072021 658139844.49535751 0 658139844.49535751 -349433320.95684814 0 0 0 0 -425090292.76660156 400720499.65908813 0 400720499.65908813 -835942406.72134399 0 0 0 0 -1266654665.9083595 453179085.48094368 0 453179085.48094368 -1541630002.9004669 0 0 0 0 -404379226.27481842 878840392.95932007 0 878840392.95932007 -1472782876.6618958 0 0 0 0 -233180176.49743652 930150173.90910339 0 930150173.90910339 -2932854588.102272 0 0 0 0 47116711.878982544 596899702.44812775 0 596899702.44812775 -1693534442.9542465 0 0 0 0 -62105323.418609619 410846375.73901367 0 410846375.73901367 -859413921.49964905 0 0 0 0 -121297457.53868103 987042596.57354736 0 987042596.57354736 -1105420195.3924713 0 0 0 0 315419384.47659302 390745852.75518799 0 390745852.75518799 -1260517022.4194069 0 0 0 0 340118462.04141235 353256754.33129883 0 353256754.33129883 -958425898.94477844 0 0 0 0 84515787.902084351 133330647.48335266 0 133330647.48335266 -619543948.80938721 0 0 0 0 -102150378.88814545 378922878.11174011 0 378922878.11174011 -308622895.31463623 0 0 0 0 244841549.37799072 356598127.6730423 0 356598127.6730423 -568727328.44815063 0 0 0 0 336898819.62728882 107568371.57548523 0 107568371.57548523 -437885361.07917786 0 0 0 0 289645385.39816284 369899989.78851318 0 369899989.78851318 -369357281.85107422 0 0 0 0 -559957104.86579895 391847122.85958099 0 391847122.85958099 -802274217.43760681 0 0 0 0 52416286.818908691 462026634.20947266 0 462026634.20947266 -807713851.93927765 0 0 0 0 -256407663.15321255 644601017.18757677 0 644601017.18757677 -530227709.49658203 0 0 0 0 -279308350.26222229 261243356.83486176 0 261243356.83486176 -170057403.09519958 0 0 0 0 -48542641.985160828 233680391.35082293 0 233680391.35082293 89631633.096710205 0 0 0 0 -35799172.26859951 525800236.50621414 0 525800236.50621414 100005526.48007202 0 0 0 0 -105829010.60406494 196128469.36778259 0 196128469.36778259 284556448.06777954 0 0 0 0 372668651.46951294 151662242.08729553 0 151662242.08729553 -3062071.782409668 0 0 0 0 368055484.51675415 390046485.55439758 0 390046485.55439758 -10133292.225524902 0 0 0 0 213667486.88778687 438624336.03936768 0 438624336.03936768 -306230429.5050354 0 0 0 0 175461116.6817627 206094362.49362183 0 206094362.49362183 -172961610.41215515 0 0 0 0 178578120.94186401 499912457.83720398 0 499912457.83720398 358937652.82720947 0 0 0 0 256929978.42120361 194036620.71453857 0 194036620.71453857 221461358.88973999 0 0 0 0 609622580.74084091 352710492.62652397 0 352710492.62652397 153242209.75738525 0 0 0 0 517870655.96176147 201504919.29577637 0 201504919.29577637 391670303.73532104 0 0 0 0 454480486.98735428 438690622.95957184 0 438690622.95957184 484360685.78118896 0 0 0 0 197061342.74395752 250441894.5524292 0 250441894.5524292 869899618.08139038 0 0 0 0 183636957.75286102 472957202.91263247 0 472957202.91263247 957253940.97964478 0 0 0 0 112817329.81045532 117821498.96952057 0 117821498.96952057 958821440.79040527 0 0 0 0 99739771.55770874 248312114.09126282 0 248312114.09126282 1550979507.7401123 0 0 0 0 449453248.3359375 394294940.31329346 0 394294940.31329346 936108797.4838562 0 0 0 0 454640864.6506958 308511888.7666626 0 308511888.7666626 1405145453.362854 0 0 0 0 438151828.98623657 438075137.44355774 0 438075137.44355774 1433044507.1659851 0 0 0 0 -248692676.35879517 468109550.03719711 0 468109550.03719711 512415822.90441895 0 0 0 0 -57092641.036716461 264836611.49927139 0 264836611.49927139 524124490.22409058 0 0 0 0 17755697.915313721 435949688.07839966 0 435949688.07839966 597282268.72406006 0 0 0 0 52742695.799682617 186898072.10209656 0 186898072.10209656 551440863.70301056 0 0 0 0 -68655562.548461914 288326519.88013458 0 288326519.88013458 1255056780.3469849 0 0 0 0 -100162358.26071167 64454739.242843628 0 64454739.242843628 931498147.33189392 0 0 0 0 -91403522.988437653 425942615.02216911 0 425942615.02216911 434874227.90802002 0 0 0 0 -232125531.10070801 142767219.02435303 0 142767219.02435303 1014455782.3463135 0 0 0 0 -344421933.24023438 361908115.90894318 0 361908115.90894318 418701272.41943741 0 0 0 0 -339711018.50421143 700817719.72115326 0 700817719.72115326 61633446.941390991 0 0 0 0 -135539575.88406372 649897804.17541504 0 649897804.17541504 -392651378.31173706 0 0 0 0 -380817797.03450012 680672174.01875687 0 680672174.01875687 -369687557.23065186 0 0 0 0 -271662344.37939453 311168187.1067276 0 311168187.1067276 223326740.69721985 0 0 0 0 -246487119.86576843 657925795.53729248 0 657925795.53729248 -412233735.1592865 0 0 0 0 325395807.76077271 146305807.18215942 0 146305807.18215942 -1189064178.5702057 0 0 0 0 44679028.464981079 406675375.52740479 0 406675375.52740479 -204758890.81622314 0 0 0 0 113056465.36579895 776058389.6504364 0 776058389.6504364 -1213557279.144249 0 0 0 0 65704583.842941284 447627752.39482117 0 447627752.39482117 -547295610.94050598 0 0 0 0 -115359733.57559967 971501134.50128555 0 971501134.50128555 -1295432039.1378174 0 0 0 0 27299952.961730957 229331967.87265778 0 229331967.87265778 300141390.0100708 0 0 0 0 -201317448.3711319 571058192.57307816 0 571058192.57307816 501012039.55844116 0 0 0 0 211351521.94407654 449380879.62212372 0 449380879.62212372 -213532059.37841797 0 0 0 0 63248761.044509888 302137750.54514313 0 302137750.54514313 389316993.32619476 0 0 0 0 477861376.17271423 587422066.9278717 0 587422066.9278717 -74261484.540878296 0 0 0 0 6259143.8385813534 31765607.928169683 0 31765607.928169683 -44404081.86289943 0 0 0 0 88768592.979980469 21833370.843021393 0 21833370.843021393 -38310391.884860992 0 0 0 0 118927858.6477356 15695189.413696289 0 15695189.413696289 -79138670.313430786 0 0 0 0 317474103.79939747 382176999.1955241 0 382176999.1955241 -1349957444.9739838 0 0 0 0 106451638.67947388 -163828133.53166962 0 -163828133.53166962 151263858.70960999 0 0 0 0 1245232397.3110352 -133368367.26447296 0 -133368367.26447296 -4552593355.4889679 0 0 0 0 153891867.0802002 -1439653683.794014 0 -1439653683.794014 -2040228768.1271477 0 0 0 0 -205488625.58390045 -582540936.27542496 0 -582540936.27542496 490684273.43788147 0 0 0 0 6750883.0949168801 12879874.395617537 0 12879874.395617537 -38391498.426603802 0 0 0 0 812522933.53586578 153731738.24515533 0 153731738.24515533 -861813724.69068146 0 0 0 0 -352975326.42001343 -1835386255.0175018 0 -1835386255.0175018 -7413152207.679924 0 0 0 0 -2116430.8531546593 481623.56226281822 0 481623.56226281822 -4906659.5180172697 0 0 0 0 666103916.12898254 -613882876.0791893 0 -613882876.0791893 -5440983579.7057037 0 0 0 0 906827708.68927002 -362031873.2559433 0 -362031873.2559433 -9631584324.4412994 0 0 0 0 1774255808.1842346 475675844.34507751 0 475675844.34507751 -4435607679.468895 0 0 0 0 1680226461.5434418 1023997327.4574127 0 1023997327.4574127 -4076004707.950737 0 0 0 0 1699362675.0340881 643101725.70072174 0 643101725.70072174 -4799643742.8345795 0 0 0 0 700949820.59373474 666200269.93211365 0 666200269.93211365 -1355772562.6873169 0 0 0 0 681674186.75167847 538906425.88014221 0 538906425.88014221 -2177923610.2945709 0 0 0 0 1252534305.2531676 81165989.356529713 0 81165989.356529713 -2965500473.8990021 0 0 0 0 -515405357.95689392 1084989659.5849075 0 1084989659.5849075 -1212851595.7085266 0 0 0 0 204970560.37064362 1521641356.7680511 0 1521641356.7680511 -2805402727.2618408 0 0 0 0 1626016552.7540131 1618806272.0171509 0 1618806272.0171509 -2923590779.7121849 0 0 0 0 2943414318.9936218 2996672120.9247894 0 2996672120.9247894 -4733534962.7165298 0 0 0 0 -567987469.79085541 3069182873.1473122 0 3069182873.1473122 -3879674092.8673096 0 0 0 0 2223272222.9322166 1149835411.690527 0 1149835411.690527 -3446731479.9009705 0 0 0 0 2499310091.1867828 1502081556.6414566 0 1502081556.6414566 -4901508715.9120941 0 0 0 0 2992353112.06633 2433284176.2119865 0 2433284176.2119865 -2704506716.4970627 0 0 0 0 3718694116.2340546 1117921849.9532394 0 1117921849.9532394 -3581123532.8157654 0 0 0 0 2126948972.7072678 1222024627.0540123 0 1222024627.0540123 759888941.40944672 0 0 0 0 2244515325.3189163 3444661645.0945034 0 3444661645.0945034 4183597392.9317856 0 0 0 0 1937330395.7949677 2415771181.3378487 0 2415771181.3378487 1053388759.3990097 0 0 0 0 -2330033.5663792714 17048279.972654969 0 17048279.972654969 -18692438.665045433 0 0 0 0 154184098.27612305 222471325.60465622 0 222471325.60465622 -365793475.25469208 0 0 0 0 1767208884.9934998 -282303669.0992794 0 -282303669.0992794 2435829310.9435349 0 0 0 0 4764511851.0765076 1517083801.7140102 0 1517083801.7140102 -962137186.71549988 0 0 0 0 1535664081.0712738 2140246241.0769234 0 2140246241.0769234 -1072857509.9896603 0 0 0 0 1133323397.5450172 -16754399.815898895 0 -16754399.815898895 -1371086959.4368286 0 0 0 0 296693032.78616333 1483046705.5371246 0 1483046705.5371246 346440554.39956665 0 0 0 0 2757668249.3580475 1068645423.0153732 0 1068645423.0153732 -3506313565.2070541 0 0 0 0 1662843338.960022 888239821.68804169 0 888239821.68804169 -3431198740.2024593 0 0 0 0 859703727.1436882 381759824.59474182 0 381759824.59474182 -6056710064.6287384 0 0 0 0 1374966751.4356995 1907462743.4498024 0 1907462743.4498024 -5683002049.2957916 0 0 0 0 -734623389.27374268 474712923.17588806 0 474712923.17588806 -5966977607.7559357 0 0 0 0 -3940147995.8283386 188266525.13494873 0 188266525.13494873 -5519337115.551033 0 0 0 0 -418971645.68670654 -36838862.461334229 0 -36838862.461334229 -5526716546.6906662 0 0 0 0 -1536191676.9108124 -700418022.09100533 0 -700418022.09100533 -3641588528.2770844 0 0 0 0 137712389.44537354 498945020.62773895 0 498945020.62773895 -5810234306.4560013 0 0 0 0 -956259685.89993286 -1086855784.1084442 0 -1086855784.1084442 -7410517495.1272964 0 0 0 0 -313563179.80728149 38491745.428144455 0 38491745.428144455 -3412769743.7553329 0 0 0 0 -1748682593.9172668 970978500.02104187 0 970978500.02104187 -3277298790.7517853 0 0 0 0 609313734.20935059 1097354862.3335571 0 1097354862.3335571 -3279649894.5054116 0 0 0 0 219586904.96443176 390065841.08820724 0 390065841.08820724 -630664453.42234421 0 0 0 0 -1237023251.2049255 609709290.69208145 0 609709290.69208145 -629970159.46215057 0 0 0 0 -856098718.78793335 613855087.9648838 0 613855087.9648838 892182710.73484802 0 0 0 0 -688195899.3587532 1177501194.8868885 0 1177501194.8868885 1442670195.1588593 0 0 0 0 -654058581.37051392 529533184.29777908 0 529533184.29777908 -114376559.0579071 0 0 0 0 -347204993.61157227 860465578.75863266 0 860465578.75863266 -1183195876.8033285 0 0 0 0 -814119503.25083923 244912771.80825424 0 244912771.80825424 -1276662473.790977 0 0 0 0 -467670.72856140137 1079711138.2219124 0 1079711138.2219124 -1740223904.8196106 0 0 0 0 377087139.90023804 -134289091.80200958 0 -134289091.80200958 -5569366430.8041 0 0 0 0 257301.05992126465 941274605.43794632 0 941274605.43794632 -4290480807.3344536 0 0 0 0 -297210344.7361908 -355203185.13238525 0 -355203185.13238525 -2935390713.9912987 0 0 0 0 313281178.13780212 1103039588.6900902 0 1103039588.6900902 -5791683623.4011307 0 0 0 0 447370.76138537255 1174757655.1916585 0 1174757655.1916585 -5701969380.3072433 0 0 0 0 -36844.94479252398 864999.61566927284 0 864999.61566927284 -11042428.853169307 0 0 0 0 -103054256.54968262 -26181617.594795227 0 -26181617.594795227 452130173.3914814 0 0 0 0 351102992.54944992 1083043221.8310599 0 1083043221.8310599 -8179837341.981781 0 0 0 0 -2119330452.6897278 2991947140.2311707 0 2991947140.2311707 -4211512436.1313782 0 0 0 0 -1320103594.5633698 2472582363.5951462 0 2472582363.5951462 -11697403016.1987 0 0 0 0 -1091115.4224077687 3252293.1963041574 0 3252293.1963041574 -4719267.1645460054 0 0 0 0 -1016206552.4836731 -3461453010.0024261 0 -3461453010.0024261 -11259322557.164286 0 0 0 0 -594144.14693036675 4599611.779680565 0 4599611.779680565 -13949430.029600821 0 0 0 0 -23218818.163513184 43694540.613922119 0 43694540.613922119 150943301.34087372 0 0 0 0 -7511754.380859375 163685312.79631805 0 163685312.79631805 -35726110.83631134 0 0 0 0 -107532439.15319824 88847871.294235229 0 88847871.294235229 -45175690.834906578 0 0 0 0 -25275932.788604736 -9955306.2960968018 0 -9955306.2960968018 23823060.591098785 0 0 0 0 65153078.724472046 106984766.46714211 0 106984766.46714211 -65987403.887054443 0 0 0 0 49560575.442581177 129545504.48132515 0 129545504.48132515 -217641140.86292648 0 0 0 0 476006.26204702258 -2003415.2675417028 0 -2003415.2675417028 -854051.07657634094 0 0 0 0 5674847.5740509033 -28622841.362827301 0 -28622841.362827301 15805812.23242569 0 0 0 0 11122560.467895508 -9505868.0616874695 0 -9505868.0616874695 -24244160.761144638 0 0 0 0 608585.53024668992 -4261064.3490477353 0 -4261064.3490477353 -2142431.7750518993 0 0 0 0 -1589788.7490234375 -5229402.0853233337 0 -5229402.0853233337 -6962183.5159454346 0 0 0 0 129438263.89105225 98508649.031764984 0 98508649.031764984 -426653501.37236595 0 0 0 0 -934937.95860846341 295755.33160202391 0 295755.33160202391 4808630.5199564304 0 0 0 0 -823607.19759772718 -2095317.9997539464 0 -2095317.9997539464 2743374.906365063 0 0 0 0 13387922.086181641 2619342.3943328857 0 2619342.3943328857 -15760232.088851929 0 0 0 0 1049796.5452740341 -3399010.6803456657 0 -3399010.6803456657 -1186692.6242828509 0 0 0 0 4632.8741455078125 7000568.9404602051 0 7000568.9404602051 467222.00463104248 0 0 0 0 -2194285.5068359375 243510575.99838257 0 243510575.99838257 129089046.02386475 0 0 0 0 -31383400.355133057 -27198076.868629456 0 -27198076.868629456 -864256411.11184311 0 0 0 0 -2720827.0841725767 -1970088.9709301442 0 -1970088.9709301442 4029157.7428583279 0 0 0 0 461705.59269039682 325944863.49531299 0 325944863.49531299 -247193351.94674683 0 0 0 0 -121736778.86457825 366186954.13585472 0 366186954.13585472 -4580717.572479248 0 0 0 0 -46689754.341466904 85057448.478195667 0 85057448.478195667 -154585037.11211395 0 0 0 0 60806714.145095825 79425064.15439415 0 79425064.15439415 -125947470.36563873 0 0 0 0 -59341033.735198975 -7237139.3902339935 0 -7237139.3902339935 -155693614.28269196 0 0 0 0 -747958891.96766663 2207943798.3085518 0 2207943798.3085518 -725765453.18457031 0 0 0 0 -604926109.02215576 1993020414.6933136 0 1993020414.6933136 -414576677.34110546 0 0 0 0 -237313257.55465698 2320249478.0491791 0 2320249478.0491791 -427707325.29650879 0 0 0 0 345301.4832611084 2219617401.2034187 0 2219617401.2034187 -471430524.15802765 0 0 0 0 -386635871.08609009 1994618208.2466583 0 1994618208.2466583 -484932042.21209335 0 0 0 0 -657352916.11521912 2282666575.353714 0 2282666575.353714 -106430655.12860107 0 0 0 0 -1403895102.1148682 1583616752.859726 0 1583616752.859726 -598420690.85064888 0 0 0 0 -1726312113.212265 1902773869.1704559 0 1902773869.1704559 -573146783.5149231 0 0 0 0 -2913948090.2855377 1189125968.9487915 0 1189125968.9487915 -641579543.4552536 0 0 0 0 -2908080492.0466309 1116506150.3863602 0 1116506150.3863602 48508869.103385925 0 0 0 0 2353776.600682646 1183632.6951056793 0 1183632.6951056793 -2684795.9889323711 0 0 0 0 -3182147934.08078 465641982.9388504 0 465641982.9388504 -30943932.796325684 0 0 0 0 -1355010505.8683472 1703207530.1870117 0 1703207530.1870117 -1333364424.3009033 0 0 0 0 -2365875534.2745361 2124236990.0777588 0 2124236990.0777588 -711207667.87761688 0 0 0 0 -1465274653.3522644 1724211799.7259674 0 1724211799.7259674 -671549764.45278931 0 0 0 0 -914932299.94445801 2320627293.1595459 0 2320627293.1595459 -625519772.18320751 0 0 0 0 -1030715289.898468 2133188946.7967072 0 2133188946.7967072 565536408.6473999 0 0 0 0 -507924289.26271057 1896635363.6995163 0 1896635363.6995163 -185814039.87934875 0 0 0 0 -1188067934.3468704 645013926.30950928 0 645013926.30950928 -274141184.7449646 0 0 0 0 -2857984.15524593 2335454.2119848952 0 2335454.2119848952 -256336.63135086 0 0 0 0 -337492438.03979492 118032865.65631104 0 118032865.65631104 9410292.2931213379 0 0 0 0 -1476061010.4648743 1477203364.1205978 0 1477203364.1205978 -364660318.45239258 0 0 0 0 -470053923.11224365 2009930681.1418304 0 2009930681.1418304 -240746612.33050728 0 0 0 0 1423465426.081131 902257049.61108017 0 902257049.61108017 532684972.62786865 0 0 0 0 -136308449.6363678 1900383520.9732513 0 1900383520.9732513 1463415864.1949005 0 0 0 0 -40337921.028411865 1920952408.2571106 0 1920952408.2571106 585673206.96889114 0 0 0 0 -490569584.01048851 2121383806.9477711 0 2121383806.9477711 793507192.81324768 0 0 0 0 -378794126.20632935 2447675686.8653946 0 2447675686.8653946 -403243679.60292816 0 0 0 0 -373233669.30426025 2267420562.9728279 0 2267420562.9728279 116422856.35168457 0 0 0 0 -99255629.819152832 2133602959.4888763 0 2133602959.4888763 164751462.46503448 0 0 0 0 -602503.14534562104 1910787841.9654112 0 1910787841.9654112 575066455.31298828 0 0 0 0 -262650761.31201172 1978352056.8421326 0 1978352056.8421326 682665404.36771393 0 0 0 0 -314703385.04014587 1803961704.1195297 0 1803961704.1195297 1199049732.9714966 0 0 0 0 -254559861.31007385 1672373855.2086792 0 1672373855.2086792 1018522119.3789597 0 0 0 0 -204489.39151000977 1732105762.6488075 0 1732105762.6488075 913685295.44076538 0 0 0 0 -334417582.78775024 1362565143.4666595 0 1362565143.4666595 960963909.49816489 0 0 0 0 -193404352.18188477 1651128454.5144615 0 1651128454.5144615 970446081.29208374 0 0 0 0 -416306646.97148514 1131534471.1607761 0 1131534471.1607761 552905539.75520325 0 0 0 0 -32528055.659362793 1293252936.1551971 0 1293252936.1551971 99908649.150112152 0 0 0 0 -745827.71075439453 1454481403.3164864 0 1454481403.3164864 431462632.99978638 0 0 0 0 180454083.30682373 1890735899.9258461 0 1890735899.9258461 1153742932.236496 0 0 0 0 355733649.83084106 1617738545.4106064 0 1617738545.4106064 1547877009.0115051 0 0 0 0 -47508558.057296753 1328540890.8155975 0 1328540890.8155975 643247356.823946 0 0 0 0 -504547480.24588013 1564774553.8029709 0 1564774553.8029709 1295504629.7486343 0 0 0 0 449136677.5993042 1756122371.6071739 0 1756122371.6071739 1057923175.7769699 0 0 0 0 449885051.85281944 1758309772.2940373 0 1758309772.2940373 822613767.07814026 0 0 0 0 1565536033.8321381 1569568880.3736382 0 1569568880.3736382 854208591.67681122 0 0 0 0 -252932226.72293854 1696312401.3275232 0 1696312401.3275232 1251422119.8463135 0 0 0 0 -447975555.02090454 1792784130.7061534 0 1792784130.7061534 1243905474.0823364 0 0 0 0 119503155.70776367 1763499809.7939682 0 1763499809.7939682 1044374444.3074875 0 0 0 0 282521456.8492775 1163290622.7889175 0 1163290622.7889175 1715714826.3630829 0 0 0 0 1526954116.2543793 1625525797.5394135 0 1625525797.5394135 910677137.02684593 0 0 0 0 119727380.81958008 42310949.789245605 0 42310949.789245605 -63384966.91973114 0 0 0 0 85860824.709075928 56023735.989883423 0 56023735.989883423 109223934.22790527 0 0 0 0 86458081.732635498 145232118.48225403 0 145232118.48225403 -83115533.222808838 0 0 0 0 22413717.938659668 -78094004.146606445 0 -78094004.146606445 64502113.713226318 0 0 0 0 -10394941.843274578 23968075.109146934 0 23968075.109146934 -13080348.602910347 0 0 0 0 -106639923.36395264 -65878043.185119629 0 -65878043.185119629 158416148.91314697 0 0 0 0 959520522.07784271 935364967.80283165 0 935364967.80283165 217824386.88938904 0 0 0 0 3869192629.1909103 2578121705.2243538 0 2578121705.2243538 618784006.26045227 0 0 0 0 1691282008.8875275 2655751826.8038521 0 2655751826.8038521 1373019764.8241653 0 0 0 0 2162278402.2828064 1539560183.9091654 0 1539560183.9091654 851431.6184387207 0 0 0 0 1279690348.4903564 3025899149.2161636 0 3025899149.2161636 3513653425.8207817 0 0 0 0 2162020852.2616119 -545145766.65664291 0 -545145766.65664291 120057386.93236923 0 0 0 0 -1551474.8296548277 18406858.624896653 0 18406858.624896653 -6008278.3020865619 0 0 0 0 16218163.092575073 31697201.826885223 0 31697201.826885223 -114601072.85394287 0 0 0 0 -133342451.1184845 -218691919.87515259 0 -218691919.87515259 121503887.77414703 0 0 0 0 4267357.8197565377 12421035.976111647 0 12421035.976111647 -3054885.5697485898 0 0 0 0 59151531.089477539 32378408.800308228 0 32378408.800308228 -109762147.80440521 0 0 0 0 -7801629.2347402573 26470607.292012237 0 26470607.292012237 -20532794.449845918 0 0 0 0 -53973164.249370575 -39040212.883161545 0 -39040212.883161545 -40939384.553039551 0 0 0 0 51714889.001220703 40274271.357559204 0 40274271.357559204 -20849238.749389648 0 0 0 0 -12319459.840194702 49378161.793815613 0 49378161.793815613 82408152.262451172 0 0 0 0 -16358209.096221924 132310093.45949554 0 132310093.45949554 188804230.70584106 0 0 0 0 102457965.09770966 49287017.276679993 0 49287017.276679993 76624271.030578613 0 0 0 0 -12606780.127105713 178401794.40197754 0 178401794.40197754 20118867.703399658 0 0 0 0 54601758.1824646 100665359.60775757 0 100665359.60775757 90531836.600189209 0 0 0 0 -111667945.88977051 95817660.729476929 0 95817660.729476929 140376671.58184814 0 0 0 0 46789121.501586914 7429321.8688049316 0 7429321.8688049316 189662259.02532959 0 0 0 0 79239994.805793762 139849769.53429031 0 139849769.53429031 394579565.25231934 0 0 0 0 40442358.524261475 98717040.895427704 0 98717040.895427704 450645229.078125 0 0 0 0 -13634.361225649714 207142.96846123785 0 207142.96846123785 -20359.872507584747 0 0 0 0 503861.82188889384 654331.16836534068 0 654331.16836534068 -460358.27944920957 0 0 0 0 60647399.120849609 -44167244.748901367 0 -44167244.748901367 -55660185.993286133 0 0 0 0 68159238.991699219 172966607.73461914 0 172966607.73461914 366451314.6697998 0 0 0 0 3589453.889171198 2289065.6417537704 0 2289065.6417537704 -1317662.7606190676 0 0 0 0 1787430.2409820557 26281398.776283264 0 26281398.776283264 -217821.09567260742 0 0 0 0 6540872.0831604004 13326886.775863647 0 13326886.775863647 2966468.8882331848 0 0 0 0 4194652.5225741565 1986356.8154312652 0 1986356.8154312652 -3088709.3532784805 0 0 0 0 4998968.9579643458 1483383.9674660694 0 1483383.9674660694 -3666896.4043487608 0 0 0 0 46478243.714172363 21916098.619510651 0 21916098.619510651 -1241015.8902893066 0 0 0 0 57636721.112243652 510171.30444335938 0 510171.30444335938 -40622391.098419189 0 0 0 0 136121047.6394043 14730292.301025391 0 14730292.301025391 -17780854.395996094 0 0 0 0 72998092.823974609 -26194510.203643799 0 -26194510.203643799 32858081.100341797 0 0 0 0 -2286708.229103297 2493386.6935601197 0 2493386.6935601197 -407672.44612653181 0 0 0 0 682889.61511230469 2710867.233581543 0 2710867.233581543 3185260.5873413086 0 0 0 0 8056942.6736311018 19708721.054630905 0 19708721.054630905 -8955046.7399344742 0 0 0 0 31334795.072430372 70957615.748964071 0 70957615.748964071 -3993720.4521942139 0 0 0 0 60065.466003417969 18717958.416511536 0 18717958.416511536 18885523.584411621 0 0 0 0 -6545251.0330836773 1759546.3966227509 0 1759546.3966227509 1331257.4954246655 0 0 0 0 3349892.134765625 6440811.0866699219 0 6440811.0866699219 8409446.9512939453 0 0 0 0 -80322.048494189978 978191.75393934734 0 978191.75393934734 633830.44429035485 0 0 0 0 4548436.1254279763 8463691.3018631339 0 8463691.3018631339 -4603073.4631045675 0 0 0 0 34236439.935997725 -55049888.314688087 0 -55049888.314688087 67278442.896606445 0 0 0 0 -17698411.196551673 20833863.595144488 0 20833863.595144488 -1396145.8453660384 0 0 0 0 -40199566.504501343 14025639.543441772 0 14025639.543441772 -20970794.095687866 0 0 0 0 12018111.535416998 14002247.991932333 0 14002247.991932333 -9576947.9852731824 0 0 0 0 -79948584.855827332 36121429.568546295 0 36121429.568546295 6792135.1173400879 0 0 0 0 56104991.816886902 -12678270.463243484 0 -12678270.463243484 -27929744.793014526 0 0 0 0 18823659.986999512 23463049.5962677 0 23463049.5962677 -19128323.637367249 0 0 0 0 7807571.4004211426 61732769.95916748 0 61732769.95916748 -46265846.634872437 0 0 0 0 -42791745.503173828 88164040.154754639 0 88164040.154754639 -51091645.489395142 0 0 0 0 140091967.73685455 77955580.756305695 0 77955580.756305695 -208994277.73321533 0 0 0 0 82851405.065795898 -51155176.080795288 0 -51155176.080795288 14110128.140106201 0 0 0 0 5283062.7009230405 2661033.5119902547 0 2661033.5119902547 -4770767.5400446728 0 0 0 0 -142531505.94238281 262644174.7684021 0 262644174.7684021 -40526434.083908081 0 0 0 0 1443069.1229089946 430763.96561061032 0 430763.96561061032 -988309.81046592444 0 0 0 0 -23036893.690750122 51964506.138267517 0 51964506.138267517 49362790.230278015 0 0 0 0 268700958.68179321 -291937577.60276794 0 -291937577.60276794 146511126.26293945 0 0 0 0 64176737.28805542 31149103.577163696 0 31149103.577163696 -145815461.54611206 0 0 0 0 51661269.653594971 192931629.11312866 0 192931629.11312866 71107013.986968994 0 0 0 0 -21378283.158416748 75745783.38659668 0 75745783.38659668 6714008.428314209 0 0 0 0 1173626.9239636064 566458.08786579594 0 566458.08786579594 -825729.83861117065 0 0 0 0 60566587.683380127 216738701.01838684 0 216738701.01838684 -30129331.157440186 0 0 0 0 4432933.4670715332 60227749.223831177 0 60227749.223831177 -56179219.025085449 0 0 0 0 51671194.812866211 52486859.800689697 0 52486859.800689697 4228549.4296875 0 0 0 0 -7484725.5087096542 23948513.610604182 0 23948513.610604182 -8445614.7994070947 0 0 0 0 -38693090.52734375 -11142851.853145599 0 -11142851.853145599 496667540.31578827 0 0 0 0 -19583701.959716797 62297929.166809082 0 62297929.166809082 -13890093.353607178 0 0 0 0 -2993774.8708277419 6820838.6141326278 0 6820838.6141326278 1546671.717200987 0 0 0 0 -3681563.4061279297 6170405.7522583008 0 6170405.7522583008 841125.71313476562 0 0 0 0 -13766705.573540807 9805974.9704020023 0 9805974.9704020023 1313531.6959639192 0 0 0 0 -36365686.616943359 -11723438.467941284 0 -11723438.467941284 3949386.4592285156 0 0 0 0 8502068.7724468559 14065461.636994138 0 14065461.636994138 -14329034.231074542 0 0 0 0 -230879.10601986572 11601527.681507781 0 11601527.681507781 -4147849.489686802 0 0 0 0 -11103166.22253418 28054309.048782349 0 28054309.048782349 -12022428.432986259 0 0 0 0 -18837341.714111328 57234911.354263306 0 57234911.354263306 -8793669.1743011475 0 0 0 0 12167812.62726596 25986136.422257125 0 25986136.422257125 1220541.9964879304 0 0 0 0 -32731877.049316406 40209507.916885376 0 40209507.916885376 -27818869.583480835 0 0 0 0 56107993.527832031 66922499.686065674 0 66922499.686065674 4678749.3885498047 0 0 0 0 -19422741.265060425 -2579119.5546722412 0 -2579119.5546722412 -55852067.867416382 0 0 0 0 -92020883.451446533 38314056.170883179 0 38314056.170883179 5160104.2301025391 0 0 0 0 -863304531.18888855 1101714138.3481026 0 1101714138.3481026 -1349381688.9640656 0 0 0 0 136592626.9095459 85235809.3671875 0 85235809.3671875 -37535436.27885437 0 0 0 0 3854764.2124646716 6949964.4910851866 0 6949964.4910851866 -18671762.440057948 0 0 0 0 77831337.405227661 158947171.54360199 0 158947171.54360199 15453701.213378906 0 0 0 0 -178125982.29125977 53348541.684944153 0 53348541.684944153 94089486.705337524 0 0 0 0 -255240928.39779663 -191307176.95077515 0 -191307176.95077515 -102704864.55677414 0 0 0 0 174376325.28863525 -44703087.237041473 0 -44703087.237041473 -671565113.64567566 0 0 0 0 14177707.156616211 42865062.525909424 0 42865062.525909424 5500057.1317749023 0 0 0 0 126540703.01992798 84488130.698516846 0 84488130.698516846 -732314017.39414978 0 0 0 0 844756.8717956543 139537187.14482117 0 139537187.14482117 -250814710.39054918 0 0 0 0 160585909.08758545 -17280302.483886719 0 -17280302.483886719 -443603736.59139252 0 0 0 0 16181812.797555596 22950524.247554742 0 22950524.247554742 -2920078.0941806757 0 0 0 0 -37076.707040935755 5123972.2951424569 0 5123972.2951424569 1921351.0271702614 0 0 0 0 31268356.171310425 22020684.346054077 0 22020684.346054077 -28091696.745941162 0 0 0 0 5669296.5894813538 14581366.333023071 0 14581366.333023071 -24752628.365539551 0 0 0 0 42943908.309753418 34053242.862846375 0 34053242.862846375 -36939341.013824463 0 0 0 0 11716085.378456995 19402090.280894592 0 19402090.280894592 3102495.9278051853 0 0 0 0 22352091.816131592 46087531.620651245 0 46087531.620651245 -38179637.645309448 0 0 0 0 16860147.223953247 108602634.61239243 0 108602634.61239243 -180591501.78520203 0 0 0 0 24344601.372840881 171593508.22501373 0 171593508.22501373 18683952.620544434 0 0 0 0 -43473627.532211304 98258849.898582458 0 98258849.898582458 5812437.1271972656 0 0 0 0 24005273.894590646 14267307.604488321 0 14267307.604488321 -16421755.306301713 0 0 0 0 38324135.236893073 14304788.779915787 0 14304788.779915787 -9698258.5182030834 0 0 0 0 389328923.53083801 226769125.82157898 0 226769125.82157898 104741876.65438938 0 0 0 0 25318515.771385774 7956323.1529690027 0 7956323.1529690027 -4196465.078768855 0 0 0 0 114074892.49694824 52674530.641403198 0 52674530.641403198 -437743143.19594479 0 0 0 0 513324057.28427124 1151018344.3481598 0 1151018344.3481598 1085283533.3877769 0 0 0 0 1164563198.6802368 2902743644.4400253 0 2902743644.4400253 5496990226.6404257 0 0 0 0 9139540.6733071581 3088726.8038538992 0 3088726.8038538992 -892958.05796471774 0 0 0 0 121027560.88037586 -347756028.29605007 0 -347756028.29605007 422106156.4727478 0 0 0 0 182199877.09412384 289570635.20668793 0 289570635.20668793 -24519998.479385376 0 0 0 0 7142135.3702383041 -15173375.062966347 0 -15173375.062966347 216975840.08306885 0 0 0 0 579422810.26405334 63890100.136001587 0 63890100.136001587 70707412.427558899 0 0 0 0 1923816323.1085968 -165219576.17179871 0 -165219576.17179871 -133437708.07414246 0 0 0 0 583547099.70290565 62304988.910648346 0 62304988.910648346 -113102779.22628784 0 0 0 0 65114785.799957275 -63829468.830062866 0 -63829468.830062866 48720878.896736145 0 0 0 0 45067496.617034912 81793414.300628662 0 81793414.300628662 167772422.73382568 0 0 0 0 80839458.234073639 18618889.974014282 0 18618889.974014282 4540790.2612915039 0 0 0 0 3639371.0378265381 -37284610.982093811 0 -37284610.982093811 51855860.798919678 0 0 0 0 -44293876.629867554 1385649.7729187012 0 1385649.7729187012 20889109.563049316 0 0 0 0 27480300.533065796 85777904.107894897 0 85777904.107894897 5210053.5780086517 0 0 0 0 -42392112.058906555 76479626.879714966 0 76479626.879714966 137426401.17619324 0 0 0 0 -43367258.186424255 55755317.394142151 0 55755317.394142151 -32517566.716438293 0 0 0 0 -74279803.006118774 19758550.011947632 0 19758550.011947632 48480181.217773438 0 0 0 0 -45386350.828994751 -7998378.5439605713 0 -7998378.5439605713 -2920236.9122009277 0 0 0 0 4125440.0634259954 12916760.895810187 0 12916760.895810187 -2295262.6303978451 0 0 0 0 -40513010.058334351 2645071.2294311523 0 2645071.2294311523 -16683859.344345093 0 0 0 0 -19942131.756996155 -12570679.850845337 0 -12570679.850845337 -66069914.733474731 0 0 0 0 47799985.142120361 109851094.10011292 0 109851094.10011292 -31211209.949633598 0 0 0 0 -33102116.018417358 11056688.472488403 0 11056688.472488403 8257306.2290802002 0 0 0 0 -28289942.43586731 -40321865.870910645 0 -40321865.870910645 -16739592.837554932 0 0 0 0 730430.59819793701 27038621.472675323 0 27038621.472675323 51599292.67855835 0 0 0 0 -5508788.60157267 9133597.8583271205 0 9133597.8583271205 -1459174.2401688769 0 0 0 0 -88721197.978424072 37671177.116485596 0 37671177.116485596 80532105.616729736 0 0 0 0 -21539414.333702885 2433606.2588569187 0 2433606.2588569187 5206870.898570776 0 0 0 0 -37306312.818359375 -44643459.175174713 0 -44643459.175174713 51141459.516998291 0 0 0 0 56168965.97114563 -52013277.539169312 0 -52013277.539169312 -15243919.325691223 0 0 0 0 -35052618.539428711 16911275.712738037 0 16911275.712738037 39994121.068267822 0 0 0 0 -6433700.4180944562 7299981.964247413 0 7299981.964247413 -827779.60342791677 0 0 0 0 -17699836.944219843 10460152.841404319 0 10460152.841404319 -1644251.7914421931 0 0 0 0 -1950543.2415390015 22136006.10307312 0 22136006.10307312 28515545.29208374 0 0 0 0 3209737.4301147461 19661091.275634766 0 19661091.275634766 28403074.959289551 0 0 0 0 -1421779.855703786 -883490.95712183416 0 -883490.95712183416 1125290.1191618741 0 0 0 0 43849603.290649414 49569821.100860596 0 49569821.100860596 168668424.96437073 0 0 0 0 -1872170.0508486703 -547471.46887868457 0 -547471.46887868457 855425.09354082495 0 0 0 0 47797156.529327393 131866318.02674103 0 131866318.02674103 127454108.29663086 0 0 0 0 -47421961.660827637 -23892456.190856934 0 -23892456.190856934 36078471.319702148 0 0 0 0 32965268.743835449 71927395.492462158 0 71927395.492462158 134153266.82064819 0 0 0 0 130830375.14294434 56876399.897537231 0 56876399.897537231 15862917.589614868 0 0 0 0 22793838.319641113 -38166242.919769287 0 -38166242.919769287 -16560929.385217667 0 0 0 0 106453328.1182251 24327241.782104492 0 24327241.782104492 130136311.8381958 0 0 0 0 64705433.170257568 80862533.895706177 0 80862533.895706177 60717221.806884766 0 0 0 0 -97773447.112976074 72147635.885620117 0 72147635.885620117 20925142.197265625 0 0 0 0 17559505.722869873 178711368.42947388 0 178711368.42947388 5955692.6237945557 0 0 0 0 67404185.771820068 176561957.23412323 0 176561957.23412323 4465231.0832824707 0 0 0 0 142539848.71603394 33383549.129318237 0 33383549.129318237 50312023.393951416 0 0 0 0 29970901.061447144 35513532.664035797 0 35513532.664035797 -37828175.118179321 0 0 0 0 -118246.34105420113 -126454.59945070744 0 -126454.59945070744 -208944.65756103396 0 0 0 0 -39862.303766705096 -87228.012432336807 0 -87228.012432336807 -56219.524858362973 0 0 0 0 42282021.084960938 61783437.364959717 0 61783437.364959717 -108344691.15509033 0 0 0 0 -102025787.12518311 -35575469.391769409 0 -35575469.391769409 39409335.664276123 0 0 0 0 -78982776.014358521 56816104.515060425 0 56816104.515060425 46545648.414855957 0 0 0 0 -62420543.601745605 -3503750.6051025391 0 -3503750.6051025391 31053739.382110596 0 0 0 0 -30727693.538078308 51984875.709148407 0 51984875.709148407 -107081651.50366211 0 0 0 0 1454769.9595917463 12324364.689065553 0 12324364.689065553 -3756669.3112317957 0 0 0 0 -660129367.0922699 363052578.55730057 0 363052578.55730057 -12251567.68547821 0 0 0 0 -186259812.49238586 380968377.80338287 0 380968377.80338287 -500146200.91186905 0 0 0 0 -188636994.22560883 1680241649.7853546 0 1680241649.7853546 -2466580708.2072449 0 0 0 0 -766477886.62763977 2049426745.4303131 0 2049426745.4303131 -2694083222.7298889 0 0 0 0 -459800101.24348068 1451152276.2432327 0 1451152276.2432327 -1735493812.4819946 0 0 0 0 -92337059.01574707 1016020161.8672256 0 1016020161.8672256 -1362240052.9901755 0 0 0 0 -305862955.27650452 96219252.158599854 0 96219252.158599854 -619526370.78227997 0 0 0 0 1943809.4659666717 14211214.54218822 0 14211214.54218822 -2644193.8359478042 0 0 0 0 9323350.4757995605 38103402.398544312 0 38103402.398544312 -15200445.174468994 0 0 0 0 -53174167.66819191 42996770.808460236 0 42996770.808460236 30965550.127624512 0 0 0 0 104169999.67449951 45681402.165893555 0 45681402.165893555 29079365.442718506 0 0 0 0 -1603897.22785303 -1015536.4987515025 0 -1015536.4987515025 1159283.4358246028 0 0 0 0 -31893823.194396973 4771320.3713989258 0 4771320.3713989258 1677184.5179443359 0 0 0 0 -23359668.296125606 4693350.9715259373 0 4693350.9715259373 6787278.902734533 0 0 0 0 273726971.01634216 251515200.99767685 0 251515200.99767685 -3598194930.5195007 0 0 0 0 1034835673.2599792 820414537.34686279 0 820414537.34686279 550593981.42721558 0 0 0 0 -576167.08525405824 1334058.3042214289 0 1334058.3042214289 447044.96655056998 0 0 0 0 210246699.10458374 226842781.30639648 0 226842781.30639648 293515115.65970612 0 0 0 0 413381781.60977936 87370627.850563049 0 87370627.850563049 -94875610.139373779 0 0 0 0 496800551.22639465 3508957.8528747559 0 3508957.8528747559 -37488987.320755005 0 0 0 0 121205374.83290863 -153434244.34523773 0 -153434244.34523773 -85521569.509399414 0 0 0 0 -36607570.789215088 168309940.27601624 0 168309940.27601624 133568306.62542725 0 0 0 0 56611759.114692688 32336218.012199402 0 32336218.012199402 80460984.422286987 0 0 0 0 -77722641.220870972 155702715.33488464 0 155702715.33488464 13863654.937637329 0 0 0 0 76927174.815681458 91119247.199165344 0 91119247.199165344 -255220983.85603333 0 0 0 0 90271423.910072327 6971877.9027557373 0 6971877.9027557373 -134424863.26719666 0 0 0 0 3975155.1324573904 1432112.5994125977 0 1432112.5994125977 -1596302.8869767603 0 0 0 0 498451081.09605408 -191667450.27496338 0 -191667450.27496338 -218919908.73252869 0 0 0 0 510706936.93782043 538106209.57740784 0 538106209.57740784 315386476.6126709 0 0 0 0 1742022.4192681611 -668995.17590340227 0 -668995.17590340227 -577953.47463357169 0 0 0 0 132824234.72672272 377201656.23488617 0 377201656.23488617 585040840.2791748 0 0 0 0 299425018.09463501 1025625981.3483887 0 1025625981.3483887 -15380887.708679199 0 0 0 0 177898165.19979858 1190825833.6312256 0 1190825833.6312256 4531381.7695970535 0 0 0 0 -1731346981.3004608 2043522593.1489067 0 2043522593.1489067 -77653587.086364746 0 0 0 0 -815313363.99671936 617073097.32162094 0 617073097.32162094 121398434.45333862 0 0 0 0 864449771.97964478 27139736.804870605 0 27139736.804870605 -277231679.22836304 0 0 0 0 472316818.3256073 83152646.089179993 0 83152646.089179993 -272821918.59884644 0 0 0 0 -528902764.67210388 691704892.36305237 0 691704892.36305237 -78563973.222366333 0 0 0 0 -431669675.37147522 -34336789.141082764 0 -34336789.141082764 27886947.570037842 0 0 0 0 479015320.35987091 -277759000.76090622 0 -277759000.76090622 72181961.025848389 0 0 0 0 -1273207636.920929 388091250.59634399 0 388091250.59634399 689324221.42347717 0 0 0 0 -5588895.3783063069 6004245.6571954228 0 6004245.6571954228 -1232760.3578904755 0 0 0 0 -71634098.398712158 1059813394.1181946 0 1059813394.1181946 -5368703859.8217163 0 0 0 0 67353833.420776367 239870517.17958832 0 239870517.17958832 603226038.39190674 0 0 0 0 -1780544336.8821487 3526714953.4669704 0 3526714953.4669704 -4956211652.4891052 0 0 0 0 -3075412601.1529694 1685623209.3572006 0 1685623209.3572006 147448703.61400414 0 0 0 0 -2851680823.5828695 595111934.99609089 0 595111934.99609089 -2602213320.0461884 0 0 0 0 -1705436932.2075653 1497915989.1232758 0 1497915989.1232758 -2071603433.213768 0 0 0 0 -763657198.86682129 2405387317.5492859 0 2405387317.5492859 -4846546511.1495667 0 0 0 0 -2788589950.5091915 2890562306.5177503 0 2890562306.5177503 -2663222744.2937012 0 0 0 0 -676866631.49481201 1725563894.2285538 0 1725563894.2285538 -2077644218.7152958 0 0 0 0 -747991841.86941528 936324871.2923584 0 936324871.2923584 -1937263615.8956451 0 0 0 0 -695310648.73873901 1580339965.3412399 0 1580339965.3412399 -3217110062.5208359 0 0 0 0 -1376419619.9572449 897786265.40151215 0 897786265.40151215 -2305599479.825058 0 0 0 0 -1569294274.5547943 2492431610.42799 0 2492431610.42799 -1713405543.9065857 0 0 0 0 -674011571.01784515 1568709166.2867661 0 1568709166.2867661 -1645727925.2612 0 0 0 0 -1128801578.1595573 2180232784.4845657 0 2180232784.4845657 -1489658128.5706482 0 0 0 0 -1260095371.0309563 2148245150.2015572 0 2148245150.2015572 -565125300.63833618 0 0 0 0 -1014099243.1829605 2154403200.2659378 0 2154403200.2659378 -1527719577.9418259 0 0 0 0 -736990968.24215698 1852157512.1104584 0 1852157512.1104584 -537551762.49940348 0 0 0 0 -1355246282.8697624 2290225877.6843567 0 2290225877.6843567 -20284135.781509399 0 0 0 0 -1798399286.0365372 934953720.87218475 0 934953720.87218475 -552645765.14068604 0 0 0 0 -3738504689.447155 1804076674.8604612 0 1804076674.8604612 -84747114.880264282 0 0 0 0 1713876983.383667 1706077894.3071289 0 1706077894.3071289 208679864.41757202 0 0 0 0 -225468.42078905832 2369681.5306838937 0 2369681.5306838937 266845.17343138158 0 0 0 0 -843438894.7491188 1837993087.1994381 0 1837993087.1994381 154430675.36579895 0 0 0 0 911043168.86942291 480857883.65547943 0 480857883.65547943 -107230444.12228394 0 0 0 0 1319867229.1426697 505555023.55763245 0 505555023.55763245 -110983656.94742107 0 0 0 0 1224035016.7212906 618951290.80024719 0 618951290.80024719 -244462031.50752258 0 0 0 0 1554715566.8095856 1831324766.7339478 0 1831324766.7339478 125884129.41233826 0 0 0 0 4482428037.6119843 885335906.12039185 0 885335906.12039185 -609457095.11373138 0 0 0 0 1756177318.4167633 722913704.46450806 0 722913704.46450806 -272563942.52813721 0 0 0 0 2038540835.5699692 -1074047563.48629 0 -1074047563.48629 -175325162.40609741 0 0 0 0 3433174667.8377991 -1092188517.5097656 0 -1092188517.5097656 1027125013.7500076 0 0 0 0 1402992944.9815369 2235484240.6027794 0 2235484240.6027794 3653201807.9747314 0 0 0 0 -1117587427.3322906 1346549739.7926636 0 1346549739.7926636 1006332178.5533524 0 0 0 0 -619619.86366984807 4085283.1419546604 0 4085283.1419546604 -757143.41667073965 0 0 0 0 -2322759889.41541 932215482.77155685 0 932215482.77155685 -549176231.23988342 0 0 0 0 715483356.76921844 448137026.93427086 0 448137026.93427086 -63705954.903366089 0 0 0 0 -259779531.71681213 -400941479.38340759 0 -400941479.38340759 -178345574.5777359 0 0 0 0 -200605924.79243851 -637834792.6580925 0 -637834792.6580925 283233358.60263062 0 0 0 0 -182989.10096208844 3542195.8308832124 0 3542195.8308832124 -6731630.3762144595 0 0 0 0 -1636138042.5384064 -479169336.11469078 0 -479169336.11469078 607876937.99481201 0 0 0 0 -2472719474.9234591 88005451.712911606 0 88005451.712911606 342028927.11294556 0 0 0 0 -218551159.69146729 -1182135853.3611298 0 -1182135853.3611298 535776066.74944687 0 0 0 0 780469305.3626709 -388427651.19841766 0 -388427651.19841766 12868029.493057251 0 0 0 0 600797518.43377686 -230914677.36491394 0 -230914677.36491394 1095296031.8094025 0 0 0 0 1123716866.7530136 901756682.98578262 0 901756682.98578262 743469953.96398926 0 0 0 0 4676502008.1182365 2123287999.0641251 0 2123287999.0641251 850509423.42831421 0 0 0 0 2335422108.9536438 -295231915.5956459 0 -295231915.5956459 -451996971.96902466 0 0 0 0 568786317.35302734 225673705.79881287 0 225673705.79881287 -516879551.54559326 0 0 0 0 926227046.0776825 -679655673.72192383 0 -679655673.72192383 -615063616.43276978 0 0 0 0 506951444.83042145 -464218638.62743378 0 -464218638.62743378 -1778539551.5413971 0 0 0 0 71994.805778354406 3615820.5781766027 0 3615820.5781766027 -601061.12873999029 0 0 0 0 323895927.54272461 489459660.53636169 0 489459660.53636169 -1077985895.5266037 0 0 0 0 977244000.23539734 551630300.40937805 0 551630300.40937805 -1007415723.7050781 0 0 0 0 -341901422.09698486 -86537649.64175415 0 -86537649.64175415 -702391952.86830139 0 0 0 0 439831167.85546875 -107022482.15182495 0 -107022482.15182495 -770128062.06568909 0 0 0 0 160555504.30015564 565264681.33243561 0 565264681.33243561 -947299262.63565063 0 0 0 0 -1686902.4128139615 8275356.9762674831 0 8275356.9762674831 -465455.97522575222 0 0 0 0 -2592432.0767593384 98695216.911787033 0 98695216.911787033 147220646.26568604 0 0 0 0 -2578402.0342152566 3241543.9997535571 0 3241543.9997535571 5517336.5981511027 0 0 0 0 37830897.365371704 106894456.59314728 0 106894456.59314728 144223929.73019409 0 0 0 0 -59446901.957092285 90252879.499481201 0 90252879.499481201 309036896.88683319 0 0 0 0 2112567.4238433838 85663002.218360901 0 85663002.218360901 130039421.2742939 0 0 0 0 45581473.014957428 -36385129.559970856 0 -36385129.559970856 156148229.03181458 0 0 0 0 -6071548.1675453186 114609728.49960518 0 114609728.49960518 -28174402.770126343 0 0 0 0 -25093839.776168823 20224772.714042664 0 20224772.714042664 65542141.135414124 0 0 0 0 -2267961.507019043 147239121.53142548 0 147239121.53142548 170779809.87756348 0 0 0 0 24766790.039550781 49628287.636863708 0 49628287.636863708 -1046209973.5277176 0 0 0 0 -153085220.30006409 -326257855.18209839 0 -326257855.18209839 -190488301.60637474 0 0 0 0 2130877.9445887432 3910354.43351404 0 3910354.43351404 -18169440.571543753 0 0 0 0 -48063135.260658264 -285884348.9927063 0 -285884348.9927063 -416529081.79115295 0 0 0 0 -2175754396.7302151 871815661.12501144 0 871815661.12501144 1000755795.4738464 0 0 0 0 7216542.396510208 7526289.2511797436 0 7526289.2511797436 -31985376.829820707 0 0 0 0 67415821.126728058 670814513.15385818 0 670814513.15385818 -3007532488.3873901 0 0 0 0 60585587.982208252 69714370.188961029 0 69714370.188961029 1009562.4505386353 0 0 0 0 1010615.590067558 23935767.033365697 0 23935767.033365697 961779.9529308714 0 0 0 0 34725365.124256134 33888162.734729767 0 33888162.734729767 -45839460.708000183 0 0 0 0 54123319.07837677 126390182.91370392 0 126390182.91370392 41675963.992004395 0 0 0 0 83337585.870834351 -5386353.432723999 0 -5386353.432723999 -257399006.81231689 0 0 0 0 -294274065.07540131 160123961.56697845 0 160123961.56697845 354370383.31079102 0 0 0 0 -896085.64436061867 6768298.7277900577 0 6768298.7277900577 1047674.1948363483 0 0 0 0 27132777.420349121 494689084.78795242 0 494689084.78795242 701966155.43273926 0 0 0 0 170179645.77897072 -22090647.566015244 0 -22090647.566015244 151444087.27423096 0 0 0 0 121288559.96205139 229242911.71533203 0 229242911.71533203 447758323.43391418 0 0 0 0 381821761.74995422 214720216.47642517 0 214720216.47642517 763948.14862060547 0 0 0 0 1112860182.4346962 1182779648.2362137 0 1182779648.2362137 640704631.15524292 0 0 0 0 735376126.33757782 419981162.78859711 0 419981162.78859711 118563640.4858017 0 0 0 0 33350033.216247559 85916678.618499756 0 85916678.618499756 -755.22627258300781 0 0 0 0 -1587818.9932022095 89729431.480834961 0 89729431.480834961 58228197.711364746 0 0 0 0 -4783254.5257492065 68035568.142810822 0 68035568.142810822 -55137396.495056152 0 0 0 0 153427386.02197266 226542329.09402466 0 226542329.09402466 173861125.9382782 0 0 0 0 68668166.588653564 87496925.177154541 0 87496925.177154541 -534560.93006134033 0 0 0 0 120073944.38523489 68905918.202128172 0 68905918.202128172 122489651.14154053 0 0 0 0 5384172.5163116455 76375820.460784912 0 76375820.460784912 151889894.48928833 0 0 0 0 30203379.487869263 12950483.914611816 0 12950483.914611816 18266631.157470703 0 0 0 0 -14888454.207824707 675605.43095397949 0 675605.43095397949 49925957.052822113 0 0 0 0 -16469284.842056274 11686573.00812912 0 11686573.00812912 -7624379.7329406738 0 0 0 0 -12167167.558456421 -23781393.369434357 0 -23781393.369434357 -34154698.682891846 0 0 0 0 -22970059.870986938 -9369977.3124504089 0 -9369977.3124504089 -38171606.972473145 0 0 0 0 -24816661.048469543 -9858299.3543243408 0 -9858299.3543243408 35279955.581176758 0 0 0 0 23813513.932495117 -55018965.791641235 0 -55018965.791641235 -80999548.497131348 0 0 0 0 -15400978.771343231 -44460314.556377411 0 -44460314.556377411 44857185.851593018 0 0 0 0 1407410.6730163991 25919632.121524818 0 25919632.121524818 1213757.2428075485 0 0 0 0 -12722040.636917114 24160614.887466431 0 24160614.887466431 30046596.538742065 0 0 0 0 22195254.987625122 7462979.5553588867 0 7462979.5553588867 -145523348.97712708 0 0 0 0 4103344.7957705408 15621517.677836036 0 15621517.677836036 -9044876.2477006763 0 0 0 0 9086329.2857208252 15464425.727966309 0 15464425.727966309 -910620.18171310425 0 0 0 0 3541564.1123941243 11875665.471992962 0 11875665.471992962 -3875073.6058934778 0 0 0 0 6702712.8771362305 54245558.321426392 0 54245558.321426392 167665725.21642303 0 0 0 0 7824652.3411102295 8228444.1613502502 0 8228444.1613502502 -10375781.981964111 0 0 0 0 5490969.493019104 8741887.8969841003 0 8741887.8969841003 -3439307.2655487061 0 0 0 0 8439987.3144721985 9228445.2850971222 0 9228445.2850971222 -6677700.8555603027 0 0 0 0 7067832.0786247253 13007911.512296677 0 13007911.512296677 2167621.5390014648 0 0 0 0 -28218830.987091064 12025351.008377075 0 12025351.008377075 -22335268.498924255 0 0 0 0 -30895286.892852783 -2775807.5321960449 0 -2775807.5321960449 -14309351.763153076 0 0 0 0 -30337682.582458496 336732.26078796387 0 336732.26078796387 928024.3063659668 0 0 0 0 -26629499.154632568 5909743.5877990723 0 5909743.5877990723 -10069680.549957275 0 0 0 0 9032342.1643450111 8753889.6313181054 0 8753889.6313181054 -11907419.153117701 0 0 0 0 10733516.969352722 11865301.714187622 0 11865301.714187622 -883668.49630737305 0 0 0 0 11842512.813812256 16319045.285980225 0 16319045.285980225 563973.57271194458 0 0 0 0 2050869.3706408218 11383467.309745297 0 11383467.309745297 -9943028.8481673598 0 0 0 0 -1674298.1801547036 2539109.5897319913 0 2539109.5897319913 -3709426.362283133 0 0 0 0 3167073.2353775874 7216360.4469578601 0 7216360.4469578601 -631396.62125012279 0 0 0 0 -5716516.9855270386 8869724.9288597107 0 8869724.9288597107 53393.809417724609 0 0 0 0 3974695.6264648438 9178541.0260009766 0 9178541.0260009766 59961.969207763672 0 0 0 0 1565625.6345367432 11177271.544540405 0 11177271.544540405 -2490881.3787460327 0 0 0 0 -1275759.5806476176 1319181.2846209481 0 1319181.2846209481 -377984.36908642948 0 0 0 0 -3115057.4669799805 18658293.567352295 0 18658293.567352295 36879398.518486023 0 0 0 0 -27539568.646011353 41240406.389442444 0 41240406.389442444 9776.2418212890625 0 0 0 0 -10110269.806777954 30659359.538002014 0 30659359.538002014 2374701.8541107178 0 0 0 0 1682399.7842254639 7734781.2891769409 0 7734781.2891769409 -855041.20944213867 0 0 0 0 -45324940.414031982 34405502.839988708 0 34405502.839988708 12421944.944564819 0 0 0 0 -83303690.203369141 19428703.372558594 0 19428703.372558594 19211768.536865234 0 0 0 0 -126078.08685021801 7415222.7318145558 0 7415222.7318145558 6549933.9109831899 0 0 0 0 5998820.5637436751 10427234.504265897 0 10427234.504265897 -352848.77456940711 0 0 0 0 -22952154.736846924 25050072.779800415 0 25050072.779800415 6951869.7631072998 0 0 0 0 -968965.9044162631 23994021.62936978 0 23994021.62936978 4986666.4410597607 0 0 0 0 -3417518.2950744629 35413506.851486206 0 35413506.851486206 -2169191.9309387207 0 0 0 0 -17677980.757019043 38564234.969650269 0 38564234.969650269 7359697.53515625 0 0 0 0 -2352445.8171083629 28983116.58837948 0 28983116.58837948 7206536.9953884333 0 0 0 0 -8153310.1960830688 39237528.888160706 0 39237528.888160706 25518943.239837646 0 0 0 0 9155015.5048065186 12612359.516532898 0 12612359.516532898 -889821.1242980957 0 0 0 0 8722378.2141309045 11001981.160800755 0 11001981.160800755 -16004756.510256201 0 0 0 0 47658376.823272705 53768425.145988464 0 53768425.145988464 -25465230.414405823 0 0 0 0 -12917340.33767128 59525614.358381271 0 59525614.358381271 460179.43969726562 0 0 0 0 5870530.5564575195 8601498.6036911011 0 8601498.6036911011 -6207847.7934951782 0 0 0 0 211424050.01905823 44857847.756027222 0 44857847.756027222 -117138204.12145996 0 0 0 0 7510026.428625796 3751061.6037844718 0 3751061.6037844718 -14712338.480485469 0 0 0 0 131008557.05801392 17547113.733383179 0 17547113.733383179 -2344153.0458555222 0 0 0 0 190103866.49209595 85592292.244674683 0 85592292.244674683 -113449914.58149338 0 0 0 0 289367119.14105225 -62110445.556365967 0 -62110445.556365967 29029118.604003906 0 0 0 0 -76246585.524356842 46215251.780956268 0 46215251.780956268 25782749.51524353 0 0 0 0 -14181247.972325444 16217265.870776499 0 16217265.870776499 10729883.144043349 0 0 0 0 -19295970.987915039 152892880.52966309 0 152892880.52966309 -84366129.908569336 0 0 0 0 1042520922.8323364 2033369674.5132751 0 2033369674.5132751 3082684915.1464081 0 0 0 0 1494313031.8775539 2781774163.331357 0 2781774163.331357 2360506549.8499756 0 0 0 0 1824548346.092123 167289816.77608109 0 167289816.77608109 -5225184.6156311035 0 0 0 0 3089299278.2657166 1428916423.2768211 0 1428916423.2768211 1661156713.0975647 0 0 0 0 927012933.11056519 1702215846.6076202 0 1702215846.6076202 1747103719.1435242 0 0 0 0 661499925.61148071 685518550.93070984 0 685518550.93070984 725259537.16654968 0 0 0 0 1467965979.5103912 2582888389.4911232 0 2582888389.4911232 2246003200.3437195 0 0 0 0 1718804574.0376587 2597412394.1054382 0 2597412394.1054382 359432536.31365967 0 0 0 0 1311402579.8721008 2123845181.999939 0 2123845181.999939 2165026592.7341309 0 0 0 0 1871867903.0692444 2216564197.6525726 0 2216564197.6525726 2149580285.1758327 0 0 0 0 -659276.21382974088 3103600.2942678221 0 3103600.2942678221 -924053.92259881645 0 0 0 0 1821111099.48522 2649405920.469821 0 2649405920.469821 2202689879.4259338 0 0 0 0 1502309347.6128693 3173385434.2728424 0 3173385434.2728424 4880195205.8940125 0 0 0 0 4263128.2268779874 5419432.3147267476 0 5419432.3147267476 -1615801.1142155789 0 0 0 0 -310263187.99847412 -342444462.79278564 0 -342444462.79278564 536010307.33312988 0 0 0 0 -9608739.963049598 13676942.387335276 0 13676942.387335276 3872944.4715650901 0 0 0 0 -186594.40503695887 1475974.7504717857 0 1475974.7504717857 354335.74002176523 0 0 0 0 -409766867.03765869 640012189.11708069 0 640012189.11708069 2938928193.1430664 0 0 0 0 726187094.21579552 421048559.25910187 0 421048559.25910187 215625497.58007812 0 0 0 0 -28792.364786699414 177326.54319663346 0 177326.54319663346 -362448.44124481827 0 0 0 0 -4716393.3771749884 12639424.641673557 0 12639424.641673557 1097372.9329523239 0 0 0 0 -523830.81854890287 9473859.59850128 0 9473859.59850128 -966690.85863051936 0 0 0 0 23663140.84552002 -64195201.727813721 0 -64195201.727813721 198993251.51153564 0 0 0 0 389347955.95848846 722892814.22577286 0 722892814.22577286 -272202396.27049255 0 0 0 0 -25086838.520050049 -55281916.481941223 0 -55281916.481941223 214022872.57377625 0 0 0 0 -95830904.073196411 74766532.018447876 0 74766532.018447876 170897519.02911377 0 0 0 0 8392697.7426452637 90413306.384658813 0 90413306.384658813 153464209.02555847 0 0 0 0 498575894.9707489 997716774.5480423 0 997716774.5480423 -476330882.62753296 0 0 0 0 -418134120.83795166 501017976.02900696 0 501017976.02900696 -669321871.33337402 0 0 0 0 -11653775.263671875 10089923.803695679 0 10089923.803695679 33353908.170902252 0 0 0 0 -279253240.56666946 -110753496.00921631 0 -110753496.00921631 21271401.051513672 0 0 0 0 -953148083.00830078 175721533.10580444 0 175721533.10580444 -45232162.603019714 0 0 0 0 1485830.0380024463 1216634.1228589062 0 1216634.1228589062 -2320778.5079381615 0 0 0 0 2117591228.0051575 1760066297.8788223 0 1760066297.8788223 1250456813.5531082 0 0 0 0 2397534146.6192818 2601417545.5596008 0 2601417545.5596008 911431528.08068848 0 0 0 0 -710672147.32995605 1145839751.0654297 0 1145839751.0654297 -253840618.11262512 0 0 0 0 1676811982.8114929 1471413797.2890167 0 1471413797.2890167 -209561218.28717041 0 0 0 0 406681534.55479431 1206566213.3228073 0 1206566213.3228073 1893850549.9776306 0 0 0 0 218635641.81407166 1871518416.2835007 0 1871518416.2835007 2000807079.1296387 0 0 0 0 322772980.14796448 2058266979.8272247 0 2058266979.8272247 900392638.69869995 0 0 0 0 964787276.22886276 1510844136.40625 0 1510844136.40625 1359718442.0694885 0 0 0 0 599856438.00159073 109649834.94439316 0 109649834.94439316 -537008.89625549316 0 0 0 0 12403687.221971918 1922926.3108901531 0 1922926.3108901531 -7330179.8333801627 0 0 0 0 284036890.27960205 398662804.51182556 0 398662804.51182556 -855662641.92491913 0 0 0 0 -293178678.00887299 480796578.33664703 0 480796578.33664703 -627983003.43386841 0 0 0 0 848154907.31797409 1146069998.7009954 0 1146069998.7009954 -41899787.28616333 0 0 0 0 -522811544.06799316 247137503.55137634 0 247137503.55137634 -564391075.22614288 0 0 0 0 3189045638.2452316 1221196991.3896179 0 1221196991.3896179 439817874.0004425 0 0 0 0 2112654.3304311782 -1132380.4920169488 0 -1132380.4920169488 -158560.16446623206 0 0 0 0 -1673134707.4331665 2120185271.4223366 0 2120185271.4223366 456197868.63983154 0 0 0 0 -224279199.38087463 376177723.81638336 0 376177723.81638336 -562507236.53487396 0 0 0 0 714559909.96811867 119022046.05792999 0 119022046.05792999 -661565607.40490723 0 0 0 0 492500526.30648804 242612060.67475891 0 242612060.67475891 -728130896.50455475 0 0 0 0 257802056.17493057 134494488.15256739 0 134494488.15256739 -755986099.22613525 0 0 0 0 465969284.8837738 -84707441.009315491 0 -84707441.009315491 -1147156992.3980789 0 0 0 0 -34161880.475723267 -153135034.84269714 0 -153135034.84269714 -696093159.77377319 0 0 0 0 186490754.30002594 -199611100.3476944 0 -199611100.3476944 -1776507857.2587128 0 0 0 0 -4548090487.6598816 2008315097.066268 0 2008315097.066268 -360743971.62258911 0 0 0 0 -146198659.14613342 -431802641.76258087 0 -431802641.76258087 -617046408.65901947 0 0 0 0 155022.3135973718 611441.36928463727 0 611441.36928463727 -6232395.399557054 0 0 0 0 -3234899743.0327988 -78010361.003072739 0 -78010361.003072739 -786878405.42721558 0 0 0 0 -2674836374.3069 1428152727.9936829 0 1428152727.9936829 -2289165262.1544266 0 0 0 0 -3286302301.5638428 642908590.20851135 0 642908590.20851135 -91053952.526290894 0 0 0 0 -404249017.52056885 1089494981.6051483 0 1089494981.6051483 -1956247849.6133575 0 0 0 0 -2158416424.509491 1008568018.5907669 0 1008568018.5907669 -91777219.480072424 0 0 0 0 -2831720057.8277435 -95431480.073165894 0 -95431480.073165894 218805297.9379425 0 0 0 0 -3455658561.1048584 401984694.2900238 0 401984694.2900238 -113189266.82531738 0 0 0 0 -2513042648.8074036 1069911391.0763092 0 1069911391.0763092 -769405534.42579651 0 0 0 0 -3918314095.7049332 438624206.42922783 0 438624206.42922783 681930134.62884521 0 0 0 0 -3828410061.08535 688201711.45001984 0 688201711.45001984 -448202165.11367798 0 0 0 0 -226995383.31982422 -256764247.16960907 0 -256764247.16960907 80559020.942245483 0 0 0 0 -2515408515.1661072 837824923.66860962 0 837824923.66860962 1815230303.0602112 0 0 0 0 652099364.86375427 1108636649.9623871 0 1108636649.9623871 793197985.67034912 0 0 0 0 181722044.19601631 1417628829.0231867 0 1417628829.0231867 612342593.97888184 0 0 0 0 592057154.51876831 211425923.35810089 0 211425923.35810089 -663755130.05809021 0 0 0 0 715370760.3054657 934290681.16569519 0 934290681.16569519 319330384.58481598 0 0 0 0 1313657556.7539368 398255919.44877625 0 398255919.44877625 787669714.03797913 0 0 0 0 1333719160.8443909 1993769964.6130676 0 1993769964.6130676 1351795007.6442108 0 0 0 0 427397667.63887024 1327756446.7921143 0 1327756446.7921143 1314910814.3650818 0 0 0 0 485849217.30770874 1857855476.8302917 0 1857855476.8302917 4485488925.3101654 0 0 0 0 3294563761.7593994 2827510913.6737518 0 2827510913.6737518 973458876.7078495 0 0 0 0 -755800296.04755402 138408056.33885956 0 138408056.33885956 4197615946.6783447 0 0 0 0 1274503380.9728775 3076207471.0845528 0 3076207471.0845528 920351106.29608154 0 0 0 0 1623136623.3308411 148236448.42712402 0 148236448.42712402 1762224.2239837646 0 0 0 0 -11106550.208463348 23572267.629025046 0 23572267.629025046 -4599056.653017655 0 0 0 0 -872759.55775465071 8689058.6180051565 0 8689058.6180051565 2857349.7366084307 0 0 0 0 -2756409.2135095596 42270012.0428195 0 42270012.0428195 9216541.2805786133 0 0 0 0 19367228.113685608 37055784.067594528 0 37055784.067594528 48419.079727172852 0 0 0 0 15606329.230361938 27048410.172386169 0 27048410.172386169 4995178.9942569733 0 0 0 0 -3489217.3940391541 39791890.767051697 0 39791890.767051697 -7992.8537292480469 0 0 0 0 -3935093580.5748596 6249452767.6133118 0 6249452767.6133118 1790626391.1600647 0 0 0 0 53656781.088134766 6481621428.9482574 0 6481621428.9482574 -622696.16143798828 0 0 0 0 -6933648787.1962595 3558441031.2528701 0 3558441031.2528701 2302131815.3738403 0 0 0 0 -6963293802.6783447 166362217.79320526 0 166362217.79320526 1228648452.776413 0 0 0 0 -5958653.1350481212 9950328.7760707811 0 9950328.7760707811 2750002.5943156928 0 0 0 0 -2367178237.7237396 1034137653.7722321 0 1034137653.7722321 1382855857.8739605 0 0 0 0 -3296514942.144104 4049105418.1585999 0 4049105418.1585999 1743215628.9730225 0 0 0 0 -334723536.890625 1151643028.7170486 0 1151643028.7170486 726913944.44015503 0 0 0 0 -3435784029.3146963 1977956423.352375 0 1977956423.352375 862913217.51501465 0 0 0 0 -4324549328.4780884 3872710769.9629364 0 3872710769.9629364 1833334103.3961487 0 0 0 0 -6358723064.1469421 2466326454.8771439 0 2466326454.8771439 2075684710.662323 0 0 0 0 -3007953498.8360901 3686048571.2815247 0 3686048571.2815247 1193373480.0833893 0 0 0 0 -2035954345.6654663 2409943401.1816444 0 2409943401.1816444 379511829.28494263 0 0 0 0 -3000242461.8898926 1876270292.7364807 0 1876270292.7364807 1649996931.6582594 0 0 0 0 -3970003395.1187439 3445995586.6818237 0 3445995586.6818237 -589303922.20068359 0 0 0 0 -3728302601.837677 1154684887.5879211 0 1154684887.5879211 130625745.3422699 0 0 0 0 -12413493386.560059 1770166502.3068848 0 1770166502.3068848 -109489479.22247314 0 0 0 0 -3583705964.7683411 1579325264.9616699 0 1579325264.9616699 -3833608859.4835815 0 0 0 0 -224633326.20916748 2150387894.0632019 0 2150387894.0632019 -3618810890.4249268 0 0 0 0 539993304.54980469 4580176555.1413574 0 4580176555.1413574 -4833578583.9600601 0 0 0 0 -749359865.33422852 3096822205.6248474 0 3096822205.6248474 -2639808361.394043 0 0 0 0 -2609622.9171355218 1982593.7352556903 0 1982593.7352556903 1069739.7642652914 0 0 0 0 1450119998.1279907 492787313.54413605 0 492787313.54413605 380931126.63806152 0 0 0 0 514668783.23193359 4204823415.5537109 0 4204823415.5537109 -4797594055.1080627 0 0 0 0 -3844509952.5267162 715567551.99311543 0 715567551.99311543 -289407398.82528687 0 0 0 0 -36914320.810211182 613346798.7755127 0 613346798.7755127 95892529.371341705 0 0 0 0 -2293748.1495416164 17611578.481242798 0 17611578.481242798 -20706744.226026669 0 0 0 0 -708663460.61099243 671834637.76972198 0 671834637.76972198 130148012.44671249 0 0 0 0 -348615411.29174805 -83074780.743804932 0 -83074780.743804932 1393406139.8621216 0 0 0 0 -65672832.983123779 45730649.697288513 0 45730649.697288513 53492586.176757812 0 0 0 0 -7455691.770665383 5250173.0514587909 0 5250173.0514587909 24747690.299815997 0 0 0 0 -886145.94725049473 4895213.9530696273 0 4895213.9530696273 1053478.4678231478 0 0 0 0 -2158640245.0218048 2549175672.7262344 0 2549175672.7262344 1688079538.5720062 0 0 0 0 4492531123.1341858 938882979.14453125 0 938882979.14453125 -1684961813.7135849 0 0 0 0 1171829822.6498718 1252724519.2355118 0 1252724519.2355118 57843599.774688721 0 0 0 0 -213769678.78691101 33416446.348220825 0 33416446.348220825 51217026.206367493 0 0 0 0 15109301.719589233 44516150.202796936 0 44516150.202796936 -14246868.106887817 0 0 0 0 -27686667.450519562 126602536.8753233 0 126602536.8753233 -217350.58605957031 0 0 0 0 -678792.06174731627 8462101.5702685788 0 8462101.5702685788 1836641.6396768242 0 0 0 0 -2381513635.2792358 6688443130.391861 0 6688443130.391861 30184084.948547363 0 0 0 0 -3049021.1698506139 3551060.8154035807 0 3551060.8154035807 8133366.5303674191 0 0 0 0 5322317699.3395081 4401712344.4244232 0 4401712344.4244232 -1377925275.3259583 0 0 0 0 -3782186530.5821228 2929742966.4675217 0 2929742966.4675217 -1384776448.6455231 0 0 0 0 872110.35134887695 3581741611.3604736 0 3581741611.3604736 -2309022637.7382202 0 0 0 0 -2236756.4537864672 6632630.301556021 0 6632630.301556021 -4200698.8599541932 0 0 0 0 -2303242537.4230194 4574678279.1235428 0 4574678279.1235428 1467195.266998291 0 0 0 0 156683493.48721313 82221934.279151917 0 82221934.279151917 -54728449.755645752 0 0 0 0 -20275151.159534454 60616095.937320709 0 60616095.937320709 9275069.8241577148 0 0 0 0 64845571.896209717 123617716.47631836 0 123617716.47631836 177373.4449683573 0 0 0 0 12501773.741236687 68268725.946414948 0 68268725.946414948 46453869.0753479 0 0 0 0 106540754.04466248 32861433.599533081 0 32861433.599533081 -28500847.751983643 0 0 0 0 -156823.32531738281 979181.13836669922 0 979181.13836669922 -2173590.2012939453 0 0 0 0 -2426979631.6892853 1964462156.3340454 0 1964462156.3340454 -3369722100.8007202 0 0 0 0 1914947.9746795893 4759455.6252818815 0 4759455.6252818815 4378525.4728638977 0 0 0 0 9988230.0512084961 37984740.698974609 0 37984740.698974609 44400302.245704651 0 0 0 0 -3216053.5494766235 18996136.280372798 0 18996136.280372798 -19140828.85012877 0 0 0 0 -4690390.4407744184 8742996.5266331434 0 8742996.5266331434 19149457.410750419 0 0 0 0 25441880.27973938 -47035970.721260071 0 -47035970.721260071 176629150.90668488 0 0 0 0 -757834095.09713745 11015601.226196289 0 11015601.226196289 233253774.0550518 0 0 0 0 -115602387.91532707 -83714413.217597008 0 -83714413.217597008 223674926.53344727 0 0 0 0 601891.38763427734 9794142.8674850464 0 9794142.8674850464 109310674.69721985 0 0 0 0 1058885647.9075165 853671246.9885025 0 853671246.9885025 332339299.98693848 0 0 0 0 -52296517.323669434 373770878.43818665 0 373770878.43818665 649636194.78219604 0 0 0 0 652627065.3359375 352218079.50700378 0 352218079.50700378 268082922.74214172 0 0 0 0 -530404.4382573429 339798909.03355008 0 339798909.03355008 578919789.64373779 0 0 0 0 -293502682.40045166 -910052932.49435425 0 -910052932.49435425 -698285083.48243713 0 0 0 0 347542945.25463104 1310342125.6416016 0 1310342125.6416016 1116343857.3939209 0 0 0 0 -2907010207.5450439 -802048078.67085266 0 -802048078.67085266 3614236506.0855103 0 0 0 0 -1022598410.3163757 704455989.68498993 0 704455989.68498993 -680578972.11750031 0 0 0 0 67230.749734520912 3063209.3940323144 0 3063209.3940323144 4069222.6429281384 0 0 0 0 -223932018.83905029 2283319799.1937714 0 2283319799.1937714 2618628852.6092224 0 0 0 0 -791666595.90014648 771054129.5178833 0 771054129.5178833 -683744694.7434454 0 0 0 0 -1073934.7832942968 1313919.8923353776 0 1313919.8923353776 6029322.1036537439 0 0 0 0 -114825147.96703911 338121812.98958015 0 338121812.98958015 -1056863512.2389221 0 0 0 0 -1237733.1865672916 1019346.0097605586 0 1019346.0097605586 2520228.1743990406 0 0 0 0 -870722125.43051529 455284584.54672432 0 455284584.54672432 -1205082917.4285583 0 0 0 0 -1894463872.6321716 1645314015.3348846 0 1645314015.3348846 -525671759.91520691 0 0 0 0 -7475276970.7556 4176756148.8595314 0 4176756148.8595314 -1700670503.9383545 0 0 0 0 -6529690690.0437012 -204142752.1532135 0 -204142752.1532135 -695388974.61836243 0 0 0 0 -3030485814.5219727 1450822729.4251099 0 1450822729.4251099 -497567182.30887824 0 0 0 0 -3102368665.7686462 1867452638.8462372 0 1867452638.8462372 -496494201.85587746 0 0 0 0 -4319025048.6071472 759654060.39357758 0 759654060.39357758 251803980.51876831 0 0 0 0 -2873663004.7042236 560045978.89715576 0 560045978.89715576 -642216520.07383728 0 0 0 0 -3294684465.3796692 748339206.55910492 0 748339206.55910492 108092214.14744568 0 0 0 0 -922232510.67090607 1016086397.6851578 0 1016086397.6851578 -794398369.03015137 0 0 0 0 -2571579560.6000061 986875229.40374374 0 986875229.40374374 -361641870.618927 0 0 0 0 -2068143345.5104675 1263196192.125061 0 1263196192.125061 -384527979.87896538 0 0 0 0 -1931799610.6181641 830750325.44060516 0 830750325.44060516 -398967007.98886108 0 0 0 0 -1384922993.9584045 862820452.14020538 0 862820452.14020538 -558861667.8911438 0 0 0 0 -2138244152.9603996 1072216477.9889889 0 1072216477.9889889 -64673594.466659546 0 0 0 0 -2175824953.5287781 1253053778.1483307 0 1253053778.1483307 -811567745.73678589 0 0 0 0 -2792407520.4755859 1350856531.7150478 0 1350856531.7150478 -319959311.71090698 0 0 0 0 -2162349541.7680664 1120340725.7445755 0 1120340725.7445755 -547834950.57270813 0 0 0 0 -1458711289.0450745 1537666891.0173111 0 1537666891.0173111 -401682338.41706848 0 0 0 0 -1399454577.6261902 1344637425.333107 0 1344637425.333107 220558433.07680511 0 0 0 0 -1068661503.1306152 1569372163.5269928 0 1569372163.5269928 296072752.44467163 0 0 0 0 -736128.7596282959 2568100348.3028145 0 2568100348.3028145 343035066.76608276 0 0 0 0 -1072267162.1962585 1561011777.2642441 0 1561011777.2642441 1993101202.307312 0 0 0 0 1382055.1067281812 2383107.335245043 0 2383107.335245043 894006.03897304833 0 0 0 0 -604486540.28063965 187190016.574646 0 187190016.574646 1132828738.9028015 0 0 0 0 115647.59344482422 218822018.04049683 0 218822018.04049683 -1366072545.0964012 0 0 0 0 -601825452.78482056 496810448.45153809 0 496810448.45153809 -308181966.16104126 0 0 0 0 -1392545601.43573 886080191.84364319 0 886080191.84364319 -65739323.169586182 0 0 0 0 -1171106687.8009033 522336972.05895233 0 522336972.05895233 531382481.0489502 0 0 0 0 -12908554.825957229 30999760.260405682 0 30999760.260405682 -14970637.25539878 0 0 0 0 67798738.738857269 557634719.76505089 0 557634719.76505089 -365994517.21704102 0 0 0 0 414751609.93893433 128313917.88981628 0 128313917.88981628 -82441753.703918457 0 0 0 0 61048715.507499695 91540358.560897827 0 91540358.560897827 -11911913.977088928 0 0 0 0 69924246.677755773 6555155.7783987522 0 6555155.7783987522 -86309740.266448975 0 0 0 0 -83533086.570487976 66361248.598587036 0 66361248.598587036 47223371.290498734 0 0 0 0 252222065.35609436 65597868.520263672 0 65597868.520263672 -101688219.53471375 0 0 0 0 111821049.65461159 145591848.95973206 0 145591848.95973206 39584179.382919312 0 0 0 0 314362724.36157227 150155043.91238403 0 150155043.91238403 -16155978.968933105 0 0 0 0 -117109826.73373413 93981319.020263672 0 93981319.020263672 136484559.16081238 0 0 0 0 24259979.981460571 -242514128.36274719 0 -242514128.36274719 -117148033.35714722 0 0 0 0 5929091.7437157631 4821072.6236446779 0 4821072.6236446779 1667981.2414885461 0 0 0 0 280131007.90323639 204659007.31421661 0 204659007.31421661 8911182.4765625 0 0 0 0 216900424.4348259 -33233082.141946793 0 -33233082.141946793 -230973245.39849854 0 0 0 0 -334165153.14414215 326854652.2905426 0 326854652.2905426 232007001.48348236 0 0 0 0 96105.209951780736 1579415.07149872 0 1579415.07149872 1840545.5047798902 0 0 0 0 -127856185.25639343 107822114.23985291 0 107822114.23985291 48108384.862365723 0 0 0 0 331296628.52879333 -46960924.754425049 0 -46960924.754425049 73171479.715332031 0 0 0 0 102989550.34315491 -32864003.277206421 0 -32864003.277206421 -40489993.743225098 0 0 0 0 303348107.2857666 39647675.49621582 0 39647675.49621582 -145742790.32473755 0 0 0 0 213699076.11398315 -104850531.52810669 0 -104850531.52810669 -278690167.35916138 0 0 0 0 171748597.25344849 155855058.24327087 0 155855058.24327087 -218253978.29050827 0 0 0 0 163443557.09249878 135079550.04013824 0 135079550.04013824 142387550.30419922 0 0 0 0 156524790.68200684 105579633.89355469 0 105579633.89355469 221586651.92288208 0 0 0 0 635558415.94950867 -8601213.1967773438 0 -8601213.1967773438 -377953021.73001099 0 0 0 0 685668847.82191467 430237082.31466675 0 430237082.31466675 -130959036.63330841 0 0 0 0 -71527654.872596741 -373077604.70185184 0 -373077604.70185184 318220401.06140137 0 0 0 0 -12804156.210696138 3388842.6609486025 0 3388842.6609486025 4387778.153475821 0 0 0 0 -11645545.791027423 27872836.158359986 0 27872836.158359986 -9957812.6304937303 0 0 0 0 -122120559.32324255 -353976808.22908717 0 -353976808.22908717 -373205549.80039978 0 0 0 0 28919159.277229309 218004107.67760849 0 218004107.67760849 -482497930.85267639 0 0 0 0 148742722.53816223 -62759865.100124359 0 -62759865.100124359 158296071.57696533 0 0 0 0 -238141696.53283691 339215713.18559265 0 339215713.18559265 -74320270.667572021 0 0 0 0 786097676.49263 479574854.80331421 0 479574854.80331421 -1713665.690246582 0 0 0 0 -35226010.342992455 33748954.298494898 0 33748954.298494898 5301473.6600420624 0 0 0 0 73614378.935863495 73692520.991104126 0 73692520.991104126 42313113.042037964 0 0 0 0 80394652.206261635 59163831.492645264 0 59163831.492645264 -1118048.154876709 0 0 0 0 78485994.44565773 62165036.6121521 0 62165036.6121521 14886389.880386353 0 0 0 0 14121650.487348855 11187320.788682476 0 11187320.788682476 -22494132.448533356 0 0 0 0 85406660.919334412 68347226.316017151 0 68347226.316017151 -2587536.6294555664 0 0 0 0 86812910.580486298 71854550.530822754 0 71854550.530822754 3203830.2475891113 0 0 0 0 68338432.975818634 66179664.632232666 0 66179664.632232666 3060459.7294769287 0 0 0 0 38375075.184333801 132866816.91125488 0 132866816.91125488 99377497.778686523 0 0 0 0 43266524.92401886 42342266.944763184 0 42342266.944763184 -16215288.353057861 0 0 0 0 -151403923.26116562 -27610694.863220215 0 -27610694.863220215 58040971.402526855 0 0 0 0 1223103145.6649952 32216520.718963623 0 32216520.718963623 115072149.74703979 0 0 0 0 365099696.21617126 595476594.69232559 0 595476594.69232559 -9270675.8181762695 0 0 0 0 -1129503312.8704891 288812097.02784729 0 288812097.02784729 51073770.045822144 0 0 0 0 -150984126.12756348 587272338.0994873 0 587272338.0994873 -1320041015.0505371 0 0 0 0 -252244.20276094181 257763.12843721732 0 257763.12843721732 -416522.11529161036 0 0 0 0 600204271.57849216 408575793.50299835 0 408575793.50299835 -105962788.20013428 0 0 0 0 549734709.18601036 531192736.91056824 0 531192736.91056824 -357546419.69152832 0 0 0 0 260967466.12132454 339508874.85198975 0 339508874.85198975 453354958.50015259 0 0 0 0 -218931929.533741 577435049.84486389 0 577435049.84486389 140877248.14277649 0 0 0 0 335451740.92561865 150754828.10188675 0 150754828.10188675 194806682.61413574 0 0 0 0 -28274415.809967041 -50146753.524536133 0 -50146753.524536133 240053821.37524414 0 0 0 0 -113234225.98302078 687150.91863632202 0 687150.91863632202 252185419.33825684 0 0 0 0 -565525.90612523456 -2614975.1854441259 0 -2614975.1854441259 -119065.68406775594 0 0 0 0 10028837.340238199 10652789.503455356 0 10652789.503455356 -21166990.815613002 0 0 0 0 23661728.708711624 64940828.393066406 0 64940828.393066406 30345327.755981445 0 0 0 0 -2531468.2180295601 8552234.702859316 0 8552234.702859316 15595916.59343867 0 0 0 0 1031219338.684927 286683059.32765198 0 286683059.32765198 -136299249.23364258 0 0 0 0 648667660.68450356 660962681.52389526 0 660962681.52389526 -160460460.30776978 0 0 0 0 -112049255.58086777 2343802.6702270508 0 2343802.6702270508 -87323893.334838867 0 0 0 0 279216180.9612481 49911919.920021057 0 49911919.920021057 -6009334.329284668 0 0 0 0 -1300747.1225829599 2352732.5995055959 0 2352732.5995055959 -1418932.165025875 0 0 0 0 -1058818715.2617474 -244255386.44998169 0 -244255386.44998169 -11963274.889091492 0 0 0 0 140574040.57266879 548124775.31513786 0 548124775.31513786 -174884845.9190979 0 0 0 0 -248692902.91005898 -157189610.39369202 0 -157189610.39369202 -126030012.47003937 0 0 0 0 -522187318.67183018 21324484.561325073 0 21324484.561325073 159208043.21484375 0 0 0 0 -172242607.73427534 -25862017.34344101 0 -25862017.34344101 3854305.6513977051 0 0 0 0 -3238172.6059387103 7090333.6223596409 0 7090333.6223596409 -3578531.1578644961 0 0 0 0 -149896372.74336243 56074653.455413818 0 56074653.455413818 -40272847.254928589 0 0 0 0 -43582680.041099072 252094272.45624542 0 252094272.45624542 178037583.63058472 0 0 0 0 -74825209.190689087 296890969.5357666 0 296890969.5357666 114110722.2069397 0 0 0 0 31058313.6085186 325533303.4667511 0 325533303.4667511 4070588.8355102539 0 0 0 0 -13680315.815543175 236113078.39583588 0 236113078.39583588 -18821454.637969971 0 0 0 0 -72309866.556699753 355100354.38088989 0 355100354.38088989 89815469.016967773 0 0 0 0 136698003.73909855 154912795.98694611 0 154912795.98694611 -6837449.0084533691 0 0 0 0 141415134.57357216 64844678.749450684 0 64844678.749450684 -68378756.489639282 0 0 0 0 164941869.54264355 21167593.858139038 0 21167593.858139038 878096.24531555176 0 0 0 0 553047993.4682579 298981667.18273926 0 298981667.18273926 464130198.90222168 0 0 0 0 731139.00931977853 211800.61143773794 0 211800.61143773794 -366866.56403563917 0 0 0 0 234178518.45677376 340075996.01430511 0 340075996.01430511 77519833.127746582 0 0 0 0 411975428.20612717 84105667.243286133 0 84105667.243286133 184766365.43652344 0 0 0 0 -30231694.052249908 373513184.86462402 0 373513184.86462402 183682189.29165649 0 0 0 0 105702692.16979599 245974519.58529663 0 245974519.58529663 175502917.0889492 0 0 0 0 98635266.723167419 274852382.92868042 0 274852382.92868042 128817229.75891113 0 0 0 0 124109963.80316544 272675808.17915344 0 272675808.17915344 100356462.85601807 0 0 0 0 146348032.66698933 246754500.1134491 0 246754500.1134491 14631103.307739258 0 0 0 0 104538458.38832235 309547724.29789352 0 309547724.29789352 74406043.24798584 0 0 0 0 -69847733.347900391 238163966.10197449 0 238163966.10197449 58223063.14855957 0 0 0 0 81178678.902083397 180746879.28610229 0 180746879.28610229 -14835842.727600098 0 0 0 0 4857608.2460847795 6835733.5951421708 0 6835733.5951421708 -7560716.8969562054 0 0 0 0 -173863670.44408417 -61873789.206420898 0 -61873789.206420898 99947409.242431641 0 0 0 0 135993649.07313728 -274605768.93251038 0 -274605768.93251038 144077575.67483521 0 0 0 0 379408303.57200432 276461056.85728455 0 276461056.85728455 -122162897.56247711 0 0 0 0 692176723.93775845 -292915198.38108826 0 -292915198.38108826 -9175439.2513122559 0 0 0 0 -248036663.84671402 -42798699.203964233 0 -42798699.203964233 11378915.950424194 0 0 0 0 215537283.08585572 -46252460.432582855 0 -46252460.432582855 -87951156.46887207 0 0 0 0 -793418087.12076283 262401640.44259644 0 262401640.44259644 80637057.070007324 0 0 0 0 1421402.2045006538 1583458.8027866147 0 1583458.8027866147 -2462577.9611822516 0 0 0 0 13809982.647427559 94971738.332496643 0 94971738.332496643 -186414164.98669434 0 0 0 0 -358781983.71460724 55483865.479827881 0 55483865.479827881 -22928737.971952438 0 0 0 0 -258352726.26937962 438575020.65757751 0 438575020.65757751 37247778.194519043 0 0 0 0 -178988386.31130409 -611817889.51882935 0 -611817889.51882935 713628876.80841064 0 0 0 0 -185005843.77371693 502231519.47374725 0 502231519.47374725 -730065714.04129028 0 0 0 0 446121832.32407761 -524209445.78924561 0 -524209445.78924561 -37301405.107498169 0 0 0 0 -468986049.2803154 -633123255.21630859 0 -633123255.21630859 -28638915.367126465 0 0 0 0 -371164917.34627533 574005375.0958252 0 574005375.0958252 428445563.7922821 0 0 0 0 -1140807153.9372797 528633253.65109634 0 528633253.65109634 441432816.04232788 0 0 0 0 119658843.29761887 499186036.80187988 0 499186036.80187988 -713201154.32617188 0 0 0 0 207649586.14728928 251420834.03799438 0 251420834.03799438 -23827637.409301758 0 0 0 0 256894888.00094986 189395591.47473145 0 189395591.47473145 30161213.384490967 0 0 0 0 346458589.21016884 204039606.62205505 0 204039606.62205505 -385202417.91802979 0 0 0 0 215922704.66755104 -55458838.234237671 0 -55458838.234237671 -505105832.63565063 0 0 0 0 273357840.58854961 303845155.04837799 0 303845155.04837799 396715653.56195068 0 0 0 0 318978247.01276016 186376152.48348999 0 186376152.48348999 -60088639.47946167 0 0 0 0 280429594.36820221 103353264.6427002 0 103353264.6427002 219692945.40090942 0 0 0 0 -24883915.102648735 141210231.56048584 0 141210231.56048584 348778054.32284546 0 0 0 0 94454016.37206459 -36788568.774868011 0 -36788568.774868011 747151449.1003418 0 0 0 0 223396515.72166443 -50918566.051040649 0 -50918566.051040649 -146796699.32312012 0 0 0 0 1142866.8770985529 261832.00449516624 0 261832.00449516624 -2515974.8397764415 0 0 0 0 365091633.49859428 75740167.373214722 0 75740167.373214722 -139125439.1206665 0 0 0 0 140765481.99944046 62775262.025684051 0 62775262.025684051 -27198902.349945068 0 0 0 0 140771452.6992569 -1727133.1181793213 0 -1727133.1181793213 -48188939.336578369 0 0 0 0 1965071.5406813985 3246937.5192170069 0 3246937.5192170069 -7015073.7757801637 0 0 0 0 -34229392.058649063 -52401733.312927246 0 -52401733.312927246 -45458041.015014648 0 0 0 0 -54064979.402893603 89576251.198635101 0 89576251.198635101 -56230444.107269287 0 0 0 0 50142649.641633987 36007673.824127197 0 36007673.824127197 -33926314.059555054 0 0 0 0 47591927.106386185 38622668.960296631 0 38622668.960296631 -32113465.500579834 0 0 0 0 47993607.71502161 37175860.274398804 0 37175860.274398804 -28382285.75378418 0 0 0 0 52304339.457808256 19697946.052396774 0 19697946.052396774 -6075688.017791748 0 0 0 0 48250020.877795935 38477626.092330933 0 38477626.092330933 -12150070.37512207 0 0 0 0 27347342.599920273 33396170.536437988 0 33396170.536437988 -13448931.315582275 0 0 0 0 46310332.849098206 -3397284.7509422302 0 -3397284.7509422302 -25793910.175476074 0 0 0 0 99782388.122152328 37232896.303939819 0 37232896.303939819 -11882200.015899658 0 0 0 0 98758869.070684433 44101720.563644409 0 44101720.563644409 -34423027.527282715 0 0 0 0 -248811346.67381382 80936362.471038818 0 80936362.471038818 764988260.03939819 0 0 0 0 14586996.486920357 30069072.196228027 0 30069072.196228027 -75587367.384796143 0 0 0 0 1020905.8027091967 11261606.173763327 0 11261606.173763327 -11742271.375637822 0 0 0 0 5301377.084487915 7746077.076171875 0 7746077.076171875 -3317174.9381103516 0 0 0 0 8019688.7969758566 15461217.439212918 0 15461217.439212918 -23194740.617597338 0 0 0 0 17720261.604518007 10231113.889309928 0 10231113.889309928 -4588162.0130373836 0 0 0 0 3837496.861907959 4270762.8483123779 0 4270762.8483123779 -2055632.4743652344 0 0 0 0 -1931003.8633558601 16340112.525428094 0 16340112.525428094 -18723931.213328045 0 0 0 0 8688350.8456164412 18032535.465148326 0 18032535.465148326 -11492256.752492338 0 0 0 0 193723777.92128444 215544016.34020996 0 215544016.34020996 146226631.78063965 0 0 0 0 192433484.7933197 246882440.15985107 0 246882440.15985107 87395804.811401367 0 0 0 0 196579352.03147316 90654042.30670166 0 90654042.30670166 -217892641.36383057 0 0 0 0 -125001097.33600235 30040183.889404297 0 30040183.889404297 -30568932.96685791 0 0 0 0 42352659.765672684 23212007.82635498 0 23212007.82635498 -42000825.964981079 0 0 0 0 -2092142.0639343043 5635996.3371678293 0 5635996.3371678293 -3373445.700262744 0 0 0 0 51230593.564950943 34402892.343887329 0 34402892.343887329 -31565862.981323242 0 0 0 0 50920991.794578552 32108753.645324707 0 32108753.645324707 -32806028.204223633 0 0 0 0 46137813.536079407 29867301.32421875 0 29867301.32421875 -17746471.227905273 0 0 0 0 45167515.106672287 25838396.683837891 0 25838396.683837891 -33877234.322025299 0 0 0 0 31859323.458644867 32138602.612304688 0 32138602.612304688 14511832.044807434 0 0 0 0 26787353.401714325 18833852.917739868 0 18833852.917739868 -12125112.125976562 0 0 0 0 29829735.106124878 11780841.950012207 0 11780841.950012207 -32629497.132263184 0 0 0 0 7592711.8828440197 3728443.7227080353 0 3728443.7227080353 -9868192.5954728723 0 0 0 0 69791098.935116291 -23176377.112060547 0 -23176377.112060547 -62681518.48531723 0 0 0 0 28593741.327056885 26858491.445449829 0 26858491.445449829 -4553148.4658184052 0 0 0 0 10738989.8702789 13215355.546572622 0 13215355.546572622 -14940725.031158939 0 0 0 0 44481091.054889679 29273536.13910675 0 29273536.13910675 -8338398.3186035156 0 0 0 0 31101935.417699814 27036611.862819672 0 27036611.862819672 -11961330.466445923 0 0 0 0 8899304.4179243632 19366597.735796429 0 19366597.735796429 -18016096.075109623 0 0 0 0 -4894102.8489074707 16230608.119934082 0 16230608.119934082 -25335895.311294556 0 0 0 0 18618883.717569351 28176870.044891357 0 28176870.044891357 -611674.1775188446 0 0 0 0 11715224.603245383 18829585.199304264 0 18829585.199304264 -5096692.3113770932 0 0 0 0 6733135.2722320557 14483816.622558594 0 14483816.622558594 -9186591.7686157227 0 0 0 0 6565153.1537284851 14862849.085357666 0 14862849.085357666 -9072492.6832275391 0 0 0 0 28870771.131030697 21644731.484394994 0 21644731.484394994 3650962.2766777575 0 0 0 0 16770290.556982473 10288671.482879244 0 10288671.482879244 -16945091.181069195 0 0 0 0 -3610267.3708311692 19537398.623514801 0 19537398.623514801 -11074852.696545392 0 0 0 0 -8660501.7672626264 19092965.381475165 0 19092965.381475165 -12176977.650796827 0 0 0 0 -8883693.4942626953 23881587.778442383 0 23881587.778442383 -23808464.790462494 0 0 0 0 -8664311.574546814 24180967.618232727 0 24180967.618232727 -23801784.865966797 0 0 0 0 14211694.094553288 8765233.5694496334 0 8765233.5694496334 -17505059.128170624 0 0 0 0 6621467.6591068208 8215942.3420583755 0 8215942.3420583755 -7706394.7358825207 0 0 0 0 -7213449.7493972778 12245226.559123039 0 12245226.559123039 -10480282.001586914 0 0 0 0 72458963.437866211 10371093.582115173 0 10371093.582115173 -26984964.536590576 0 0 0 0 22567256.862373237 19025182.897230223 0 19025182.897230223 -11117616.324483529 0 0 0 0 -8280121.4607391357 20769535.906463623 0 20769535.906463623 -10292211.3673172 0 0 0 0 81163300.975006104 14400813.067657471 0 14400813.067657471 -26956560.903167725 0 0 0 0 -1061256.792158816 14706411.067079481 0 14706411.067079481 -18789764.841668718 0 0 0 0 -4606891.325958252 15886834.705932617 0 15886834.705932617 -25420510.887191772 0 0 0 0 10746165.783813477 12000080.945251465 0 12000080.945251465 -11683729.609161377 0 0 0 0 8257765.4199523926 11868434.443878174 0 11868434.443878174 -10515764.446960449 0 0 0 0 13687701.07383728 5602166.0310058594 0 5602166.0310058594 -1870881.9947967529 0 0 0 0 14707193.344445374 11234248.778844804 0 11234248.778844804 -3412822.3602500111 0 0 0 0 12394381.285940506 18971165.721219663 0 18971165.721219663 -12709138.749844283 0 0 0 0 23008881.56604515 9466314.9296403155 0 9466314.9296403155 -6960759.228925854 0 0 0 0 14905067.605285473 14368923.540019007 0 14368923.540019007 -18066946.114998117 0 0 0 0 270555987.58653164 153721599.49845123 0 153721599.49845123 87057731.708312988 0 0 0 0 327571477.19719505 203793883.38224792 0 203793883.38224792 -80703473.771759033 0 0 0 0 376318987.77465439 88392534.853820801 0 88392534.853820801 45992935.083343506 0 0 0 0 16378236.37784485 -3044104.101486424 0 -3044104.101486424 -3703314.8190227002 0 0 0 0 13413647.640235901 -1732995.6027984619 0 -1732995.6027984619 -4459947.3109130859 0 0 0 0 -8716006.6923583616 10214457.707002155 0 10214457.707002155 -7172875.6664011329 0 0 0 0 15687106.862487793 -1209695.5993041992 0 -1209695.5993041992 -4896470.98828125 0 0 0 0 -6770954.6083652601 31206373.873946138 0 31206373.873946138 -14663195.558383733 0 0 0 0 28043732.302879333 8191753.1952667236 0 8191753.1952667236 -4021691.049987793 0 0 0 0 38662116.18363867 12936004.782050729 0 12936004.782050729 -11647270.20332402 0 0 0 0 9993173.5466385186 18738799.975659207 0 18738799.975659207 -11337974.557469144 0 0 0 0 -7283244.9856872559 12962340.803894043 0 12962340.803894043 -8696276.8624267578 0 0 0 0 53096219.027557373 56588855.264778137 0 56588855.264778137 -1304457.373626709 0 0 0 0 65404154.075271606 21782718.213909149 0 21782718.213909149 -26243610.590606689 0 0 0 0 93163004.846130371 35329103.75843811 0 35329103.75843811 -19641420.836639404 0 0 0 0 120725568.12402344 42063796.51335907 0 42063796.51335907 -29224043.928100586 0 0 0 0 87064486.623413086 73092656.237945557 0 73092656.237945557 2483840.3687324524 0 0 0 0 78110291.56142807 -3850087.3460731506 0 -3850087.3460731506 -17366.585830688477 0 0 0 0 30024966.397620946 8736631.7004014403 0 8736631.7004014403 -10932687.464912251 0 0 0 0 137341325.12226868 76438181.686050415 0 76438181.686050415 -13935020.579879761 0 0 0 0 237368760.81216431 12128759.527931213 0 12128759.527931213 -109817835.17514038 0 0 0 0 -10499474.91101788 35632259.444692291 0 35632259.444692291 -18586663.226538137 0 0 0 0 -2600203.9382476807 64044852.174095154 0 64044852.174095154 -15972018.062561035 0 0 0 0 -3940398.2605288127 3449696.5236073881 0 3449696.5236073881 -1902174.8438967019 0 0 0 0 536668444.27731895 -86148783.193069458 0 -86148783.193069458 -174676362.93652344 0 0 0 0 414969689.74665833 48835957.193359375 0 48835957.193359375 -81137178.983078003 0 0 0 0 4168289.2618359001 9852516.7809005789 0 9852516.7809005789 -16923856.107965991 0 0 0 0 -15505623.548601225 2992360.0906043947 0 2992360.0906043947 8888368.7579152286 0 0 0 0 8763017.23985672 -787366.99478149414 0 -787366.99478149414 -1855336.0154418945 0 0 0 0 75637347.807510376 22117227.53881073 0 22117227.53881073 -10305019.222106934 0 0 0 0 -72411786.636566162 -41368200.006881714 0 -41368200.006881714 -11140898.29335022 0 0 0 0 68688617.633008957 -15524125.825021744 0 -15524125.825021744 -107556810.29992676 0 0 0 0 83716662.791656494 5742083.8056793213 0 5742083.8056793213 16532458.780489922 0 0 0 0 136444171.38404083 4169822.3774185181 0 4169822.3774185181 -8989039.719329834 0 0 0 0 109417605.92648315 42943794.628143311 0 42943794.628143311 -21157870.087890625 0 0 0 0 163867820.76164246 34620814.661903381 0 34620814.661903381 -27343227.256713867 0 0 0 0 84232453.79864502 13485679.985473633 0 13485679.985473633 -10539556.881298065 0 0 0 0 88199514.856079102 7536159.4312133789 0 7536159.4312133789 -40646089.517162323 0 0 0 0 121516178.57223511 22960739.307785034 0 22960739.307785034 -41124980.24331665 0 0 0 0 106135045.9122467 17942284.996864319 0 17942284.996864319 -42694887.253234863 0 0 0 0 84597591.899169922 12624780.271942139 0 12624780.271942139 -38313434.489730835 0 0 0 0 78638841.396087646 -11250940.688545227 0 -11250940.688545227 -62174849.927429199 0 0 0 0 81710874.441131592 10930816.834762573 0 10930816.834762573 -40564256.75579834 0 0 0 0 85358120.177459717 3268731.6286010742 0 3268731.6286010742 -50777231.509155273 0 0 0 0 29429674.092590332 -15727649.870819092 0 -15727649.870819092 -40135363.689849854 0 0 0 0 6353787.8357983977 4468316.3338528909 0 4468316.3338528909 2362274.4400268048 0 0 0 0 -7696059.4149780273 -28571692.259719849 0 -28571692.259719849 -32229021.069824219 0 0 0 0 129299857.25352478 293850529.43434906 0 293850529.43434906 156617858.88542175 0 0 0 0 7355702.7715187073 -72529782.08691597 0 -72529782.08691597 -54005448.87411499 0 0 0 0 18229613.393203735 3137596.0691375732 0 3137596.0691375732 -27481531.568115234 0 0 0 0 87694722.086242676 7852944.408498764 0 7852944.408498764 -56717750.711883545 0 0 0 0 45535358.314819336 -28984721.701370239 0 -28984721.701370239 -64383413.2762146 0 0 0 0 130922392.90951538 56229280.687271118 0 56229280.687271118 -4913144.3765258789 0 0 0 0 -47680513.180778503 -389093485.02242661 0 -389093485.02242661 276057236.942276 0 0 0 0 122044253.51107788 120098430.28390503 0 120098430.28390503 -123901405.90737915 0 0 0 0 37132560.300506592 7327765.516784668 0 7327765.516784668 -30912552.361297607 0 0 0 0 461246143.42305756 139489571.17855835 0 139489571.17855835 -765614273.30599976 0 0 0 0 12327486.103652954 88351496.49520874 0 88351496.49520874 -54028020.731567383 0 0 0 0 81698889.732849121 118795723.86924744 0 118795723.86924744 -123403461.19863892 0 0 0 0 65817882.302124023 53809097.839767456 0 53809097.839767456 -33245592.984802246 0 0 0 0 152527758.98919678 87073447.563766479 0 87073447.563766479 -109195942.38946533 0 0 0 0 50829205.503814697 87102855.519668579 0 87102855.519668579 -71711053.592773438 0 0 0 0 283460593.61982727 207459919.19033051 0 207459919.19033051 -56429479.584411621 0 0 0 0 24733654.078927763 6897295.4743912369 0 6897295.4743912369 -3429088.095350787 0 0 0 0 59126482.880950928 -2019001.7162017822 0 -2019001.7162017822 -24113186.597976685 0 0 0 0 80867028.032299995 9155098.7899932861 0 9155098.7899932861 -41271652.481689453 0 0 0 0 74297771.341644287 5805553.6633300781 0 5805553.6633300781 -30962390.115966797 0 0 0 0 54413750.327270508 4922834.1759033203 0 4922834.1759033203 -30599124.910415649 0 0 0 0 63205946.139526367 -3159836.3755493164 0 -3159836.3755493164 -32811348.272064209 0 0 0 0 62995503.320800781 -3920975.0007629395 0 -3920975.0007629395 -41362506.720367432 0 0 0 0 73864661.321990967 2094073.7142276764 0 2094073.7142276764 -38040455.144287109 0 0 0 0 62004695.920166016 -7640874.1739196777 0 -7640874.1739196777 -40964345.279541016 0 0 0 0 73033667.454521179 7609353.3276062012 0 7609353.3276062012 -18454177.811340332 0 0 0 0 59850787.282836914 -4937309.7727508545 0 -4937309.7727508545 -13491195.498519897 0 0 0 0 71429312.091339111 4441654.8554992676 0 4441654.8554992676 -25883359.758605957 0 0 0 0 72797633.820098877 3532662.3154602051 0 3532662.3154602051 -31855389.737884521 0 0 0 0 60412051.75579834 -1005750.9155273438 0 -1005750.9155273438 14022368.628387451 0 0 0 0 -8855351.0468139648 21529699.29006958 0 21529699.29006958 -31064768.890380859 0 0 0 0 20106931.123707615 19034755.895453282 0 19034755.895453282 -17301763.592763733 0 0 0 0 -2184324.7263223454 15278384.845673807 0 15278384.845673807 -13738195.629339665 0 0 0 0 5206069.8416137695 11597126.382171631 0 11597126.382171631 -8520480.7867584229 0 0 0 0 137851206.40026855 90219184.506225586 0 90219184.506225586 183721902.40820312 0 0 0 0 116318753.24008179 121438305.01089478 0 121438305.01089478 139969096.2121582 0 0 0 0 201428802.84240723 14647297.71496582 0 14647297.71496582 217101731.90238953 0 0 0 0 -1336862.3399504721 5340747.5441457406 0 5340747.5441457406 979189.80980078131 0 0 0 0 136479787.0513916 115243968.93728638 0 115243968.93728638 64638965.665039062 0 0 0 0 25913866.489268407 12837751.378249317 0 12837751.378249317 -20636907.234200887 0 0 0 0 10876397.028564453 6232553.5821838379 0 6232553.5821838379 -6047524.7475585938 0 0 0 0 14084182.293552399 7279872.3166999817 0 7279872.3166999817 -6430163.3081665039 0 0 0 0 168686167.86499023 23038846.918334961 0 23038846.918334961 -3020686.1182250977 0 0 0 0 31507878.984126538 21270079.828979298 0 21270079.828979298 2585397.7000752538 0 0 0 0 8080513.9027306419 11521101.702028889 0 11521101.702028889 -10394554.1028274 0 0 0 0 24582797.674987793 45501931.336181641 0 45501931.336181641 -9592556.6861572266 0 0 0 0 8552472.9027078412 1122389.1943110172 0 1122389.1943110172 -1406736.0418866277 0 0 0 0 61867536.285354614 11865303.9637146 0 11865303.9637146 8603274.7411193848 0 0 0 0 39665229.031433105 27959726.487976074 0 27959726.487976074 8305644 0 0 0 0 40014776.032592773 31170046.8203125 0 31170046.8203125 6799748.6611328125 0 0 0 0 162351366.92694092 2072566.4286804199 0 2072566.4286804199 -36828002.891571045 0 0 0 0 85709067.984916687 51303097.422363281 0 51303097.422363281 -67025196.145446777 0 0 0 0 68880823.685241699 22841448.610610962 0 22841448.610610962 -11282983.349731445 0 0 0 0 28995963.188064575 34710318.175821304 0 34710318.175821304 12381655.295898438 0 0 0 0 31122550.552978516 30526902.234802246 0 30526902.234802246 20461884.872314453 0 0 0 0 52415657.789550781 40917876.703430176 0 40917876.703430176 -31096121.951812744 0 0 0 0 28761872.158363342 43803760.793704033 0 43803760.793704033 -2545844.880859375 0 0 0 0 39645638.211303711 32785082.48828125 0 32785082.48828125 6992837.9399414062 0 0 0 0 29415575.536743164 33316402.920166016 0 33316402.920166016 13075680.567504883 0 0 0 0 29978715.669921875 30448906.039794922 0 30448906.039794922 20546594.422363281 0 0 0 0 30637633.504150391 26054156.754699707 0 26054156.754699707 24694748.73034668 0 0 0 0 30581410.237060547 25342763.262207031 0 25342763.262207031 17287432.920410156 0 0 0 0 36946544.722839355 26569157.772003174 0 26569157.772003174 16134754.791503906 0 0 0 0 27133916.73740387 11511936.330070496 0 11511936.330070496 367366.39001464844 0 0 0 0 30283243.680908203 21516793.457519531 0 21516793.457519531 18596693.876312256 0 0 0 0 30508207.220092773 22291652.798339844 0 22291652.798339844 21196634.719116211 0 0 0 0 25550223.25817661 20156014.206683137 0 20156014.206683137 -11540962.136014432 0 0 0 0 29116137.329559326 25315431.303527832 0 25315431.303527832 30306802.283996582 0 0 0 0 -3463887.1185731217 7696664.1883536726 0 7696664.1883536726 3539584.4892588407 0 0 0 0 133160708.20733643 111412185.04940796 0 111412185.04940796 62210049.336791992 0 0 0 0 114971135.6640625 -32060289.793762207 0 -32060289.793762207 29964224.1300354 0 0 0 0 45379847.594619751 14021571.001312256 0 14021571.001312256 8665889.4438476562 0 0 0 0 217621936.83725739 45203453.455974579 0 45203453.455974579 -100909926.5554657 0 0 0 0 4298519.0715660006 3515312.0413806103 0 3515312.0413806103 1715807.7370289862 0 0 0 0 -103783645.97163391 -43237625.220840454 0 -43237625.220840454 -8278440.5799713135 0 0 0 0 114135564.96776962 46446847.312128067 0 46446847.312128067 67884404.421264648 0 0 0 0 165922728.49542403 86957200.112217903 0 86957200.112217903 -133664513.81602478 0 0 0 0 118721002.45584106 127934053.08099365 0 127934053.08099365 -137718199.02905273 0 0 0 0 131501529.34757996 120821580.65649796 0 120821580.65649796 -144142347.17315674 0 0 0 0 -185702426.52785492 47757191.789367676 0 47757191.789367676 22509214.632873535 0 0 0 0 -259823594.61534119 156320890.89079285 0 156320890.89079285 -114160142.54959488 0 0 0 0 -6183643.1475524902 204154413.2040329 0 204154413.2040329 -107107847.84425354 0 0 0 0 -128245168.0207634 290994545.99358511 0 290994545.99358511 236134721.43804932 0 0 0 0 -88418789.505729675 61645093.752555847 0 61645093.752555847 243683342.42463684 0 0 0 0 -40827931.090171814 308476585.49124908 0 308476585.49124908 -89269757.814605713 0 0 0 0 -294447329.77754021 383167118.25402546 0 383167118.25402546 -27767960.589248657 0 0 0 0 -398402572.26867676 513678842.50408173 0 513678842.50408173 -154613026.44647217 0 0 0 0 -280016858.44935608 177722452.83773041 0 177722452.83773041 -35169475.927810669 0 0 0 0 -459767715.06087494 475249299.61903381 0 475249299.61903381 -170534364.37562561 0 0 0 0 -739059472.62122345 749181795.33512115 0 749181795.33512115 -299882139.9580307 0 0 0 0 -868643812.06533432 707248830.06381226 0 707248830.06381226 -264800024.64076233 0 0 0 0 -766914431.10407257 355608611.17192841 0 355608611.17192841 -40590742.029716492 0 0 0 0 -465950622.11465836 349563871.94974899 0 349563871.94974899 -243449374.26176453 0 0 0 0 -515250272.50071716 365504035.45375061 0 365504035.45375061 67077209.398303986 0 0 0 0 729979.13106232882 1593944.0699452925 0 1593944.0699452925 1587918.4827229083 0 0 0 0 -70622993.498354197 81691619.578879178 0 81691619.578879178 -363430113.19302368 0 0 0 0 134182548.34377611 76099973.564219475 0 76099973.564219475 -16269938.935821533 0 0 0 0 -332365933.35020447 53140197.345733643 0 53140197.345733643 156176762.76121521 0 0 0 0 -459875845.00561523 370409120.14547729 0 370409120.14547729 -130123583.54716492 0 0 0 0 -717735396.79244614 1341794649.2674637 0 1341794649.2674637 -1181254584.1468048 0 0 0 0 -765619409.53861237 1478820343.4631996 0 1478820343.4631996 -1571618568.6625214 0 0 0 0 -524403190.00465393 1095754186.8509827 0 1095754186.8509827 -1597204964.210022 0 0 0 0 -589947544.47302246 1041715086.2777405 0 1041715086.2777405 -1236326043.5871582 0 0 0 0 -720689129.50445557 1195590192.706192 0 1195590192.706192 -1401032262.5098572 0 0 0 0 -873872682.84437561 1045511609.9542236 0 1045511609.9542236 -1045739536.0266113 0 0 0 0 -1043262450.3499146 1393711198.5167236 0 1393711198.5167236 -1151248995.3364258 0 0 0 0 -1019805039.0308437 1489802178.8441277 0 1489802178.8441277 -784718034.63471985 0 0 0 0 -1350181947.4468994 1282261567.8404999 0 1282261567.8404999 -890391199.48362732 0 0 0 0 361584067.83305359 -4594900.1945724487 0 -4594900.1945724487 -470144055.89772987 0 0 0 0 1598082.9141734615 1043773.368877925 0 1043773.368877925 -1186309.0407579243 0 0 0 0 -88680629.396331787 249920347.80134964 0 249920347.80134964 -436688952.03929138 0 0 0 0 480283378.51976013 546356352.47319794 0 546356352.47319794 -307379190.47406006 0 0 0 0 -175951425.23959732 751427154.92649078 0 751427154.92649078 -219277049.23757935 0 0 0 0 -487739243.62625122 878452706.00559616 0 878452706.00559616 -392893575.07699585 0 0 0 0 -661167615.43901062 802209662.71874428 0 802209662.71874428 -174165586.35029602 0 0 0 0 -1175116472.0736008 1280932486.1480103 0 1280932486.1480103 -494875322.81996536 0 0 0 0 -1201502374.8051758 1286116620.6365776 0 1286116620.6365776 -437954343.00856018 0 0 0 0 -864618844.93543243 1513577517.5321655 0 1513577517.5321655 -822678308.62784576 0 0 0 0 -1139745105.2486877 1488056046.5117645 0 1488056046.5117645 -473290371.34667969 0 0 0 0 -1274550117.1696472 1731554893.715683 0 1731554893.715683 -894289047.13510132 0 0 0 0 -1495818698.6142578 1643613815.8336945 0 1643613815.8336945 -457204610.60340786 0 0 0 0 -1643764688.7249527 1839817886.8680496 0 1839817886.8680496 -506418334.5903734 0 0 0 0 -1148968810.2401428 1954333836.333889 0 1954333836.333889 -508914283.18286133 0 0 0 0 -1772059296.1784058 1531579272.9009933 0 1531579272.9009933 -804835723.38027954 0 0 0 0 -1677648142.5947418 1721130453.3627396 0 1721130453.3627396 -573969087.53704834 0 0 0 0 -1464256135.7660713 1634233099.0151443 0 1634233099.0151443 -548256402.30134583 0 0 0 0 -1488142118.9672699 1619843639.2145119 0 1619843639.2145119 -799506514.05686951 0 0 0 0 -1778048366.6407242 1524893787.5599442 0 1524893787.5599442 -471207265.95929718 0 0 0 0 -1396457854.5267143 1033565588.4843941 0 1033565588.4843941 -390135212.95301819 0 0 0 0 -2038237473.0262604 1419955093.4318924 0 1419955093.4318924 -557689708.52626801 0 0 0 0 -2532551732.0030098 1150371002.5480704 0 1150371002.5480704 -686899120.4553833 0 0 0 0 -1306001598.9349518 2216199133.904129 0 2216199133.904129 -1883523512.6812744 0 0 0 0 -2413024937.829061 2271667114.9413242 0 2271667114.9413242 -1021231800.1883545 0 0 0 0 -1543996458.5696869 1757244530.6300812 0 1757244530.6300812 -764409985.24804688 0 0 0 0 -1514354647.9768944 1678107663.1688156 0 1678107663.1688156 -1208127702.5490265 0 0 0 0 -170101293.41468048 1304642052.4746284 0 1304642052.4746284 -1347462699.5388336 0 0 0 0 -1561641996.2685394 447255610.62163544 0 447255610.62163544 -557896308.2249794 0 0 0 0 -335577254.56076813 395910501.62113953 0 395910501.62113953 -336622570.05184937 0 0 0 0 -951788240.85342407 497758084.73637581 0 497758084.73637581 -213482289.74380493 0 0 0 0 -745514434.0332489 165416200.0663147 0 165416200.0663147 -3668710.8904266357 0 0 0 0 -939011162.28746796 481185275.60028839 0 481185275.60028839 -289109046.21615601 0 0 0 0 -1433248558.8707581 1027543489.3924789 0 1027543489.3924789 -364504341.03512192 0 0 0 0 -1506353620.515625 803412761.96282959 0 803412761.96282959 -242665252.78043747 0 0 0 0 -2092679832.0912399 1395697457.1034851 0 1395697457.1034851 -726092027.64741135 0 0 0 0 -1562958311.5858002 700242619.33876801 0 700242619.33876801 -417959343.125 0 0 0 0 -1925683202.6614761 1330391982.092865 0 1330391982.092865 -1585022728.9825439 0 0 0 0 -2342293647.4635315 1382257058.9928284 0 1382257058.9928284 -454960647.53619385 0 0 0 0 -1719575039.8924751 759062658.21580505 0 759062658.21580505 -40242830.45652771 0 0 0 0 -1685349836.3184357 534710886.46221924 0 534710886.46221924 114062546.31355286 0 0 0 0 -1178545872.3788581 233213657.49889088 0 233213657.49889088 -19929339.764602661 0 0 0 0 -1117516923.2592163 751807222.16015625 0 751807222.16015625 -570435629.87236023 0 0 0 0 -729453570.52561951 60523188.216659546 0 60523188.216659546 51663892.896942139 0 0 0 0 -804419833.13050842 307830812.99472046 0 307830812.99472046 -173838947.76828003 0 0 0 0 -948531295.26829529 420406276.18300629 0 420406276.18300629 80640537.204925537 0 0 0 0 -921727372.4013443 -32824219.754776001 0 -32824219.754776001 128328249.56338501 0 0 0 0 -732985914.15604687 507936562.45796776 0 507936562.45796776 213464592.28314209 0 0 0 0 -660036058.80513 -55305761.147003174 0 -55305761.147003174 -212175726.33394623 0 0 0 0 -2107708722.3759918 -301645234.07762146 0 -301645234.07762146 184701204.97209167 0 0 0 0 -1772122895.1828918 493042974.79950333 0 493042974.79950333 348735495.09902954 0 0 0 0 -3417901986.7254333 1008868514.6145172 0 1008868514.6145172 249232553.04962158 0 0 0 0 -2996101416.4152222 1635008598.3877335 0 1635008598.3877335 315995778.78936768 0 0 0 0 -3160106553.2856779 2432451649.4880466 0 2432451649.4880466 219626646.24372864 0 0 0 0 -5195723520.2434235 1766858467.1628723 0 1766858467.1628723 637670208.67147064 0 0 0 0 -3038838071.3420525 1490821829.7939339 0 1490821829.7939339 587148087.73313904 0 0 0 0 -6691082461.0820084 2878675328.715271 0 2878675328.715271 -156086598.61686707 0 0 0 0 -2752605861.1349869 2462913828.8298264 0 2462913828.8298264 -1668044707.60849 0 0 0 0 -3160952359.2306061 -230311776.58368683 0 -230311776.58368683 -3321346025.4461575 0 0 0 0 -4379068743.3254623 3547840350.879776 0 3547840350.879776 -2383693075.5602264 0 0 0 0 -3635046140.7594986 3833627487.1892853 0 3833627487.1892853 -2521137137.874403 0 0 0 0 237917572.35041809 259042614.80566406 0 259042614.80566406 -2732154521.526412 0 0 0 0 -574622806.97619629 3607902.223777771 0 3607902.223777771 66248098.925506592 0 0 0 0 -5926974784.1198397 -1378198334.9498634 0 -1378198334.9498634 193682543.24111938 0 0 0 0 -6570829.5785847455 8048282.3542058729 0 8048282.3542058729 -5674940.1524347961 0 0 0 0 -933473158.20307922 813881722.19404602 0 813881722.19404602 -537983154.54588318 0 0 0 0 -779902289.60115814 308366022.38163757 0 308366022.38163757 -533363253.20718765 0 0 0 0 -719750229.80104828 27500982.895359039 0 27500982.895359039 496731027.82667542 0 0 0 0 -6295900.8873783126 7977014.5944179632 0 7977014.5944179632 -4253994.3604343534 0 0 0 0 945424314.17205048 1588601423.5723801 0 1588601423.5723801 502778099.26580095 0 0 0 0 -853255085.03245544 156055469.23956299 0 156055469.23956299 1311477346.3790512 0 0 0 0 -3806860.0204368755 4350115.5144628473 0 4350115.5144628473 -1960815.5350262821 0 0 0 0 -3585916075.8639755 2148708988.7508392 0 2148708988.7508392 725439143.24203491 0 0 0 0 1728289592.2869949 1197837902.4642029 0 1197837902.4642029 -1864155376.8960576 0 0 0 0 -2984821570.622673 3191471418.5562668 0 3191471418.5562668 -1094575209.3361359 0 0 0 0 -2196489510.9899902 2238146920.9874954 0 2238146920.9874954 -215061111.54077911 0 0 0 0 -2608752828.9109612 1898815193.2021599 0 1898815193.2021599 289778388.46051025 0 0 0 0 -2099152644.1756439 666787321.83480835 0 666787321.83480835 -387651442.366745 0 0 0 0 -80358984.56628418 760301447.94731903 0 760301447.94731903 -1398723276.4374008 0 0 0 0 -66948101.039009094 1302841356.5649872 0 1302841356.5649872 -486943181.0604248 0 0 0 0 1563974031.4715881 2087482243.0654411 0 2087482243.0654411 -82491834.607849121 0 0 0 0 1415544175.915741 194235864.60562134 0 194235864.60562134 234069997.87726212 0 0 0 0 -871820937.50054932 768452436.75198364 0 768452436.75198364 671350980.71102905 0 0 0 0 -3283329.1855779216 3887107.34149516 0 3887107.34149516 -1597562.9355992526 0 0 0 0 1842281789.2722397 875130347.29836273 0 875130347.29836273 -1526064716.1648865 0 0 0 0 -339718596.097435 -201798465.24708939 0 -201798465.24708939 543626125.83258057 0 0 0 0 -1778792377.8852844 491968792.53643799 0 491968792.53643799 1060627234.917923 0 0 0 0 2430738692.3564987 1014496921.8356552 0 1014496921.8356552 391084147.69668579 0 0 0 0 681271.04949104786 3572244.0495227277 0 3572244.0495227277 -2113430.841172412 0 0 0 0 2943413179.8896942 1282268375.5196381 0 1282268375.5196381 -1690606360.1695557 0 0 0 0 -1350635651.8093376 2194977919.6251068 0 2194977919.6251068 -181036988.21127319 0 0 0 0 2186563986.6687164 -198687810.72079468 0 -198687810.72079468 1299896858.3930359 0 0 0 0 1625211838.5329189 2252277757.1546955 0 2252277757.1546955 259699031.98757935 0 0 0 0 1482563830.4983521 1290691224.9637604 0 1290691224.9637604 -681669885.14871216 0 0 0 0 1336537756.9514771 199314094.82171631 0 199314094.82171631 500350738.66003799 0 0 0 0 -246388421.29190063 260137214.37462616 0 260137214.37462616 -295952922.51588058 0 0 0 0 -582160693.61698914 1001785207.0042267 0 1001785207.0042267 36732278.251480103 0 0 0 0 946825680.81095505 708364605.36732483 0 708364605.36732483 -693523255.81596375 0 0 0 0 -1296069191.1601334 243227764.85548401 0 243227764.85548401 -576769651.1338501 0 0 0 0 -1640990361.6859093 751920654.30824661 0 751920654.30824661 212916025.85594177 0 0 0 0 -1140187233.3191261 -3433859.5955810547 0 -3433859.5955810547 -3696514.5706329346 0 0 0 0 -281424228.40562439 821060732.0333786 0 821060732.0333786 563578.08010864258 0 0 0 0 1050156500.6548157 144829801.37908173 0 144829801.37908173 -204385570.84428787 0 0 0 0 413977550.54322815 1135566505.5632362 0 1135566505.5632362 237238501.69848633 0 0 0 0 1923325656.4618378 537956805.20489502 0 537956805.20489502 -646556.06960886915 0 0 0 0 1106078592.9586172 585191390.91180897 0 585191390.91180897 706373418.92077637 0 0 0 0 2354338240.455265 1181810526.5610008 0 1181810526.5610008 29340130.825622559 0 0 0 0 -3940672912.5362701 1102869717.4670868 0 1102869717.4670868 -43946791.643661499 0 0 0 0 -3087650978.7266617 1483407032.1854858 0 1483407032.1854858 -116721650.88493252 0 0 0 0 -4383821973.8348083 1405109461.1059875 0 1405109461.1059875 -120938213.23732185 0 0 0 0 -1833678523.5599937 2017423175.5516434 0 2017423175.5516434 -731866668.61730957 0 0 0 0 -3357837840.5457649 2577818047.5800896 0 2577818047.5800896 -889913420.97116089 0 0 0 0 -655843307.98679352 1951325585.7154236 0 1951325585.7154236 -1674281731.73703 0 0 0 0 -6901611049.5126495 1001345452.6025162 0 1001345452.6025162 -20650394.918395996 0 0 0 0 -2388150734.9946747 1213795756.7376785 0 1213795756.7376785 -624772742.02200317 0 0 0 0 -1671612534.2559052 857972227.39900208 0 857972227.39900208 -932898413.03192139 0 0 0 0 -2807593535.9324036 202989945.10163116 0 202989945.10163116 -143312440.0076828 0 0 0 0 -4279919580.8571854 1000678979.6942062 0 1000678979.6942062 48736464.653656006 0 0 0 0 -1613929.9311299073 -1126122.9836555235 0 -1126122.9836555235 392633.62108010054 0 0 0 0 -3757158896.9495773 802430787.45768738 0 802430787.45768738 -45079545.103927612 0 0 0 0 -1712681746.4862089 520937188.71746635 0 520937188.71746635 -163978423.70330811 0 0 0 0 -3644800549.7920609 175201072.57327271 0 175201072.57327271 218030874.59006119 0 0 0 0 -1966015228.5885582 818277991.36775208 0 818277991.36775208 -598013.35777282715 0 0 0 0 -3211512.2769417693 -2251501.009879265 0 -2251501.009879265 441441.42597226799 0 0 0 0 -2113668253.4211802 908746486.96817517 0 908746486.96817517 -61182509.451065063 0 0 0 0 -2811290480.6786957 1236947761.5047913 0 1236947761.5047913 858678.44954071078 0 0 0 0 -3176581621.158432 1521568851.942009 0 1521568851.942009 9124563.4627380371 0 0 0 0 -2325601769.5043793 1245127511.0874252 0 1245127511.0874252 -296416.38317871094 0 0 0 0 -2723659114.4358187 1490411786.9608822 0 1490411786.9608822 11165517.764297485 0 0 0 0 -2155212685.8240299 1501795782.705677 0 1501795782.705677 -249137022.70623779 0 0 0 0 -1527245664.9278831 1109305688.8695068 0 1109305688.8695068 -320076908.19641113 0 0 0 0 -1713574802.8224258 1114905486.7286148 0 1114905486.7286148 -112103.29359436035 0 0 0 0 -1403220860.224144 975537125.81167603 0 975537125.81167603 -247813041.28046417 0 0 0 0 -1404054593.9118271 1301651362.2329407 0 1301651362.2329407 -484024653.39117432 0 0 0 0 912651.71139110415 -2994425.3764354941 0 -2994425.3764354941 -1780541.3118203282 0 0 0 0 -1463939569.8912811 946163966.39685059 0 946163966.39685059 -400063.97426298348 0 0 0 0 -1843140602.9032688 669970693.05677795 0 669970693.05677795 -133580626.86351013 0 0 0 0 1098972.7319697863 -2257184.5515182763 0 -2257184.5515182763 -2688711.3659012318 0 0 0 0 -407851405.44504929 360630439.03803253 0 360630439.03803253 -236374995.3152771 0 0 0 0 -848513785.6785965 249404619.26639557 0 249404619.26639557 23401131.128295898 0 0 0 0 -208459580.86633301 -78198380.487579346 0 -78198380.487579346 -74166755.761936188 0 0 0 0 -809411782.45405579 1230104604.7984467 0 1230104604.7984467 -1166675128.8974762 0 0 0 0 -1743325621.4554024 1488532631.3048086 0 1488532631.3048086 -579129545.28051758 0 0 0 0 -879430112.52622223 748287931.08505249 0 748287931.08505249 -372443132.83027649 0 0 0 0 -882037192.51591909 916628872.13045645 0 916628872.13045645 -645864031.65081787 0 0 0 0 -189195284.82979584 345239895.38122559 0 345239895.38122559 -536884051.32637024 0 0 0 0 -701852397.58272815 773954497.52533603 0 773954497.52533603 -639581358.63687134 0 0 0 0 -614440820.54454041 825585542.86540985 0 825585542.86540985 -626298697.84951782 0 0 0 0 221507391.58320999 443487346.41018677 0 443487346.41018677 -608587782.85385132 0 0 0 0 589183643.94165421 71783291.972381592 0 71783291.972381592 -248109139.69030762 0 0 0 0 248924.69231210276 -600147.39232166484 0 -600147.39232166484 1135704.7934693992 0 0 0 0 39177332.71383667 369747675.36190796 0 369747675.36190796 195043691.57232666 0 0 0 0 96668080.298828125 480631004.92102051 0 480631004.92102051 24758346.145172119 0 0 0 0 -251470974.91505241 70052483.72089386 0 70052483.72089386 103563528.46466064 0 0 0 0 21334563.752601624 83772990.241912842 0 83772990.241912842 50195324.497344971 0 0 0 0 -49553408.464416504 166179558.20584106 0 166179558.20584106 147496446.29473877 0 0 0 0 -440896434.89868355 238745312.89972687 0 238745312.89972687 -189970642.70025635 0 0 0 0 -103467280.91372681 -25497981.948135376 0 -25497981.948135376 -124142590.45777512 0 0 0 0 -9186335.6313934326 17394734.160728455 0 17394734.160728455 -119297772.37242126 0 0 0 0 1175991.9481030288 -1676117.5058292528 0 -1676117.5058292528 -1932823.3673440218 0 0 0 0 -113766850.59816456 -81880272.420818329 0 -81880272.420818329 -1341585.9545898438 0 0 0 0 -169486089.41024208 -8461077.5816688538 0 -8461077.5816688538 60570184.099395752 0 0 0 0 -44160830.578544617 11749622.712112427 0 11749622.712112427 73728467.998443604 0 0 0 0 -40650882.880931854 18371004.120391846 0 18371004.120391846 49638107.693191528 0 0 0 0 -87647176.480470657 -48801066.456047058 0 -48801066.456047058 34562280.061050415 0 0 0 0 -83656526.837473869 -50200562.57736969 0 -50200562.57736969 33112550.37789917 0 0 0 0 -12867248.555825233 45274569.593566895 0 45274569.593566895 11736434.79675293 0 0 0 0 101842117.40789795 108923337.70730591 0 108923337.70730591 87326003.398803711 0 0 0 0 -6911831.5350837708 23035593.501197815 0 23035593.501197815 82240320.78729248 0 0 0 0 80076670.168304443 161382647.65925598 0 161382647.65925598 130763738.21566772 0 0 0 0 21599185.532533959 13325862.074150648 0 13325862.074150648 -24052980.90370921 0 0 0 0 86681392.384223938 76754303.715545654 0 76754303.715545654 38688840.980545044 0 0 0 0 -23908457.662704781 16729232.990247564 0 16729232.990247564 20266731.259090826 0 0 0 0 633807875.22434998 474701671.53294373 0 474701671.53294373 45865021.108482361 0 0 0 0 -42876076.258789062 46162950.686134338 0 46162950.686134338 149802679.34432983 0 0 0 0 -313288981.27420044 -83986476.266220093 0 -83986476.266220093 210067596.49072266 0 0 0 0 -20643658.600799434 22682626.490056507 0 22682626.490056507 -1256877.9372567087 0 0 0 0 36017813.481231689 29688164.262207031 0 29688164.262207031 15949312.668457031 0 0 0 0 319836311.96894073 364339007.03660583 0 364339007.03660583 79854705.838012695 0 0 0 0 -200130845.45184326 -57323925.470825195 0 -57323925.470825195 28712846.687988281 0 0 0 0 -4837344.1238754839 4952022.3783652186 0 4952022.3783652186 8945672.9192510247 0 0 0 0 -119172.19605255127 145616005.79693604 0 145616005.79693604 195683521.72518921 0 0 0 0 -13273789.808797475 23524222.707881961 0 23524222.707881961 -16167131.702337965 0 0 0 0 -338316183.34508133 147631988.63742065 0 147631988.63742065 460620334.12045288 0 0 0 0 15053561.283673123 17283783.350542471 0 17283783.350542471 -19007492.633110404 0 0 0 0 -5406454.995795019 5449245.9355700016 0 5449245.9355700016 5804734.2877676487 0 0 0 0 106122390.36139679 82990368.875801086 0 82990368.875801086 134695721.54589844 0 0 0 0 293989132.99687481 209721997.96216583 0 209721997.96216583 93718109.170837402 0 0 0 0 -9121673.0817337036 159512104.92440796 0 159512104.92440796 148670030.32652283 0 0 0 0 -931301873.84379196 626545625.55462646 0 626545625.55462646 70143428.857299805 0 0 0 0 -226059765.0142746 507729856.51095581 0 507729856.51095581 -439426415.14886475 0 0 0 0 -1945032.568739404 3405.0841865427792 0 3405.0841865427792 1268658.3475676477 0 0 0 0 -729023158.62193108 199067084.28739929 0 199067084.28739929 11453176.749847412 0 0 0 0 -337653707.13413 111931408.31886292 0 111931408.31886292 -104484159.97883606 0 0 0 0 -276573177.41320896 274302616.44680023 0 274302616.44680023 -18636454.664398193 0 0 0 0 -88406889.136721611 236974669.24821472 0 236974669.24821472 -92479472.665328979 0 0 0 0 -177245582.08865166 267280583.62879944 0 267280583.62879944 -28768920.972503662 0 0 0 0 -992663593.79528046 514578440.77255249 0 514578440.77255249 511376887.8772583 0 0 0 0 -730360521.67566049 392141796.17675143 0 392141796.17675143 240068886.04470825 0 0 0 0 -582175231.15896606 910606440.20870972 0 910606440.20870972 -278777646.04193115 0 0 0 0 -417687540.39148521 742695032.30819702 0 742695032.30819702 -138987447.84197998 0 0 0 0 -859947491.02108574 -200987332.81069946 0 -200987332.81069946 -16261808.357788086 0 0 0 0 -3316956203.773407 1467852215.9503174 0 1467852215.9503174 642985683.48603821 0 0 0 0 421710029.80287933 335146150.94744873 0 335146150.94744873 -568697274.0333252 0 0 0 0 198867657.68507385 7862255.7728881836 0 7862255.7728881836 -802342999.34008026 0 0 0 0 -98799329.21113205 -342379087.11486816 0 -342379087.11486816 -755897506.2654953 0 0 0 0 -22928911.556743622 -78221936.182861328 0 -78221936.182861328 -382339821.42211914 0 0 0 0 446039763.08796692 249951808.54345703 0 249951808.54345703 -612837748.42810059 0 0 0 0 430712914.781703 235818842.83900452 0 235818842.83900452 -297150630.59716797 0 0 0 0 944473380.96861267 84381812.924911499 0 84381812.924911499 -232305395.73126221 0 0 0 0 746126498.77667236 339731137.42678833 0 339731137.42678833 -400470935.83258057 0 0 0 0 296899303.24568939 68284618.217498779 0 68284618.217498779 -184932729.76011658 0 0 0 0 847649571.93131256 214354778.6076355 0 214354778.6076355 -283688244.46948242 0 0 0 0 -575941438.1673317 210443036.49612427 0 210443036.49612427 113567873.62030029 0 0 0 0 287529044.04538536 -11169.941284179688 0 -11169.941284179688 -470605319.92041016 0 0 0 0 -2245209.2988129873 -5785226.6768310303 0 -5785226.6768310303 -194186.45682154596 0 0 0 0 1703925725.0847549 337439399.79974365 0 337439399.79974365 -361290439.73086548 0 0 0 0 -112307961.02134514 15509828.593597412 0 15509828.593597412 62719880.464355469 0 0 0 0 184159.27803117281 3810205.7809519861 0 3810205.7809519861 6960322.6075507104 0 0 0 0 1396222901.5691833 508211888.02747345 0 508211888.02747345 -194236649.86468506 0 0 0 0 859889451.09197235 297158432.93032837 0 297158432.93032837 183705125.57293701 0 0 0 0 1968745929.5505676 51141828.753662109 0 51141828.753662109 -167411608.18481445 0 0 0 0 -2047276.6408948898 -2470966.2497167252 0 -2470966.2497167252 1403399.2208635807 0 0 0 0 336095827.88609695 100378559.56225586 0 100378559.56225586 23540710.134521484 0 0 0 0 1034935.6243829047 -899107.82405881304 0 -899107.82405881304 -148707.82257170975 0 0 0 0 1178085262.8601246 -147383338.42962646 0 -147383338.42962646 146487874.26693726 0 0 0 0 1181900425.79708 250882928.71537018 0 250882928.71537018 105925633.42153931 0 0 0 0 99582284.734025955 330186333.94354248 0 330186333.94354248 -113380144.724823 0 0 0 0 693866329.97152328 272875950.04226685 0 272875950.04226685 -24595057.06653595 0 0 0 0 250899204.0600996 -44831634.313140869 0 -44831634.313140869 -17835976.873474121 0 0 0 0 842167523.16896439 -121888547.28833008 0 -121888547.28833008 78659806.394287109 0 0 0 0 -78588781.083267212 65732255.045181274 0 65732255.045181274 103553010.7053833 0 0 0 0 379531476.65297699 322496912.73394775 0 322496912.73394775 -61884654.097106934 0 0 0 0 537896536.26239395 -114293431.94802856 0 -114293431.94802856 -880283.59495544434 0 0 0 0 787671688.34095287 241177158.32093048 0 241177158.32093048 103637819.06066895 0 0 0 0 29128237.913258553 270968744.48725891 0 270968744.48725891 1247467.9348754883 0 0 0 0 2017730920.6683617 165575568.34590149 0 165575568.34590149 -157656895.49157715 0 0 0 0 -457949.28760015836 -1115781.7510593513 0 -1115781.7510593513 284667.07131415606 0 0 0 0 581541385.71768951 -345401847.94694519 0 -345401847.94694519 38143649.522705078 0 0 0 0 1280884459.905014 -132229947.80865479 0 -132229947.80865479 117154953.10974216 0 0 0 0 1168110652.3250809 -44488930.172210693 0 -44488930.172210693 -39937163.16468811 0 0 0 0 1208511500.9530458 132710774.26098633 0 132710774.26098633 -52560836.876220703 0 0 0 0 978488132.33864594 531005666.02475739 0 531005666.02475739 74599909.888671875 0 0 0 0 1020445584.4553299 69190915.967529297 0 69190915.967529297 190427768.65352249 0 0 0 0 1178258673.2497597 369990223.11074829 0 369990223.11074829 228621314.25738525 0 0 0 0 1030652683.1520615 83625060.824615479 0 83625060.824615479 -66692537.761901855 0 0 0 0 243962611.43184471 -122091600.418396 0 -122091600.418396 40912721.91027832 0 0 0 0 596519942.39013243 94470486.25579834 0 94470486.25579834 -89959181.79864502 0 0 0 0 641589654.42157555 -28053958.102294922 0 -28053958.102294922 164522842.22851562 0 0 0 0 262145479.67974472 -61340514.98210144 0 -61340514.98210144 88346536.202865601 0 0 0 0 262423626.92472649 -58815784.416152954 0 -58815784.416152954 -89113045.112796783 0 0 0 0 -449342505.94300556 276809086.3371582 0 276809086.3371582 -23163360.552062988 0 0 0 0 -210843697.27317619 91243479.649215698 0 91243479.649215698 -100599517.38446045 0 0 0 0 -151813809.03422928 189406966.00195312 0 189406966.00195312 2904643.2253265381 0 0 0 0 -805145775.40028405 239574942.28322935 0 239574942.28322935 84941383.093505859 0 0 0 0 -274172281.11642265 -78684234.081039429 0 -78684234.081039429 -191362784.06551361 0 0 0 0 -506649633.58645296 271430516.89253235 0 271430516.89253235 -106545043.82492065 0 0 0 0 -3276812.4450231008 -540495.60319880396 0 -540495.60319880396 2652745.722644195 0 0 0 0 -1255136543.2399023 363411000.71209717 0 363411000.71209717 210524143.39508057 0 0 0 0 -793758401.32217503 545772462.94086552 0 545772462.94086552 -95072356.609710693 0 0 0 0 -1066960914.1225653 132109814.95318604 0 132109814.95318604 -936449817.82495117 0 0 0 0 -391221873.20090818 53190242.122619629 0 53190242.122619629 -175903047.60743713 0 0 0 0 -398832358.73210526 294502613.06771851 0 294502613.06771851 -381625183.12533569 0 0 0 0 -405689561.51988029 -14538770.508407593 0 -14538770.508407593 -25394275.132869601 0 0 0 0 -652626915.66873288 347945693.79106903 0 347945693.79106903 -18428052.93939209 0 0 0 0 -193687975.52265358 162513986.97486877 0 162513986.97486877 5684479.2835693359 0 0 0 0 152111672.35582829 -89371351.362136841 0 -89371351.362136841 -47416629.560791016 0 0 0 0 -257813622.11855483 163405408.59583664 0 163405408.59583664 73656704.069274902 0 0 0 0 -281442017.64292407 90797310.481452942 0 90797310.481452942 -149365060.08279419 0 0 0 0 717499202.39147186 6258124.5567932129 0 6258124.5567932129 35773076.495020866 0 0 0 0 979655117.883255 161922716.79283142 0 161922716.79283142 45846654.809356689 0 0 0 0 729121594.32279968 -74954759.334823608 0 -74954759.334823608 3969482.460395813 0 0 0 0 722527007.84952545 -98883801.448272705 0 -98883801.448272705 -74982005.934503555 0 0 0 0 655989146.3685565 55240116.528774261 0 55240116.528774261 -87377968.619354248 0 0 0 0 249418007.93007374 95686405.709373474 0 95686405.709373474 53701909.918487549 0 0 0 0 1148958783.3604448 133079577.54762268 0 133079577.54762268 -108674319.68417358 0 0 0 0 645860325.31217003 133179243.59820557 0 133179243.59820557 39547416.144897461 0 0 0 0 588484353.59105778 -11971988.362810135 0 -11971988.362810135 -57669819.758575439 0 0 0 0 541080847.97523725 131597921.13989925 0 131597921.13989925 -375189.65739440918 0 0 0 0 977597877.37945032 26622538.045608521 0 26622538.045608521 -62121160.554412842 0 0 0 0 541106304.59660912 131411642.71554565 0 131411642.71554565 387333.35360717773 0 0 0 0 94660061.726723194 28495457.165657043 0 28495457.165657043 108410463.81020355 0 0 0 0 65335512.750806808 -50584728.556968689 0 -50584728.556968689 -39124896.139213562 0 0 0 0 -221210286.51280308 172045494.41949081 0 172045494.41949081 318033.8543548584 0 0 0 0 -297266123.66300106 71346150.967159271 0 71346150.967159271 -44556290.568572998 0 0 0 0 -4578101.4098316859 -2074162.5852337368 0 -2074162.5852337368 4031358.2241920084 0 0 0 0 -403741762.58622456 150090015.10685349 0 150090015.10685349 -179762.34080505371 0 0 0 0 100517807.93309307 208792245.38499451 0 208792245.38499451 -150860185.86355591 0 0 0 0 -108423849.69480324 387381545.07984924 0 387381545.07984924 -152466.84061516999 0 0 0 0 -400361518.82522583 347165720.80446625 0 347165720.80446625 -92841.052947998047 0 0 0 0 -264369748.75255585 231397745.36107635 0 231397745.36107635 -73869994.931915283 0 0 0 0 -166099005.40319824 285682806.06591034 0 285682806.06591034 -71516666.959136963 0 0 0 0 -297284778.7882309 198426181.55831146 0 198426181.55831146 -60518109.808319092 0 0 0 0 -148703407.4642849 179649617.08752441 0 179649617.08752441 -139820325.15663147 0 0 0 0 -94876298.075073242 249403736.95214081 0 249403736.95214081 -137439816.30387878 0 0 0 0 -88181347.537778854 149016259.01763916 0 149016259.01763916 -108051973.15771484 0 0 0 0 -115535314.30501938 229617289.459198 0 229617289.459198 -152866796.88943481 0 0 0 0 -24435068.036151886 146942887.73098755 0 146942887.73098755 -87249083.269699097 0 0 0 0 -119017553.58843559 155081158.51826239 0 155081158.51826239 -64235760.007873535 0 0 0 0 -107659823.7284565 163758078.06443787 0 163758078.06443787 -42650082.180557251 0 0 0 0 46147788.210287094 68889214.798721313 0 68889214.798721313 -46620087.406445503 0 0 0 0 -170956598.1965332 250545399.71587372 0 250545399.71587372 -129553523.58224487 0 0 0 0 -33446432.422851562 107061951.7762146 0 107061951.7762146 -172501019.82699585 0 0 0 0 -191307593.60100532 212119086.99380112 0 212119086.99380112 -201160759.75482178 0 0 0 0 -4293558.3038913291 -1364985.448130358 0 -1364985.448130358 3601525.0017278939 0 0 0 0 -506254982.56073618 244337096.52201843 0 244337096.52201843 -132466936.61457825 0 0 0 0 -575990000.65099716 434978160.73210144 0 434978160.73210144 -234447745.50933838 0 0 0 0 -509114425.74141383 262020931.35541534 0 262020931.35541534 -13188024.82689476 0 0 0 0 -4472600.1276098043 -1652842.2842931226 0 -1652842.2842931226 4288617.3523075879 0 0 0 0 -329408382.17383862 284171924.98590851 0 284171924.98590851 -128030633.18258667 0 0 0 0 20966653.349754333 62968660.176368713 0 62968660.176368713 36732933.446685791 0 0 0 0 -67700261.47277832 -26273357.237529755 0 -26273357.237529755 47104697.005996704 0 0 0 0 10721155.8791051 1157730.6187906638 0 1157730.6187906638 -2209129.7392073572 0 0 0 0 2201018.4440458398 -4407766.0881307647 0 -4407766.0881307647 416052.02638445795 0 0 0 0 -148217676.56135798 19742960.066639423 0 19742960.066639423 51060907.731018066 0 0 0 0 289546850.20663834 242202481.521698 0 242202481.521698 -973283.79956159962 0 0 0 0 19648011.395065308 -31761275.960578918 0 -31761275.960578918 4452222.8850708008 0 0 0 0 15444726.165031433 81028000.461181641 0 81028000.461181641 14536844.2329216 0 0 0 0 25452931.658855438 69921417.41758728 0 69921417.41758728 -569.13545227050781 0 0 0 0 4608186.7881578943 -2842978.0258882269 0 -2842978.0258882269 -2483336.0643469393 0 0 0 0 172286633.92539978 50187716.947875977 0 50187716.947875977 -49007757.344070435 0 0 0 0 -713498094.81996727 92257629.857315063 0 92257629.857315063 43908024.603942871 0 0 0 0 -216138978.14925385 22317785.825576782 0 22317785.825576782 -15101547.224380493 0 0 0 0 -173546463.26885223 25851953.490829468 0 25851953.490829468 -56963830.774612427 0 0 0 0 -83194838.750416756 -91472.207080841064 0 -91472.207080841064 -61055660.370635986 0 0 0 0 41842715.057472229 120855388.25102234 0 120855388.25102234 -11614664.370285034 0 0 0 0 -197888.02191543579 47442137.02646637 0 47442137.02646637 18307551.312976837 0 0 0 0 7767618.9161949046 2451587.4633538201 0 2451587.4633538201 -766339.5791991204 0 0 0 0 5671269.2893261965 -1537783.7073022388 0 -1537783.7073022388 -2438129.0757673383 0 0 0 0 121434034.87898254 63953141.742973328 0 63953141.742973328 -32976340.834228516 0 0 0 0 40067163.173332214 -40663647.936637878 0 -40663647.936637878 -7044663.403503418 0 0 0 0 119019429.71606445 32554777.687420845 0 32554777.687420845 -1487787.1250610352 0 0 0 0 3438470.9221275556 -3167465.0735061262 0 -3167465.0735061262 602141.54510828853 0 0 0 0 -91998752.192131042 29776869.391937256 0 29776869.391937256 46266501.860321045 0 0 0 0 6665386.6318102274 1769796.519476356 0 1769796.519476356 438420.75831834972 0 0 0 0 33694420.948646545 24852954.350105286 0 24852954.350105286 -13396197.7084198 0 0 0 0 10546169.451530457 20647818.930526733 0 20647818.930526733 1715409.9705352783 0 0 0 0 16567905.926392138 14788758.708696365 0 14788758.708696365 11740153.98223877 0 0 0 0 16549883.422546387 16725982.995727539 0 16725982.995727539 16338250.382904053 0 0 0 0 13039103.864393234 11959335.246400833 0 11959335.246400833 10772103.417419434 0 0 0 0 14250666.16061306 16715627.571832657 0 16715627.571832657 14445539.079711914 0 0 0 0 13149102.668969367 16370908.493545733 0 16370908.493545733 9376424.3164135143 0 0 0 0 51662.401890918612 9500771.9198941216 0 9500771.9198941216 9404618.5031818673 0 0 0 0 63061.202228546143 392000.40220546722 0 392000.40220546722 922620.63677978516 0 0 0 0 22846121.65184021 16669507.328605652 0 16669507.328605652 13046207.109237671 0 0 0 0 2218973.0972277801 8153089.5422952883 0 8153089.5422952883 8406061.467789039 0 0 0 0 4155758.135293453 4666807.9066374302 0 4666807.9066374302 7207318.3035190701 0 0 0 0 -153795405.71878815 46002259.857528687 0 46002259.857528687 14328960.653930664 0 0 0 0 -125049642.84033203 28362033.226928711 0 28362033.226928711 14304829.565368652 0 0 0 0 40571583.587631226 57977546.06829071 0 57977546.06829071 -36377137.289489746 0 0 0 0 12323364.362854004 66705702.240600586 0 66705702.240600586 -37607265.155540466 0 0 0 0 -8651689.5086555481 125699545.85321045 0 125699545.85321045 -50314535.684509277 0 0 0 0 -41868984.291915894 143582647.06182861 0 143582647.06182861 -56826767.050598145 0 0 0 0 -180175134.6187973 242168707.49656677 0 242168707.49656677 -72125142.458374023 0 0 0 0 -334786450.04602814 257338833.02972412 0 257338833.02972412 -100820894.51322937 0 0 0 0 -160048208.10249329 -205043691.25536346 0 -205043691.25536346 236428785.83990479 0 0 0 0 44123740.601142883 19114557.124237061 0 19114557.124237061 -6163217.4236450195 0 0 0 0 -748110.27155701444 529889.92777621746 0 529889.92777621746 818801.95155117661 0 0 0 0 -423307051.10134888 -174872099.4876709 0 -174872099.4876709 129055302.32006836 0 0 0 0 202437629.65451145 103715329.299366 0 103715329.299366 -161305252.38183594 0 0 0 0 83019544.495880127 190559983.35412598 0 190559983.35412598 -163066913.35736084 0 0 0 0 142679223.97401428 -54392682.668914795 0 -54392682.668914795 -21063610.206481934 0 0 0 0 68038125.760181427 -43494468.416946411 0 -43494468.416946411 33602835.406585693 0 0 0 0 -83989868.167808533 25442062.562927246 0 25442062.562927246 248577642.83688354 0 0 0 0 339070.95201656409 2264776.4445173666 0 2264776.4445173666 279738.73939328082 0 0 0 0 219395284.25151634 3745117.7728729248 0 3745117.7728729248 -104074929.34423828 0 0 0 0 61514007.477035522 4113833.8664855957 0 4113833.8664855957 -42736645.751098633 0 0 0 0 79682141.086385727 20122837.929931641 0 20122837.929931641 -36969238.321289062 0 0 0 0 66047843.44834137 67170506.022949219 0 67170506.022949219 -80908398.012084961 0 0 0 0 46318320.358673096 32576727.63873291 0 32576727.63873291 -41303473.139099121 0 0 0 0 51667648.253637314 11612283.879104614 0 11612283.879104614 -26266462.750061035 0 0 0 0 48157887.315933228 21551678.420970917 0 21551678.420970917 -5232800.0971069336 0 0 0 0 36669853.152704239 34430279.22725296 0 34430279.22725296 -8621146.643371582 0 0 0 0 35406136.4015885 48900309.621158838 0 48900309.621158838 -28536958.993408203 0 0 0 0 36269583.009960175 36040242.319839478 0 36040242.319839478 -8449582.7650146484 0 0 0 0 35493856.491790771 38396817.864105225 0 38396817.864105225 -11980917.78729248 0 0 0 0 24624425.609336853 21754646.211196899 0 21754646.211196899 20907336.592773438 0 0 0 0 8231558.1157989502 24455626.047485352 0 24455626.047485352 38189122.390991211 0 0 0 0 -95387211.645347118 19963001.658164978 0 19963001.658164978 25336407.714294434 0 0 0 0 -48098727.975101829 35283244.270359039 0 35283244.270359039 26020822.232910156 0 0 0 0 -22545911.391113281 5368550.8174743652 0 5368550.8174743652 12063091.361022949 0 0 0 0 -51261498.152722538 -17383773.282459259 0 -17383773.282459259 -1506188.7810058594 0 0 0 0 3336456.0980478032 2725816.9342143238 0 2725816.9342143238 66683.004083067179 0 0 0 0 -72990777.532976627 -27875182.502761841 0 -27875182.502761841 1001359.4524230957 0 0 0 0 440450733.78852081 39279482.630462646 0 39279482.630462646 129356732.4395752 0 0 0 0 4726171.340637207 38174459.840438843 0 38174459.840438843 24341312.342285156 0 0 0 0 -4133752.5679779053 38244553.64642334 0 38244553.64642334 43668173.814575195 0 0 0 0 1112484.2378579294 11587170.302077197 0 11587170.302077197 3240991.8022472858 0 0 0 0 8648650.7790603638 46471917.76171875 0 46471917.76171875 36062489.966598511 0 0 0 0 60064862.563751221 167131507.77545166 0 167131507.77545166 207675595.73657227 0 0 0 0 11072426.422104379 8896093.9462509453 0 8896093.9462509453 -141960.17062664032 0 0 0 0 27000733.981460571 38900470.145812988 0 38900470.145812988 22550461.105834961 0 0 0 0 15653060.272510529 17362943.802696228 0 17362943.802696228 10817982.711791992 0 0 0 0 2481248.7748794556 37884523.473754883 0 37884523.473754883 30081873.023162842 0 0 0 0 -15573951.846481323 23012714.175323486 0 23012714.175323486 23390966.45731926 0 0 0 0 -5808186.5800323486 38728539.625946045 0 38728539.625946045 23746453.165527344 0 0 0 0 -4007056.8267364502 43790649.038726807 0 43790649.038726807 4780656.6734619141 0 0 0 0 15101219.657562256 34014250.313522339 0 34014250.313522339 6431869.1278076172 0 0 0 0 -27191643.35357666 62978054.373687744 0 62978054.373687744 -5648847.8927612305 0 0 0 0 -16103411.652088165 27214668.535232544 0 27214668.535232544 14168375.556762695 0 0 0 0 -31686772.674499512 20991517.359832764 0 20991517.359832764 11733595.506973267 0 0 0 0 1465690.1168670654 1417000.8120574951 0 1417000.8120574951 5442854.3461303711 0 0 0 0 4232576.4801118933 9173693.7521053813 0 9173693.7521053813 9532602.6917317063 0 0 0 0 -33150865.780826569 15054821.239273071 0 15054821.239273071 22174322.942321777 0 0 0 0 -4231755.558038977 2739515.1060922788 0 2739515.1060922788 9927604.842528969 0 0 0 0 28103213.819610596 19647890.841129303 0 19647890.841129303 13948764.682678223 0 0 0 0 -2529435.196138591 7414074.5435210727 0 7414074.5435210727 12292813.699146554 0 0 0 0 4391413.2092971802 3098180.3951568604 0 3098180.3951568604 1992577.0138549805 0 0 0 0 21580069.362049103 25974043.753890991 0 25974043.753890991 23235780.411560059 0 0 0 0 44157246.493614197 -889106.92504882812 0 -889106.92504882812 17042064.08984375 0 0 0 0 20021895.104347229 20212670.705440521 0 20212670.705440521 12713179.183258057 0 0 0 0 30855360.968078613 18186752.735687256 0 18186752.735687256 18503260.491470337 0 0 0 0 19671347.449523926 19424846.736938477 0 19424846.736938477 19400398.783676147 0 0 0 0 20933549.818450928 21058282.284301758 0 21058282.284301758 16082916.886749268 0 0 0 0 17319241.044042587 14080157.04454422 0 14080157.04454422 13672717.501098633 0 0 0 0 -34765338.393275023 73942593.743865967 0 73942593.743865967 258674300.8366394 0 0 0 0 39639237.862916946 39977429.109039307 0 39977429.109039307 112120020.69831848 0 0 0 0 29679631.93121767 47226352.575378418 0 47226352.575378418 12991056.807098389 0 0 0 0 10376882.182136089 104857172.54742432 0 104857172.54742432 57279634.007171631 0 0 0 0 19434803.520978391 35294854.794559479 0 35294854.794559479 41836751.169677734 0 0 0 0 -46326531.896191835 94024894.224639893 0 94024894.224639893 -9279494.7963256836 0 0 0 0 -396247967.67179728 -125723393.60319519 0 -125723393.60319519 385175758.9642334 0 0 0 0 -281202483.79051208 -91371220.86605835 0 -91371220.86605835 44185717.503698349 0 0 0 0 94756541.840530396 -16739065.771850586 0 -16739065.771850586 48982565.527275085 0 0 0 0 33784752.938200474 148515871.20730591 0 148515871.20730591 132944793.65875244 0 0 0 0 -398687756.57536864 292655878.45997238 0 292655878.45997238 -205045905.83465576 0 0 0 0 -1763898.9035772672 1841159.1808387861 0 1841159.1808387861 453953.15748536214 0 0 0 0 -347263565.73376346 1737098198.4886322 0 1737098198.4886322 -1457273082.7279968 0 0 0 0 -399003239.44519043 277675769.08566284 0 277675769.08566284 -423652051.75743103 0 0 0 0 -4965887.1603540163 4903846.0554460883 0 4903846.0554460883 1374061.2475423999 0 0 0 0 -65394517.858375549 161105932.95751953 0 161105932.95751953 -369987405.52459717 0 0 0 0 -103870952.71845627 227730609.1910553 0 227730609.1910553 -276218146.86216736 0 0 0 0 114691135.69657898 138664754.45039368 0 138664754.45039368 -218259842.05807495 0 0 0 0 100264.67006520554 51236.428064115345 0 51236.428064115345 60457.282869547606 0 0 0 0 -142755292.43712759 135756712.35419464 0 135756712.35419464 -90016027.026000977 0 0 0 0 -87119577.442133904 36247664.524505615 0 36247664.524505615 60701318.793548584 0 0 0 0 1583553.2809367627 5134031.7463300079 0 5134031.7463300079 211234.30027630553 0 0 0 0 -78149149.903909683 149674679.74234772 0 149674679.74234772 -15788408.885528564 0 0 0 0 -4519280.9539775848 -5341567.7290649414 0 -5341567.7290649414 13567563.864486694 0 0 0 0 49294051.247146606 9070819.6325836182 0 9070819.6325836182 1991487.1311340332 0 0 0 0 2808422.5436553955 12613289.921386719 0 12613289.921386719 -3800788.1169319153 0 0 0 0 -3831301.8404785683 5221406.9180434123 0 5221406.9180434123 -896851.95343869925 0 0 0 0 23628355.991390705 75194570.88035965 0 75194570.88035965 70854180.846954346 0 0 0 0 19328068.847422123 58298464.809936523 0 58298464.809936523 79004177.918716431 0 0 0 0 57428115.841085434 7463166.638168335 0 7463166.638168335 21234540.07019043 0 0 0 0 44290835.292026997 23865478.708816528 0 23865478.708816528 6085807.447479248 0 0 0 0 41934267.447441101 28213561.516601562 0 28213561.516601562 -2416430.4498291016 0 0 0 0 -202573732.2163868 125211501.16694641 0 125211501.16694641 119742075.62770081 0 0 0 0 66938673.007008076 61328872.784439087 0 61328872.784439087 16142601.128234863 0 0 0 0 -2627510.5363808358 7345662.1617547274 0 7345662.1617547274 163993.02886541188 0 0 0 0 45178303.229068279 38620329.871124268 0 38620329.871124268 1916585.2523040771 0 0 0 0 -19763427.210359573 50295937.044586182 0 50295937.044586182 15610536.775455475 0 0 0 0 -10807755.633644104 32084558.237960815 0 32084558.237960815 20449675.140258789 0 0 0 0 -10253956.035157204 27363408.569656372 0 27363408.569656372 22040620.506896973 0 0 0 0 39261383.00223875 10320108.083236694 0 10320108.083236694 -3525335.5128173828 0 0 0 0 28474846.619912148 224462.59162902832 0 224462.59162902832 18129072.999557495 0 0 0 0 31214642.694328785 8653957.2960662842 0 8653957.2960662842 -20660.46337890625 0 0 0 0 -4691598.5809777975 1239905.7202911377 0 1239905.7202911377 -540687.26330566406 0 0 0 0 42890061.832525507 9617010.2366046906 0 9617010.2366046906 -44338713.574371338 0 0 0 0 -5431188.4756633192 66256115.92817688 0 66256115.92817688 3035554.3640136719 0 0 0 0 -5146264.2887435947 13530960.26608789 0 13530960.26608789 -71892050.304901123 0 0 0 0 -201299460.12419939 38520385.332336426 0 38520385.332336426 -31306149.941833496 0 0 0 0 -230180715.24585867 164977464.62413025 0 164977464.62413025 -103038484.13354492 0 0 0 0 -138685414.74749279 91086040.753143311 0 91086040.753143311 -34946539.784233093 0 0 0 0 32896683.201263905 2701194.1884765625 0 2701194.1884765625 -9942331.9370651245 0 0 0 0 -898249.83269417286 -610451.93186950684 0 -610451.93186950684 -70871189.994384766 0 0 0 0 -167743329.62970126 60925623.60042572 0 60925623.60042572 -66022375.414611816 0 0 0 0 -1861642.4846036434 8242595.4140167236 0 8242595.4140167236 219867398.77987671 0 0 0 0 20819916.517110825 57789574.06211853 0 57789574.06211853 70915756.860473633 0 0 0 0 7902550.1169466972 32347821.082962036 0 32347821.082962036 120613208.08984375 0 0 0 0 1943639.839735508 -17956201.404304504 0 -17956201.404304504 55259719.172470093 0 0 0 0 48382426.37752068 73935679.203193665 0 73935679.203193665 95227502.292724609 0 0 0 0 56862123.693840399 65124191.30739212 0 65124191.30739212 96550137.181304932 0 0 0 0 115630510.92192769 185096744.11109924 0 185096744.11109924 226152042.35763025 0 0 0 0 65830860.238590956 107173967.4782486 0 107173967.4782486 111927790.78443527 0 0 0 0 68546505.193462104 87252967.927171707 0 87252967.927171707 66221575.14956665 0 0 0 0 20875606.944616318 54756894.507736206 0 54756894.507736206 97622216.392654419 0 0 0 0 -61625188.812915802 -30381593.389442444 0 -30381593.389442444 -2134076.9872131348 0 0 0 0 -40145580.636411667 -135639071.83790588 0 -135639071.83790588 -91188100.73324585 0 0 0 0 -3761848.7839673338 12692730.505183533 0 12692730.505183533 -4352352.1351597905 0 0 0 0 23336387.54675293 59401705.648895264 0 59401705.648895264 45998592.68405056 0 0 0 0 22170912.690593719 62683001.42048645 0 62683001.42048645 50294682.761871338 0 0 0 0 41604891.794785738 61967961.385848999 0 61967961.385848999 50982614.236785889 0 0 0 0 37797324.417216778 70221953.755737305 0 70221953.755737305 52663816.334197998 0 0 0 0 8241170.1578159332 44905120.32762146 0 44905120.32762146 67694853.719741821 0 0 0 0 12958383.8125 64092246.516433716 0 64092246.516433716 75004168.161956787 0 0 0 0 16101198.144528389 54307224.741819382 0 54307224.741819382 53034181.228881836 0 0 0 0 -2505228.0368909836 42194462.1849823 0 42194462.1849823 57909162.491760254 0 0 0 0 9431513.4910900593 42395703.164369583 0 42395703.164369583 48945598.717071533 0 0 0 0 3171711.2271575928 25277475.957702637 0 25277475.957702637 40740589.899536133 0 0 0 0 6259978.6748509407 32151759.544937134 0 32151759.544937134 42489210.073303223 0 0 0 0 -9610060.453918457 31130562.821212769 0 31130562.821212769 54520039.168273926 0 0 0 0 4687759.8166828156 23430092.077514648 0 23430092.077514648 74917025.957248688 0 0 0 0 22034542.696526885 55733438.726463318 0 55733438.726463318 70662178.960540771 0 0 0 0 17307273.854886055 20080569.561523438 0 20080569.561523438 35813833.979034424 0 0 0 0 12358875.957484901 12490289.361812592 0 12490289.361812592 45507247.146240234 0 0 0 0 15305449.1235466 17334117.254203796 0 17334117.254203796 37719600.532958984 0 0 0 0 -11930301.394970894 28263284.463623047 0 28263284.463623047 41928593.586883545 0 0 0 0 7948263.7189922333 28833998.352867126 0 28833998.352867126 20924176.761871338 0 0 0 0 -38182907.280990601 24499971.546630859 0 24499971.546630859 31089951.547576904 0 0 0 0 -10665966.239468098 22522995.718795776 0 22522995.718795776 28917329.09185791 0 0 0 0 -23261835.180330276 22082702.597000122 0 22082702.597000122 39528541.649017334 0 0 0 0 -18377665.770442963 13119091.769500732 0 13119091.769500732 23120455.115036011 0 0 0 0 -26913355.429035187 7889985.5352478027 0 7889985.5352478027 26006854.205078125 0 0 0 0 -31272715.524933815 2435960.6415252686 0 2435960.6415252686 19514095.588317871 0 0 0 0 -20854415.005129814 8401409.1456604004 0 8401409.1456604004 17482940.864685059 0 0 0 0 -24732152.764584541 17456213.528915405 0 17456213.528915405 24979576.134658813 0 0 0 0 -19747250.876965523 5470072.6736068726 0 5470072.6736068726 9148552.6196899414 0 0 0 0 -14758620.130615234 10177629.786682129 0 10177629.786682129 13539471.125854492 0 0 0 0 -22429347.952939987 13206351.53894043 0 13206351.53894043 32822180.459228516 0 0 0 0 -16688432.065019131 22665426.449676514 0 22665426.449676514 33852978.900268555 0 0 0 0 -18309839.431335449 23226216.558746338 0 23226216.558746338 42788781.631530762 0 0 0 0 -6726134.5815057755 29145700.231292725 0 29145700.231292725 38511094.190917969 0 0 0 0 8945294.7644195557 37005213.426361084 0 37005213.426361084 46441469.910232544 0 0 0 0 17412614.819023132 13469918.846740723 0 13469918.846740723 35038481.031768799 0 0 0 0 35272657.291908264 33626891.894561768 0 33626891.894561768 15339486.851020813 0 0 0 0 7988370.9865531921 6280027.2547836304 0 6280027.2547836304 2120454.6393432617 0 0 0 0 1963.37551292032 5294488.6549242698 0 5294488.6549242698 7564093.8346741349 0 0 0 0 28283356.187995926 11689665.055243216 0 11689665.055243216 2582308.6945913732 0 0 0 0 22691288.871108849 27244081.539805382 0 27244081.539805382 4512117.2245105505 0 0 0 0 80949470.173919678 59066990.443664551 0 59066990.443664551 -8436264.78125 0 0 0 0 52950825.448581696 13510722.821006775 0 13510722.821006775 -52191743.568145752 0 0 0 0 3554273.3967835614 21272933.372811165 0 21272933.372811165 21360026.283385411 0 0 0 0 59643679.355911255 -51479632.434875488 0 -51479632.434875488 -139140078.39370728 0 0 0 0 69870005.900726318 44793426.409088135 0 44793426.409088135 46690062.075012207 0 0 0 0 41555298.026062012 71702849.921112061 0 71702849.921112061 19197979.383209229 0 0 0 0 4788040.726931341 3636195.3578959256 0 3636195.3578959256 2507478.0530524254 0 0 0 0 34835849.249156952 49471830.776630402 0 49471830.776630402 46334170.679626465 0 0 0 0 3396036.0014540702 2198039.8129107952 0 2198039.8129107952 864984.47933238745 0 0 0 0 15909550.110809326 -43072222.148345947 0 -43072222.148345947 -25293120.46282959 0 0 0 0 78515702.981723785 73168790.127117157 0 73168790.127117157 -82207450.579071045 0 0 0 0 73369524.777575493 32924268.984548569 0 32924268.984548569 23968682.216522217 0 0 0 0 54024222.58354187 113603382.54768372 0 113603382.54768372 130422840.1100769 0 0 0 0 26439884.385216951 2205472.4414434433 0 2205472.4414434433 7025107.9601745605 0 0 0 0 555400.28935132176 1222045.932741642 0 1222045.932741642 1416977.1777485944 0 0 0 0 46698063.38482666 83476855.683898926 0 83476855.683898926 53607231.376480103 0 0 0 0 27428356.532141209 60961549.039014101 0 60961549.039014101 69538455.430541992 0 0 0 0 51669055.377853394 71203015.131866455 0 71203015.131866455 45951311.463012695 0 0 0 0 16355063.532928467 64528103.001480103 0 64528103.001480103 58979623.108886719 0 0 0 0 145908050.44506836 84626063.211151123 0 84626063.211151123 19607169.45135498 0 0 0 0 129711098.47269249 -43306829.615638733 0 -43306829.615638733 -36189963.096923828 0 0 0 0 -2689907.8631286621 -30466206.739532471 0 -30466206.739532471 45666941.382019043 0 0 0 0 2635477.2103442959 22312239.975879595 0 22312239.975879595 26881519.579300657 0 0 0 0 -58622104.775604248 41984428.747528076 0 41984428.747528076 72718344.440429688 0 0 0 0 -11872333.169494629 84490090.091850281 0 84490090.091850281 19738043.537231445 0 0 0 0 4540484.4946594238 59235989.862716675 0 59235989.862716675 54409634.616638184 0 0 0 0 67618017.929519653 87010533.501647949 0 87010533.501647949 45691047.524536133 0 0 0 0 37663128.418838501 89009472.02154541 0 89009472.02154541 61401805.766052246 0 0 0 0 27231115.832794189 28977458.732803345 0 28977458.732803345 48527698.362491608 0 0 0 0 -789189.98330402374 44949318.371307373 0 44949318.371307373 51251975.736236572 0 0 0 0 -1699714.3544998169 36095362.710006714 0 36095362.710006714 35871328.308349609 0 0 0 0 -4359566.9797668457 31838568.050384521 0 31838568.050384521 27401473.816879272 0 0 0 0 -12810718.203967094 36972778.569732666 0 36972778.569732666 45343304.177490234 0 0 0 0 2536613.6309309006 43909763.91027832 0 43909763.91027832 46360824.242431641 0 0 0 0 17350929.636317968 40066141.072940826 0 40066141.072940826 38085166.097320557 0 0 0 0 24369971.105576038 59834263.707481384 0 59834263.707481384 45993709.908905029 0 0 0 0 22045060.013203621 50746495.864639282 0 50746495.864639282 53390057.102825165 0 0 0 0 19595149.150528815 30573306.426331505 0 30573306.426331505 1820321.3723197952 0 0 0 0 159228784.83935547 -36832109.032531738 0 -36832109.032531738 -47549504.274642944 0 0 0 0 -3467255.7847595215 51840353.837509155 0 51840353.837509155 75037817.309844971 0 0 0 0 99150133.930099487 33269553.743293762 0 33269553.743293762 -45024869.837844849 0 0 0 0 1047678.5360769331 6675663.3189777434 0 6675663.3189777434 2760706.3337387703 0 0 0 0 9330924.5817718506 -19788317.749359131 0 -19788317.749359131 32833083.291473389 0 0 0 0 3309052.2993675899 31438168.247238293 0 31438168.247238293 31494922.777160957 0 0 0 0 27853690.833660126 32595761.751649857 0 32595761.751649857 -30004657.753570557 0 0 0 0 -47665520.006953239 30605947.33514452 0 30605947.33514452 31074030.865234375 0 0 0 0 15666071.26335144 22236449.917945862 0 22236449.917945862 -10135894.36289978 0 0 0 0 21887192.883363724 63547906.129235268 0 63547906.129235268 25178499.631256104 0 0 0 0 1611897.7491607666 24179086.241836548 0 24179086.241836548 21323627.187646866 0 0 0 0 10171722.182460785 36470779.756391525 0 36470779.756391525 14893930.579650879 0 0 0 0 14203504.112098694 37068681.299816132 0 37068681.299816132 10464376.124359131 0 0 0 0 27090011.289321899 35815800.416168213 0 35815800.416168213 21925309.595304489 0 0 0 0 8064492.9331450909 27011019.58317481 0 27011019.58317481 17151033.505654521 0 0 0 0 8442582.2707443237 32142033.611495972 0 32142033.611495972 17443165.23720932 0 0 0 0 13903635.240222931 26520340.136348724 0 26520340.136348724 16295755.472259521 0 0 0 0 -78414700.999608994 51516470.4255867 0 51516470.4255867 63180945.33380127 0 0 0 0 -30170661.210260391 -541926.04751443863 0 -541926.04751443863 78574009.693481445 0 0 0 0 132711.43717765808 27702822.032089233 0 27702822.032089233 40202098.376663208 0 0 0 0 109264716.77196503 -5242794.331451416 0 -5242794.331451416 -5531226.0910186768 0 0 0 0 205821960.0823288 -14124796.692596436 0 -14124796.692596436 -17208760.136734009 0 0 0 0 -311710.36018003151 517955.6282076519 0 517955.6282076519 -39982.418690189719 0 0 0 0 -49723421.232223511 -12367189.265213013 0 -12367189.265213013 150433682.13446045 0 0 0 0 -386502.23292991333 502666.29043770954 0 502666.29043770954 -206716.19683393836 0 0 0 0 20876131.278244019 -40275680.73135376 0 -40275680.73135376 69627497.451293945 0 0 0 0 7033449.316225593 25062874.744087305 0 25062874.744087305 11324519.700936571 0 0 0 0 -86093855.310844421 63817945.152397156 0 63817945.152397156 59840053.591003418 0 0 0 0 33972924.458557129 118427048.18299866 0 118427048.18299866 22691555.850860596 0 0 0 0 72039516.299041748 72986083.167892456 0 72986083.167892456 -10685696.421574593 0 0 0 0 187595272.26363373 48563997.935180664 0 48563997.935180664 -9537620.1970825195 0 0 0 0 61150840.541114807 41727162.734542847 0 41727162.734542847 -33357370.618507385 0 0 0 0 15332942.138492584 12058757.614936829 0 12058757.614936829 -6781109.632598877 0 0 0 0 -24076302.385349274 15844004.474693298 0 15844004.474693298 5256606.6618804932 0 0 0 0 60481997.126602173 42426274.609260559 0 42426274.609260559 7393049.9675064087 0 0 0 0 20853261.159872316 13063553.009595804 0 13063553.009595804 654823.4600328505 0 0 0 0 77011220.650741577 16086336.00958252 0 16086336.00958252 -18062488.129760742 0 0 0 0 -3019749.7031097412 2954844.5423736572 0 2954844.5423736572 2046414.5158081055 0 0 0 0 5677725.9321915153 3870028.6910684584 0 3870028.6910684584 -2275367.9505658746 0 0 0 0 -8936353.0401796252 987314.24987811595 0 987314.24987811595 3645689.7043437064 0 0 0 0 16844430.232105359 20262361.511578493 0 20262361.511578493 11873430.213210478 0 0 0 0 -23879916.474960327 53023946.033531189 0 53023946.033531189 29877874.087963104 0 0 0 0 -2087273.4570034612 22040243.189914342 0 22040243.189914342 15782603.127075657 0 0 0 0 -36881681.500579834 42706840.21182251 0 42706840.21182251 28229049.382291794 0 0 0 0 -10147463.314002447 23007376.621759482 0 23007376.621759482 18497225.259196758 0 0 0 0 -33501291.828975677 52858579.143505096 0 52858579.143505096 57587136.776885986 0 0 0 0 -89835834.299453735 24461891.354568481 0 24461891.354568481 44220899.712738037 0 0 0 0 -13769639.773532867 66409283.121200562 0 66409283.121200562 31102418.097198486 0 0 0 0 -21242231.428806305 52196091.27116394 0 52196091.27116394 15219277.113296509 0 0 0 0 51254173.745376587 99349069.060539246 0 99349069.060539246 -4714647.2407684326 0 0 0 0 -15730008.027650356 105193683.92734385 0 105193683.92734385 37335016.147216797 0 0 0 0 130713559.17896271 77695222.244487762 0 77695222.244487762 -33236629.808013916 0 0 0 0 79240487.015439987 133819437.82884216 0 133819437.82884216 13888030.6665802 0 0 0 0 39052548.427108765 139566065.61276245 0 139566065.61276245 14024489.078689575 0 0 0 0 239733768.43754482 312399127.14165497 0 312399127.14165497 159486997.8371582 0 0 0 0 37911277.808666229 145343860.91075134 0 145343860.91075134 64794261.835174561 0 0 0 0 -91438391.525844574 131847872.29095459 0 131847872.29095459 165667181.27755737 0 0 0 0 -222304749.88072968 42254887.691177368 0 42254887.691177368 143730182.38800049 0 0 0 0 -26633939.238803864 87465017.777786255 0 87465017.777786255 9055912.6915588379 0 0 0 0 -20677434.407501221 12436907.181015015 0 12436907.181015015 414661640.46485901 0 0 0 0 456463786.16295052 -1848070.1153678894 0 -1848070.1153678894 27127010.265594482 0 0 0 0 32566082.555397034 72767708.52406311 0 72767708.52406311 53825705.683692932 0 0 0 0 94387223.822177887 -35574174.328308105 0 -35574174.328308105 -98202783.875647545 0 0 0 0 -168657167.81814671 -94591841.543872833 0 -94591841.543872833 124249870.01391602 0 0 0 0 36567165.315783501 67854125.012954712 0 67854125.012954712 49148310.665504456 0 0 0 0 -207496218.89411926 -19276511.574943542 0 -19276511.574943542 -2467884.4358520508 0 0 0 0 -3381148.7514137756 21591894.685360894 0 21591894.685360894 -939365.96928276122 0 0 0 0 36539553.135855675 66874444.042022705 0 66874444.042022705 44372762.955749512 0 0 0 0 31936941.399177551 53454443.371444702 0 53454443.371444702 -329277.79508972168 0 0 0 0 19882860.41050595 25795208.080637828 0 25795208.080637828 -6265424.0955156833 0 0 0 0 -17308697.937817678 18646438.767474204 0 18646438.767474204 23197259.761711344 0 0 0 0 28457816.320233583 59447886.018630981 0 59447886.018630981 37614847.876831055 0 0 0 0 -78857857.042327881 2273722.5914916992 0 2273722.5914916992 57447993.332199097 0 0 0 0 -153764809.28816414 -86160359.665611267 0 -86160359.665611267 -45569688.941833496 0 0 0 0 2685986.2190065496 6450234.3185021803 0 6450234.3185021803 -770791.46440885589 0 0 0 0 -5280785.3265380859 -18955838.712509155 0 -18955838.712509155 -99370490.169204712 0 0 0 0 28065724.597076416 -926428.02194213867 0 -926428.02194213867 -94243479.547332764 0 0 0 0 58729183.876312256 -16127953.164176941 0 -16127953.164176941 -143497618.98675537 0 0 0 0 3777095.2038269043 2837768.2967987061 0 2837768.2967987061 -121360147.05548096 0 0 0 0 -10201889.225631714 8479876.1398696899 0 8479876.1398696899 -84233862.298706055 0 0 0 0 -2907177.3612823486 15496081.670776367 0 15496081.670776367 -103291740.69593811 0 0 0 0 67901575.334350586 9675778.923500061 0 9675778.923500061 79625447.529098511 0 0 0 0 1563031.0862851292 2044913.9676108435 0 2044913.9676108435 846816.98088675737 0 0 0 0 9744176.3672180176 5265098.3477478027 0 5265098.3477478027 146626129.18182182 0 0 0 0 601896.20982313156 876578.0729906708 0 876578.0729906708 215704.39817078039 0 0 0 0 -25179935.341308594 32626250.355506897 0 32626250.355506897 -17599152.210723877 0 0 0 0 7494068.2810058594 183549725.08908081 0 183549725.08908081 346922649.35015869 0 0 0 0 87109945.654808044 140410236.76625824 0 140410236.76625824 296308917.53491211 0 0 0 0 173572834.08999634 212174341.97161865 0 212174341.97161865 212503315.14123535 0 0 0 0 -337595.14507309347 738823.70841866732 0 738823.70841866732 911386.10160161555 0 0 0 0 80759367.52734375 -54809276.744613647 0 -54809276.744613647 21376071.532608032 0 0 0 0 126063068.00598145 230188734.46405029 0 230188734.46405029 198935905.98103333 0 0 0 0 13465534.758469805 15557312.630180739 0 15557312.630180739 -830703.35560314357 0 0 0 0 -10728077.064575195 70003616.621387482 0 70003616.621387482 151387655.3704834 0 0 0 0 159913651.92266846 148126638.75105286 0 148126638.75105286 15788972.320556641 0 0 0 0 -2546833.8747558594 41169392.61769104 0 41169392.61769104 -15907837.895355225 0 0 0 0 121588523.09109497 14814709.979644775 0 14814709.979644775 -128944866.39724731 0 0 0 0 88514817.964500427 -10780799.092151642 0 -10780799.092151642 -104651726.71784973 0 0 0 0 16416264.319885254 4392232.9853897095 0 4392232.9853897095 -51214522.751464844 0 0 0 0 41147147.199729919 65359409.187389374 0 65359409.187389374 -25257456.392730713 0 0 0 0 23818411.035496369 26333873.811337356 0 26333873.811337356 -4932881.8886885457 0 0 0 0 11684868.312530518 -1523502.0013160706 0 -1523502.0013160706 -27285966.633583069 0 0 0 0 17579584.141403198 34217649.436969757 0 34217649.436969757 -12099473.629516602 0 0 0 0 22196686.432660371 20207508.637812272 0 20207508.637812272 -4730257.3909641579 0 0 0 0 -37871400.477279663 -28840427.584568024 0 -28840427.584568024 -75873590.325439453 0 0 0 0 45471711.841018677 244686075.11920929 0 244686075.11920929 85359986.646072388 0 0 0 0 -144875595.95547485 83221593.858243942 0 83221593.858243942 62324621.714309692 0 0 0 0 21983299.973781988 19874270.123946093 0 19874270.123946093 -4137958.0514629968 0 0 0 0 61424389.694732666 131040645.13480377 0 131040645.13480377 38225673.263465881 0 0 0 0 73122902.542480469 118422876.36538696 0 118422876.36538696 -13467691.453369141 0 0 0 0 286086344.27410889 84410797.59312439 0 84410797.59312439 -54863895.833473206 0 0 0 0 163134485.22686768 161824808.11805725 0 161824808.11805725 -35541471.457183838 0 0 0 0 180328693.05589294 55928323.872532845 0 55928323.872532845 -51102283.306274414 0 0 0 0 212045190.2155304 -4006038.6241455078 0 -4006038.6241455078 -32022373.179159164 0 0 0 0 279771773.88082886 168730316.54371643 0 168730316.54371643 -36498913.513334274 0 0 0 0 74793451.314178467 -41098799.99811554 0 -41098799.99811554 83689159.875305176 0 0 0 0 70262225.619529724 16597171.750452518 0 16597171.750452518 41539477.044891357 0 0 0 0 -2148413.4453046769 1622190.8500466775 0 1622190.8500466775 2694972.1111529544 0 0 0 0 -121777889.61532593 269916176.45561981 0 269916176.45561981 -60413333.042755127 0 0 0 0 -113028107.11483765 -210025539.06708527 0 -210025539.06708527 441956644.13653564 0 0 0 0 -29278685.866851807 23077275.853355408 0 23077275.853355408 157141862.29084778 0 0 0 0 -442133180.32324219 197827870.01543427 0 197827870.01543427 507199757.1482048 0 0 0 0 615884773.21435547 -329345066.35741425 0 -329345066.35741425 -226873854.5177002 0 0 0 0 -4068253.3212432861 31950714.08265686 0 31950714.08265686 16906346.969200134 0 0 0 0 6594983.7858565068 21192964.253526416 0 21192964.253526416 5441066.0203331411 0 0 0 0 3801564.3213806152 16884776.644599915 0 16884776.644599915 4954610.9102745056 0 0 0 0 -140161032.56311035 44820287.155448914 0 44820287.155448914 101890571.13113403 0 0 0 0 12032073.506712893 27760883.170717478 0 27760883.170717478 19792367.310336351 0 0 0 0 -25687588.887451172 80614892.845825195 0 80614892.845825195 55718475.549868584 0 0 0 0 -129292184.09030151 56555280.53717041 0 56555280.53717041 97476596.88571167 0 0 0 0 -34091375.017089844 67348197.161094666 0 67348197.161094666 -16622780.955886841 0 0 0 0 1227408.855091095 21350864.114692688 0 21350864.114692688 4334219.2966003418 0 0 0 0 -19095095.102829181 9629381.6438287944 0 9629381.6438287944 39716770.687237725 0 0 0 0 -8947208.6364898682 3953903.9508209229 0 3953903.9508209229 44321347.439968109 0 0 0 0 -67937410.808868408 76187286.015899658 0 76187286.015899658 90646747.306842804 0 0 0 0 -108256083.96578979 24560686.509750366 0 24560686.509750366 57251693.398773193 0 0 0 0 -31838171.759216309 7546064.9473419189 0 7546064.9473419189 113914804.79840088 0 0 0 0 -48174561.548339844 62713708.70652771 0 62713708.70652771 77406618.425750732 0 0 0 0 -61177311.145805359 89303045.348558426 0 89303045.348558426 34464040.857635498 0 0 0 0 6393438.0528465584 25245816.611182507 0 25245816.611182507 17004537.40061456 0 0 0 0 7194736.2513847202 32779554.669085152 0 32779554.669085152 25843664.663787484 0 0 0 0 4380963.6588009801 20114109.660192393 0 20114109.660192393 9706018.8621249646 0 0 0 0 9512752.2442169189 29424840.482124329 0 29424840.482124329 36221310.33366394 0 0 0 0 53083848.181678772 62513109.7811203 0 62513109.7811203 -62404333.401062012 0 0 0 0 -8660408.7592697144 4167296.6185112 0 4167296.6185112 29419399.928283691 0 0 0 0 2917134.4371749852 5364700.747042574 0 5364700.747042574 -1763096.1355877072 0 0 0 0 -116650456.43804932 100010073.80464172 0 100010073.80464172 -31499666.0389328 0 0 0 0 419421.87668716908 1332717.5533747524 0 1332717.5533747524 1113498.5799783729 0 0 0 0 -66731970.932277679 -31575207.075357437 0 -31575207.075357437 -78212063.658569336 0 0 0 0 4107976.7497132048 10226099.321459569 0 10226099.321459569 3394579.6353032086 0 0 0 0 -194794124.73474121 76110261.000549316 0 76110261.000549316 -31650873.70135498 0 0 0 0 880495.50582885742 23886524.433227539 0 23886524.433227539 27013902.572023392 0 0 0 0 119922689.99511719 -84033304.011871338 0 -84033304.011871338 -80095664.753936768 0 0 0 0 9482743.3795185089 23293343.201858282 0 23293343.201858282 19415756.46484375 0 0 0 0 -26388004.176773071 153907229.10279846 0 153907229.10279846 -76523586.048614502 0 0 0 0 -6847348.7676422596 17614856.395232499 0 17614856.395232499 21927463.552307129 0 0 0 0 3600406.9943413567 13071730.446674805 0 13071730.446674805 12024412.681551695 0 0 0 0 -2090354.5390777588 -6159508.1474304199 0 -6159508.1474304199 -97417589.430778503 0 0 0 0 13070352.404441833 16132657.923156738 0 16132657.923156738 -86638226.171112061 0 0 0 0 6356680.9285583496 88126223.031223297 0 88126223.031223297 -145029927.78149414 0 0 0 0 20696631.181119144 21393400.929696299 0 21393400.929696299 -1229540.8553214278 0 0 0 0 54491808.275115967 -14978299.315643311 0 -14978299.315643311 -84565736.884780884 0 0 0 0 88526506.366516113 8496334.1226196289 0 8496334.1226196289 -98496834.51020813 0 0 0 0 28230717.303497314 4326761.6264648438 0 4326761.6264648438 -98600451.590667725 0 0 0 0 2429496.9329172373 3852138.5998237729 0 3852138.5998237729 1902535.8581607053 0 0 0 0 -32153163.798339844 20641642.297035217 0 20641642.297035217 81080074.250793457 0 0 0 0 35620376.439971924 16786476.466445923 0 16786476.466445923 -89782210.869476318 0 0 0 0 8938466.1834716797 10999303.244628906 0 10999303.244628906 45907016.101989746 0 0 0 0 -20472873.478488922 17417849.094825745 0 17417849.094825745 73200149.774047852 0 0 0 0 -34792366.492858887 31352114.516265869 0 31352114.516265869 68868704.83770752 0 0 0 0 -27343349.986312866 7122981.4452972412 0 7122981.4452972412 127504071.1212616 0 0 0 0 7258630.3061599731 56054193.170455933 0 56054193.170455933 -74304227.624816895 0 0 0 0 -56261574.670844078 95067101.851093292 0 95067101.851093292 64719174.395477295 0 0 0 0 4561247.8464660645 23835295.400657654 0 23835295.400657654 15438219.443088531 0 0 0 0 -8776597.7258605957 36525840.142204285 0 36525840.142204285 15617352.808776855 0 0 0 0 -22309110.407897949 72849783.211910248 0 72849783.211910248 43587501.517105103 0 0 0 0 5719581.7912750244 34825333.462867737 0 34825333.462867737 64214606.534347534 0 0 0 0 580894.18703742325 2501946.2313646227 0 2501946.2313646227 1797707.0758269168 0 0 0 0 -46270200.019065857 42640383.184143066 0 42640383.184143066 51279351.938354492 0 0 0 0 16366625.312210083 21147947.545677185 0 21147947.545677185 10436508.171539307 0 0 0 0 -30545304.839019775 -23604933.167068481 0 -23604933.167068481 40667756.319002151 0 0 0 0 -5834745.7331926227 -417381.77646462992 0 -417381.77646462992 4911199.8155801296 0 0 0 0 5237435.4857406616 28492085.284953117 0 28492085.284953117 13860891.292480469 0 0 0 0 5528463.6255187988 21840160.17414856 0 21840160.17414856 11739733.864097595 0 0 0 0 5550916.634979248 23925206.956863403 0 23925206.956863403 20038829.267272949 0 0 0 0 -13265772.431213379 13096251.773193359 0 13096251.773193359 37941092.764678955 0 0 0 0 11476394.385925293 25556494.67401886 0 25556494.67401886 6734612.2401428223 0 0 0 0 2866366.2614216357 10395709.526032045 0 10395709.526032045 5683617.3805744871 0 0 0 0 3118054.6296880865 12809367.575868092 0 12809367.575868092 14512925.312352851 0 0 0 0 -39126256.534986496 9233904.3511900902 0 9233904.3511900902 12813791.286865234 0 0 0 0 45254220.504943848 11754256.351593018 0 11754256.351593018 -119309358.64518738 0 0 0 0 2413846.2063661814 5889713.443196103 0 5889713.443196103 3764547.3139927462 0 0 0 0 -4412895.3697266579 5285968.9588394165 0 5285968.9588394165 1157361.9859619141 0 0 0 0 -2636386.3956832811 9661062.0499004405 0 9661062.0499004405 9296718.313384071 0 0 0 0 8888788.4067083374 7705723.5625440404 0 7705723.5625440404 8322279.2521856278 0 0 0 0 -5708463.1487790346 14303630.997101665 0 14303630.997101665 14603683.307806388 0 0 0 0 -16433819.830215454 36024952.823364258 0 36024952.823364258 -75679927.647125244 0 0 0 0 -8682824.5411300659 32278095.432373047 0 32278095.432373047 24243973.794841766 0 0 0 0 7204415.121307373 78484231.426757812 0 78484231.426757812 29088578.484008789 0 0 0 0 1756773.6223165912 2508870.4367077723 0 2508870.4367077723 -235362.7100354135 0 0 0 0 183057591.23675537 -59482420.137084961 0 -59482420.137084961 -230885860.35583496 0 0 0 0 -223943553.37876892 347865063.83255005 0 347865063.83255005 305852730.24462891 0 0 0 0 -22381008.098327637 11762428.709381104 0 11762428.709381104 -51507490.524353027 0 0 0 0 -37373788.028434753 12826564.394638062 0 12826564.394638062 7045047.274810791 0 0 0 0 -26848304.031829834 51360201.200164795 0 51360201.200164795 -2581433.3905944824 0 0 0 0 11012829.498049602 17251354.024792872 0 17251354.024792872 12756788.348666027 0 0 0 0 -5203860.0954105854 50129974.611522019 0 50129974.611522019 -17664698.693145752 0 0 0 0 -6618079.1200561523 31861460.932479858 0 31861460.932479858 -2229315.8857018948 0 0 0 0 11432726.188072205 24122318.809562683 0 24122318.809562683 17042388.60067749 0 0 0 0 -7271553.7200622559 20422409.394515991 0 20422409.394515991 22777463.658493042 0 0 0 0 12472377.02557373 36797086.352340698 0 36797086.352340698 7738305.5388183594 0 0 0 0 -4573713.216966629 18142508.480409622 0 18142508.480409622 43567555.16607666 0 0 0 0 74174869.913619995 77091210.362800598 0 77091210.362800598 38136623.551895142 0 0 0 0 30966428.492004395 26002412.406234741 0 26002412.406234741 6411459.0600280762 0 0 0 0 20239687.047271729 45349008.358932495 0 45349008.358932495 7202680.6889157295 0 0 0 0 10472193.83631897 14456380.489318848 0 14456380.489318848 1216402.476776123 0 0 0 0 69628569.794540405 25609290.396591187 0 25609290.396591187 -17608199.590164185 0 0 0 0 54543272.62109375 43952783.836807251 0 43952783.836807251 53346117.83480835 0 0 0 0 256048.4789936766 19031.622554115951 0 19031.622554115951 -212699.65674372762 0 0 0 0 -42626015.491394043 -26356109.540611267 0 -26356109.540611267 -22780815.543334961 0 0 0 0 -24152478.994644165 -43704631.802825928 0 -43704631.802825928 -51173954.307006836 0 0 0 0 41326853.772781372 -32733718.74786377 0 -32733718.74786377 -42047149.472167969 0 0 0 0 5103833.4686431885 -1603219.8503875732 0 -1603219.8503875732 60458303.555145264 0 0 0 0 -14749912.120239258 -31424401.624847412 0 -31424401.624847412 27791813.996307373 0 0 0 0 61938496.505096436 1678635.4992370605 0 1678635.4992370605 9029650.1201019287 0 0 0 0 8011600.2781989053 5402730.8653662503 0 5402730.8653662503 -13014125.234155074 0 0 0 0 60917389.05166626 -2794709.2460479736 0 -2794709.2460479736 -6189975.3589782715 0 0 0 0 160321615.7359314 138894709.67346191 0 138894709.67346191 -18896656.949203491 0 0 0 0 7523380.0567215085 5978614.2796173841 0 5978614.2796173841 -10963588.283920288 0 0 0 0 53174581.919586182 75778128.988449097 0 75778128.988449097 -43131552.337904215 0 0 0 0 43931452.719524384 58794680.246593475 0 58794680.246593475 52682056.522979736 0 0 0 0 468495.21559552848 244816.75106110424 0 244816.75106110424 -948495.99736874551 0 0 0 0 153459267.70326233 149744959.3518734 0 149744959.3518734 163391424.00567627 0 0 0 0 195799516.60832214 123974187.84254456 0 123974187.84254456 138251876.12913609 0 0 0 0 172027005.7401123 12697278.42401123 0 12697278.42401123 -10901861.590087891 0 0 0 0 116250696.7456665 -758175.08180236816 0 -758175.08180236816 66269985.789535522 0 0 0 0 -47410727.402447701 -20006700.839293957 0 -20006700.839293957 97019969.385498047 0 0 0 0 9506731.4637221843 9864550.8185308725 0 9864550.8185308725 8781243.1776308119 0 0 0 0 48670847.682418823 -24756764.468154907 0 -24756764.468154907 -85322680.217193604 0 0 0 0 48753325.244262695 60659238.614471436 0 60659238.614471436 54408768.676651001 0 0 0 0 8564093.6791174114 10190064.519414186 0 10190064.519414186 -3092598.3020110205 0 0 0 0 36333857.796417236 24778089.183776855 0 24778089.183776855 38311279.392318726 0 0 0 0 2909798.6643324494 2798071.7294458449 0 2798071.7294458449 2235991.5966245085 0 0 0 0 -21868230.409713745 -74962651.004943848 0 -74962651.004943848 -71909620.701019287 0 0 0 0 455688.14983659238 7625.9550299718976 0 7625.9550299718976 -321062.97996898741 0 0 0 0 -4986602.6720695496 -54204559.59569931 0 -54204559.59569931 -83527232.388824463 0 0 0 0 301942407.06729126 87377771.354248047 0 87377771.354248047 -42582022.188186646 0 0 0 0 327745740.69372559 68178558.442459106 0 68178558.442459106 -38577406.331268311 0 0 0 0 -43506524.162322998 -9004845.9702148438 0 -9004845.9702148438 88510195.334274292 0 0 0 0 265339040.10488892 90747359.972320557 0 90747359.972320557 2396650.0950164795 0 0 0 0 258963802.33919525 57044735.087814331 0 57044735.087814331 273554777.15222168 0 0 0 0 610807.21292158216 3706.688286408782 0 3706.688286408782 -440428.31798937917 0 0 0 0 4044756.6484222412 -81469505.740859985 0 -81469505.740859985 -29250851.426727295 0 0 0 0 18016679.478778839 59067247.229354858 0 59067247.229354858 -100443819.11434937 0 0 0 0 24267500.497314453 -21782823.614402771 0 -21782823.614402771 -42923559.671447754 0 0 0 0 -11024879.843917847 12478023.810455322 0 12478023.810455322 -40222205.167819977 0 0 0 0 -292937.64482207596 474725.73794520646 0 474725.73794520646 -28566.60806620121 0 0 0 0 519608592.90997314 132556977.92950439 0 132556977.92950439 343367721.76264954 0 0 0 0 304192288.80088806 349811282.06760406 0 349811282.06760406 772486929.38189697 0 0 0 0 1506537527.9267731 622503829.83659363 0 622503829.83659363 309160629.17553711 0 0 0 0 3388017416.8482819 1018633550.1671143 0 1018633550.1671143 -667316761.30795288 0 0 0 0 1995335441.1011505 2560595828.8099289 0 2560595828.8099289 1528781204.7510071 0 0 0 0 620484817.70813751 315925877.26976013 0 315925877.26976013 402580842.75012207 0 0 0 0 27501398.091262817 32447624.068756104 0 32447624.068756104 -312154298.27150726 0 0 0 0 339475107.66773224 223750104.56154633 0 223750104.56154633 -246659278.44369507 0 0 0 0 462272136.23226929 525128675.1005249 0 525128675.1005249 193763403.33480835 0 0 0 0 153624696.22399902 159505606.26020813 0 159505606.26020813 518079424.59291077 0 0 0 0 -311572.98118024319 1820907.1572192609 0 1820907.1572192609 -656972.44008179754 0 0 0 0 -19129128.183166504 -6602875.7334747314 0 -6602875.7334747314 -21439282.553973198 0 0 0 0 -711267175.44302368 359431242.97193909 0 359431242.97193909 565848023.74334717 0 0 0 0 153384194.10272598 148483642.48031473 0 148483642.48031473 98047690.431396484 0 0 0 0 449154438.28179932 -474548153.67901611 0 -474548153.67901611 -120568054.01101685 0 0 0 0 16180712.523254395 -346131.07168579102 0 -346131.07168579102 -20510279.273283005 0 0 0 0 2703346.0234305263 4134369.7218687683 0 4134369.7218687683 -2869494.7873725966 0 0 0 0 13187842.848693848 7462117.7046508789 0 7462117.7046508789 -12881975.782714844 0 0 0 0 31764979.413635254 8318963.2723693848 0 8318963.2723693848 -19986771.101531982 0 0 0 0 30862191.72833252 15326774.938724518 0 15326774.938724518 -11370409.91192627 0 0 0 0 11462430.707061768 -19958240.647155762 0 -19958240.647155762 -49344471.824272156 0 0 0 0 32555055.931587219 9769180.1053123474 0 9769180.1053123474 -18491886.637023926 0 0 0 0 153207222.14376831 272699678.48640442 0 272699678.48640442 279989594.46600342 0 0 0 0 105629484.40454102 79432766.894042969 0 79432766.894042969 81463216.09014231 0 0 0 0 353256894.37451172 272873991.89511108 0 272873991.89511108 81224758.65447998 0 0 0 0 593804327.61871338 -32741673.200042725 0 -32741673.200042725 -131175707.63623047 0 0 0 0 -10646265.095916748 29816309.339904785 0 29816309.339904785 69282012.281921387 0 0 0 0 122046618.1764679 46114487.057983398 0 46114487.057983398 -58794812.748046875 0 0 0 0 60548818.518981934 97512759.033737183 0 97512759.033737183 -96810206.78326416 0 0 0 0 101202633.51358795 99863386.247566223 0 99863386.247566223 50660841.802734375 0 0 0 0 130588120.12310791 103945694.91864014 0 103945694.91864014 540997.92138671875 0 0 0 0 139814411.27423096 77970498.388214111 0 77970498.388214111 30379709.902038574 0 0 0 0 1729829.2844166104 1238990.9289277643 0 1238990.9289277643 -942899.23630307615 0 0 0 0 -257277677.24983215 153676865.04837799 0 153676865.04837799 -43963783.640686035 0 0 0 0 -205415327.47029114 -286686332.27908325 0 -286686332.27908325 120721295.07522583 0 0 0 0 -18982459.134902954 418703979.8026123 0 418703979.8026123 107970944.84478092 0 0 0 0 -44609810.195983887 89497064.89352417 0 89497064.89352417 13477010.748840332 0 0 0 0 31986924.737869263 18339281.68271637 0 18339281.68271637 -9078875.1301116943 0 0 0 0 5683840.5579612218 4643887.3951278403 0 4643887.3951278403 -2700374.0392730832 0 0 0 0 27073181.995296478 20137438.394870758 0 20137438.394870758 -2581254.7603149414 0 0 0 0 4592081.8655595332 4499392.8819611892 0 4499392.8819611892 -2505449.8068689704 0 0 0 0 -15573684.587265015 -32058935.740447998 0 -32058935.740447998 -28998919.286895752 0 0 0 0 73972797.700426579 31515989.021868706 0 31515989.021868706 -26752094.064697266 0 0 0 0 105994667.55578613 21039977.402862549 0 21039977.402862549 -34030993.40398407 0 0 0 0 72178164.162628174 -30336107.122161865 0 -30336107.122161865 -113637741.771492 0 0 0 0 60304008.883483887 -145615.15132141113 0 -145615.15132141113 -38548727.733551025 0 0 0 0 15705972.432854638 1568835.3612428159 0 1568835.3612428159 -7930801.3258392513 0 0 0 0 46657530.923873901 5575037.5803985596 0 5575037.5803985596 -14997132.124711037 0 0 0 0 31042932.097305298 8461422.4716644287 0 8461422.4716644287 -14650350.303497314 0 0 0 0 70698635.360671997 -5044660.9972915649 0 -5044660.9972915649 -68773385.98513031 0 0 0 0 30881183.405731201 109368911.06058502 0 109368911.06058502 13211539.82963562 0 0 0 0 4165681849.0125122 3991077415.1222076 0 3991077415.1222076 2494595979.3125281 0 0 0 0 5809015.0444472507 -1247237.7727826312 0 -1247237.7727826312 1255450.532972008 0 0 0 0 4993406789.4260349 2386655723.3619442 0 2386655723.3619442 1010064257.2783966 0 0 0 0 3012208136.8411331 1607608746.4673233 0 1607608746.4673233 1260926939.0174561 0 0 0 0 114473934.03787231 -198724963.19100952 0 -198724963.19100952 -67549004.407592773 0 0 0 0 -34941254.862060547 -7104546.4291000366 0 -7104546.4291000366 49745139.582366943 0 0 0 0 352111798.02980042 -114214203.67425537 0 -114214203.67425537 -77324642.85559082 0 0 0 0 485200.12100437284 1473272.0280656889 0 1473272.0280656889 45984.529567033052 0 0 0 0 306424370.57020569 123108378.34620667 0 123108378.34620667 81574581.099884033 0 0 0 0 10178860.481071472 16686103.392822266 0 16686103.392822266 8270450.6348571777 0 0 0 0 10067853.030639648 16969940.661125183 0 16969940.661125183 14668836.040222168 0 0 0 0 -717284.97406005859 25444829.780410767 0 25444829.780410767 11011443.299682617 0 0 0 0 6600630.1419143677 15261527.570388794 0 15261527.570388794 18914156.953933716 0 0 0 0 -8927006.4216461182 23162118.801330566 0 23162118.801330566 12828432.514663696 0 0 0 0 -128671.76039123535 19291961.671203613 0 19291961.671203613 15181352.474990845 0 0 0 0 -5293594.912979126 25997631.024024963 0 25997631.024024963 12192762.83392334 0 0 0 0 -13079072.840011597 27412271.463745117 0 27412271.463745117 11953754.685684204 0 0 0 0 -2940055.8570480347 19777428.564048767 0 19777428.564048767 9819152.0040283203 0 0 0 0 3325237.2175912485 11270180.660078652 0 11270180.660078652 3790551.7253616005 0 0 0 0 -12789632.238800049 21905816.452102661 0 21905816.452102661 17018298.685333252 0 0 0 0 3439506.523041442 2874574.5329496637 0 2874574.5329496637 -1760759.4956852123 0 0 0 0 -5816430.6936340332 23736027.316883087 0 23736027.316883087 6184387.8605957031 0 0 0 0 11985309.625264801 20534121.319592036 0 20534121.319592036 10763341.629774973 0 0 0 0 -12877948.554574966 32633592.318128586 0 32633592.318128586 6831021.4380950928 0 0 0 0 10071621.069290161 11063920.631988525 0 11063920.631988525 -4230197.485534668 0 0 0 0 9207288.3140504062 8542824.5729433373 0 8542824.5729433373 -11211889.97410658 0 0 0 0 2984670.0733032227 5980470.7775268555 0 5980470.7775268555 -2628046.5037536621 0 0 0 0 3718948.954284668 3187338.7745361328 0 3187338.7745361328 -4974817.9744262695 0 0 0 0 6384594.5664672852 10295905.494110107 0 10295905.494110107 -1944431.4544677734 0 0 0 0 13662101.890960693 8055493.9744033813 0 8055493.9744033813 -13244585.504455566 0 0 0 0 7055593.366027832 5322782.1562347412 0 5322782.1562347412 -987110.99844360352 0 0 0 0 66233062.224365234 77587674.382324219 0 77587674.382324219 196739414.89344788 0 0 0 0 66233062.224121094 77587674.382385254 0 77587674.382385254 196739414.89338684 0 0 0 0 66233062.223999023 77587674.382446289 0 77587674.382446289 196739414.89337158 0 0 0 0 2223952.5342872739 6268497.7935813293 0 6268497.7935813293 -3297044.2791473567 0 0 0 0 68083044.661621094 65072148.359924316 0 65072148.359924316 41667150.987487793 0 0 0 0 702407.53929652274 8451313.5919451416 0 8451313.5919451416 429038.40485564619 0 0 0 0 119235771.22198486 79835509.080322266 0 79835509.080322266 24008303.388504028 0 0 0 0 70431060.084030151 51748939.817459106 0 51748939.817459106 103653307.40771484 0 0 0 0 118836409.98344421 121867045.34922028 0 121867045.34922028 117402389.03112793 0 0 0 0 72731260.289924622 37592931.226755142 0 37592931.226755142 -1899649.5810241699 0 0 0 0 78579196.24269104 45438373.676139832 0 45438373.676139832 -11105012.75894165 0 0 0 0 94121252.398284912 71800343.72694397 0 71800343.72694397 26522169.738433838 0 0 0 0 51483364.318763733 27785084.214630127 0 27785084.214630127 940106.68154907227 0 0 0 0 42411021.071716309 17899902.115760803 0 17899902.115760803 -8404829.0552825928 0 0 0 0 45143091.476806641 35992912.175872803 0 35992912.175872803 18370348.634963989 0 0 0 0 15634210.695892334 32658036.554962158 0 32658036.554962158 4672352.3820953369 0 0 0 0 955060.31132753566 13941953.04778453 0 13941953.04778453 5057421.2153788805 0 0 0 0 48138719.562839508 46725200.153400421 0 46725200.153400421 13586523.900634766 0 0 0 0 54867464.679656982 63463751.532302856 0 63463751.532302856 41590123.149364471 0 0 0 0 14147549.240882874 14335857.72000885 0 14335857.72000885 11303561.051757812 0 0 0 0 19859520.01776123 19829411.758651733 0 19829411.758651733 5162700.8119506836 0 0 0 0 10770911.611434937 26375585.786682129 0 26375585.786682129 1062377.8232116699 0 0 0 0 6280529.9258079529 19322851.388210297 0 19322851.388210297 9928519.0706787109 0 0 0 0 11433932.195610046 13735245.283744812 0 13735245.283744812 11020877.120330811 0 0 0 0 11443478.152206421 13340424.916107178 0 13340424.916107178 11229351.047203064 0 0 0 0 11421037.754615784 13763487.022827148 0 13763487.022827148 13294586.790405273 0 0 0 0 -33499457.078647614 17461878.39402771 0 17461878.39402771 26733272.010147095 0 0 0 0 14321032.560080796 5153586.436035417 0 5153586.436035417 -22339.003467679024 0 0 0 0 28816692.079799652 15928128.79474926 0 15928128.79474926 -11417810.046844482 0 0 0 0 12169369.473190308 14438323.039405823 0 14438323.039405823 8449107.5060806274 0 0 0 0 6588366.2919464111 36916410.52682209 0 36916410.52682209 6332180.2573547363 0 0 0 0 9362721.128320992 13685498.932097808 0 13685498.932097808 9710265.1356286854 0 0 0 0 42812257.997894287 30188310.119335175 0 30188310.119335175 7160619.2453460693 0 0 0 0 6314210.0622343719 14016440.82631591 0 14016440.82631591 6895560.1203570366 0 0 0 0 22906035.961858153 19753466.945698123 0 19753466.945698123 5211879.028184332 0 0 0 0 29708684.403289795 23952856.759628296 0 23952856.759628296 3462703.0765380859 0 0 0 0 41349864.839431763 27763069.259780884 0 27763069.259780884 8941263.1753692627 0 0 0 0 38198368.91242218 16452665.855348587 0 16452665.855348587 -2137032.0148162842 0 0 0 0 20642811.315378852 3643369.5982855856 0 3643369.5982855856 -5469692.3573767245 0 0 0 0 38682615.086372375 2334009.0278930664 0 2334009.0278930664 -12277680.50579071 0 0 0 0 17127162.337234497 4587935.7998695374 0 4587935.7998695374 -2104224.4412231445 0 0 0 0 15314182.256637573 7220640.6051330566 0 7220640.6051330566 -1194641.1085510254 0 0 0 0 16926235.897217743 3017768.877310738 0 3017768.877310738 -3545017.9441250563 0 0 0 0 1404996.8681318387 -1221213.1495629102 0 -1221213.1495629102 -1510596.7540278807 0 0 0 0 -36433360.521842957 98480100.132644653 0 98480100.132644653 357896416.7487793 0 0 0 0 162135007.90524292 102897259.69955444 0 102897259.69955444 -480333048.34274292 0 0 0 0 568719594.675354 111165237.67712402 0 111165237.67712402 219643440.56062317 0 0 0 0 1140586783.332756 472299025.67729187 0 472299025.67729187 823308.51893615723 0 0 0 0 148870791.42912292 228450100.5851059 0 228450100.5851059 674925331.59924316 0 0 0 0 154415333.60819244 822413461.20446777 0 822413461.20446777 1391765693.0348511 0 0 0 0 204856181.46775055 334314682.43198395 0 334314682.43198395 114579786.91976929 0 0 0 0 132570088.97338676 -226121855.10397339 0 -226121855.10397339 79758329.415496826 0 0 0 0 36697935.335308075 30404439.93283844 0 30404439.93283844 9031875.8581695557 0 0 0 0 69931229.37424469 12680896.445526123 0 12680896.445526123 -60456156.214111328 0 0 0 0 11618523.935531083 5667734.8268022388 0 5667734.8268022388 -3399330.5061957538 0 0 0 0 6450029.1428582147 2255943.4116193503 0 2255943.4116193503 -1924073.2330344617 0 0 0 0 9399659.2194366455 34926254.712844849 0 34926254.712844849 -1529722.0022125244 0 0 0 0 -17578506.807998657 -6873762.8970489502 0 -6873762.8970489502 63417263.883209229 0 0 0 0 60470451.047744751 41676813.449371338 0 41676813.449371338 -12203815.715637207 0 0 0 0 67207164.863883972 79742490.512176514 0 79742490.512176514 51695410.710906982 0 0 0 0 -15667294.429307938 53497972.273189545 0 53497972.273189545 324691.55874633789 0 0 0 0 8201029.2468137443 3686174.2446910888 0 3686174.2446910888 -2924334.9249861687 0 0 0 0 90767012.854034424 -2188731.118560791 0 -2188731.118560791 117792.94444869392 0 0 0 0 32525372.336204529 5903522.7585449219 0 5903522.7585449219 11824461.600814819 0 0 0 0 72687934.402301788 8846532.2609291077 0 8846532.2609291077 -10965823.255279541 0 0 0 0 3052382231.7266326 1864315691.0144482 0 1864315691.0144482 527891727.3291626 0 0 0 0 3067608982.9486237 1712284340.1080933 0 1712284340.1080933 451191910.12356567 0 0 0 0 3036585468.2989254 1987186176.9233398 0 1987186176.9233398 814877877.11386108 0 0 0 0 4019117721.3436432 2043889661.3054504 0 2043889661.3054504 680773269.97021484 0 0 0 0 3221466260.6888313 1443988661.9840126 0 1443988661.9840126 291780771.86831665 0 0 0 0 2731432319.8812256 2436217419.9672852 0 2436217419.9672852 2563525470.6240072 0 0 0 0 2371817681.8241653 1642497618.0473938 0 1642497618.0473938 1009070888.5344086 0 0 0 0 19240948.16432675 -4049560.2429422811 0 -4049560.2429422811 638889.13269461691 0 0 0 0 16452642.957672119 10340821.922393799 0 10340821.922393799 2998100.509552002 0 0 0 0 9219122.4987993855 11315885.222868241 0 11315885.222868241 -1894899.3342347145 0 0 0 0 19297865.013316289 5894542.7305883765 0 5894542.7305883765 -5746774.5531807393 0 0 0 0 7268541.3893290274 785702.80198030174 0 785702.80198030174 5867566.8251785338 0 0 0 0 29245721.503265381 31213305.300064087 0 31213305.300064087 -78153980.252868652 0 0 0 0 2022092959.7102184 1112248900.5177002 0 1112248900.5177002 579634023.36447144 0 0 0 0 2745097728.4633636 1764536676.7273712 0 1764536676.7273712 1007245012.5416973 0 0 0 0 3080504403.6915894 1711742926.250412 0 1711742926.250412 494280100.98449326 0 0 0 0 3089443160.4681244 1786250141.4154816 0 1786250141.4154816 807618527.21612549 0 0 0 0 3202169208.7159729 1357362402.6912537 0 1357362402.6912537 643419727.88098145 0 0 0 0 4491216865.7978363 2029581141.5017548 0 2029581141.5017548 607821799.65725708 0 0 0 0 -287327511.09968567 88174966.524093628 0 88174966.524093628 520719484.24923706 0 0 0 0 2697626.3202572688 -421875.46349278092 0 -421875.46349278092 1779921.6894613504 0 0 0 0 133699209.37982368 206562278.82785034 0 206562278.82785034 -166596259.28912354 0 0 0 0 3563060138.3948669 1381109893.3512878 0 1381109893.3512878 442177061.60969543 0 0 0 0 3306003047.2476349 1867366117.5703735 0 1867366117.5703735 1342568540.0620728 0 0 0 0 2817164941.7243195 1476107264.1495972 0 1476107264.1495972 414214997.55526733 0 0 0 0 2803185055.6163521 956750572.79272604 0 956750572.79272604 904203152.58966064 0 0 0 0 3376098326.938179 1191294296.7061615 0 1191294296.7061615 452478.72834777832 0 0 0 0 3096598236.3038254 1456312186.1786194 0 1456312186.1786194 553653767.80073547 0 0 0 0 2890035598.3642578 1692412321.6846161 0 1692412321.6846161 -533361.20471191406 0 0 0 0 3088658126.8175449 1418491401.8369675 0 1418491401.8369675 373718923.21159363 0 0 0 0 2783149081.7629242 1692534275.5822449 0 1692534275.5822449 496075820.71469879 0 0 0 0 3022166009.740097 1795091711.7686691 0 1795091711.7686691 375249993.20005798 0 0 0 0 2906914660.0903549 1587849015.2357597 0 1587849015.2357597 221738630.76487732 0 0 0 0 2445911712.358139 1411797618.2794647 0 1411797618.2794647 331086588.13356018 0 0 0 0 2059575349.0979767 1872809089.5217972 0 1872809089.5217972 3075576.3418563306 0 0 0 0 1158685482.5696373 1264894686.0690708 0 1264894686.0690708 708085326.83583069 0 0 0 0 1547361992.4257965 1153473202.3269653 0 1153473202.3269653 688533498.99323845 0 0 0 0 2298899397.2974701 1504081818.1991272 0 1504081818.1991272 478577180.84286499 0 0 0 0 2326294230.9895401 1059235996.5783768 0 1059235996.5783768 279512996.60151672 0 0 0 0 1966786227.1124668 1239134663.5077229 0 1239134663.5077229 513770427.02142334 0 0 0 0 2799339296.6721725 1885937853.0197983 0 1885937853.0197983 910813347.8020401 0 0 0 0 2758670865.4336243 1478147604.4786606 0 1478147604.4786606 29163524.894165039 0 0 0 0 301029165.03694153 1193121325.2142334 0 1193121325.2142334 -248895377.98600006 0 0 0 0 -611948165.76392078 337083347.46371198 0 337083347.46371198 -1035587251.8190002 0 0 0 0 1877206444.9649086 825314237.50328445 0 825314237.50328445 -331949311.14730835 0 0 0 0 1936814009.3472137 1537063301.1888351 0 1537063301.1888351 20754547.054023743 0 0 0 0 1444577222.9988308 769796852.54807472 0 769796852.54807472 432721433.27261353 0 0 0 0 1078928480.9256592 732900427.43534851 0 732900427.43534851 446963779.87956238 0 0 0 0 1080924350.7479782 623208090.68143082 0 623208090.68143082 -429603207.92698669 0 0 0 0 315664597.83108521 200013864.54169464 0 200013864.54169464 613212331.07357025 0 0 0 0 2210435.1758593693 3967692.0913827345 0 3967692.0913827345 -3452555.8150137365 0 0 0 0 562952813.29069519 487942896.76284027 0 487942896.76284027 694792.33143615723 0 0 0 0 706914857.85667181 768757279.54586267 0 768757279.54586267 959537467.39221191 0 0 0 0 709407868.71755981 729469460.61011505 0 729469460.61011505 839526667.48622131 0 0 0 0 1136725644.1154366 1235183288.3613701 0 1235183288.3613701 1322468521.1054688 0 0 0 0 4054955.02264449 3365973.9062944129 0 3365973.9062944129 -2898460.7663517669 0 0 0 0 558006353.47486115 846686954.23336792 0 846686954.23336792 843032995.47499084 0 0 0 0 -360628473.41041565 1227901591.8590164 0 1227901591.8590164 653475.69425201416 0 0 0 0 913860649.83764648 339656563.05690002 0 339656563.05690002 585430830.5539856 0 0 0 0 -423362505.18436813 1009800919.6652641 0 1009800919.6652641 -523261156.32052612 0 0 0 0 -803676746.35028839 1455858061.5316124 0 1455858061.5316124 247641287.88352966 0 0 0 0 -458232845.50375366 1486465145.980423 0 1486465145.980423 -588078227.22042847 0 0 0 0 -1209963407.1832123 730891442.14093781 0 730891442.14093781 3565054513.4356232 0 0 0 0 -1038650825.3083801 3078077380.590744 0 3078077380.590744 -2210061137.6876373 0 0 0 0 -538402.77264323831 4362744.8394587114 0 4362744.8394587114 1631471.7050078325 0 0 0 0 -122399538.81134033 1653630838.3887482 0 1653630838.3887482 -255798830.99468231 0 0 0 0 -871731492.45257568 1641212262.2774353 0 1641212262.2774353 1394584651.082489 0 0 0 0 -806067583.48455811 2673278568.4606323 0 2673278568.4606323 1113955646.6456299 0 0 0 0 -36021566.158248901 902429862.63699341 0 902429862.63699341 10296419.999206543 0 0 0 0 -50532393.113098145 1377792978.0175018 0 1377792978.0175018 -1056866076.6986389 0 0 0 0 293826472.60462952 222742497.67975616 0 222742497.67975616 448738833.83956909 0 0 0 0 415412058.22094727 1225866969.2559662 0 1225866969.2559662 -985879742.89196777 0 0 0 0 -43932790.712860107 1636089502.1125793 0 1636089502.1125793 -1133801705.1272583 0 0 0 0 883350.30433660001 2175166.9654850811 0 2175166.9654850811 -2009929.4106299207 0 0 0 0 -665896009.90393066 1998805709.1713867 0 1998805709.1713867 -764432613.5443573 0 0 0 0 -683814967.42074585 1990300519.2333221 0 1990300519.2333221 -870811847.60668945 0 0 0 0 -708216488.62710571 2149862605.4431305 0 2149862605.4431305 1127661524.6644402 0 0 0 0 -257720415.27981567 2440559209.743042 0 2440559209.743042 -323417472.51275635 0 0 0 0 -1633947674.7979736 1784392138.8924561 0 1784392138.8924561 -390859081.5524292 0 0 0 0 -884899044.88293457 2425674233.6118164 0 2425674233.6118164 -1155958928.5336761 0 0 0 0 -1077077104.3955078 2321239062.6581421 0 2321239062.6581421 -480878009.01434708 0 0 0 0 -1565358934.1209068 2676117723.6166477 0 2676117723.6166477 -460207148.50915527 0 0 0 0 -1190634177.1829414 2000169165.2537079 0 2000169165.2537079 -266724552.74389648 0 0 0 0 -1229204110.7400055 2120783816.1131973 0 2120783816.1131973 -149015044.25854492 0 0 0 0 -1060202473.6769409 2442581185.3895874 0 2442581185.3895874 153536476.10217285 0 0 0 0 -1088473232.0098877 1953607144.7802124 0 1953607144.7802124 377849680.68826294 0 0 0 0 -1158935806.7460327 2163359259.7845764 0 2163359259.7845764 -171117744.05151367 0 0 0 0 -747071090.40237427 1906940278.9938202 0 1906940278.9938202 19791635.12878418 0 0 0 0 -1042350412.6590881 1843397394.6205444 0 1843397394.6205444 102698461.35458374 0 0 0 0 -1061155697.5396423 1695212565.9540405 0 1695212565.9540405 -76624691.903335571 0 0 0 0 -1131376607.1975708 1965513467.7305145 0 1965513467.7305145 -794557138.55227661 0 0 0 0 -1382991470.2509918 1874157525.3269043 0 1874157525.3269043 -264774303.80682373 0 0 0 0 -934461549.61670685 1349159695.1263924 0 1349159695.1263924 -1242266715.0306396 0 0 0 0 -685287650.52671862 1260569597.4913292 0 1260569597.4913292 -258930436.20941162 0 0 0 0 -627217304.62226868 1786289115.9006042 0 1786289115.9006042 -632959730.68128967 0 0 0 0 -1194672214.9081192 2658943829.0477142 0 2658943829.0477142 -3923710640.6685181 0 0 0 0 -2446492010.2301483 2122528295.538559 0 2122528295.538559 -986905288.52630615 0 0 0 0 -916347687.97071838 1495537557.5902405 0 1495537557.5902405 -880679547.99539185 0 0 0 0 -695594419.92928696 1944939810.5211792 0 1944939810.5211792 -1268245556.9941101 0 0 0 0 -162626462.60681152 -38280873.485107422 0 -38280873.485107422 182774524.76455688 0 0 0 0 -5030510.3317933902 5463088.9680560678 0 5463088.9680560678 815839.99864756316 0 0 0 0 139741040.63022232 681193275.07686234 0 681193275.07686234 -6054701712.8666382 0 0 0 0 42476959.040924072 169474055.29904556 0 169474055.29904556 -1971277647.8724365 0 0 0 0 56678760.159563065 1133740714.1569295 0 1133740714.1569295 -1100681392.9611511 0 0 0 0 -787746922.72038269 964650873.34274292 0 964650873.34274292 -788675637.1461792 0 0 0 0 44880646.027572632 982330867.10372925 0 982330867.10372925 -2475655186.4403381 0 0 0 0 -92167723.734939575 522399751.22116089 0 522399751.22116089 -1510976899.3599701 0 0 0 0 -12309484.442443497 20858118.759270571 0 20858118.759270571 2736234.778390374 0 0 0 0 -117792829.90098572 6140790.4504776001 0 6140790.4504776001 8375057.5374755859 0 0 0 0 5275989.6400408521 17841343.476460174 0 17841343.476460174 12153768.865648508 0 0 0 0 -244166573.58570862 589142543.90906525 0 589142543.90906525 -1343395680.9685059 0 0 0 0 23747433.252468109 16941074.740848541 0 16941074.740848541 -41141882.112365723 0 0 0 0 2927314.9724165797 11500607.61104539 0 11500607.61104539 1415782.2123746462 0 0 0 0 28061445.163230896 37632363.870708466 0 37632363.870708466 -25019655.974624634 0 0 0 0 42632962.248031616 28337562.744880676 0 28337562.744880676 -66792596.034362793 0 0 0 0 13991418.082431793 32762048.354682922 0 32762048.354682922 1570430.1626586914 0 0 0 0 22341194.901788428 22700793.63689151 0 22700793.63689151 1827295.227488026 0 0 0 0 -23853494.450134277 161295744.92707825 0 161295744.92707825 34859624.577064514 0 0 0 0 4059966.2372993082 20420332.665445313 0 20420332.665445313 2382180.8167526424 0 0 0 0 1311357364.9681854 2380688662.114357 0 2380688662.114357 3227241623.6667633 0 0 0 0 18628474.833526611 53715433.076278687 0 53715433.076278687 16980145.500846863 0 0 0 0 746336755.8274231 1667130556.4233818 0 1667130556.4233818 3023248428.3605194 0 0 0 0 1528160.5845821723 539890.50690735504 0 539890.50690735504 -1364308.02957578 0 0 0 0 -518547405.4395752 1790608584.9208374 0 1790608584.9208374 6464168058.3508301 0 0 0 0 -467010952.69690132 210344050.64600945 0 210344050.64600945 12923539.503723145 0 0 0 0 26592743.112243652 56988129.239593506 0 56988129.239593506 -109746076.41133118 0 0 0 0 24882990.991994791 8558733.9397433102 0 8558733.9397433102 -4766412.9824504852 0 0 0 0 1280902424.3478699 2110050020.7513275 0 2110050020.7513275 4870370526.1343384 0 0 0 0 1068054315.9598389 2600948519.520752 0 2600948519.520752 6361821285.8428345 0 0 0 0 1210731198.3115234 3289177761.9771423 0 3289177761.9771423 5779947825.2877197 0 0 0 0 2007760914.1921082 2733555791.1574821 0 2733555791.1574821 4489045409.5553894 0 0 0 0 -799007299.9234848 1888865377.5709705 0 1888865377.5709705 -2819979820.1434631 0 0 0 0 1414086015.6104736 4671019926.2756157 0 4671019926.2756157 9638858861.5070648 0 0 0 0 6973131.2474534214 2857032.8806913868 0 2857032.8806913868 -516284.1459399052 0 0 0 0 2264906930.4548569 2715970512.4693375 0 2715970512.4693375 2034060112.7099915 0 0 0 0 1383847133.025116 1579950078.8611603 0 1579950078.8611603 1890021801.257988 0 0 0 0 3498586381.9440689 4238393249.119606 0 4238393249.119606 3176934822.7304382 0 0 0 0 1221842006.0488281 2792915006.1850739 0 2792915006.1850739 4376201935.5428238 0 0 0 0 1424065805.6183167 2606511246.6022186 0 2606511246.6022186 2723374303.935997 0 0 0 0 1172522393.7562561 1727970699.6819611 0 1727970699.6819611 1161500693.3992767 0 0 0 0 1113681879.4447021 1573282046.1464539 0 1573282046.1464539 1409011427.0982208 0 0 0 0 2145225790.9509583 2678515007.0877838 0 2678515007.0877838 1487724619.3289452 0 0 0 0 1748570230.9060974 3035193919.6627197 0 3035193919.6627197 2179916213.9929543 0 0 0 0 1736731409.7433596 2916277934.3210726 0 2916277934.3210726 1385932776.4700012 0 0 0 0 2497306847.2955322 1984242346.5112457 0 1984242346.5112457 1857448396.1584167 0 0 0 0 2527190696.870224 2491314112.8153534 0 2491314112.8153534 1036785294.1763 0 0 0 0 2545214180.9597778 3016795756.2223434 0 3016795756.2223434 -98685710.516845703 0 0 0 0 2118109794.0182877 1317489411.6579971 0 1317489411.6579971 257387206.48558044 0 0 0 0 1753399442.9820747 981777875.97700119 0 981777875.97700119 -1223938607.6343384 0 0 0 0 -1723677640.0641289 -237385277.14769363 0 -237385277.14769363 -2360057892.1086426 0 0 0 0 611390995.12075806 981359647.75343323 0 981359647.75343323 -673980103.53413391 0 0 0 0 599302312.55809021 1563439592.8250885 0 1563439592.8250885 -1197379421.3744469 0 0 0 0 2218628906.0883026 2284955126.2365265 0 2284955126.2365265 -3917035020.1712494 0 0 0 0 2222629669.5788879 3599420702.28022 0 3599420702.28022 1366723955.184494 0 0 0 0 2789716207.9605637 3452145239.1909294 0 3452145239.1909294 -2208217851.6737671 0 0 0 0 201795139.23381042 2489195669.3591385 0 2489195669.3591385 -716535.1014289856 0 0 0 0 243649.24328231812 2903330294.3300171 0 2903330294.3300171 2512406061.5289459 0 0 0 0 216361246.94945145 1656135218.9167404 0 1656135218.9167404 1181370611.0608368 0 0 0 0 423801694.68584919 593306055.17995453 0 593306055.17995453 -2949772793.7203064 0 0 0 0 1836735963.8612785 5860054286.2506714 0 5860054286.2506714 3051591671.569397 0 0 0 0 -1174201627.2001648 236819918.10955811 0 236819918.10955811 2874274106.010437 0 0 0 0 2803872.8751419038 3899609.6998164207 0 3899609.6998164207 2161521.4370197803 0 0 0 0 -2228785744.5469208 1680444080.6485138 0 1680444080.6485138 518882437.32987976 0 0 0 0 7495756.0311512351 8856328.3711471297 0 8856328.3711471297 4354704.8702070564 0 0 0 0 -1095970630.8561478 2245006955.5200882 0 2245006955.5200882 -1543660183.1156006 0 0 0 0 492948754.3636837 2944991701.1410213 0 2944991701.1410213 -2374162782.5457916 0 0 0 0 -1167902104.3816833 934104753.72148895 0 934104753.72148895 984822755.63700867 0 0 0 0 -1287168443.8099823 2927585439.3320618 0 2927585439.3320618 3606053815.8115234 0 0 0 0 4475749.5588877648 5092527.3677341044 0 5092527.3677341044 2455775.7895786986 0 0 0 0 138427867.16705322 4266369031.172821 0 4266369031.172821 4373714815.3420105 0 0 0 0 3678993752.9348145 3902386799.2336731 0 3902386799.2336731 -3876570898.0421143 0 0 0 0 3623957512.9894409 4310591457.2663422 0 4310591457.2663422 263156431.68505859 0 0 0 0 3307719874.8121643 3337594931.6708374 0 3337594931.6708374 1724010869.1221466 0 0 0 0 2514046965.4709167 706262338.87509155 0 706262338.87509155 1433397950.5577259 0 0 0 0 3750888519.2713318 3082809472.1589508 0 3082809472.1589508 -1264523752.9861755 0 0 0 0 4133330320.1856689 2733278560.9407349 0 2733278560.9407349 -1149736596.9528198 0 0 0 0 3296960138.0752563 3194486453.3158035 0 3194486453.3158035 169176108.5475769 0 0 0 0 1835578910.3966064 1126033543.6775513 0 1126033543.6775513 -2724305356.5825806 0 0 0 0 2818195787.0791259 3525170494.9316626 0 3525170494.9316626 2304262976.9021301 0 0 0 0 1441640462.5888977 1810008178.3550262 0 1810008178.3550262 364270515.23458862 0 0 0 0 3029032585.7891693 286237987.52269745 0 286237987.52269745 800872190.57485962 0 0 0 0 424875635.91313934 1079946519.1301346 0 1079946519.1301346 2128603.0562948333 0 0 0 0 1956420.0271179974 4424355.6065736413 0 4424355.6065736413 1226674.9588550255 0 0 0 0 -1354875357.3386078 1549963064.6642761 0 1549963064.6642761 -428811335.79347229 0 0 0 0 -2064912910.7283325 1253109779.6754684 0 1253109779.6754684 -100567598.38604736 0 0 0 0 1547270.591756776 8490015.0846473128 0 8490015.0846473128 2853414.361622557 0 0 0 0 7240150666.3823853 2726754900.6006775 0 2726754900.6006775 -4294186822.4924316 0 0 0 0 -2038319594.7546082 -479992450.96407318 0 -479992450.96407318 -882483032.88673401 0 0 0 0 1507772.6352384463 3921502.0485821739 0 3921502.0485821739 3829207.0508476496 0 0 0 0 1854875273.8533173 1125329366.1037941 0 1125329366.1037941 -143653347.58361816 0 0 0 0 4854498717.8036575 1639103247.982296 0 1639103247.982296 -193936915.1118927 0 0 0 0 -1106645438.1264954 1540884939.8373566 0 1540884939.8373566 -348507734.17687476 0 0 0 0 -1350997749.2816162 1012436887.7052917 0 1012436887.7052917 -344269709.40628052 0 0 0 0 -364119970.5914917 212926090.3729248 0 212926090.3729248 53997177.131637573 0 0 0 0 3651123.3192427531 11076097.314364111 0 11076097.314364111 9805639.1517653763 0 0 0 0 -156257915.3772583 -218620986.61294556 0 -218620986.61294556 386611044.15378189 0 0 0 0 284408772.21124268 -34102726.66608429 0 -34102726.66608429 6947137.3648986816 0 0 0 0 -27684769.871063232 -207823762.86573029 0 -207823762.86573029 120446946.79708862 0 0 0 0 -48807989.307098389 35625745.001874924 0 35625745.001874924 149636020.92346191 0 0 0 0 -86992494.329360962 -51283646.608200073 0 -51283646.608200073 60283922.30027771 0 0 0 0 -65191082.614959717 -45601504.323822021 0 -45601504.323822021 40747343.22355938 0 0 0 0 166442036.26733398 436127922.85119629 0 436127922.85119629 1180075698.3267212 0 0 0 0 13546786.121063232 92700293.291915894 0 92700293.291915894 62003219.366912842 0 0 0 0 8835490.9726427794 11848740.769507103 0 11848740.769507103 751935.58872143552 0 0 0 0 -18040124.063140869 23502780.89982605 0 23502780.89982605 19161322.248886108 0 0 0 0 3667958.4055266678 4565414.0485246629 0 4565414.0485246629 157371.51142658293 0 0 0 0 -246605342.90756226 246248351.21511841 0 246248351.21511841 152259744.46473694 0 0 0 0 1497076.3233375549 4413239.0063714981 0 4413239.0063714981 -11032.550674438477 0 0 0 0 -50799643.477386475 -84500869.144607544 0 -84500869.144607544 243725047.09675598 0 0 0 0 84913096.033843994 20187066.905509949 0 20187066.905509949 -211723877.04016113 0 0 0 0 2354076.5844726562 -121200558.87289429 0 -121200558.87289429 -184548743.97964478 0 0 0 0 172842.3791192323 2159145.081211172 0 2159145.081211172 997878.63665159792 0 0 0 0 4463367.3099393025 3760825.3501967117 0 3760825.3501967117 -3322687.4751375169 0 0 0 0 163764710.17094421 150118337.84340668 0 150118337.84340668 -477084070.83895874 0 0 0 0 -137017932.51481628 22658207.242980957 0 22658207.242980957 299574637.16119385 0 0 0 0 4699795.1189247668 6310488.8262630999 0 6310488.8262630999 2198731.8440762609 0 0 0 0 45125263.950042725 18219092.532974243 0 18219092.532974243 -37912879.025482178 0 0 0 0 -510154074.7166748 89025719.334342957 0 89025719.334342957 -1674693.9825134277 0 0 0 0 -379016594.07897949 432757009.02471161 0 432757009.02471161 401995069.04312134 0 0 0 0 7495375.9777157605 7813556.7470994443 0 7813556.7470994443 2439053.474203229 0 0 0 0 215765185.89584351 229134965.05804443 0 229134965.05804443 -164215566.77667236 0 0 0 0 692159651.43490601 -57807539.837234497 0 -57807539.837234497 -34670020.411392212 0 0 0 0 -216403287.32583618 424228289.82487488 0 424228289.82487488 1683960278.8339539 0 0 0 0 857875571.49091339 2276248034.8577471 0 2276248034.8577471 2810054499.5427246 0 0 0 0 31434526.608200073 -157387290.95851135 0 -157387290.95851135 492009506.58244324 0 0 0 0 985075218.91482544 796468846.12051392 0 796468846.12051392 69743232.884552002 0 0 0 0 1160549673.4232521 1147684742.4873352 0 1147684742.4873352 1634229655.3953247 0 0 0 0 1351369.5735250171 1082783.2799886838 0 1082783.2799886838 -541662.54131686687 0 0 0 0 2286993518.8343048 1942850446.2690125 0 1942850446.2690125 851096912.62127686 0 0 0 0 1646878516.4683228 3788369622.8588104 0 3788369622.8588104 3091823684.9215698 0 0 0 0 4880132281.7785034 3580110562.4045181 0 3580110562.4045181 1896870108.677124 0 0 0 0 618780437.39987183 2302695104.5418243 0 2302695104.5418243 1546623685.0517197 0 0 0 0 -56625074.387390137 2778467174.4967651 0 2778467174.4967651 2538449662.1824799 0 0 0 0 872053467.6472168 3664178836.3978729 0 3664178836.3978729 3366406119.8334045 0 0 0 0 884904716.01092529 3374383797.2551422 0 3374383797.2551422 2609174302.5862732 0 0 0 0 -94881539.72277832 2604198007.4360962 0 2604198007.4360962 3205415098.8419647 0 0 0 0 -340563483.712677 1648828963.6416321 0 1648828963.6416321 6109365027.9316406 0 0 0 0 281979217.81021118 3519100704.4506683 0 3519100704.4506683 5012414553.7624512 0 0 0 0 -3632447442.3361359 -163888699.19824219 0 -163888699.19824219 5645977006.4332733 0 0 0 0 -440367574.55052185 2539804598.2933884 0 2539804598.2933884 4122860737.7752838 0 0 0 0 -311667368.28433228 1867739078.1987076 0 1867739078.1987076 3480259002.756073 0 0 0 0 -251633400.94158936 866950046.59391785 0 866950046.59391785 4212858465.7355957 0 0 0 0 -130979600.17092896 550858967.4393158 0 550858967.4393158 -696317485.44521332 0 0 0 0 748920120.99172974 223778166.1971283 0 223778166.1971283 -590846977.43019104 0 0 0 0 2699427.5373530835 3068560.8394569606 0 3068560.8394569606 1596171.5091700256 0 0 0 0 1125535810.6877747 1753722351.7050171 0 1753722351.7050171 435128000.38256836 0 0 0 0 -1154597150.4105225 1044732020.7127533 0 1044732020.7127533 953605503.57163239 0 0 0 0 -1102307846.3916931 95137354.202682495 0 95137354.202682495 247480673.08601379 0 0 0 0 -2008989728.3099823 1016401392.9046173 0 1016401392.9046173 1887749813.1787872 0 0 0 0 1653934934.8921509 662394150.95846558 0 662394150.95846558 -1697387736.6425476 0 0 0 0 -261415.49807112385 8289828.5344494358 0 8289828.5344494358 10098446.243595824 0 0 0 0 235519698.09327698 -616057373.85121918 0 -616057373.85121918 -1818884492.4155273 0 0 0 0 -168720.85961368843 3320368.8407981694 0 3320368.8407981694 5537716.9361102283 0 0 0 0 2903137270.5114365 2894707290.2039742 0 2894707290.2039742 1534806316.4354553 0 0 0 0 374648749.31686401 1248004235.8659668 0 1248004235.8659668 1030003102.7052212 0 0 0 0 -36491319.568635941 456963423.60767078 0 456963423.60767078 4761072540.1931076 0 0 0 0 1677501.5933990479 949985412.49975014 0 949985412.49975014 -215880137.39279175 0 0 0 0 -492365865.3416748 751371730.05802917 0 751371730.05802917 757985432.32478333 0 0 0 0 -512676549.52262115 1795692082.3650627 0 1795692082.3650627 -158563060.04627228 0 0 0 0 -2465758418.1821594 388532322.57476044 0 388532322.57476044 235744796.69786263 0 0 0 0 -330350993.67758179 621016497.49868584 0 621016497.49868584 472698298.05197144 0 0 0 0 -374177178.92269897 778426316.64788818 0 778426316.64788818 36516898.519802094 0 0 0 0 1684891225.2364912 911108143.8817699 0 911108143.8817699 -323033472.85888672 0 0 0 0 696385947.37084961 -524491757.0140686 0 -524491757.0140686 528183114.11817169 0 0 0 0 2550642517.8777924 1140998509.2742081 0 1140998509.2742081 -817566693.68091583 0 0 0 0 72880.325280858087 9165064.8047491759 0 9165064.8047491759 6067940.9119784385 0 0 0 0 -1648172143.6132126 -442635276.40538788 0 -442635276.40538788 -204419832.03201294 0 0 0 0 495455.17529843375 5092875.8861597627 0 5092875.8861597627 5369557.8348902464 0 0 0 0 -1306074595.9461365 161716180.37090302 0 161716180.37090302 234743872.84466553 0 0 0 0 -2321047879.4356842 283195972.78821564 0 283195972.78821564 571039504.74002075 0 0 0 0 -1162210056.0036163 -210929606.44643402 0 -210929606.44643402 -744622651.15187073 0 0 0 0 -1046852412.9232178 -763926525.86120605 0 -763926525.86120605 148603299.1332016 0 0 0 0 -1552477080.4692841 1473707906.3571548 0 1473707906.3571548 1173436379.0313416 0 0 0 0 -2813717391.5928192 383180201.19231987 0 383180201.19231987 793947427.90274048 0 0 0 0 460410.15684164315 9226916.2743438482 0 9226916.2743438482 13353368.759182572 0 0 0 0 154304.43490753486 4366627.5746815354 0 4366627.5746815354 1509693.1639486104 0 0 0 0 4433232171.2309265 857142300.53762054 0 857142300.53762054 -1117930587.0480194 0 0 0 0 1480525023.0128479 2593345620.6615562 0 2593345620.6615562 -648356673.16387939 0 0 0 0 -7016144.6155471802 871605962.06342316 0 871605962.06342316 1455741582.0875702 0 0 0 0 -508498137.72262573 -247899393.4657135 0 -247899393.4657135 -945036334.2217989 0 0 0 0 2055609328.3770752 2594251288.440155 0 2594251288.440155 452017345.24147034 0 0 0 0 1759551407.0628052 1432017570.0446167 0 1432017570.0446167 -774525814.65431213 0 0 0 0 915168724.96066284 3130364802.0737915 0 3130364802.0737915 2687137716.2770844 0 0 0 0 558280456.80534363 2391235879.2746735 0 2391235879.2746735 1551688323.6204529 0 0 0 0 1681747858.0774841 4151753887.3703156 0 4151753887.3703156 3329388069.5486908 0 0 0 0 735041938.42277527 2874449136.3058357 0 2874449136.3058357 3496018768.1212158 0 0 0 0 782644244.52020264 3121426983.4654999 0 3121426983.4654999 4682248881.2260971 0 0 0 0 1132125705.089222 3424786076.2294903 0 3424786076.2294903 3903868113.1609802 0 0 0 0 2590368254.365509 1238381843.9099045 0 1238381843.9099045 3468048776.9435577 0 0 0 0 610187969.91094971 1062742788.4363861 0 1062742788.4363861 1515983866.2785034 0 0 0 0 865308745.04171753 2533194461.6272507 0 2533194461.6272507 2676168531.6241455 0 0 0 0 2123819177.231842 881976131.52233887 0 881976131.52233887 667638085.92259216 0 0 0 0 -113379333.61654663 1368174630.0656815 0 1368174630.0656815 1479074205.1262817 0 0 0 0 -374368896.98703003 -211154333.69445801 0 -211154333.69445801 536628290.18599701 0 0 0 0 -986133807.80335999 269271980.65351868 0 269271980.65351868 222634555.33712769 0 0 0 0 -787790329.74308777 -310684910.80990219 0 -310684910.80990219 -107846161.12609863 0 0 0 0 -201893535.93862915 230918373.44417572 0 230918373.44417572 -172211594.83194733 0 0 0 0 563859.11327515543 2069407.6941983774 0 2069407.6941983774 334372.54692328721 0 0 0 0 111038090.93615723 1402406.1301307678 0 1402406.1301307678 -89510471.141845703 0 0 0 0 106072585.56360245 516036851.59879875 0 516036851.59879875 1894246141.9058838 0 0 0 0 1929874.1431742329 2627300.3308712915 0 2627300.3308712915 -739839.0479516238 0 0 0 0 897689135.70077515 1186334477.8261642 0 1186334477.8261642 898259945.79751587 0 0 0 0 773707723.14758301 740679517.41023254 0 740679517.41023254 2281989039.1948357 0 0 0 0 2042829117.5993652 2403351330.0095978 0 2403351330.0095978 2718134853.8648262 0 0 0 0 1042391413.1293182 1773152045.9134712 0 1773152045.9134712 2903911796.5143738 0 0 0 0 1276330270.1716003 390457989.00434875 0 390457989.00434875 -408228474.64083862 0 0 0 0 6552299.1070753187 6499204.7463719025 0 6499204.7463719025 577857.2990450114 0 0 0 0 467207453.77612305 -521323523.64202881 0 -521323523.64202881 -447661357.35683346 0 0 0 0 70073593.420516968 1037432429.3646698 0 1037432429.3646698 1905523358.7757263 0 0 0 0 1034454189.3059082 941090784.24373627 0 941090784.24373627 712740180.47592163 0 0 0 0 364260177.91766357 1578304624.5637207 0 1578304624.5637207 1378137988.3609009 0 0 0 0 -636176246.76907349 442348343.28138733 0 442348343.28138733 1069901243.2255554 0 0 0 0 -576306231.39923096 1122060293.8991699 0 1122060293.8991699 -1089230621.9058838 0 0 0 0 354454.07269075513 -380317.0154578872 0 -380317.0154578872 -697921.05237796903 0 0 0 0 804448168.25689697 1211463285.2496948 0 1211463285.2496948 1247068250.6539078 0 0 0 0 512993466.69451904 1730847070.6019592 0 1730847070.6019592 1914795348.4691162 0 0 0 0 1080577885.1726074 1654243555.1418152 0 1654243555.1418152 1275133653.2570801 0 0 0 0 1179514566.2727051 1454203978.9633636 0 1454203978.9633636 1647244009.6780396 0 0 0 0 798797608.80340576 1385236958.0231934 0 1385236958.0231934 2182126969.9016113 0 0 0 0 1051969253.5812798 2227190967.4342251 0 2227190967.4342251 2750395354.0944519 0 0 0 0 1313417370.8739929 1073618550.463501 0 1073618550.463501 1774489003.7245865 0 0 0 0 1099740789.3768005 1792460688.7482758 0 1792460688.7482758 3281202564.4779892 0 0 0 0 2498654289.5119324 2438213944.780838 0 2438213944.780838 3483681337.9621887 0 0 0 0 1240608491.8108673 1868498555.4288712 0 1868498555.4288712 5006663971.0950012 0 0 0 0 2120234471.0926208 4572150053.8775253 0 4572150053.8775253 6089024458.7043953 0 0 0 0 3978419617.1887207 3160918823.7788696 0 3160918823.7788696 2309703524.0872726 0 0 0 0 1544450109.3573151 1870054783.5850029 0 1870054783.5850029 3572495544.0569153 0 0 0 0 2012506847.0762329 1427961593.5544739 0 1427961593.5544739 2169308839.8540039 0 0 0 0 6947576362.6141052 3120903871.987915 0 3120903871.987915 2916842464.595108 0 0 0 0 1212029221.6030273 3876602485.6294861 0 3876602485.6294861 5427706409.4556427 0 0 0 0 3848664.8994414061 2665506.4789328426 0 2665506.4789328426 726783.07702261955 0 0 0 0 1498798310.3443604 -314987951.13504791 0 -314987951.13504791 -3993019114.4023209 0 0 0 0 -621770502.36149597 4143232252.2291031 0 4143232252.2291031 11505843657.365082 0 0 0 0 10123969.348264098 2185536.2188012376 0 2185536.2188012376 160027.94302209094 0 0 0 0 70248372.561126709 205185809.36451721 0 205185809.36451721 556665308.54979706 0 0 0 0 3776803628.5914612 2448962255.822464 0 2448962255.822464 -1728161616.1301117 0 0 0 0 3393893976.3132019 4821690250.2424316 0 4821690250.2424316 3476367602.7651367 0 0 0 0 2385215560.35495 3516743610.1684799 0 3516743610.1684799 1792999663.6033783 0 0 0 0 -6566653.7707484365 381028.58731012046 0 381028.58731012046 3012000.3131839111 0 0 0 0 1113662804.4720459 1715778270.0673294 0 1715778270.0673294 1889823323.3586426 0 0 0 0 1795482908.7615967 1425254049.9979019 0 1425254049.9979019 1358997452.897934 0 0 0 0 214959107.44129562 546429379.08042526 0 546429379.08042526 627188215.36122131 0 0 0 0 112139260.59491348 -34843649.887698174 0 -34843649.887698174 730968092.02944946 0 0 0 0 -369131227.98651123 -108478769.36745453 0 -108478769.36745453 535159165.57746124 0 0 0 0 -1626230862.2158508 987694793.58201599 0 987694793.58201599 535693140.82602882 0 0 0 0 -532421602.33807373 872725197.04215622 0 872725197.04215622 1516230125.3882446 0 0 0 0 179607739.20294189 1302253335.2625923 0 1302253335.2625923 -1043874541.0069504 0 0 0 0 626065794.93251801 1069976578.4341698 0 1069976578.4341698 -958317259.96962738 0 0 0 0 -415014647.71408081 1955888955.0503387 0 1955888955.0503387 -867074441.35741425 0 0 0 0 -118606957.54473877 2194359768.6504669 0 2194359768.6504669 3686292602.0385895 0 0 0 0 -3170188.6080268025 112044.24777681381 0 112044.24777681381 1647098.370749712 0 0 0 0 602757630.55375671 1397610919.057476 0 1397610919.057476 -2124982575.8764648 0 0 0 0 -622663042.48345947 2813916408.1143494 0 2813916408.1143494 2948529040.664978 0 0 0 0 -405253423.60520935 1825103601.4360428 0 1825103601.4360428 3638734165.4594269 0 0 0 0 -1794395082.2150574 3171691525.2242126 0 3171691525.2242126 4265862167.7514668 0 0 0 0 -201224437.44567871 2665164310.4608002 0 2665164310.4608002 5927719632.6049805 0 0 0 0 909226084.44897461 3015324508.9412842 0 3015324508.9412842 4208557339.2729492 0 0 0 0 177594338.84130859 2476853963.7842407 0 2476853963.7842407 4075277374.3945389 0 0 0 0 -109728091.07295227 2239593007.7134476 0 2239593007.7134476 4198082953.7076111 0 0 0 0 498024132.15341187 1900440336.7582245 0 1900440336.7582245 3572136995.0046959 0 0 0 0 1055408829.352005 2202964646.2393646 0 2202964646.2393646 3539713623.4858856 0 0 0 0 632016252.20761299 2761249597.9745493 0 2761249597.9745493 3012513963.0884705 0 0 0 0 1090927028.5174561 3471851609.1387787 0 3471851609.1387787 3512155877.9436646 0 0 0 0 1201974702.5247498 3715076389.2668915 0 3715076389.2668915 4024762406.1168518 0 0 0 0 708372438.365448 3610165297.2469864 0 3610165297.2469864 3632300398.5488281 0 0 0 0 638418243.52520752 3591878943.7790833 0 3591878943.7790833 3735426467.2896729 0 0 0 0 633898798.65963745 3567750408.5133209 0 3567750408.5133209 4181781999.2650452 0 0 0 0 797541323.99008942 3875508554.8930082 0 3875508554.8930082 4680822839.606781 0 0 0 0 596634484.12182999 2955854906.2247381 0 2955854906.2247381 4614177667.9936829 0 0 0 0 -3458714148.364624 426305588.21585464 0 426305588.21585464 3039591908.9151764 0 0 0 0 372702.29422419891 5222931.6914307848 0 5222931.6914307848 7748503.9630372375 0 0 0 0 3018929403.0270691 4030017676.0418549 0 4030017676.0418549 2569766671.6581879 0 0 0 0 -1010111165.0066681 2524857528.0719757 0 2524857528.0719757 4828412113.1920166 0 0 0 0 808337620.80274677 4263869557.6625862 0 4263869557.6625862 6833639519.2568359 0 0 0 0 -393468761.31323242 495307690.01724243 0 495307690.01724243 1551644807.4056244 0 0 0 0 -1809845520.0715332 846247821.73815155 0 846247821.73815155 4133223817.9663086 0 0 0 0 1924238301.9757309 2719449865.4218102 0 2719449865.4218102 3181957116.1000061 0 0 0 0 -661126576.18019104 2154814089.2819901 0 2154814089.2819901 4297163376.3397751 0 0 0 0 -20004503.990112305 1979852198.950882 0 1979852198.950882 3780185073.1022491 0 0 0 0 1395269414.7989502 4330974452.4357605 0 4330974452.4357605 4749176187.2081738 0 0 0 0 768500191.76704407 4060353826.0645142 0 4060353826.0645142 5416428100.336731 0 0 0 0 3683730335.0266113 3472440252.3110046 0 3472440252.3110046 4786987740.2727051 0 0 0 0 2208129918.8056641 1448121317.5054626 0 1448121317.5054626 6033072283.2339096 0 0 0 0 -1396195.8787168302 5069365.2919488847 0 5069365.2919488847 2403430.8898775876 0 0 0 0 -780833027.81820679 1229287525.0779462 0 1229287525.0779462 -1163579465.9613953 0 0 0 0 4981236677.3381348 4104949600.9761448 0 4104949600.9761448 2299532755.7359009 0 0 0 0 -2754170204.762352 1464310779.145998 0 1464310779.145998 2638222534.9991302 0 0 0 0 -120416116.45169067 24613515.687065125 0 24613515.687065125 -100199207.84947205 0 0 0 0 -104346143.02897644 635278969.82180023 0 635278969.82180023 733303546.64721107 0 0 0 0 3143557855.5684814 1759654634.7345047 0 1759654634.7345047 973887083.31839561 0 0 0 0 1086446400.7157593 2942949153.0880013 0 2942949153.0880013 3299454253.5301819 0 0 0 0 228203984.72029686 2115027321.0511589 0 2115027321.0511589 2203276177.913681 0 0 0 0 324988965.30285645 1760008483.5967636 0 1760008483.5967636 1652511862.115799 0 0 0 0 -1879719.353228128 1451365298.5100563 0 1451365298.5100563 1664716635.587738 0 0 0 0 -294321433.53564453 1426359252.4700165 0 1426359252.4700165 2793729957.3860435 0 0 0 0 -105227486.53028107 1704286383.3132229 0 1704286383.3132229 2871936126.4363403 0 0 0 0 -240664418.61846924 410782847.8822937 0 410782847.8822937 -685293021.82975769 0 0 0 0 3048852.1469764113 7901444.5913848206 0 7901444.5913848206 -590495.58920501173 0 0 0 0 72576695.141819209 3585456.4799998179 0 3585456.4799998179 -9600708.7852998972 0 0 0 0 1379325102.6139526 884928457.13339233 0 884928457.13339233 894828684.78404999 0 0 0 0 116106504.02893066 -12198981.53086853 0 -12198981.53086853 33451666.837234497 0 0 0 0 173821542.52001953 -45495829.407524109 0 -45495829.407524109 -12783260.047935486 0 0 0 0 149221784.36236572 2103264.0323219299 0 2103264.0323219299 -102678075.65844727 0 0 0 0 137742159.65312195 -6709072.3056983948 0 -6709072.3056983948 -8973086.2410888672 0 0 0 0 108698522.83279419 1897532.3383407593 0 1897532.3383407593 9357018.6249542236 0 0 0 0 20791950.329079296 41822409.58274518 0 41822409.58274518 17637937.912384331 0 0 0 0 -189269674.2131424 87152762.605262756 0 87152762.605262756 25418239.842285156 0 0 0 0 115845959.1809082 -24879690.807098389 0 -24879690.807098389 -28468775.980148315 0 0 0 0 147525074.65429688 222114678.41011047 0 222114678.41011047 120965513.59387207 0 0 0 0 252704477.79995728 202460898.27203369 0 202460898.27203369 -57614625.352966309 0 0 0 0 48342275.636688232 144561389.93676758 0 144561389.93676758 -66407009.565002441 0 0 0 0 191387781.92367554 215757020.8430481 0 215757020.8430481 -100557899.42218018 0 0 0 0 20194692.116699219 182980890.20651245 0 182980890.20651245 -44131903.101806641 0 0 0 0 -151490018.93157959 22737296.812805176 0 22737296.812805176 24183998.180358887 0 0 0 0 154719581.17990112 92597796.663642883 0 92597796.663642883 -15837637.95880127 0 0 0 0 111060359.23919678 148070988.29060364 0 148070988.29060364 -26207049.165542603 0 0 0 0 216028975.90267944 165284403.45956421 0 165284403.45956421 -40844492.157501221 0 0 0 0 313143190.80497742 141501698.06575012 0 141501698.06575012 -136210866.44415283 0 0 0 0 279574591.29675293 136135444.58253479 0 136135444.58253479 -99748138.289031982 0 0 0 0 482263537.18203735 58165818.783660889 0 58165818.783660889 -101052549.01998806 0 0 0 0 -312551214.97085571 379562023.89176941 0 379562023.89176941 -83860191.462158203 0 0 0 0 -392238711.81066895 -12068250.553009033 0 -12068250.553009033 75154807.767272949 0 0 0 0 11266625.355407715 188854062.32748413 0 188854062.32748413 -38253042.662872314 0 0 0 0 24414527.181060791 255096898.52124023 0 255096898.52124023 -109261552.27322388 0 0 0 0 319668897.50045776 223330765.74594116 0 223330765.74594116 -254524180.55352783 0 0 0 0 285130512.96372986 228418161.96876526 0 228418161.96876526 47526162.425720215 0 0 0 0 158247144.06922913 95631914.824962616 0 95631914.824962616 -91368350.040588379 0 0 0 0 138429017.84428024 271914036.65467072 0 271914036.65467072 -585916318.96795654 0 0 0 0 -384952858.4758606 -24913916.863739014 0 -24913916.863739014 91019548.243011475 0 0 0 0 395304923.25802612 442162782.32675171 0 442162782.32675171 354598123.36355591 0 0 0 0 306537882.58105278 -27189308.734489441 0 -27189308.734489441 172885952.76083374 0 0 0 0 -349013226.53166199 748338076.89865112 0 748338076.89865112 1175975393.3969116 0 0 0 0 326895405.94363403 26124740.514282227 0 26124740.514282227 98510230.798797607 0 0 0 0 359426605.78265381 365097306.06274414 0 365097306.06274414 852954938.42021179 0 0 0 0 530752762.65530396 98853865.250457764 0 98853865.250457764 40105185.442276001 0 0 0 0 575697506.28340149 713729741.60513306 0 713729741.60513306 1167746303.7018051 0 0 0 0 851917679.72244263 577792784.15851593 0 577792784.15851593 196534312.10321045 0 0 0 0 774608631.90951157 674581484.12474823 0 674581484.12474823 658055483.3223877 0 0 0 0 458411616.77914429 1352491323.3893147 0 1352491323.3893147 2308125038.7846375 0 0 0 0 798439632.34329796 2035244867.3297653 0 2035244867.3297653 2491854059.1831055 0 0 0 0 719964024.70367432 695607866.90322876 0 695607866.90322876 1138870970.1153564 0 0 0 0 12541799.020769561 7528621.4590620883 0 7528621.4590620883 -3531256.9471196532 0 0 0 0 -470347870.40994263 290028596.38487244 0 290028596.38487244 516627356.14111328 0 0 0 0 499230693.37493896 958282477.23020935 0 958282477.23020935 1068316706.6338882 0 0 0 0 1166038031.6245708 1976217968.0531583 0 1976217968.0531583 2896761890.2192383 0 0 0 0 982580780.38140869 743342545.24649048 0 743342545.24649048 1089880446.5159149 0 0 0 0 1620427895.9786224 1487517471.5926971 0 1487517471.5926971 2851022480.6865997 0 0 0 0 2398177281.276207 2923869648.178009 0 2923869648.178009 2855417499.6988373 0 0 0 0 1381098393.3850098 2545014882.416214 0 2545014882.416214 4489613603.4454908 0 0 0 0 1513785583.8956947 3275441831.1237707 0 3275441831.1237707 3129601911.0343323 0 0 0 0 4582147.6205823123 4436301.2299519032 0 4436301.2299519032 -1928741.4163769484 0 0 0 0 744933778.0111084 3116673409.6079407 0 3116673409.6079407 5155203826.9791565 0 0 0 0 1773286639.102066 2348873757.2538147 0 2348873757.2538147 2216749216.587204 0 0 0 0 331499999.81990051 916364360.72023392 0 916364360.72023392 1842819416.163765 0 0 0 0 1564756350.5136108 2609985760.1477127 0 2609985760.1477127 3546194305.5041504 0 0 0 0 970543726.48977661 1994759656.5526276 0 1994759656.5526276 3188033540.9286499 0 0 0 0 1234567948.8216858 2432077778.9523468 0 2432077778.9523468 2619197207.6885262 0 0 0 0 315190507.1950531 1046544797.6418533 0 1046544797.6418533 2174443306.7313538 0 0 0 0 1641651901.6980896 2364169704.2070541 0 2364169704.2070541 2857183214.0180874 0 0 0 0 1013482873.6238708 2083034705.3197556 0 2083034705.3197556 2930271645.1316223 0 0 0 0 1149173409.3933334 1939955246.932045 0 1939955246.932045 3396415219.8642273 0 0 0 0 1357230224.4477844 3109519400.1897125 0 3109519400.1897125 4252111721.9171276 0 0 0 0 2059430335.3586121 2943796151.7304993 0 2943796151.7304993 5027717090.1519928 0 0 0 0 7976528.711628139 6603427.846095942 0 6603427.846095942 -1455823.7740554363 0 0 0 0 1780109732.1961975 3435434588.1688385 0 3435434588.1688385 4208052833.033844 0 0 0 0 1630266862.5986938 2638184160.0692291 0 2638184160.0692291 4989569289.717453 0 0 0 0 1702361187.3163414 2439544712.2380543 0 2439544712.2380543 4747915164.1101685 0 0 0 0 1322649115.5847015 2879561031.0798416 0 2879561031.0798416 5852679381.0100555 0 0 0 0 31321798.949043304 5398967.0078454688 0 5398967.0078454688 -1778877.4439053461 0 0 0 0 101338128.51611328 375629461.65138245 0 375629461.65138245 -1583386273.2387619 0 0 0 0 52051986.606211796 3822945.387170814 0 3822945.387170814 -4263396.6254632771 0 0 0 0 1141619408.1433411 1148149662.6165466 0 1148149662.6165466 2229462091.512825 0 0 0 0 265980379.5697937 2164574053.8279419 0 2164574053.8279419 5454773080.4123993 0 0 0 0 631839089.50973511 428983805.03578186 0 428983805.03578186 -2127730740.1361847 0 0 0 0 -749465028.82406616 261557062.02804565 0 261557062.02804565 86092379.112770081 0 0 0 0 184057508.59739685 -123602127.66135406 0 -123602127.66135406 -540590221.6875 0 0 0 0 77642415.840316772 489824470.42741394 0 489824470.42741394 -495532627.51119995 0 0 0 0 -336068052.85453033 620400139.74396896 0 620400139.74396896 336640423.47068787 0 0 0 0 -492339763.92293549 903197549.40624905 0 903197549.40624905 1812640797.3160706 0 0 0 0 -4515528.7574025095 -1228776.6693387106 0 -1228776.6693387106 2238903.675825648 0 0 0 0 -1036054734.3153687 757187085.0822525 0 757187085.0822525 582546781.70796967 0 0 0 0 -118868463.48791504 117223193.04412842 0 117223193.04412842 603061494.69953918 0 0 0 0 -645838584.74557495 -211946141.18299866 0 -211946141.18299866 403945941.38730621 0 0 0 0 6282236.7819137573 453565958.51376152 0 453565958.51376152 -389272896.06999207 0 0 0 0 -594272424.27838135 -259798554.2352066 0 -259798554.2352066 -750765096.27278137 0 0 0 0 154579146.19540405 184421669.20649719 0 184421669.20649719 -1715573177.7681122 0 0 0 0 312603913.75335693 -19189048.254463196 0 -19189048.254463196 -2294520210.6776314 0 0 0 0 572326533.32713318 494162974.14162064 0 494162974.14162064 216098858.70895386 0 0 0 0 -117833926.59454346 13253887.423629761 0 13253887.423629761 1145918068.2835541 0 0 0 0 277881943.82388306 696877413.12294769 0 696877413.12294769 1645875631.8797417 0 0 0 0 -7625376.6570508778 -643286.10462801903 0 -643286.10462801903 3392619.9452045001 0 0 0 0 342588877.2590332 57356756.177055359 0 57356756.177055359 596588552.07524872 0 0 0 0 313025073.66091156 296755605.47063637 0 296755605.47063637 -1068972215.0165405 0 0 0 0 -98298944.287826538 -331054201.64134598 0 -331054201.64134598 1318106705.1251068 0 0 0 0 -18612040.462016299 4657474.6467941403 0 4657474.6467941403 594666.52197403647 0 0 0 0 289139095.96208191 138663616.85562897 0 138663616.85562897 414642303.26132965 0 0 0 0 327536710.3563385 -143607609.77241898 0 -143607609.77241898 341090527.71333694 0 0 0 0 -3331433.1657498777 1694157.9937988073 0 1694157.9937988073 3576270.5801003575 0 0 0 0 168364012.3821106 -322735452.22743988 0 -322735452.22743988 -661305545.89414978 0 0 0 0 -201585675.08432007 -958419813.91001129 0 -958419813.91001129 28886752.733634949 0 0 0 0 -976910438.99813843 1019854371.8386269 0 1019854371.8386269 1365188436.2288742 0 0 0 0 -155047128.87948608 170567571.78078461 0 170567571.78078461 -116647090.25633812 0 0 0 0 -27215487.804898068 8856950.7029181644 0 8856950.7029181644 1804771.7237770651 0 0 0 0 -137833890.15490723 370769768.00383759 0 370769768.00383759 882809269.3967247 0 0 0 0 -86151761.739837646 80872880.731231689 0 80872880.731231689 109369385.48374557 0 0 0 0 -30936363.080510229 13746849.757085629 0 13746849.757085629 4345148.1519727707 0 0 0 0 15002825.31539917 25009259.224578857 0 25009259.224578857 -8578301.2627258301 0 0 0 0 54431723.907684326 272780468.85826874 0 272780468.85826874 163890729.03594971 0 0 0 0 149614859.31280518 115202097.5609417 0 115202097.5609417 152523524.57341003 0 0 0 0 123254777.13134766 272812307.09421539 0 272812307.09421539 -32901792.596832275 0 0 0 0 5299899.7533111572 166910492.72758865 0 166910492.72758865 161871004.63816833 0 0 0 0 51845812.29006958 190715488.2636261 0 190715488.2636261 -8572629.337310791 0 0 0 0 468246206.73997498 586960899.84127331 0 586960899.84127331 -80079790.659072876 0 0 0 0 131109422.07714844 -156051430.92687225 0 -156051430.92687225 -514091805.53478241 0 0 0 0 -6557221.7180732936 9799205.2401912063 0 9799205.2401912063 8499193.8625746332 0 0 0 0 -136037732.97455597 315318068.00681829 0 315318068.00681829 336836916.28448486 0 0 0 0 87926450.247421265 169988094.1196785 0 169988094.1196785 127414390.89009094 0 0 0 0 76148406.758239746 78877988.030281067 0 78877988.030281067 -251857279.83256531 0 0 0 0 -1002080.7134393305 29701644.250711009 0 29701644.250711009 8921445.7824991681 0 0 0 0 -67734153.050231934 106284612.39585876 0 106284612.39585876 -27256698.110290527 0 0 0 0 95317593.016265869 89211983.759613037 0 89211983.759613037 7033558.4418487549 0 0 0 0 147660862.92608643 69190999.702133179 0 69190999.702133179 -45378759.971801758 0 0 0 0 159462479.51597595 75900224.676662445 0 75900224.676662445 -147506340.47470093 0 0 0 0 109537413.80709839 179523839.45790482 0 179523839.45790482 -41636080.721115112 0 0 0 0 102781302.12268066 205282123.12021637 0 205282123.12021637 173214842.8143692 0 0 0 0 90539522.350906372 30802618.78338623 0 30802618.78338623 -53276565.278121948 0 0 0 0 34392089.121167637 21959645.766572639 0 21959645.766572639 30875.981068775058 0 0 0 0 183080477.92510986 5301345.5313796997 0 5301345.5313796997 -52158114.047607422 0 0 0 0 12838842.494633287 9613006.8820561171 0 9613006.8820561171 -5572653.3753116876 0 0 0 0 9622675.9075012207 83296011.562866211 0 83296011.562866211 67555757.926292419 0 0 0 0 19166198.505030874 49925258.255601689 0 49925258.255601689 24225969.384582743 0 0 0 0 55851912.393081665 176128357.53123474 0 176128357.53123474 95983182.067993164 0 0 0 0 8952168.2412921786 31966280.198089026 0 31966280.198089026 18063458.46683538 0 0 0 0 78475265.35107024 32484889.769918501 0 32484889.769918501 -9403361.8192593753 0 0 0 0 -99072399.059814453 176197237.45046234 0 176197237.45046234 51585879.26071167 0 0 0 0 230937173.89859009 44086047.971633911 0 44086047.971633911 25046408.038215637 0 0 0 0 79206802.904449463 29955782.689590454 0 29955782.689590454 63660660.84262085 0 0 0 0 12536146.670829006 12179725.167034864 0 12179725.167034864 -4134249.3070994988 0 0 0 0 9950468.3089609444 4330193.2356524915 0 4330193.2356524915 -964635.39569489658 0 0 0 0 10270697.349982455 20356983.940499991 0 20356983.940499991 11327438.122392312 0 0 0 0 18872730.702880859 21382883.858413696 0 21382883.858413696 7504391.2623977661 0 0 0 0 -19596858.065994263 37320039.181539536 0 37320039.181539536 33809907.613922119 0 0 0 0 11557215.371141121 48084900.200650848 0 48084900.200650848 17295884.802553743 0 0 0 0 19670353.518447876 52210125.628356934 0 52210125.628356934 31327471.726688385 0 0 0 0 125193525.40393066 182123891.22499084 0 182123891.22499084 256349419.9765625 0 0 0 0 62143229.082382202 97893701.873077393 0 97893701.873077393 -72194727.233703613 0 0 0 0 -29480518.516645059 25875632.894466028 0 25875632.894466028 8642171.5934022572 0 0 0 0 284117477.9418335 87161032.968276978 0 87161032.968276978 -443525192.2010498 0 0 0 0 -38460740.85458374 259503554.36663818 0 259503554.36663818 163077989.83795166 0 0 0 0 93813872.454711914 544132557.06176758 0 544132557.06176758 464995992.69610596 0 0 0 0 -40138818.893463135 6924104.33177948 0 6924104.33177948 90681930.590946198 0 0 0 0 2429617.8805659637 12109964.343916081 0 12109964.343916081 -3873154.3752699792 0 0 0 0 21038673.263370514 -4256241.8583374023 0 -4256241.8583374023 27570786.965545654 0 0 0 0 3827724.441696167 18319838.155040741 0 18319838.155040741 -28050069.588890076 0 0 0 0 -51985771.788848877 4981475.4444351196 0 4981475.4444351196 38617844.227836609 0 0 0 0 -77684717.006347656 95505151.665927887 0 95505151.665927887 -34765463.284477234 0 0 0 0 -101003859.16146851 83563393.663085938 0 83563393.663085938 -17723605.056396484 0 0 0 0 39054013.475257874 -81813065.119035721 0 -81813065.119035721 138301915.36592865 0 0 0 0 -300221826.97927475 255779032.77152634 0 255779032.77152634 257779938.51199341 0 0 0 0 -216261810.28163147 385554520.03109741 0 385554520.03109741 -159162299.90576172 0 0 0 0 -195427935.38508606 324902148.18405914 0 324902148.18405914 -42891959.426544189 0 0 0 0 -172612920.5790863 417533830.04279327 0 417533830.04279327 -138430725.38725662 0 0 0 0 50364481.542404175 159724227.57361603 0 159724227.57361603 51532128.864120483 0 0 0 0 -470214959.35806274 381951895.09822083 0 381951895.09822083 29588689.763308048 0 0 0 0 -260755229.80331421 361823190.34317398 0 361823190.34317398 -295138521.44754028 0 0 0 0 -186378076.46228027 460466348.85003662 0 460466348.85003662 -268350676.62750626 0 0 0 0 -166302681.80102539 434848631.98073959 0 434848631.98073959 -467823585.63545227 0 0 0 0 -205803409.87780762 397634057.22025681 0 397634057.22025681 -281400810.21131897 0 0 0 0 -143116288.8274231 298962448.82411194 0 298962448.82411194 -232597994.48113441 0 0 0 0 -275409561.69587994 519289461.61475492 0 519289461.61475492 -427863164.21000671 0 0 0 0 -136192917.84591675 214468654.17455292 0 214468654.17455292 -188764197.81414795 0 0 0 0 -80881355.040916443 308924266.73076725 0 308924266.73076725 -500181929.16905212 0 0 0 0 -98918651.67678833 213124137.2310257 0 213124137.2310257 -253320293.68116188 0 0 0 0 -139689771.23254395 153484367.99069214 0 153484367.99069214 -74965776.959793091 0 0 0 0 -76827185.254730225 53607770.223011017 0 53607770.223011017 -7415135.4305496216 0 0 0 0 -46139782.040503502 80100085.484716654 0 80100085.484716654 -96283135.373626709 0 0 0 0 -21988176.053092957 118026500.97112274 0 118026500.97112274 -233216329.02452087 0 0 0 0 -40973184.593795776 -6588650.8214797974 0 -6588650.8214797974 -17096835.145103455 0 0 0 0 13876741.842266083 129704878.37961006 0 129704878.37961006 -314767523.154953 0 0 0 0 3785228.4915466309 81909565.484107971 0 81909565.484107971 -481768295.21772003 0 0 0 0 -77750478.063835144 417826085.41850567 0 417826085.41850567 -788034437.59941864 0 0 0 0 -485165508.64749146 622718107.62051392 0 622718107.62051392 -606015455.84575653 0 0 0 0 -151782146.00546265 222370856.93289185 0 222370856.93289185 -265052114.07008171 0 0 0 0 -22888497.712509155 454866332.74617004 0 454866332.74617004 -1028371507.7885818 0 0 0 0 -165725737.27052307 414649944.74211884 0 414649944.74211884 -960164623.29275131 0 0 0 0 -762112340.43597031 733521682.79447079 0 733521682.79447079 -313556243.13592529 0 0 0 0 -646929602.81698608 955760385.26403046 0 955760385.26403046 -1096594536.9420958 0 0 0 0 -299927269.92132568 700221461.66971207 0 700221461.66971207 -1000128844.2733994 0 0 0 0 -717365788.44406128 1308752708.9632568 0 1308752708.9632568 -1221338720.8156071 0 0 0 0 -286714467.97961426 303917189.16307449 0 303917189.16307449 751882749.59918976 0 0 0 0 -1207703.9997665882 1419811.423494596 0 1419811.423494596 1354931.9940632246 0 0 0 0 -392130478.17614746 -7534369.6316490173 0 -7534369.6316490173 842032415.94606018 0 0 0 0 -232516936.48073387 590923962.63616705 0 590923962.63616705 -692733525.73432922 0 0 0 0 -247296304.60134888 455017925.8920517 0 455017925.8920517 -357178640.16166306 0 0 0 0 -511099396.17979431 800600249.96100235 0 800600249.96100235 -347997303.89251709 0 0 0 0 -478952004.18798828 574773738.27323914 0 574773738.27323914 -138164453.21450424 0 0 0 0 -477378861.7333374 457705749.20210266 0 457705749.20210266 -412256715.48844147 0 0 0 0 -163082782.58842468 518208930.54916 0 518208930.54916 -792339062.19380188 0 0 0 0 -887202605.46520996 250170600.82485199 0 250170600.82485199 -365749962.94464874 0 0 0 0 -5535540.5379913598 -1690457.0129066352 0 -1690457.0129066352 1237.9129034504294 0 0 0 0 -1004307697.0000992 -236749430.24987602 0 -236749430.24987602 639811461.9802475 0 0 0 0 -240103978.21091843 644496123.34096432 0 644496123.34096432 -445327832.71320343 0 0 0 0 122667808.55267334 -192878631.36935425 0 -192878631.36935425 303562110.32065201 0 0 0 0 -203262266.20974731 -407176503.7870369 0 -407176503.7870369 498641518.46434021 0 0 0 0 -7349550.4920447618 -1166785.5125565007 0 -1166785.5125565007 2099571.0816530874 0 0 0 0 -436758312.85369873 202889028.22259521 0 202889028.22259521 1272554262.496315 0 0 0 0 543513267.23706055 -4230815.1638336182 0 -4230815.1638336182 -400092055.63926125 0 0 0 0 -2431149.2255791575 -54451.724519021809 0 -54451.724519021809 662678.91039291862 0 0 0 0 -496339759.48239136 898196392.69865417 0 898196392.69865417 -12235226.567443848 0 0 0 0 -42601715.317321777 328336760.0333252 0 328336760.0333252 236618005.26150513 0 0 0 0 -4547767.679195255 -1573681.1607744731 0 -1573681.1607744731 -54041.56450291723 0 0 0 0 -115769735.70309448 85352111.561859131 0 85352111.561859131 418653397.09371185 0 0 0 0 27202609.099395752 220284079.39479446 0 220284079.39479446 -151481207.96443176 0 0 0 0 -20189082.793998718 381352197.46529388 0 381352197.46529388 -112366683.64639282 0 0 0 0 67973558.393051147 44173808.021221161 0 44173808.021221161 -356424246.83435822 0 0 0 0 -742296.68996843696 2349345.4652553052 0 2349345.4652553052 927457.25138354301 0 0 0 0 -581998802.59831238 -75475740.723804474 0 -75475740.723804474 40359145.045883179 0 0 0 0 -10849071.644631386 47358632.373715401 0 47358632.373715401 3925478.969909668 0 0 0 0 53348784.817947388 76872686.761032104 0 76872686.761032104 -92379380.831882477 0 0 0 0 15894737.477081299 49409394.4055233 0 49409394.4055233 -2593236.4427108765 0 0 0 0 235294989.69148636 -441498463.0863142 0 -441498463.0863142 -51010725.878456116 0 0 0 0 -2516981.7448586971 -694115.91138811409 0 -694115.91138811409 -43179.902082260698 0 0 0 0 164187789.01080322 18987189.986503601 0 18987189.986503601 -281948619.08610535 0 0 0 0 -588686299.26387024 -443722532.06010437 0 -443722532.06010437 702422629.29323959 0 0 0 0 -195698419.76101685 -125764551.05572128 0 -125764551.05572128 251998160.69734955 0 0 0 0 -514766011.75636292 248533573.83778 0 248533573.83778 -81678983.429868698 0 0 0 0 -192563785.24133301 -231900009.92081451 0 -231900009.92081451 -144228070.6508522 0 0 0 0 -406912843.93861389 770580311.81233597 0 770580311.81233597 396929527.27774811 0 0 0 0 -458547110.71325731 -237694674.42860234 0 -237694674.42860234 353015741.97010803 0 0 0 0 307469344.2322998 -202425378.88962555 0 -202425378.88962555 -592793686.94990683 0 0 0 0 491540189.20576477 628451622.33689499 0 628451622.33689499 -652450707.91446686 0 0 0 0 436142041.70715332 373412759.73641968 0 373412759.73641968 143028338.43514633 0 0 0 0 1214204344.192688 1163068921.4128189 0 1163068921.4128189 192981480.858459 0 0 0 0 -74241013.06060791 -212082516.81693649 0 -212082516.81693649 -474381390.99672699 0 0 0 0 1062069260.1131592 1498817767.3278198 0 1498817767.3278198 545690598.42691803 0 0 0 0 -7020381.0387880206 7013167.09696953 0 7013167.09696953 -3392695.0820647329 0 0 0 0 437839.61715686321 -325414.03568170965 0 -325414.03568170965 -1227769.9631486908 0 0 0 0 -391849330.66549683 -715187568.45750809 0 -715187568.45750809 470452393.39997864 0 0 0 0 -2526341384.3099976 -149025142.24554443 0 -149025142.24554443 339806456.18234253 0 0 0 0 -1569078140.2018509 -789230556.68133545 0 -789230556.68133545 -227231182.10521698 0 0 0 0 -2821810.2667682543 2766706.1574631333 0 2766706.1574631333 -1564672.4675486386 0 0 0 0 1444891055.9972153 421858573.73286057 0 421858573.73286057 -596535097.23258972 0 0 0 0 377347396.67608643 838973316.6750412 0 838973316.6750412 1028518227.6576004 0 0 0 0 647574145.03335571 955933752.51257324 0 955933752.51257324 -909493208.24069977 0 0 0 0 -494853701.34362793 1068887516.3439369 0 1068887516.3439369 -839550239.17297363 0 0 0 0 -1471565748.4185028 620513571.74344254 0 620513571.74344254 -175676211.6626358 0 0 0 0 -350679643.85099792 358601780.25764084 0 358601780.25764084 -132065098.87929535 0 0 0 0 -511031943.70103073 760479363.63378525 0 760479363.63378525 -363499923.66201019 0 0 0 0 129123053.23249817 670242344.76501846 0 670242344.76501846 -587351894.71831512 0 0 0 0 73633457.123062134 312733467.58462524 0 312733467.58462524 -498160618.57154846 0 0 0 0 -342477149.36505127 550716701.93621826 0 550716701.93621826 -524851188.64286041 0 0 0 0 -352029977.22364807 442070207.79627228 0 442070207.79627228 -454004309.65902328 0 0 0 0 -676016745.97943997 158685116.68481016 0 158685116.68481016 -526064363.66858673 0 0 0 0 -664344673.91902161 695332677.79621887 0 695332677.79621887 -350353504.78927612 0 0 0 0 1192126.5342452754 1406399245.3108478 0 1406399245.3108478 1412718341.4882278 0 0 0 0 1492715.0063878596 -463125.35904459283 0 -463125.35904459283 2794690.8259253129 0 0 0 0 277669618.19177246 171864028.18183899 0 171864028.18183899 -1043223357.4890671 0 0 0 0 -378889849.79474998 1363103132.1788321 0 1363103132.1788321 2059658766.7579117 0 0 0 0 -362663997.99961853 452608082.66272354 0 452608082.66272354 4363485826.5196886 0 0 0 0 218761031.20887756 1676818347.9630852 0 1676818347.9630852 1618622565.5598526 0 0 0 0 355159050.59296989 1156559523.2314887 0 1156559523.2314887 101734981.28907776 0 0 0 0 -2261184825.3502045 -134129256.91917038 0 -134129256.91917038 1146629022.3348389 0 0 0 0 -948533.4234107621 3439040.5177340358 0 3439040.5177340358 2030109.2390275896 0 0 0 0 582084064.16503906 1872421921.9596653 0 1872421921.9596653 1270514347.3678322 0 0 0 0 2196033179.888504 870449529.50675583 0 870449529.50675583 -651877100.43000793 0 0 0 0 -2167410.7554641291 7650701.4898893237 0 7650701.4898893237 4045661.1004241854 0 0 0 0 897222259.16445923 1312418203.9100876 0 1312418203.9100876 85017200.607162476 0 0 0 0 2134116211.5096588 426186913.99277115 0 426186913.99277115 366130362.0402832 0 0 0 0 861809444.57312012 588366470.91358185 0 588366470.91358185 605514762.65912628 0 0 0 0 712720515.70394897 105935502.7053299 0 105935502.7053299 1422984669.201828 0 0 0 0 596628886.7713623 353977903.14312744 0 353977903.14312744 1676676342.6044464 0 0 0 0 1143222778.4242554 307426503.78783417 0 307426503.78783417 1414175024.1184235 0 0 0 0 1153500509.1360688 891161332.99407279 0 891161332.99407279 1811478313.575592 0 0 0 0 447830058.0581665 1157760696.0992737 0 1157760696.0992737 2808015807.3610382 0 0 0 0 3343360024.5833893 2002307338.8235874 0 2002307338.8235874 1158284150.214447 0 0 0 0 -464001737.55895996 31806254.427398682 0 31806254.427398682 3478992900.860054 0 0 0 0 3973214.5524187535 2088994.3219344094 0 2088994.3219344094 3356780.0084861144 0 0 0 0 -138508569.58850098 150689599.59100342 0 150689599.59100342 -639371384.68759155 0 0 0 0 -107492228.31922913 449614314.05452347 0 449614314.05452347 2381171095.6098022 0 0 0 0 155128866.25061035 196206208.44013977 0 196206208.44013977 -768854414.82801819 0 0 0 0 158460209.16745663 64576353.202828884 0 64576353.202828884 -256133238.64022827 0 0 0 0 371323267.62896729 140317548.03373718 0 140317548.03373718 1583442079.7376785 0 0 0 0 6424123.3650923073 6406377.917220518 0 6406377.917220518 4489102.6684829509 0 0 0 0 264536.53704833984 99524176.895584106 0 99524176.895584106 -123065662.53690338 0 0 0 0 -16754075.572143555 27344769.236602783 0 27344769.236602783 1554970448.0348816 0 0 0 0 -296999557.40283203 -236953543.20391846 0 -236953543.20391846 1370788550.940979 0 0 0 0 319005140.79516602 161801794.76332092 0 161801794.76332092 1580085347.2748413 0 0 0 0 615810134.73284912 157872676.55342102 0 157872676.55342102 1507655575.4377136 0 0 0 0 316274735.12817383 20244711.859954834 0 20244711.859954834 1568362933.5881042 0 0 0 0 -59695599.83984375 -93357186.74055481 0 -93357186.74055481 1547142281.2416382 0 0 0 0 612337995.65441895 425913430.12098694 0 425913430.12098694 1969941864.2949371 0 0 0 0 420117118.60406494 128388844.60542297 0 128388844.60542297 1586281219.6130219 0 0 0 0 -40317331.13659668 -384216140.6771698 0 -384216140.6771698 1526418571.8734436 0 0 0 0 -12527022.119971111 267678.50842178613 0 267678.50842178613 8086773.3702416718 0 0 0 0 -10662192.086791992 -383536427.56732178 0 -383536427.56732178 1297152322.1860657 0 0 0 0 34245451.571228027 -238215756.27400208 0 -238215756.27400208 1247572813.2641907 0 0 0 0 31239654.103027344 -247910335.00704956 0 -247910335.00704956 1392474837.0354843 0 0 0 0 66582600.18560791 -282366021.95925903 0 -282366021.95925903 1423688800.4187927 0 0 0 0 189783268.6307373 32619405.833251953 0 32619405.833251953 1603703603.3207397 0 0 0 0 124632984.14492798 -285173033.38036728 0 -285173033.38036728 1388824659.1101074 0 0 0 0 80624379.070678711 -311803747.375 0 -311803747.375 1427557864.9530487 0 0 0 0 81767027.325073242 -314438960.943573 0 -314438960.943573 1365169699.3515625 0 0 0 0 116598958.44836426 -215590061.31838989 0 -215590061.31838989 1415951708.2322693 0 0 0 0 -26216191.922485352 -123320079.43228149 0 -123320079.43228149 1563740992.1271362 0 0 0 0 -467616407.94287109 -327313049.48208618 0 -327313049.48208618 1469876780.9248352 0 0 0 0 -48328949.794921875 -442799051.40817261 0 -442799051.40817261 1294598568.9502563 0 0 0 0 333746868.72265625 -200405480.14257812 0 -200405480.14257812 1156354653.3085938 0 0 0 0 -94170023.180297852 -679588980.09951782 0 -679588980.09951782 1066822895.751709 0 0 0 0 88998027.448730469 -395497636.55554199 0 -395497636.55554199 1310100561.134552 0 0 0 0 138780.91613911092 139404.57792175561 0 139404.57792175561 -323889.73555153608 0 0 0 0 441087742.68164062 -444222086.36114502 0 -444222086.36114502 900942183.12985229 0 0 0 0 13151335.091308594 -317701574.87168884 0 -317701574.87168884 1422812147.3926392 0 0 0 0 57892314.691467285 -478874172.41404724 0 -478874172.41404724 1407522230.288456 0 0 0 0 -88896340.275512695 -341073715.67312622 0 -341073715.67312622 1382093596.5881424 0 0 0 0 299540595.43817139 10724888.497520447 0 10724888.497520447 1167688789.5984268 0 0 0 0 199849155.42666626 -448681309.9526825 0 -448681309.9526825 1263782050.2207947 0 0 0 0 59915492.74382019 -76606920.506092072 0 -76606920.506092072 530105846.21600342 0 0 0 0 21857770.189910889 -340932341.08856201 0 -340932341.08856201 1112477378.3256683 0 0 0 0 111376546.32629395 -336224788.65490723 0 -336224788.65490723 1158939983.4887085 0 0 0 0 -234119834.22723389 -229681102.56295776 0 -229681102.56295776 1209069677.7394943 0 0 0 0 -339426802.06441116 -21148823.51989603 0 -21148823.51989603 1042607196.5891418 0 0 0 0 -265878194.45466614 402616024.78163958 0 402616024.78163958 519055443.3863678 0 0 0 0 100288895.38793945 -204658858.20821381 0 -204658858.20821381 883114353.7555542 0 0 0 0 542631868.96795654 545235887.60695648 0 545235887.60695648 498076257.81517792 0 0 0 0 251585652.36175537 88601680.923797607 0 88601680.923797607 1665103169.5211945 0 0 0 0 296407350.97171021 73586811.651268005 0 73586811.651268005 1255256297.6004448 0 0 0 0 529206358.37213135 661528275.32352448 0 661528275.32352448 1460344117.1750584 0 0 0 0 773646044.88089371 1117434204.0824566 0 1117434204.0824566 -647507357.74078369 0 0 0 0 708838168.67703247 985889624.55356598 0 985889624.55356598 -451322510.12405014 0 0 0 0 126347873.70162964 1382699451.8485947 0 1382699451.8485947 -270288307.47979736 0 0 0 0 -149306830.63208008 121729138.33734131 0 121729138.33734131 238869697.68132782 0 0 0 0 -1417637027.7320404 -506737226.71269226 0 -506737226.71269226 438612984.35789871 0 0 0 0 -642293364.41333389 1360545918.7866974 0 1360545918.7866974 -782132648.12864685 0 0 0 0 -668967.05024011433 583464.63045280613 0 583464.63045280613 307797.58937237039 0 0 0 0 29061047.99937439 1823223757.3230209 0 1823223757.3230209 -2604467137.4872131 0 0 0 0 -6546986.6615970731 1193501.8413268104 0 1193501.8413268104 14943.988799991086 0 0 0 0 -59949856.461528778 822271866.75590324 0 822271866.75590324 -3510982677.6203003 0 0 0 0 -924442039.98188782 1939092359.6113091 0 1939092359.6113091 -1399967377.9234772 0 0 0 0 -369867627.86096191 858934243.79252625 0 858934243.79252625 -461032493.2243042 0 0 0 0 -1870911.868434608 1984030.2177025266 0 1984030.2177025266 1713159.7659357302 0 0 0 0 19144255.442901611 -44152244.591812134 0 -44152244.591812134 -377151138.87086105 0 0 0 0 -699701880.24365234 15990954.669593811 0 15990954.669593811 523283426.36386108 0 0 0 0 -80417258.299247742 98435991.041002274 0 98435991.041002274 511922743.56178284 0 0 0 0 -108934027.22125244 -283739532.35102844 0 -283739532.35102844 992458673.45294189 0 0 0 0 -285155326.53410339 -52241170.638446808 0 -52241170.638446808 1336694186.666626 0 0 0 0 -34913578.872924805 154059851.93969727 0 154059851.93969727 1444786475.8114853 0 0 0 0 -119296333.94139099 -42908607.084396362 0 -42908607.084396362 209602814.09355164 0 0 0 0 -13601747.361114502 380338418.59323883 0 380338418.59323883 705880694.43922424 0 0 0 0 34370886.502441406 -479876625.76299286 0 -479876625.76299286 1231970046.5050964 0 0 0 0 -1516803.6290090531 -600624.0823914744 0 -600624.0823914744 -65998.071621078998 0 0 0 0 310245994.57324219 2252823.6659469604 0 2252823.6659469604 506306489.91868591 0 0 0 0 -312693943.98348999 342695616.41950989 0 342695616.41950989 -234258142.56105804 0 0 0 0 -385663108.35025024 -238662941.69190216 0 -238662941.69190216 1787797462.7900162 0 0 0 0 -11265446.56596072 -2125690.2459542863 0 -2125690.2459542863 4064928.4717328493 0 0 0 0 -1224054705.4602051 -182586955.2923584 0 -182586955.2923584 516354924.96270752 0 0 0 0 -818071393.88165283 123380924.16553497 0 123380924.16553497 101631127.23452759 0 0 0 0 -408346156.70721436 -785296128.93740845 0 -785296128.93740845 -61660331.094268799 0 0 0 0 -191650251.47201538 -16242589.686004639 0 -16242589.686004639 72208326.060096741 0 0 0 0 -94290624.024429321 36293688.109306335 0 36293688.109306335 52157561.828804016 0 0 0 0 -294271498.44217682 134426768.79707336 0 134426768.79707336 79255619.876159668 0 0 0 0 -69748995.681488037 161135611.58156586 0 161135611.58156586 -146283768.40255356 0 0 0 0 -23620407.272399902 57026633.141708374 0 57026633.141708374 80121144.710678101 0 0 0 0 -4130334.240447998 224738971.97217941 0 224738971.97217941 64388285.356506348 0 0 0 0 -92390582.85748291 141778059.1408844 0 141778059.1408844 2841872.1056518555 0 0 0 0 -12237745.778320312 75772524.456504822 0 75772524.456504822 9666468.2561149597 0 0 0 0 -91590467.281555176 121603230.02832031 0 121603230.02832031 78351614.899164677 0 0 0 0 -57110196.626586914 49953044.98128891 0 49953044.98128891 22249893.21231842 0 0 0 0 -11191108.00604248 40531035.092765808 0 40531035.092765808 17378696.748291016 0 0 0 0 -41604612.972686768 10172141.859443665 0 10172141.859443665 70476099.195181608 0 0 0 0 -23398485.31905365 37221845.3408041 0 37221845.3408041 19389844.467124939 0 0 0 0 -686401.79513433576 11948169.073776245 0 11948169.073776245 25510619.598361015 0 0 0 0 -144954450.68481445 52925817.438249588 0 52925817.438249588 72982235.106048584 0 0 0 0 -19182713.088775635 11580696.129398346 0 11580696.129398346 47389435.225875854 0 0 0 0 23229649.777038574 57648423.937480927 0 57648423.937480927 70564070.280838013 0 0 0 0 -721840.6826171875 18142609.686460495 0 18142609.686460495 15359689.065574646 0 0 0 0 -8498558.6112060547 43499213.222265244 0 43499213.222265244 26699887.743125916 0 0 0 0 -3366774.8483917564 14995229.174335405 0 14995229.174335405 2784703.0753163919 0 0 0 0 -161616122.25384521 28746900.940631866 0 28746900.940631866 33614383.997566223 0 0 0 0 -103718370.2203064 40896775.240158081 0 40896775.240158081 27780996.045967102 0 0 0 0 -12162961.701217651 -211357196.10484314 0 -211357196.10484314 -20317680.419006348 0 0 0 0 -716393.09199436009 13873625.46885445 0 13873625.46885445 25968634.146052927 0 0 0 0 48450146.102111816 -50421326.151870728 0 -50421326.151870728 47488126.84387207 0 0 0 0 129595.96836133301 2382386.6737139747 0 2382386.6737139747 3761028.4179940671 0 0 0 0 354819261.2097168 259896822.40744019 0 259896822.40744019 178806482.2010498 0 0 0 0 372347568.09274292 131981578.40769958 0 131981578.40769958 3848839.6025257111 0 0 0 0 364460242.46069336 -36793645.404632568 0 -36793645.404632568 -88197728.614017487 0 0 0 0 -113229160.85351562 -302100042.74443054 0 -302100042.74443054 -149503875.68789673 0 0 0 0 354879344.66900635 -681038666.94796753 0 -681038666.94796753 -184465614.20690918 0 0 0 0 847431929.98754883 -247084612.00039673 0 -247084612.00039673 -274242667.81988525 0 0 0 0 6833191.5312412605 17408366.475893296 0 17408366.475893296 11668423.061739475 0 0 0 0 12471641.354995728 21777192.42546463 0 21777192.42546463 30347560.862808228 0 0 0 0 -30882916.738250732 24990549.671897888 0 24990549.671897888 -14531501.40296936 0 0 0 0 -39546351.324836731 80145239.811210632 0 80145239.811210632 -68864633.47265625 0 0 0 0 -76155277.010070801 148020517.21302795 0 148020517.21302795 -11853164.982757568 0 0 0 0 -176643420.66156006 202022284.82265472 0 202022284.82265472 29111999.472366333 0 0 0 0 -172355046.63641357 164526549.40433502 0 164526549.40433502 9501623.544418335 0 0 0 0 -133945074.47265625 97504622.311035156 0 97504622.311035156 13321646.80759716 0 0 0 0 -72027421.616455078 90325391.883590698 0 90325391.883590698 14010850.341215134 0 0 0 0 -37091927.102111816 85837705.978424072 0 85837705.978424072 -91669047.554992676 0 0 0 0 -39139583.330932617 119857928.17726135 0 119857928.17726135 -128074870.8074913 0 0 0 0 -85563608.827697754 123872223.63297272 0 123872223.63297272 -59896570.9425354 0 0 0 0 17296163.615661621 161221380.76922607 0 161221380.76922607 -100191713.65559387 0 0 0 0 -110347056.29486084 207780254.28294373 0 207780254.28294373 -101832024.64770508 0 0 0 0 -161444726.1444397 457136836.84931946 0 457136836.84931946 -277557439.73904419 0 0 0 0 -52937724.174194336 287823934.27078247 0 287823934.27078247 -263583569.87064123 0 0 0 0 -140682983.73558426 355983855.72328568 0 355983855.72328568 86236352.262718201 0 0 0 0 -85459914.249145508 321960917.1618309 0 321960917.1618309 -57662873.756408691 0 0 0 0 -118028032.09295654 258099491.49305725 0 258099491.49305725 -478848.83233642578 0 0 0 0 -111969513.70495605 246518760.74238586 0 246518760.74238586 15104372.875640869 0 0 0 0 -174431868.61227417 296640992.51267242 0 296640992.51267242 55242176.981376648 0 0 0 0 -186142373.20956421 243906964.01758575 0 243906964.01758575 145624512.66220856 0 0 0 0 -140578159.23890686 177167570.90852737 0 177167570.90852737 83947290.279525757 0 0 0 0 -233994504.19396973 156492254.73715973 0 156492254.73715973 142127362.33418274 0 0 0 0 -161159544.24740601 39882841.868598938 0 39882841.868598938 104868749.58411026 0 0 0 0 -234965689.30140781 89578420.094013691 0 89578420.094013691 71408811.565231323 0 0 0 0 -135146044.09857178 108233647.30879974 0 108233647.30879974 67924252.832145691 0 0 0 0 -513418456.05984497 -138510072.94784546 0 -138510072.94784546 24243886.449607849 0 0 0 0 -1766604.1338602901 7733110.5831822008 0 7733110.5831822008 -55636.751945685595 0 0 0 0 117373041.99067688 122665107.462286 0 122665107.462286 -12246791.319595337 0 0 0 0 -42495399.386199951 15102572.141036987 0 15102572.141036987 52371011.925632477 0 0 0 0 -619840.30181796849 2336113.4253906757 0 2336113.4253906757 -178271.45977302641 0 0 0 0 -1092649389.6671448 -824589338.38165665 0 -824589338.38165665 68548295.135778904 0 0 0 0 -458945075.29284668 8480199.7911567688 0 8480199.7911567688 -25384427.596432209 0 0 0 0 -437628318.93007278 165701431.94927597 0 165701431.94927597 211666968.06033325 0 0 0 0 286253894.9793396 407817002.51158905 0 407817002.51158905 147810296.44880295 0 0 0 0 -412826961.79053688 386649089.18474531 0 386649089.18474531 531902062.0086441 0 0 0 0 752758079.1517334 -120766336.46905899 0 -120766336.46905899 195581912.78527641 0 0 0 0 844955020.38406372 -981922419.88556671 0 -981922419.88556671 1272489327.5190458 0 0 0 0 3593649.1688526571 -319260.4640436545 0 -319260.4640436545 -1303239.1274478696 0 0 0 0 142209075.02570343 102364220.19918108 0 102364220.19918108 979171083.15622711 0 0 0 0 4771772.8607330322 584230323.97039795 0 584230323.97039795 52055695.290985107 0 0 0 0 243108814.05383301 61610071.486492157 0 61610071.486492157 69643864.762413859 0 0 0 0 332950.63687133789 296558811.9601059 0 296558811.9601059 265672927.42546082 0 0 0 0 -4074334.6599008441 -7498.5534778535366 0 -7498.5534778535366 3864140.0591980964 0 0 0 0 227194626.77011108 120103986.64610291 0 120103986.64610291 133283565.4909668 0 0 0 0 -146132028.78618765 288708985.61811471 0 288708985.61811471 120066915.11232758 0 0 0 0 -2301774.1320442259 107320.81159634888 0 107320.81159634888 1916118.5119063258 0 0 0 0 -167378338.20466614 268767530.83106136 0 268767530.83106136 164918461.59257507 0 0 0 0 96147716.145019531 360723632.8022728 0 360723632.8022728 -536558220.61003685 0 0 0 0 181201626.32042694 -90768473.217699051 0 -90768473.217699051 -492195496.39077759 0 0 0 0 -351518.60314941406 261599799.99313354 0 261599799.99313354 -443457613.83901978 0 0 0 0 -67453654.200775146 -58099145.095973969 0 -58099145.095973969 124552768.51425934 0 0 0 0 -26062881.198883057 -317604175.58671951 0 -317604175.58671951 372329881.74399376 0 0 0 0 4203470.127656132 -2378885.9950113408 0 -2378885.9950113408 -3413731.0464251544 0 0 0 0 123340566.49871826 -110048140.58159256 0 -110048140.58159256 310325388.62402344 0 0 0 0 -180326.73526000977 -25427985.147148132 0 -25427985.147148132 62744967.536171913 0 0 0 0 -54223360.242614746 3279581.3939247131 0 3279581.3939247131 74272485.536663055 0 0 0 0 2139706.7707155496 253862.86097814888 0 253862.86097814888 -1957396.4309412707 0 0 0 0 -39720720.277282715 40622094.88508606 0 40622094.88508606 9695180.5636558533 0 0 0 0 -52324423.441238403 16143599.3126688 0 16143599.3126688 -37442419.965190887 0 0 0 0 6407660.2593231201 -94933563.040203094 0 -94933563.040203094 141963441.2547493 0 0 0 0 4061648.1275331378 435759.56298665702 0 435759.56298665702 -3858040.0286849514 0 0 0 0 439527.67001342773 163022420.18785286 0 163022420.18785286 136086791.99808502 0 0 0 0 -66926051.891586304 57967256.96919632 0 57967256.96919632 -121613940.33746529 0 0 0 0 139085.96196576051 175459953.02538529 0 175459953.02538529 46025781.696681976 0 0 0 0 -182447.57359588789 135182042.77415484 0 135182042.77415484 -159900122.45167542 0 0 0 0 -73466171.32566452 205971803.71302867 0 205971803.71302867 -138956975.97823715 0 0 0 0 3294834.4987135082 2068780.3923526779 0 2068780.3923526779 2620156.5350841768 0 0 0 0 286055651.73880744 449791935.12881947 0 449791935.12881947 75813223.893531799 0 0 0 0 238877241.27615356 -1909375560.6407471 0 -1909375560.6407471 825230396.47151947 0 0 0 0 -671185582.65490723 432877364.31991577 0 432877364.31991577 542804199.44246674 0 0 0 0 -172218981.7684021 217028660.73584747 0 217028660.73584747 -32040608.742757797 0 0 0 0 -118870972.66566467 -618570023.51385117 0 -618570023.51385117 1217924636.3084431 0 0 0 0 4505285.6186222434 6736134.2123542465 0 6736134.2123542465 8300253.3983276598 0 0 0 0 -123576431.63018799 48813412.678415298 0 48813412.678415298 2752615.418926239 0 0 0 0 -120301047.82980347 167419380.2355442 0 167419380.2355442 -87655019.628353119 0 0 0 0 -10150287.534942627 24220597.570020676 0 24220597.570020676 -12854726.054489136 0 0 0 0 -78463103.272598267 15394566.138482094 0 15394566.138482094 75260365.387798309 0 0 0 0 -12638910.693145752 60915758.805997849 0 60915758.805997849 102717634.96581078 0 0 0 0 -9138361.5755615234 45338228.924757004 0 45338228.924757004 -57460235.741092205 0 0 0 0 -108297505.1031189 97667100.042470455 0 97667100.042470455 21584449.873327255 0 0 0 0 -5372563.1937255859 -152762097.1558609 0 -152762097.1558609 468262247.05022812 0 0 0 0 7566336.3766322136 12758063.288100418 0 12758063.288100418 13574118.388635784 0 0 0 0 -39941044.018486023 -65962348.650760651 0 -65962348.650760651 259186422.87350464 0 0 0 0 -43063231.978591919 -1486804.6791038513 0 -1486804.6791038513 434245648.93498087 0 0 0 0 -1374087.8475870341 1502048.4858485712 0 1502048.4858485712 2004657.2799759279 0 0 0 0 43378055.368658066 29990635.309784412 0 29990635.309784412 204570074.2375412 0 0 0 0 -40222900.304420471 9669528.7452068329 0 9669528.7452068329 114010049.51248169 0 0 0 0 2632411.6226654053 2775647.7255592346 0 2775647.7255592346 53146765.885381699 0 0 0 0 3780958.8957462311 13309257.253480434 0 13309257.253480434 36902280.705039978 0 0 0 0 -3841599.5711117089 3217557.4423979037 0 3217557.4423979037 6210408.4751199605 0 0 0 0 -14299370.526306152 2067495.9989643097 0 2067495.9989643097 76603639.676418304 0 0 0 0 -23414743.580917358 -29236971.214640617 0 -29236971.214640617 190294649.27658081 0 0 0 0 -21889719.847076416 13318223.270450592 0 13318223.270450592 36561976.381153107 0 0 0 0 78095879.84463501 -36408024.599445343 0 -36408024.599445343 54719261.137266636 0 0 0 0 -5678044.0681014508 5719097.5302724317 0 5719097.5302724317 12117065.29419848 0 0 0 0 -831038.16488647461 6309856.1250324249 0 6309856.1250324249 37939621.026817322 0 0 0 0 -26469821.894470215 4517810.6538925171 0 4517810.6538925171 42436181.050762177 0 0 0 0 -4113631.5852508545 32134393.603858948 0 32134393.603858948 13346730.482189178 0 0 0 0 -21594196.929321289 16554152.40708065 0 16554152.40708065 40921574.867034912 0 0 0 0 -2140759.5145490915 11308506.440934502 0 11308506.440934502 24064998.885041203 0 0 0 0 -4907643.1506614685 38117719.538424492 0 38117719.538424492 6656319.962890625 0 0 0 0 36562492.928359985 -7697056.3605041504 0 -7697056.3605041504 15885085.920639038 0 0 0 0 -19654911.039703369 59687129.577758789 0 59687129.577758789 -496873236.48135376 0 0 0 0 -14144437.915919244 4314454.3014430553 0 4314454.3014430553 26814015.281571802 0 0 0 0 -31119874.78314209 -1966061.9859571457 0 -1966061.9859571457 371826208.85807037 0 0 0 0 -1427682.7072655857 1887330.7438502982 0 1887330.7438502982 4248929.8745965101 0 0 0 0 -8752137.8214836121 -60264479.477789164 0 -60264479.477789164 347236156.90621948 0 0 0 0 119841579.04596901 -38075414.6302104 0 -38075414.6302104 303518853.3070755 0 0 0 0 26228110.467443943 11944887.610396862 0 11944887.610396862 346645351.48790741 0 0 0 0 -5648164.1871032715 -40706499.594259739 0 -40706499.594259739 718163617.39277649 0 0 0 0 146729082.48748779 -212792205.44062042 0 -212792205.44062042 427654090.03530884 0 0 0 0 21011863.277649879 -147137365.79803622 0 -147137365.79803622 440018044.15157318 0 0 0 0 -44920548.180450439 -92535516.36217308 0 -92535516.36217308 416849185.31486511 0 0 0 0 -55410437.330627441 -21763904.302158356 0 -21763904.302158356 420895150.04410839 0 0 0 0 -5503920.3416519165 -54577637.052872181 0 -54577637.052872181 424070501.26931763 0 0 0 0 62791934.048950195 197242853.49075317 0 197242853.49075317 324371110.70555496 0 0 0 0 2063297.1557972357 1764949.3652673811 0 1764949.3652673811 2019148.8465734124 0 0 0 0 -181768341.1882782 -466759293.93888855 0 -466759293.93888855 253323847.71339417 0 0 0 0 62218318.129730225 209107081.596138 0 209107081.596138 589045400.07606125 0 0 0 0 54686422.992523193 250252590.49864197 0 250252590.49864197 -16003753.011756897 0 0 0 0 -174703889.11315918 130220704.29330444 0 130220704.29330444 206998657.58964539 0 0 0 0 -79815608.304992676 183186545.83706665 0 183186545.83706665 236058483.35703278 0 0 0 0 16541768.861801147 11553917.875217438 0 11553917.875217438 77323924.346466064 0 0 0 0 -247216249.05085754 6934119.5775566101 0 6934119.5775566101 23864212.70790863 0 0 0 0 2220180.2316047922 7639397.9730788246 0 7639397.9730788246 10602566.124235451 0 0 0 0 -4053818.4968683869 16991606.078280244 0 16991606.078280244 23156795.638546396 0 0 0 0 -2157958.5700378418 22614958.522184372 0 22614958.522184372 -201889.46463775635 0 0 0 0 -65994281.699207306 125343453.82831287 0 125343453.82831287 -45303950.380088806 0 0 0 0 -66891790.783843994 129381388.51211548 0 129381388.51211548 37561042.694162369 0 0 0 0 -7569800.8552856445 24272066.659407139 0 24272066.659407139 2858391.403339386 0 0 0 0 -7684013.7553863525 21984725.719249725 0 21984725.719249725 3167322.3632087708 0 0 0 0 11208252.47139737 23531162.363376442 0 23531162.363376442 7231033.7773379609 0 0 0 0 18565888.190307617 48014963.800024986 0 48014963.800024986 13500866.488708258 0 0 0 0 -12683506.286956787 76649506.95981288 0 76649506.95981288 -54424932.954195023 0 0 0 0 26338002.285766602 58848655.946148396 0 58848655.946148396 -67204562.28979969 0 0 0 0 -619210.08438110352 15584345.520730019 0 15584345.520730019 5235925.3614883423 0 0 0 0 2043432.567276001 18528718.916471481 0 18528718.916471481 -131248.22454833984 0 0 0 0 13763519.661100656 13602670.077804765 0 13602670.077804765 689651.01664851606 0 0 0 0 8191928.2080078125 4037616.0649554729 0 4037616.0649554729 -32762798.868728876 0 0 0 0 31446858.894622803 42522219.13445729 0 42522219.13445729 -118768111.38164902 0 0 0 0 -54071129.847473145 94643238.080567837 0 94643238.080567837 -100313254.49740028 0 0 0 0 -1570956.4663781971 2419907.0093322098 0 2419907.0093322098 5486053.6233563162 0 0 0 0 -55369861.397186279 53538291.261445999 0 53538291.261445999 -12265321.491448402 0 0 0 0 -114228319.44606018 83740901.071620703 0 83740901.071620703 -21240028.392992973 0 0 0 0 601405.91313175857 2460214.4919833913 0 2460214.4919833913 2929572.6118331263 0 0 0 0 -25322847.25982666 -6818599.0487370491 0 -6818599.0487370491 57264137.895715714 0 0 0 0 -4284193.4376831055 2242613.0860958099 0 2242613.0860958099 43523022.773979187 0 0 0 0 2209119.0489958972 17144883.304042265 0 17144883.304042265 18172256.272346009 0 0 0 0 -2980115.6150588989 19199770.563948631 0 19199770.563948631 3850056.8073997498 0 0 0 0 -15147101.161804199 12658766.300423622 0 12658766.300423622 31715307.823188782 0 0 0 0 28556213.646560669 67815085.748008728 0 67815085.748008728 141014391.64997673 0 0 0 0 9688367.2192832381 19473893.097612411 0 19473893.097612411 18418135.179573275 0 0 0 0 -52103450.845611572 47857062.432403564 0 47857062.432403564 22377554.104011536 0 0 0 0 -50023840.394263268 6739685.609988451 0 6739685.609988451 57372913.257957458 0 0 0 0 -4947337.7082519531 12263290.963609695 0 12263290.963609695 19714639.581444889 0 0 0 0 -53795192.946243286 28948188.086018562 0 28948188.086018562 98444781.87676239 0 0 0 0 29798326.675323486 -110187832.7147913 0 -110187832.7147913 236716738.27772903 0 0 0 0 -55328863.295665741 57855845.03950274 0 57855845.03950274 -37832057.444796562 0 0 0 0 3238625.5972839296 -798212.05993122607 0 -798212.05993122607 -753285.94826924615 0 0 0 0 -5009779.0255432129 -54064108.139596939 0 -54064108.139596939 125860277.89415836 0 0 0 0 -43636945.561477661 106468375.39604378 0 106468375.39604378 -96847524.60101366 0 0 0 0 -58737166.888553619 76939073.13198173 0 76939073.13198173 -47464623.395072937 0 0 0 0 -24164179.715637207 80251651.871515751 0 80251651.871515751 -98484955.121712208 0 0 0 0 -8312409.1025238037 52975070.177581787 0 52975070.177581787 -57878007.994719505 0 0 0 0 2769163.3776011318 -3272053.43570536 0 -3272053.43570536 -2568952.3507156959 0 0 0 0 -31187291.410369873 26704309.183707297 0 26704309.183707297 42033800.291107655 0 0 0 0 -6695950.8884735107 59056659.26004982 0 59056659.26004982 -44352628.968061447 0 0 0 0 -28260990.938140869 4136118.601442337 0 4136118.601442337 137944474.33715582 0 0 0 0 37678.004318237305 48282405.428854465 0 48282405.428854465 -84522013.499401093 0 0 0 0 30632951.841094971 62520241.861742973 0 62520241.861742973 -153403832.85705924 0 0 0 0 1552771.2372147292 -1889086.514917383 0 -1889086.514917383 -1470171.2588601862 0 0 0 0 -37072743.089233398 76116276.860143661 0 76116276.860143661 8784048.4915466309 0 0 0 0 43376.899353027344 13635374.628325939 0 13635374.628325939 88634695.691473961 0 0 0 0 11446580.697674751 96598393.0309273 0 96598393.0309273 -42726244.81529808 0 0 0 0 -26364729.480255127 43900230.825224876 0 43900230.825224876 -83353711.805679321 0 0 0 0 -17035504.487792969 109919895.39885998 0 109919895.39885998 -154761316.60932159 0 0 0 0 7611468.6428222656 -77110600.75522995 0 -77110600.75522995 322115301.33688354 0 0 0 0 4171293.2834085077 -1839903.1521947533 0 -1839903.1521947533 -2667009.1121004485 0 0 0 0 -35918.962269966229 81103857.429702669 0 81103857.429702669 -164665135.85945892 0 0 0 0 67091290.550170898 23553931.424350739 0 23553931.424350739 -77188749.272378922 0 0 0 0 -80814361.273994446 -26152798.657676697 0 -26152798.657676697 -3063781.9581680298 0 0 0 0 68679397.661584854 70725634.325039983 0 70725634.325039983 1193350.1465454102 0 0 0 0 -10496445.256578498 9022514.552180253 0 9022514.552180253 -1420402.1624665484 0 0 0 0 8433890.8145141602 -1873213.9899978638 0 -1873213.9899978638 10534725.147318363 0 0 0 0 28538000.03956604 -17166224.314739227 0 -17166224.314739227 -19520187.738792419 0 0 0 0 -9209660.8625793457 -19240459.357265472 0 -19240459.357265472 7038449.2867851257 0 0 0 0 -6777659.7417602539 -47062777.480545044 0 -47062777.480545044 -43517007.630161285 0 0 0 0 -51855957.26953125 -42621232.612873077 0 -42621232.612873077 -5559798.9629058838 0 0 0 0 -936892.48399549723 -655765.80610761046 0 -655765.80610761046 518697.25283480063 0 0 0 0 -31373397.166301727 86196183.19999814 0 86196183.19999814 -174141416.72599792 0 0 0 0 -474327640.00244904 94999208.08316803 0 94999208.08316803 66786520.152366638 0 0 0 0 -315828641.53437805 192990601.43951797 0 192990601.43951797 -67562712.578689575 0 0 0 0 -284127030.51982117 -141749884.21369553 0 -141749884.21369553 12284131.704940796 0 0 0 0 -611672829.29045105 178405615.85955048 0 178405615.85955048 61152544.343675613 0 0 0 0 -944310811.86572838 660025779.21231413 0 660025779.21231413 -338029613.25205231 0 0 0 0 -424703070.50238037 226965698.23410416 0 226965698.23410416 -130929554.83554077 0 0 0 0 -1043365199.4200592 92477993.272871017 0 92477993.272871017 98905125.267860413 0 0 0 0 591043385.2175827 170941775.47120857 0 170941775.47120857 475536071.94439697 0 0 0 0 710503929.95187378 884777651.12643433 0 884777651.12643433 749758010.08797455 0 0 0 0 -9333274.7414171472 8819252.2485807315 0 8819252.2485807315 -3081704.4968952611 0 0 0 0 -39786455.553283691 121861660.82595634 0 121861660.82595634 -894421.20152282715 0 0 0 0 547768364.52721024 104317904.61788034 0 104317904.61788034 182598112.618927 0 0 0 0 -100243030.05354309 261012681.84889603 0 261012681.84889603 540347670.07389641 0 0 0 0 -150443439.92988014 10802951.020144463 0 10802951.020144463 129789437.61782837 0 0 0 0 -689520292.27760315 63855639.662742615 0 63855639.662742615 288791473.33150101 0 0 0 0 249716418.01812744 374127127.18254852 0 374127127.18254852 -467185377.3724823 0 0 0 0 87447778.756225586 376593478.02404404 0 376593478.02404404 541896494.52212906 0 0 0 0 -3941020.1499368325 8338890.1936690584 0 8338890.1936690584 6422176.1469829008 0 0 0 0 -100190922.94464111 24297699.792526245 0 24297699.792526245 19344477.148223877 0 0 0 0 -106291126.17346191 31098270.262893677 0 31098270.262893677 53277937.073062897 0 0 0 0 -90532724.121246338 54497018.832580566 0 54497018.832580566 38549318.909667969 0 0 0 0 -409852647.75357819 346634740.13523865 0 346634740.13523865 -185897717.98789978 0 0 0 0 -1479525.9124408662 -734662.14291769266 0 -734662.14291769266 1761962.3114114767 0 0 0 0 -5312681.2051379085 2146048.1898199096 0 2146048.1898199096 7287520.0339521728 0 0 0 0 -90786895.122070312 41545067.294441223 0 41545067.294441223 8996679.4708518982 0 0 0 0 -75402564.384246826 -473653.57312774658 0 -473653.57312774658 29592662.675823212 0 0 0 0 270027.25388019532 8546033.9451438524 0 8546033.9451438524 13334458.675426722 0 0 0 0 3938795.877532959 -61601217.467025757 0 -61601217.467025757 -73969915.953039169 0 0 0 0 188817485.02371216 6667239.4894256592 0 6667239.4894256592 -71181616.88111496 0 0 0 0 -13077761.328407288 -49058571.646133423 0 -49058571.646133423 -23155616.424743652 0 0 0 0 353260198.2545166 286564936.77355194 0 286564936.77355194 157377165.98265839 0 0 0 0 -265482532.96012878 265210843.90616989 0 265210843.90616989 417311055.5639801 0 0 0 0 191679991.39375305 518282009.74744415 0 518282009.74744415 398410673.35458374 0 0 0 0 322485096.89825439 735992539.78614044 0 735992539.78614044 760765600.16549683 0 0 0 0 477914.51778804511 2860937.678731434 0 2860937.678731434 4551557.1661517695 0 0 0 0 74351128.802062988 -238902050.7346611 0 -238902050.7346611 371564369.97169685 0 0 0 0 373682792.47148895 -870142541.19692898 0 -870142541.19692898 1181389090.8542862 0 0 0 0 804016450.10519409 770781521.39002228 0 770781521.39002228 158011719.42665863 0 0 0 0 -1099760789.2383118 185534731.39755249 0 185534731.39755249 354535569.96134186 0 0 0 0 -141441077.34573364 325350279.12918091 0 325350279.12918091 326105158.86741543 0 0 0 0 -194335380.29931641 385787182.53110886 0 385787182.53110886 567830394.28347874 0 0 0 0 -359746190.4982605 335765512.56658173 0 335765512.56658173 1090091718.0250092 0 0 0 0 -10991730.211451322 8280057.9570579082 0 8280057.9570579082 1339465.6263652295 0 0 0 0 -312221853.34136963 304374208.1409874 0 304374208.1409874 575924356.70314026 0 0 0 0 663569.75252282619 3334141.6989263259 0 3334141.6989263259 -532744.23809653521 0 0 0 0 12431281.321655273 28709591.277305603 0 28709591.277305603 21753058.22624588 0 0 0 0 33975299.087905884 17234539.393318176 0 17234539.393318176 -9647538.3531112671 0 0 0 0 -3879140.5416250378 3224650.258242134 0 3224650.258242134 747066.43144098669 0 0 0 0 -267394607.16830444 271709936.07364845 0 271709936.07364845 536113662.07119751 0 0 0 0 -112938938.06335449 51607408.543281555 0 51607408.543281555 90019872.524658203 0 0 0 0 -129225.32429504395 2538626.4549789429 0 2538626.4549789429 1566999.8731765747 0 0 0 0 -4344038.2237854004 9151453.4903945923 0 9151453.4903945923 5500559.4752349854 0 0 0 0 -2096320.0785870403 4461468.0052995421 0 4461468.0052995421 280520.32910485566 0 0 0 0 -13940297.014221191 4559714.4358139038 0 4559714.4358139038 18241665.416297913 0 0 0 0 -3295657.4507378936 6032944.9620223865 0 6032944.9620223865 2323152.4051815011 0 0 0 0 -2787678.7110900879 24288533.115203857 0 24288533.115203857 267741.63068199158 0 0 0 0 16553275.147338867 -2196235.666891098 0 -2196235.666891098 -14521747.775344849 0 0 0 0 -601955645.83282471 395824365.6957016 0 395824365.6957016 1830049648.2218475 0 0 0 0 12921446.786956787 383650981.1550293 0 383650981.1550293 291276946.91939163 0 0 0 0 11198614.714782715 33314356.072879791 0 33314356.072879791 398951611.67753601 0 0 0 0 601067091.05715942 120205668.99969482 0 120205668.99969482 -1201799314.14888 0 0 0 0 562826635.90924072 -1245248825.4485016 0 -1245248825.4485016 -166528230.82189178 0 0 0 0 1136033604.4244995 1845368479.4642029 0 1845368479.4642029 288963035.35332084 0 0 0 0 -1969161570.7903442 65289427.936958313 0 65289427.936958313 423655758.12001038 0 0 0 0 -648024333.44598389 917642607.251091 0 917642607.251091 -3350534246.2258301 0 0 0 0 -303157.91090267897 -60296.79304144159 0 -60296.79304144159 -149769.63883959502 0 0 0 0 156588003.45635986 1898095878.4458618 0 1898095878.4458618 289237395.70793283 0 0 0 0 3843707811.4162598 -324528848.46512604 0 -324528848.46512604 438480970.55154419 0 0 0 0 -357959035.8782959 128075251.97666931 0 128075251.97666931 3555583638.5378418 0 0 0 0 -319627671.05780029 -97466115.570579529 0 -97466115.570579529 572158549.35956573 0 0 0 0 -108260017.46810913 -287287130.5766449 0 -287287130.5766449 -816479588.59182739 0 0 0 0 -1122907.6759308428 1767433.2732111346 0 1767433.2732111346 -5273362.9213795811 0 0 0 0 -44658.686462402344 -401601.67684936523 0 -401601.67684936523 -8048610.9755401611 0 0 0 0 -864065.97796630859 -551230.65171813965 0 -551230.65171813965 -8019325.4426860809 0 0 0 0 3522276.0742797852 15591733.156494141 0 15591733.156494141 -30193530.489028931 0 0 0 0 2435680.8464173675 14211332.837802097 0 14211332.837802097 2201866.8357487991 0 0 0 0 -1885887.8301086426 722040.07001876831 0 722040.07001876831 -7677502.1309204102 0 0 0 0 300525.27117919922 861485.08559417725 0 861485.08559417725 -7741328.2048339844 0 0 0 0 112335070.18881226 47457795.503112793 0 47457795.503112793 -83074792.120552063 0 0 0 0 9595532.493560791 -8713070.2235984802 0 -8713070.2235984802 -152744.68676757812 0 0 0 0 703480.9629227221 1581450.4362622276 0 1581450.4362622276 -1648970.5169097986 0 0 0 0 69511960.600891113 -24737732.944900513 0 -24737732.944900513 -25146711.926055908 0 0 0 0 22100592.15713501 11631167.597351074 0 11631167.597351074 -52944944.827774048 0 0 0 0 3076229.5306718498 19984075.138797686 0 19984075.138797686 12922229.948253956 0 0 0 0 6615852.0698242188 85369823.928642273 0 85369823.928642273 -78923279.951965332 0 0 0 0 48449419.376098633 69505438.974105835 0 69505438.974105835 -90513938.107795715 0 0 0 0 -7440124.2469177246 24265468.543687344 0 24265468.543687344 757400.47003936768 0 0 0 0 43885557.372192383 -940734.99879455566 0 -940734.99879455566 -56074696.135503769 0 0 0 0 -14344838.380157471 36388924.158485413 0 36388924.158485413 -42326468.598487854 0 0 0 0 -3592822.6981137469 11666204.288688868 0 11666204.288688868 7522483.580885604 0 0 0 0 -19555156.474838257 17336264.243946075 0 17336264.243946075 9764409.902671814 0 0 0 0 9636036.2974492162 24391041.884600475 0 24391041.884600475 -1282499.5692311674 0 0 0 0 14371189.087249756 -6084663.3915557861 0 -6084663.3915557861 -32194176.219528198 0 0 0 0 1844400.4779479727 2704961.0838146433 0 2704961.0838146433 -2481819.3124341965 0 0 0 0 -7458611.8664567992 9555481.998771172 0 9555481.998771172 9830971.8285703994 0 0 0 0 -12726554.027458191 11631726.287418365 0 11631726.287418365 4318943.2535858154 0 0 0 0 -10924739.429512024 16245482.982322693 0 16245482.982322693 5474042.7661209106 0 0 0 0 -7427199.4528503418 21420968.067936897 0 21420968.067936897 -81356.175273895264 0 0 0 0 -8560293.6616821289 27069986.515893936 0 27069986.515893936 -5658410.5055322647 0 0 0 0 9051844.6893538684 29008815.705219314 0 29008815.705219314 20043137.508904189 0 0 0 0 579215.7653413564 1507045.9697732683 0 1507045.9697732683 -1129981.3805105612 0 0 0 0 -11868709.475524902 -6345823.5091438293 0 -6345823.5091438293 59502851.41519928 0 0 0 0 -6083111.1908416748 -4000264.2023220062 0 -4000264.2023220062 36168093.100692749 0 0 0 0 -15212302.444152832 10940315.832000732 0 10940315.832000732 14960338.446315765 0 0 0 0 -16601436.444473267 11530279.069261551 0 11530279.069261551 20469030.702865601 0 0 0 0 -12648025.197067261 6084463.8251800537 0 6084463.8251800537 11161196.150650024 0 0 0 0 -16852244.010223389 27247163.404067993 0 27247163.404067993 5952105.0738220215 0 0 0 0 -18340357.527511597 28934116.481697083 0 28934116.481697083 7428918.8891601562 0 0 0 0 -16324046.707183838 26130122.956335068 0 26130122.956335068 8126047.0555114746 0 0 0 0 -9702280.6447525024 4818899.0973243713 0 4818899.0973243713 48657537.642776489 0 0 0 0 -25949160.615356445 25781536.176685333 0 25781536.176685333 35003942.410903931 0 0 0 0 -10181010.566635132 -10628977.806949615 0 -10628977.806949615 193034190.42785645 0 0 0 0 7053022.7764282227 8749967.1549034119 0 8749967.1549034119 44163560.510696411 0 0 0 0 265876148.86816406 101667321.45281982 0 101667321.45281982 8339355.4725799561 0 0 0 0 566711.55844974518 267534.07032428868 0 267534.07032428868 -661722.43465228006 0 0 0 0 97221401.551605225 -52237889.584669113 0 -52237889.584669113 -18816494.532718658 0 0 0 0 42265974.242401123 5836497.7830505371 0 5836497.7830505371 -21961296.411590576 0 0 0 0 47487745.241073608 15862321.129460335 0 15862321.129460335 -17780612.438949585 0 0 0 0 34137204.746917725 11233975.351062775 0 11233975.351062775 -6356073.3213577271 0 0 0 0 67292121.214233398 1507244.5467319489 0 1507244.5467319489 -66624762.392524719 0 0 0 0 60152669.304367065 42640095.746242523 0 42640095.746242523 -20317738.848121643 0 0 0 0 -1322593.0753335953 -341208.40277853608 0 -341208.40277853608 756663.93469835073 0 0 0 0 802930.13076343387 996513.98854025453 0 996513.98854025453 -1177636.9378819466 0 0 0 0 -232507480.1920166 132322757.35072327 0 132322757.35072327 59979018.483291626 0 0 0 0 39015315.207809448 50291568.082023621 0 50291568.082023621 80900814.483055115 0 0 0 0 45408844.960693359 14861017.998802185 0 14861017.998802185 -5976619.4799981117 0 0 0 0 -469847492.84238434 116609162.72314453 0 116609162.72314453 81413833.676651001 0 0 0 0 -342075294.94030762 -30894098.522827148 0 -30894098.522827148 156321066.44347191 0 0 0 0 -218806813.14480591 37567001.01203537 0 37567001.01203537 2102566.7367553711 0 0 0 0 367965250.88415527 98867171.920433044 0 98867171.920433044 -118333432.4656105 0 0 0 0 -255304641.2784729 82766690.135124207 0 82766690.135124207 -15919714.099243164 0 0 0 0 -272938697.5656662 85962584.538467407 0 85962584.538467407 54577660.324028015 0 0 0 0 -298749258.35038757 119974415.14560318 0 119974415.14560318 11280902.332275391 0 0 0 0 -241278654.88948441 130379531.87086487 0 130379531.87086487 -12541103.290473938 0 0 0 0 -70465537.31728363 148022004.32466698 0 148022004.32466698 114263650.58956909 0 0 0 0 -230325967.38452148 108453758.23952293 0 108453758.23952293 -17170559.439758062 0 0 0 0 1286664.2555877045 1540863.0157641396 0 1540863.0157641396 -2572724.3991938159 0 0 0 0 38923775.307998657 -113893074.90168762 0 -113893074.90168762 19122153.17212677 0 0 0 0 -243088579.77165222 143883447.665802 0 143883447.665802 -34392242.874271289 0 0 0 0 -113931417.25904846 130800602.62759399 0 130800602.62759399 -34427507.202232361 0 0 0 0 -319685818.95327759 208180475.14570999 0 208180475.14570999 13847627.62386322 0 0 0 0 -323084134.38314819 204402187.34139061 0 204402187.34139061 12630939.244750977 0 0 0 0 -486134737.23936462 168515456.53139496 0 168515456.53139496 64971605.888137817 0 0 0 0 -325942112.16396999 140740746.70361805 0 140740746.70361805 31856846.463897705 0 0 0 0 -296076407.95793152 138132479.46592712 0 138132479.46592712 21276611.059936523 0 0 0 0 -277201705.84562683 147288266.03925705 0 147288266.03925705 -4843300.3360671997 0 0 0 0 -235506397.7931366 168305368.28319168 0 168305368.28319168 -29154.998291015625 0 0 0 0 -278964558.86393738 163402457.40537643 0 163402457.40537643 93860.006908416748 0 0 0 0 -442799412.29356384 -22921711.579742432 0 -22921711.579742432 11270170.437931061 0 0 0 0 -220778468.85908508 16743554.25346756 0 16743554.25346756 -2718335.5287628174 0 0 0 0 -311662015.98025131 79693848.031605244 0 79693848.031605244 -42026578.597671509 0 0 0 0 -160979119.00997925 68815591.292362213 0 68815591.292362213 -80249978.004966736 0 0 0 0 -217648201.54138565 21372033.736861229 0 21372033.736861229 -104940613.95755005 0 0 0 0 -212094388.50598145 135910748.25084305 0 135910748.25084305 -23508783.962226391 0 0 0 0 -203765595.10205078 94032375.107927322 0 94032375.107927322 -94784886.557991028 0 0 0 0 -196701050.38407898 120382120.88842773 0 120382120.88842773 -30657418.861166 0 0 0 0 -257409552.03044128 159417665.94163513 0 159417665.94163513 -4504522.3625488281 0 0 0 0 -167996175.74499512 196824780.92079544 0 196824780.92079544 8389424.840221405 0 0 0 0 -314465855.47640991 255090052.72045135 0 255090052.72045135 -34358777.836608887 0 0 0 0 -240511702.79456329 96657251.8953619 0 96657251.8953619 201378858.47394562 0 0 0 0 -347889998.23501587 214184141.76555252 0 214184141.76555252 -6050118.4077758789 0 0 0 0 -291156070.37115097 167757562.08191037 0 167757562.08191037 5015089.3288574219 0 0 0 0 -259339145.50375366 160622612.57305527 0 160622612.57305527 -5077154.2466926575 0 0 0 0 -260864623.8838501 175219198.24756241 0 175219198.24756241 6805767.9074058533 0 0 0 0 -274009716.04212952 132817094.2525177 0 132817094.2525177 -65908760.321105957 0 0 0 0 -467100813.8987236 93953073.649460793 0 93953073.649460793 -415340.72780609131 0 0 0 0 -232934320.88108826 153178385.71162415 0 153178385.71162415 -68345036.433700562 0 0 0 0 -176123435.6466217 42051523.850944519 0 42051523.850944519 15105746.985478401 0 0 0 0 -279267945.3555603 136668658.19388676 0 136668658.19388676 73067871.300422668 0 0 0 0 -129698443.69355774 121843226.86606598 0 121843226.86606598 -9104316.8225135803 0 0 0 0 723500.0556537509 -42139.355873757973 0 -42139.355873757973 -1055057.4568722732 0 0 0 0 -36546131.77463913 -104049353.5394001 0 -104049353.5394001 210505419.80922699 0 0 0 0 -489417711.28189087 632127301.79892349 0 632127301.79892349 -558001206.07188988 0 0 0 0 724225.09045015275 -131510.11340367235 0 -131510.11340367235 -1638488.1091524884 0 0 0 0 -470304335.06426811 480796025.49271202 0 480796025.49271202 -299920584.10968018 0 0 0 0 -390036378.18765259 374390674.04454803 0 374390674.04454803 -225633299.56730652 0 0 0 0 -439266027.45172119 312130696.96209335 0 312130696.96209335 -294277935.46060562 0 0 0 0 -272204969.63302612 214433295.56004333 0 214433295.56004333 -139400612.17801285 0 0 0 0 -386442910.23571777 427320653.74872589 0 427320653.74872589 -292514692.92086792 0 0 0 0 -429444090.11227417 406410983.73859787 0 406410983.73859787 -278259686.27926064 0 0 0 0 -407857602.49130249 301881839.62647629 0 301881839.62647629 144350135.75193787 0 0 0 0 355145.57989664376 -395985.01790144295 0 -395985.01790144295 -1744672.6807201952 0 0 0 0 -419383967.34762955 208200476.55190182 0 208200476.55190182 -84002359.459999084 0 0 0 0 85798123.125869751 176326819.00716782 0 176326819.00716782 -77366045.46446228 0 0 0 0 190625823.99111938 -53561561.284568787 0 -53561561.284568787 -27417314.390906096 0 0 0 0 -11895053.015884534 3639517.802729331 0 3639517.802729331 2100694.8349721059 0 0 0 0 -95997096.681274414 32970246.034118652 0 32970246.034118652 -64373455.814575195 0 0 0 0 13180869.728515625 21848349.913852692 0 21848349.913852692 7032677.1666717529 0 0 0 0 -32068301.232895792 29376989.374022029 0 29376989.374022029 183261.26394415647 0 0 0 0 -19305031.129394531 -3771390.8384552002 0 -3771390.8384552002 18216430.235595703 0 0 0 0 17623434.607816339 27947718.529291421 0 27947718.529291421 1708792.4647216797 0 0 0 0 -17427312.275634766 114967290.40195465 0 114967290.40195465 -80838793.585083008 0 0 0 0 -11708498.04238921 39312624.029391438 0 39312624.029391438 -1810121.8047452271 0 0 0 0 3858345.1453732997 -554790.43955352902 0 -554790.43955352902 -1881194.0550150424 0 0 0 0 -39038608.852325439 99329021.969783783 0 99329021.969783783 44296393.527130127 0 0 0 0 -1740738.7510681152 16870251.406787872 0 16870251.406787872 10773530.275253296 0 0 0 0 -172345115.20155334 20359273.294231415 0 20359273.294231415 -2395328.1481781006 0 0 0 0 28241488.034103394 38889560.827739716 0 38889560.827739716 8360529.7321052551 0 0 0 0 78752.660627365112 15820830.254862197 0 15820830.254862197 2513686.5035473779 0 0 0 0 -11902910.994216317 17645059.029651858 0 17645059.029651858 665030.07663371414 0 0 0 0 15116146.378936768 6191121.319316864 0 6191121.319316864 92672038.858440399 0 0 0 0 -737747.78173828125 65902458.317840576 0 65902458.317840576 -125093320.10594749 0 0 0 0 -173718501.30956268 161750672.49993706 0 161750672.49993706 -217370319.54808807 0 0 0 0 -154437322.36488342 219100767.46196365 0 219100767.46196365 -57778419.224317551 0 0 0 0 -60288075.472229004 93730690.537055969 0 93730690.537055969 -59714304.849975586 0 0 0 0 -29105773.858016968 215920280.9757309 0 215920280.9757309 -206203130.78864288 0 0 0 0 -256766809.15905952 254188395.93279028 0 254188395.93279028 -66602686.849594116 0 0 0 0 -522898016.33493042 432999660.46305084 0 432999660.46305084 -175523647.78886318 0 0 0 0 -255142836.78370667 258821634.1630249 0 258821634.1630249 -149810712.39027405 0 0 0 0 -231577657.63647461 279023441.0742569 0 279023441.0742569 -144475697.73660278 0 0 0 0 -240009742.09754944 111573340.26885605 0 111573340.26885605 21476103.872665405 0 0 0 0 -41458445.56854248 92826756.455280304 0 92826756.455280304 -22301330.587378383 0 0 0 0 22098250.474594116 93983154.227359772 0 93983154.227359772 -120476003.78740692 0 0 0 0 -5115542.6007461548 16540211.491298676 0 16540211.491298676 -18116150.820587158 0 0 0 0 2319810.3876025807 22054399.356322702 0 22054399.356322702 -13484000.259959929 0 0 0 0 -6817684.3746404648 28522104.397628069 0 28522104.397628069 -21146378.017127991 0 0 0 0 -13033651.587783813 25743432.007816315 0 25743432.007816315 -20622240.924823761 0 0 0 0 -404.21870073676109 35150.939697355032 0 35150.939697355032 260261.71146146487 0 0 0 0 5160760.12890625 11628531.88217926 0 11628531.88217926 -10127655.379524231 0 0 0 0 15192640.056323171 18554432.326047927 0 18554432.326047927 -8875226.1779251099 0 0 0 0 -421604991.85858154 277271551.86517715 0 277271551.86517715 -129343354.32825851 0 0 0 0 -10344497.200215753 26903472.396899454 0 26903472.396899454 -15005337.652734064 0 0 0 0 -289994731.87051392 270195371.72912598 0 270195371.72912598 -158982678.27502441 0 0 0 0 -282769645.01013184 274162494.7325592 0 274162494.7325592 -297650947.81079865 0 0 0 0 -305839803.85099792 159257209.23537827 0 159257209.23537827 -289941749.91936064 0 0 0 0 945792158.09333515 517312206.06911159 0 517312206.06911159 1049962486.4447422 0 0 0 0 -1833247.9328188479 4685299.6082742624 0 4685299.6082742624 146021.50683539687 0 0 0 0 -423681946.67427063 -80523120.673084974 0 -80523120.673084974 998798671.39523602 0 0 0 0 218567292.66730535 690064610.21817291 0 690064610.21817291 522732521.06700897 0 0 0 0 4578797.8175721169 20919766.553090774 0 20919766.553090774 -27576178.699341632 0 0 0 0 55044651.022583008 73155391.076030254 0 73155391.076030254 336990288.94921398 0 0 0 0 -263250380.19024658 293615204.13002014 0 293615204.13002014 -143976144.01336575 0 0 0 0 -258474512.41069031 289383117.8200264 0 289383117.8200264 -140358795.78020477 0 0 0 0 -265662635.10168457 259433740.19557953 0 259433740.19557953 -155703994.96077728 0 0 0 0 -249854462.93511963 229040160.51956558 0 229040160.51956558 -158473197.55012321 0 0 0 0 -249442552.81282043 247873091.30496597 0 247873091.30496597 -247343861.98936462 0 0 0 0 -257335789.19966125 220342078.42983055 0 220342078.42983055 -165919805.77481842 0 0 0 0 -115322292.83718872 119629027.31471634 0 119629027.31471634 -180766161.48745346 0 0 0 0 -220017327.37480164 212732813.61950874 0 212732813.61950874 -259035757.42671967 0 0 0 0 -311340857.30375671 205086297.50249863 0 205086297.50249863 -195283747.69392395 0 0 0 0 -22129923.673713684 86299214.756080627 0 86299214.756080627 -254560688.58041382 0 0 0 0 -21355032.221982971 28003690.82909726 0 28003690.82909726 -24199380.359558467 0 0 0 0 1598639508.07724 1796363974.4255056 0 1796363974.4255056 -151196447.28367615 0 0 0 0 -110511410.66130066 -64666760.491798401 0 -64666760.491798401 -36081572.840904236 0 0 0 0 -3162432108.4131775 -3438190.0121929646 0 -3438190.0121929646 760123725.53677487 0 0 0 0 -171914764.59288025 851276084.71944857 0 851276084.71944857 952810191.8942163 0 0 0 0 293096532.45379639 115156828.54405832 0 115156828.54405832 897488575.01324129 0 0 0 0 -1121343352.3321838 205955483.26487291 0 205955483.26487291 1085753847.5847282 0 0 0 0 565373862.07405472 924325154.73328757 0 924325154.73328757 718630494.99995756 0 0 0 0 -27999480.291238621 36672965.545598 0 36672965.545598 -24580229.67433545 0 0 0 0 -2361811027.0694733 2021549833.8103366 0 2021549833.8103366 1771077055.1240482 0 0 0 0 -854394737.5256958 2397578677.7518044 0 2397578677.7518044 1497129527.6850262 0 0 0 0 1479744609.7728233 217905843.60266268 0 217905843.60266268 -2032490866.8943963 0 0 0 0 -213763033.69645691 -258685402.91019505 0 -258685402.91019505 -1976232152.7470374 0 0 0 0 -417076037.73535156 147830960.04271132 0 147830960.04271132 -120587796.57962251 0 0 0 0 358194701.39190674 23197045.310378551 0 23197045.310378551 -253246446.86827075 0 0 0 0 -807991378.65074539 -611372568.37876987 0 -611372568.37876987 687354769.93218422 0 0 0 0 -81660345.224609375 -192877469.81480122 0 -192877469.81480122 117615107.55058394 0 0 0 0 -146465742.45932007 -246512473.74043718 0 -246512473.74043718 680174764.97070193 0 0 0 0 -82231185.465148926 -139613460.98492888 0 -139613460.98492888 353018673.53856581 0 0 0 0 -18774666.774932861 -20539470.874189734 0 -20539470.874189734 61803763.646205306 0 0 0 0 115275443.40662384 -132956742.78716552 0 -132956742.78716552 -430156478.24577522 0 0 0 0 25746145.551589966 -67843027.56208539 0 -67843027.56208539 -108912414.93886399 0 0 0 0 16725857.922271729 106828919.72326076 0 106828919.72326076 453345519.23046577 0 0 0 0 23030103.113357544 99763902.639712811 0 99763902.639712811 190840833.31902671 0 0 0 0 333527923.46865845 211829778.88057816 0 211829778.88057816 -200402245.10066676 0 0 0 0 -405503737.77044678 -102375291.97465169 0 -102375291.97465169 925093732.07395983 0 0 0 0 579790111.01290894 -56425426.144085586 0 -56425426.144085586 -452824503.1375258 0 0 0 0 787837.57220876962 2789205.4749900661 0 2789205.4749900661 -1578541.7936743796 0 0 0 0 81785097.325256348 -249241284.54653278 0 -249241284.54653278 359279341.52620494 0 0 0 0 -31615128.171005249 -138212327.72753584 0 -138212327.72753584 501918870.27578479 0 0 0 0 -16029201.034179688 -190035549.10926348 0 -190035549.10926348 225505358.87245834 0 0 0 0 -44579074.069854736 -648434214.36753273 0 -648434214.36753273 -194796584.27118874 0 0 0 0 51296397.213638306 -102335042.45162934 0 -102335042.45162934 149963671.56900704 0 0 0 0 -239898817.44267273 459883191.38458443 0 459883191.38458443 512460672.73515892 0 0 0 0 6106813.9374159668 11966770.764268585 0 11966770.764268585 5468032.136678868 0 0 0 0 -14437847.312492371 118060624.07730913 0 118060624.07730913 -202883581.0478735 0 0 0 0 1196048.3351896703 3753897.0653413609 0 3753897.0653413609 3281570.8781620855 0 0 0 0 54284.776306152344 38654497.404653549 0 38654497.404653549 -15251534.783716202 0 0 0 0 -299002815.60441589 -61661195.559811592 0 -61661195.559811592 121136325.39004135 0 0 0 0 243173842.41703033 185662572.97964907 0 185662572.97964907 -9604783.2063312531 0 0 0 0 2520382.3390026093 60279978.780432701 0 60279978.780432701 -3333638.555896759 0 0 0 0 -32621445.95589447 -2155749.0225165989 0 -2155749.0225165989 31848875.487518668 0 0 0 0 -7996200.7776643299 10529434.759945463 0 10529434.759945463 10747605.150287643 0 0 0 0 191692447.81158447 -5854835.2583739758 0 -5854835.2583739758 -12763529.696706772 0 0 0 0 -99630230.832168579 34927728.23321867 0 34927728.23321867 57059371.409667969 0 0 0 0 1403520.5338267125 9795382.1007302329 0 9795382.1007302329 -4812334.4860738181 0 0 0 0 -4676740.0873260498 49321838.650562167 0 49321838.650562167 21167333.324642032 0 0 0 0 22530049.714065552 8085704.9395465851 0 8085704.9395465851 6322289.7168264389 0 0 0 0 4184605.1560735703 25391983.874015808 0 25391983.874015808 -15276894.179931641 0 0 0 0 -5769607.423347488 24418281.035565704 0 24418281.035565704 -17545042.206489608 0 0 0 0 -30323725.015045166 92633327.03101778 0 92633327.03101778 52218279.153974891 0 0 0 0 -83568742.342666626 74006079.896304131 0 74006079.896304131 56918080.280945778 0 0 0 0 10913585.625579834 -303649305.79828179 0 -303649305.79828179 362169580.24058962 0 0 0 0 -1880209.2740891874 2422862.9189495929 0 2422862.9189495929 2926182.9583908161 0 0 0 0 54510699.497312546 100149325.72140813 0 100149325.72140813 21695435.740823269 0 0 0 0 -230900684.83349609 -271280636.45941448 0 -271280636.45941448 783088267.13776028 0 0 0 0 57995732.643051147 210827658.18861082 0 210827658.18861082 375402519.24009728 0 0 0 0 -3535817.4779663086 44492568.375718459 0 44492568.375718459 175312032.71704358 0 0 0 0 -23062711.6590271 -89183724.972879767 0 -89183724.972879767 382342974.79647183 0 0 0 0 87015788.950500488 38536169.497145653 0 38536169.497145653 9956756.1834490597 0 0 0 0 -2556219.9048118591 48698604.148033239 0 48698604.148033239 46299503.017381728 0 0 0 0 378296495.310112 83148703.527231932 0 83148703.527231932 74387032.738931835 0 0 0 0 572123302.11944771 582074696.28493226 0 582074696.28493226 453833078.33762836 0 0 0 0 1057183907.3849335 479216682.83337831 0 479216682.83337831 148726645.49722624 0 0 0 0 636782483.76193237 629335721.01291275 0 629335721.01291275 372461583.6358366 0 0 0 0 667832345.34536743 194754854.83715057 0 194754854.83715057 -32202178.575654984 0 0 0 0 86230287.861434937 -86231635.485889435 0 -86231635.485889435 -165886739.37343311 0 0 0 0 79889290.770638943 82302714.626950279 0 82302714.626950279 -51101990.627630234 0 0 0 0 48566.184622935951 -656143.79067852348 0 -656143.79067852348 1405688.7460994504 0 0 0 0 552626715.55414581 571188136.93562245 0 571188136.93562245 500460630.65227556 0 0 0 0 836219072.7375145 1000571802.3216773 0 1000571802.3216773 836134824.27306175 0 0 0 0 -1635680.6980285645 25220619.485920906 0 25220619.485920906 -90263840.674075127 0 0 0 0 -61091330.898540497 59687836.616470337 0 59687836.616470337 -9651676.0999546051 0 0 0 0 1605758.5031519681 -821531.38166698441 0 -821531.38166698441 2541843.4829111462 0 0 0 0 3427050.0926647894 7885116.1274422221 0 7885116.1274422221 4507797.7029937487 0 0 0 0 -10829634.907623291 105480202.20271683 0 105480202.20271683 25953832.921520233 0 0 0 0 -18097275.479415894 -28356588.343650818 0 -28356588.343650818 13899004.588314891 0 0 0 0 -142265834.91542196 8476238.2155074477 0 8476238.2155074477 95682311.903606415 0 0 0 0 -13053859.612487793 18356916.288491249 0 18356916.288491249 -24516207.266590118 0 0 0 0 119799215.90903854 53539820.32572937 0 53539820.32572937 77188537.819190979 0 0 0 0 43804355.193389893 -65258767.690612793 0 -65258767.690612793 95692833.810188293 0 0 0 0 59729514.768344879 75168343.430933952 0 75168343.430933952 73245019.099817276 0 0 0 0 100765336.28892517 -874926.20675849915 0 -874926.20675849915 206600153.84555817 0 0 0 0 337650642.27370453 13106646.712712288 0 13106646.712712288 47921176.452413559 0 0 0 0 280053847.30926132 203752123.55599093 0 203752123.55599093 545588628.41306686 0 0 0 0 449243994.08204651 453750317.09123802 0 453750317.09123802 242105313.88925552 0 0 0 0 139297076.23604584 -37066238.682001114 0 -37066238.682001114 3788588.4409732819 0 0 0 0 462546842.09225464 102738387.73199081 0 102738387.73199081 -19525758.803405762 0 0 0 0 62327636.583557129 168311047.30560303 0 168311047.30560303 25154200.746676445 0 0 0 0 380443256.39391327 -174637910.38021278 0 -174637910.38021278 952796176.87906265 0 0 0 0 1277193346.6485138 535478858.99949837 0 535478858.99949837 172968840.70881414 0 0 0 0 1711922143.1555481 851270261.13439751 0 851270261.13439751 129034577.86665916 0 0 0 0 564853214.4462204 796312616.41292572 0 796312616.41292572 1138963013.9288406 0 0 0 0 77750061.081230164 31916904.590360641 0 31916904.590360641 -647303.81974220276 0 0 0 0 696977.03347376734 1740662.7436360866 0 1740662.7436360866 10828.59374287352 0 0 0 0 7856657.4082107544 77530520.948515892 0 77530520.948515892 33394501.112716675 0 0 0 0 78442021.982131958 66241893.349985123 0 66241893.349985123 25370449.125652313 0 0 0 0 78911780.342214823 56691660.722287238 0 56691660.722287238 -41811177.588478088 0 0 0 0 200257919.7133255 95600720.802724838 0 95600720.802724838 -31493640.083599091 0 0 0 0 73953855.385848999 40176473.844230652 0 40176473.844230652 -17940594.20211792 0 0 0 0 54798611.635070801 36605590.904262543 0 36605590.904262543 -10277925.634124756 0 0 0 0 47697932.916236877 29626671.201053619 0 29626671.201053619 1211021.9167251587 0 0 0 0 30500162.733062744 -37886535.755254745 0 -37886535.755254745 -58477237.940574646 0 0 0 0 7447777.4807161577 3803141.3073794767 0 3803141.3073794767 -4498921.0220094025 0 0 0 0 43911168.45740509 26216606.84219265 0 26216606.84219265 -27796364.999479294 0 0 0 0 10521503.79534911 4138482.3500359729 0 4138482.3500359729 -2297719.1822541878 0 0 0 0 -51609885.133529663 -93625483.182369232 0 -93625483.182369232 -8990339.3900055885 0 0 0 0 38341884.611652374 33023895.386863708 0 33023895.386863708 16681832.236045837 0 0 0 0 31851906.80141449 19653640.692270279 0 19653640.692270279 10899182.944839478 0 0 0 0 47042026.346214294 32667551.482063293 0 32667551.482063293 7807919.0619430542 0 0 0 0 10919260.475048065 32021339.439472198 0 32021339.439472198 21469005.350646973 0 0 0 0 30790226.617988586 33755423.182740211 0 33755423.182740211 9006816.5400390625 0 0 0 0 27530228.188497543 43732434.390611649 0 43732434.390611649 21424717.736984253 0 0 0 0 629771.43809214607 4223164.1781010702 0 4223164.1781010702 202483.27689112676 0 0 0 0 56759670.206439972 58887859.697454453 0 58887859.697454453 26887374.423095703 0 0 0 0 5316139.9692192674 4911388.2011806406 0 4911388.2011806406 4304291.2516553476 0 0 0 0 72975516.456748962 40316273.812753677 0 40316273.812753677 16962759.7215271 0 0 0 0 20803919.088809967 49820695.521015167 0 49820695.521015167 -65161620.386878967 0 0 0 0 45164614.3490448 34887948.18693161 0 34887948.18693161 63239383.62374115 0 0 0 0 62628337.517593384 33551633.245014191 0 33551633.245014191 1224426.9620437622 0 0 0 0 48597601.428657532 46526524.029434204 0 46526524.029434204 15390508.318035126 0 0 0 0 7298115.5261730738 5162731.1075408868 0 5162731.1075408868 -6159120.6616485864 0 0 0 0 45251733.132766724 11061032.791038513 0 11061032.791038513 -17540393.016525269 0 0 0 0 27029566.996219635 9323302.3885040283 0 9323302.3885040283 12504080.225334167 0 0 0 0 81274098.948009491 28707523.267377853 0 28707523.267377853 -2059318.3534164429 0 0 0 0 15561950.47505188 38164118.128013611 0 38164118.128013611 19850099.835029602 0 0 0 0 69746196.81325531 41295876.285762787 0 41295876.285762787 1383566.0437674522 0 0 0 0 50614997.18810463 30445336.113330364 0 30445336.113330364 2675499.5955352783 0 0 0 0 -1621018.6775455959 4225365.3477513418 0 4225365.3477513418 2603459.3027839251 0 0 0 0 17995900.071746826 18265801.303356171 0 18265801.303356171 -11463060.007499695 0 0 0 0 17497456.126937866 15776436.45357132 0 15776436.45357132 -17557056.367408752 0 0 0 0 10144552.539520264 14579359.908348083 0 14579359.908348083 -7716001.4018249512 0 0 0 0 -5447374.7602996826 27118198.264289856 0 27118198.264289856 -14788040.628570557 0 0 0 0 9673277.7259521484 12705900.822982788 0 12705900.822982788 -11448236.677238464 0 0 0 0 -5244695.1328243464 18692652.986797847 0 18692652.986797847 -14881310.709547337 0 0 0 0 -4018015.4953914061 22208758.627638571 0 22208758.627638571 -12592382.264667541 0 0 0 0 4682052.3037414551 24552741.651691437 0 24552741.651691437 -18611003.528558731 0 0 0 0 -12968810.960033417 32492689.300683022 0 32492689.300683022 -13437913.99508667 0 0 0 0 -9195167.9312133789 17830433.382209778 0 17830433.382209778 -6833882.6433944702 0 0 0 0 -9069631.8458984345 25509232.956517037 0 25509232.956517037 -6857308.3653048202 0 0 0 0 526979.85500310548 17553438.789548639 0 17553438.789548639 -2766470.0661331024 0 0 0 0 4507252.5629682243 9668845.7154471688 0 9668845.7154471688 -4517586.8003045768 0 0 0 0 6123673.7162952423 12943997.149158955 0 12943997.149158955 -2231710.1214141846 0 0 0 0 7939827.3521728516 11810877.141012192 0 11810877.141012192 1584376.3438720703 0 0 0 0 16898963.220230103 10196016.619764328 0 10196016.619764328 -14064526.64444685 0 0 0 0 56853453.017990112 40913918.417959213 0 40913918.417959213 -5005471.4328746796 0 0 0 0 20255973.873687744 70900211.769674301 0 70900211.769674301 -2003300.8935751915 0 0 0 0 2726174.6777461735 21738887.471991468 0 21738887.471991468 15786864.426836269 0 0 0 0 -23256389.369377136 46476417.106528282 0 46476417.106528282 8525300.0908355713 0 0 0 0 17383848.131469727 49533892.270053864 0 49533892.270053864 -13209280.174242973 0 0 0 0 31800483.860671997 30847258.547456741 0 30847258.547456741 12064690.51030159 0 0 0 0 23127631.376411438 43011132.660181046 0 43011132.660181046 22591993.963440895 0 0 0 0 32423666.73815918 49395211.849222183 0 49395211.849222183 -6006344.9705312252 0 0 0 0 3557348.3474611416 15905092.200686758 0 15905092.200686758 -3806472.951851368 0 0 0 0 -64316526.033981323 38058139.421401978 0 38058139.421401978 37511421.547988892 0 0 0 0 47374243.677482605 21012228.89214325 0 21012228.89214325 23271083.57194519 0 0 0 0 179245777.36364746 158816094.3949585 0 158816094.3949585 -146305694.56567383 0 0 0 0 28979514.878768921 16903505.957801819 0 16903505.957801819 -10614192.558273315 0 0 0 0 8019298.9264054447 13787102.11508863 0 13787102.11508863 3945715.9170202576 0 0 0 0 19312500.213932037 24431194.346225739 0 24431194.346225739 24078631.454162598 0 0 0 0 2097717.0124711576 23488764.131325789 0 23488764.131325789 15365312.046406712 0 0 0 0 16119735.490310825 11627877.747851033 0 11627877.747851033 -16755534.733924365 0 0 0 0 7857848.6166992188 6653213.4381103516 0 6653213.4381103516 -14667980.394683838 0 0 0 0 31302889.586330034 15556348.118766122 0 15556348.118766122 -11762711.090241861 0 0 0 0 9168894.8647975195 17235033.50501778 0 17235033.50501778 -4474336.5245233476 0 0 0 0 25194767.935722351 19036806.02205658 0 19036806.02205658 -11695803.085514069 0 0 0 0 14654342.463188171 14086197.65650177 0 14086197.65650177 -958863.38098144531 0 0 0 0 35224725.697868347 15672098.43938446 0 15672098.43938446 -11837131.743144989 0 0 0 0 3804147.9211359359 21365266.81439269 0 21365266.81439269 -5516843.1880061477 0 0 0 0 27722583.420320511 11371154.708827019 0 11371154.708827019 -3786906.4744415283 0 0 0 0 -21718869.338615417 17756176.726608276 0 17756176.726608276 3197050.918510437 0 0 0 0 2716222.1347198486 18032146.91248703 0 18032146.91248703 -11278081.962219238 0 0 0 0 -3771426.6670252383 18020410.720939472 0 18020410.720939472 1311648.9109635614 0 0 0 0 12552859.237686157 17727467.614326477 0 17727467.614326477 -3629051.9778823853 0 0 0 0 -176231123.92993164 69672672.971725464 0 69672672.971725464 -15936990.849411011 0 0 0 0 17301395.539764404 21840623.912918091 0 21840623.912918091 -1280098.7452812195 0 0 0 0 2654278.7935628146 18764623.142950833 0 18764623.142950833 -223059.65909769107 0 0 0 0 225671.89986610413 23942537.168358803 0 23942537.168358803 5163030.206161499 0 0 0 0 25970747.998672485 21431648.378036499 0 21431648.378036499 -3264444.8977813721 0 0 0 0 45731561.843360901 47216770.032817841 0 47216770.032817841 -1150426.4990692139 0 0 0 0 -4735799.8607649319 13907903.203758605 0 13907903.203758605 4598472.3852927387 0 0 0 0 8338238.7666625977 31366777.07554245 0 31366777.07554245 18093043.912010193 0 0 0 0 8026517.5775604248 24652292.888195038 0 24652292.888195038 8516626.8107299805 0 0 0 0 2581077.8999557495 10879397.326515198 0 10879397.326515198 5708709.2729644775 0 0 0 0 43923069.125709534 4038732.1838588715 0 4038732.1838588715 -77179328.569091797 0 0 0 0 -425050.61912536621 37270437.792495728 0 37270437.792495728 37888804.567836761 0 0 0 0 16897789.81288147 46994701.516891479 0 46994701.516891479 29987920.443157196 0 0 0 0 11638001.646656036 19866687.191833496 0 19866687.191833496 -15061172.373458862 0 0 0 0 45018668.793270111 20647767.440914154 0 20647767.440914154 -9182789.0591506958 0 0 0 0 3834570.3074511928 20731945.199023873 0 20731945.199023873 -1944884.2027967721 0 0 0 0 -38833700.28301239 18780742.559371948 0 18780742.559371948 4091632.3721847534 0 0 0 0 32357076.606559753 22470473.711280823 0 22470473.711280823 2538787.2184677124 0 0 0 0 27182983.968093872 10300083.431720734 0 10300083.431720734 -12450450.198867798 0 0 0 0 7190573.1804014808 14576404.947250374 0 14576404.947250374 -6506515.5801941305 0 0 0 0 31393683.541183472 22379682.518924713 0 22379682.518924713 -1091435.3491516113 0 0 0 0 -241348291.12367725 767108289.98201942 0 767108289.98201942 1000504243.608429 0 0 0 0 34644382.454711914 22452703.964286804 0 22452703.964286804 -7978992.8914909363 0 0 0 0 35926595.231027603 17774831.565671921 0 17774831.565671921 927412.96629333496 0 0 0 0 324563607.37280273 391168818.95639038 0 391168818.95639038 -188508908.79653931 0 0 0 0 161600806.44681549 131939885.98155975 0 131939885.98155975 237754461.47116089 0 0 0 0 5378349.3052348681 21199926.011857755 0 21199926.011857755 1050366.7302504554 0 0 0 0 161578564.27313232 119768179.19881058 0 119768179.19881058 -98806450.41607666 0 0 0 0 29040396.390613556 26525425.957637787 0 26525425.957637787 -3701626.8876037598 0 0 0 0 32104904.662361145 22403187.461151123 0 22403187.461151123 1840991.6771564484 0 0 0 0 32558139.708374023 22748074.38202095 0 22748074.38202095 -3896631.9111175537 0 0 0 0 39079843.269851685 19918783.262527466 0 19918783.262527466 -4446411.9489459991 0 0 0 0 -424402427.20971298 -318353382.69179535 0 -318353382.69179535 -28691961.562721252 0 0 0 0 10540967.111318998 20003182.804549787 0 20003182.804549787 -12148234.271912239 0 0 0 0 43306974.565628052 20913514.538948059 0 20913514.538948059 -9029905.8016815186 0 0 0 0 42683672.686368942 17024349.664861679 0 17024349.664861679 3975436.817565918 0 0 0 0 71231189.685119629 281471833.64822388 0 281471833.64822388 -156548301.80432129 0 0 0 0 -52733451.29864502 351252272.36889648 0 351252272.36889648 -129111491.95954323 0 0 0 0 37073424.403587341 26729306.687646866 0 26729306.687646866 -16024695.543426514 0 0 0 0 47521497.608520508 27261418.471496582 0 27261418.471496582 -9351890.3111877441 0 0 0 0 30982609.37701416 15084558.567886353 0 15084558.567886353 -16190818.887298822 0 0 0 0 83623739.049255371 150820818.93486023 0 150820818.93486023 5187625.2374267578 0 0 0 0 18226137.692382812 32403098.987770081 0 32403098.987770081 -226665083.91959381 0 0 0 0 25351398.350524902 74539464.077323914 0 74539464.077323914 -90718010.252853394 0 0 0 0 -96402164.472503662 134790966.02599716 0 134790966.02599716 4094092.9658813477 0 0 0 0 119780090.39880371 -108466087.10421753 0 -108466087.10421753 -62363098.31640625 0 0 0 0 -248193394.85101318 -280803738.45401001 0 -280803738.45401001 -88128553.935241699 0 0 0 0 -234141970.15702057 92286573.188926697 0 92286573.188926697 3454395.4874420166 0 0 0 0 1088330.028838478 1148849.3213466257 0 1148849.3213466257 307031.02486412227 0 0 0 0 15733713.755157471 45719163.835342407 0 45719163.835342407 -70183279.799133301 0 0 0 0 8660191.0494799465 13767471.582259769 0 13767471.582259769 -279303.64548831433 0 0 0 0 -66106.274743080139 16911670.29961133 0 16911670.29961133 3596205.0882873535 0 0 0 0 11931919.485870361 21991097.123691559 0 21991097.123691559 -1062978.375213623 0 0 0 0 -290864.36063289642 11526845.515403748 0 11526845.515403748 -1941908.391204834 0 0 0 0 -4655629.695790831 12422521.599739037 0 12422521.599739037 5707959.6619088799 0 0 0 0 95624216.740032196 -13161233.436250687 0 -13161233.436250687 1232524.6683044434 0 0 0 0 -1302400.1940765381 50783446.586662292 0 50783446.586662292 197793350.8862915 0 0 0 0 -2294588.2007589638 978532.75184891745 0 978532.75184891745 1796454.9118379578 0 0 0 0 -47464170.84375 17984695.631458282 0 17984695.631458282 -5380715.464050293 0 0 0 0 12551701.834646277 1004719.1626841165 0 1004719.1626841165 -10374858.374310404 0 0 0 0 8900511.3375549316 6438576.0364227295 0 6438576.0364227295 55811493.954055786 0 0 0 0 8945910.4131709747 1951732.9208836965 0 1951732.9208836965 -11264465.209800027 0 0 0 0 43258144.806846619 -27499898.392601013 0 -27499898.392601013 -54773607.975675583 0 0 0 0 13336458.671291351 15215860.352478027 0 15215860.352478027 -44936328.953964233 0 0 0 0 11521755.48376796 8082810.4688141122 0 8082810.4688141122 -8379978.2991852239 0 0 0 0 -3857428.3366470337 3542001.79322052 0 3542001.79322052 -11714413.892311096 0 0 0 0 22081230.993728638 32696434.552032471 0 32696434.552032471 -29763475.438274384 0 0 0 0 20230318.384307861 -11382397.926628113 0 -11382397.926628113 -45282176.352470398 0 0 0 0 127465181.3451004 39537865.506942749 0 39537865.506942749 -29470979.894058228 0 0 0 0 9082575.3663711548 64478305.277046204 0 64478305.277046204 -78657503.142539978 0 0 0 0 28899771.033782959 -23302877.086029053 0 -23302877.086029053 -35856156.905025482 0 0 0 0 8043968.8868218623 222907.92290174589 0 222907.92290174589 -5324934.5437421743 0 0 0 0 44168328.930473328 -27836489.967926025 0 -27836489.967926025 4858154.2502593994 0 0 0 0 76558950.512832642 -49504183.814651489 0 -49504183.814651489 -170493589.12644196 0 0 0 0 55282560.162246704 -118578285.90740967 0 -118578285.90740967 -152400360.57743835 0 0 0 0 127645683.58951569 115336920.47059631 0 115336920.47059631 50667046.287549973 0 0 0 0 -412117.94731943682 1358816.2844002284 0 1358816.2844002284 3140922.6169499978 0 0 0 0 30879044.866638184 -30187859.524375916 0 -30187859.524375916 -177283022.80503082 0 0 0 0 111115910.04638672 -81068215.029891968 0 -81068215.029891968 -166230396.68853378 0 0 0 0 76078083.104679108 -131658348.95937729 0 -131658348.95937729 -43396219.088531494 0 0 0 0 25353478.960762024 -133630849.14295959 0 -133630849.14295959 108324841.74479675 0 0 0 0 142513008.81642151 400778007.9694519 0 400778007.9694519 428537001.86086273 0 0 0 0 226619677.99156952 374234759.75934601 0 374234759.75934601 206496251.77949524 0 0 0 0 3079135.5965392441 -293459.96622553468 0 -293459.96622553468 -1888951.8169442136 0 0 0 0 1175233009.8023529 -89121079.426925659 0 -89121079.426925659 -1457330608.3286285 0 0 0 0 332392540.62753296 492774136.67434692 0 492774136.67434692 336782441.27625275 0 0 0 0 24153810.486213684 -180125232.54879379 0 -180125232.54879379 180934362.17295837 0 0 0 0 -53769626.977638245 -22692676.848344803 0 -22692676.848344803 -136349200.59117126 0 0 0 0 17041922.72240448 327195935.5244751 0 327195935.5244751 329106220.15489197 0 0 0 0 453571782.41719055 -97811998.662963867 0 -97811998.662963867 -215758396.45968628 0 0 0 0 314268706.15228081 309450088.02283669 0 309450088.02283669 44073673.776824951 0 0 0 0 169895812.82168579 122045982.76344299 0 122045982.76344299 -189625882.87390137 0 0 0 0 114057033.72472072 -73478698.991859198 0 -73478698.991859198 -26342020.592071533 0 0 0 0 80207513.138748169 336278361.35348511 0 336278361.35348511 367637528.31341553 0 0 0 0 1734469.4632525779 982337.06927528232 0 982337.06927528232 -2098918.2815456465 0 0 0 0 -58433262.916793823 30180414.808624268 0 30180414.808624268 455871407.21656036 0 0 0 0 14906524.027938843 -134575335.62442017 0 -134575335.62442017 361939251.53063965 0 0 0 0 8258824.2302818298 67510701.46648407 0 67510701.46648407 95425075.48374939 0 0 0 0 34061275.995513916 115869560.50057983 0 115869560.50057983 105909195.3522644 0 0 0 0 -7154115.7192802429 335425905.63856125 0 335425905.63856125 -38119445.121383667 0 0 0 0 6482019.0595417023 209399296.20828819 0 209399296.20828819 -9159747.6806945801 0 0 0 0 -40842348.657440186 39212487.270874023 0 39212487.270874023 79568866.181877136 0 0 0 0 -21239125.822494507 85224295.06980896 0 85224295.06980896 6623337.3033294678 0 0 0 0 43469898.909156799 51003331.083526611 0 51003331.083526611 -203570067.15283203 0 0 0 0 -42675842.586044312 16568626.566574097 0 16568626.566574097 -43793845.770881653 0 0 0 0 -34727393.545276642 34516646.86756897 0 34516646.86756897 79726310.376068115 0 0 0 0 -41314582.804458618 -5486255.8471908569 0 -5486255.8471908569 144636892.37292099 0 0 0 0 71780868.860664368 -35937336.579715729 0 -35937336.579715729 64108066.396850586 0 0 0 0 -9787176.2408905029 25206245.082702637 0 25206245.082702637 58991348.020050049 0 0 0 0 -3006071.2281227112 19229584.705255508 0 19229584.705255508 63591079.401519775 0 0 0 0 186626263.95940399 119406933.77932739 0 119406933.77932739 -352505616.81861877 0 0 0 0 231914478.10029125 -19849541.093091965 0 -19849541.093091965 -113997839.31489563 0 0 0 0 36360959.107501745 100298274.09937286 0 100298274.09937286 -322807.4762878418 0 0 0 0 -13527038.193576813 30948041.454315186 0 30948041.454315186 80764769.665985107 0 0 0 0 34276984.457590461 25725849.377284404 0 25725849.377284404 -3173519.2592005581 0 0 0 0 9205910.8795456104 9365268.6548084319 0 9365268.6548084319 10383772.800067063 0 0 0 0 94758243.108886719 232260823.18893433 0 232260823.18893433 -285595763.17196655 0 0 0 0 -93609171.802627563 255248563.37052917 0 255248563.37052917 -66574096.112892151 0 0 0 0 67522628.545288086 -8194412.5284423828 0 -8194412.5284423828 29981699.12165451 0 0 0 0 18994431.184682988 25604996.293785051 0 25604996.293785051 4592370.2327644378 0 0 0 0 33319371.518649101 32104758.618392944 0 32104758.618392944 -8375471.3646850586 0 0 0 0 -9521174.6751022339 31393218.142417908 0 31393218.142417908 2374154.0130691528 0 0 0 0 14724106.482051708 26208956.967980579 0 26208956.967980579 10004698.201179348 0 0 0 0 229988166.66096497 -8515922.0126647949 0 -8515922.0126647949 -591462906.72701263 0 0 0 0 3901489.8003005981 17516642.354072571 0 17516642.354072571 -10539614.037399292 0 0 0 0 21559634.61805322 20691311.727105066 0 20691311.727105066 803709.10347823799 0 0 0 0 -154704008.53982544 521781.65570068359 0 521781.65570068359 -207462698.31774139 0 0 0 0 -1456144.2997131348 80260140.817344666 0 80260140.817344666 -267250269.96903992 0 0 0 0 -312337.89482367411 22552804.972525731 0 22552804.972525731 20730973.918103442 0 0 0 0 318967.95477294922 13362113.434967041 0 13362113.434967041 8226444.6544723511 0 0 0 0 -1158283.1054973602 22623720.739776611 0 22623720.739776611 14764478.262664795 0 0 0 0 4151450.7611577474 14078081.776432555 0 14078081.776432555 8544262.1532127149 0 0 0 0 8946265.898048155 23842224.891983896 0 23842224.891983896 11332050.14095193 0 0 0 0 24626901.637211323 -121192903.84228992 0 -121192903.84228992 -252645902.04905701 0 0 0 0 -4582928.7791366577 17468654.062744141 0 17468654.062744141 7200579.5310516357 0 0 0 0 -24108902.243757248 28717854.246337891 0 28717854.246337891 7825169.3020935059 0 0 0 0 5164034.5888233185 20202755.203544617 0 20202755.203544617 -1495289.9972991943 0 0 0 0 11443600.918621261 23974683.485898066 0 23974683.485898066 9247299.7876982093 0 0 0 0 18637265.933231354 62278650.246109009 0 62278650.246109009 -164788.78941345215 0 0 0 0 18650789.548392296 64482195.596370697 0 64482195.596370697 -20670394.95324707 0 0 0 0 28204839.404200554 37493778.275741577 0 37493778.275741577 -8072026.204864502 0 0 0 0 1257639.2673110962 59785487.732421875 0 59785487.732421875 428532.56359863281 0 0 0 0 79211785.397430182 71838862.996822357 0 71838862.996822357 -64598894.173095703 0 0 0 0 77288878.212795258 54982804.390960693 0 54982804.390960693 -19134095.46975708 0 0 0 0 49743714.641639709 89343473.527503967 0 89343473.527503967 -8191206.4204559326 0 0 0 0 58616958.941856384 85360898.898651123 0 85360898.898651123 -17246199.407775879 0 0 0 0 69175887.212360382 99602405.238182068 0 99602405.238182068 -40982112.757827759 0 0 0 0 92006733.585540771 91750946.895767212 0 91750946.895767212 -96458740.11413765 0 0 0 0 105345799.23114014 118019890.49731445 0 118019890.49731445 -71187920.825500488 0 0 0 0 16995540.846645772 18356187.551033217 0 18356187.551033217 283181.43937047292 0 0 0 0 13380639.283892609 19540774.199976534 0 19540774.199976534 7653971.2643433511 0 0 0 0 13606687.355888367 19911185.258049011 0 19911185.258049011 5114386.8729953766 0 0 0 0 7107694.9218444824 21871040.852050781 0 21871040.852050781 16058771.786987305 0 0 0 0 -22916810.542289734 31096151.210089207 0 31096151.210089207 45957605.720031738 0 0 0 0 -7389553.0098750666 14915118.758861346 0 14915118.758861346 12123255.522314414 0 0 0 0 -4554213.7540740967 24237264.970489502 0 24237264.970489502 11531114.787731171 0 0 0 0 -1567608.9060104191 3061091.6111193337 0 3061091.6111193337 2945250.425314663 0 0 0 0 -30386577.157690644 114294043.70808148 0 114294043.70808148 -18738323.221343994 0 0 0 0 881789.75786013901 1380528.387526162 0 1380528.387526162 1737269.9251765758 0 0 0 0 -32372593.232911348 31126375.856654406 0 31126375.856654406 59053260.786346436 0 0 0 0 20847227.202514648 40142732.001953125 0 40142732.001953125 53543357.931213379 0 0 0 0 114145617.45510864 -7265027.1465606689 0 -7265027.1465606689 -72756726.02154541 0 0 0 0 -19989728.806533813 111875186.79927063 0 111875186.79927063 160270684.36340332 0 0 0 0 7280497.8421726227 -24754608.693256378 0 -24754608.693256378 163200616.37078857 0 0 0 0 7504806.819789499 -375494.61084786244 0 -375494.61084786244 -7018237.1787011474 0 0 0 0 -1729593.3754005432 38199434.998985291 0 38199434.998985291 37502446.319381714 0 0 0 0 117568091.59753418 -63480532.416252136 0 -63480532.416252136 160166249.19476318 0 0 0 0 9283109.0896917954 23377275.128149208 0 23377275.128149208 3992454.7500320375 0 0 0 0 -11960438.561904907 22224168.177219391 0 22224168.177219391 26333689.04258728 0 0 0 0 3896560.3508016169 18029910.634591274 0 18029910.634591274 8845632.7810056787 0 0 0 0 24157171.848655701 37244810.271903992 0 37244810.271903992 -5731570.8956756592 0 0 0 0 -17549860.283691406 26840847.188842773 0 26840847.188842773 37433936.111740112 0 0 0 0 1949974.6746123731 4543560.3571526669 0 4543560.3571526669 -208159.26855480298 0 0 0 0 2501634.5208731722 18976551.77630014 0 18976551.77630014 6449347.0629132241 0 0 0 0 6002572.5259935558 15656520.010633932 0 15656520.010633932 6300757.9681503177 0 0 0 0 7631729.4046211243 20569430.928726196 0 20569430.928726196 5431258.7444763184 0 0 0 0 7260571.2592792511 23155388.838546753 0 23155388.838546753 2620710.7538604736 0 0 0 0 11861923.666252136 22886154.778457642 0 22886154.778457642 4199045.9570541382 0 0 0 0 15986570.513080597 20558475.909622192 0 20558475.909622192 2299967.5374908447 0 0 0 0 9703523.8216968123 18113440.048717141 0 18113440.048717141 3590543.6717806756 0 0 0 0 12715101.405902863 19122988.992248535 0 19122988.992248535 3938233.3615875244 0 0 0 0 -6684317.6717376709 24131852.831130981 0 24131852.831130981 1048814.5743408203 0 0 0 0 5239201.7428545924 15392909.988551989 0 15392909.988551989 4539440.5795264244 0 0 0 0 24162010.835902452 21027827.627382278 0 21027827.627382278 7578048.634765625 0 0 0 0 4249877.6893971767 22514618.647668388 0 22514618.647668388 14455702.474644765 0 0 0 0 24264562.518348694 19695890.229873657 0 19695890.229873657 3950581.7484664917 0 0 0 0 14623756.718047142 45024149.624060631 0 45024149.624060631 26618928.009033203 0 0 0 0 20797318.056557465 16262109.968990915 0 16262109.968990915 -219675.60322223604 0 0 0 0 17436518.725125551 31019654.18611908 0 31019654.18611908 13382012.075286865 0 0 0 0 6979882.3011779785 23638835.868942261 0 23638835.868942261 13464508.670806885 0 0 0 0 6712752.6968765259 25849605.912223816 0 25849605.912223816 11159549.779708862 0 0 0 0 5880745.0109863281 24652144.670646667 0 24652144.670646667 15212552.312379837 0 0 0 0 -1369017.4358711243 30760281.444541931 0 30760281.444541931 24929196.78137207 0 0 0 0 8843760.8617630005 33269884.072250366 0 33269884.072250366 13137377.451347351 0 0 0 0 -21816268.834442139 21635802.462135315 0 21635802.462135315 6418496.2047252655 0 0 0 0 4153105.5579605103 36278277.904556274 0 36278277.904556274 18853906.094284058 0 0 0 0 13275046.312001335 24630748.277809866 0 24630748.277809866 14235616.009904683 0 0 0 0 -20369003.23147583 17956706.325050354 0 17956706.325050354 5435517.5694580078 0 0 0 0 7933353.8869343828 19084586.918060329 0 19084586.918060329 9065452.4991569817 0 0 0 0 -12114954.047464624 5770658.3560495824 0 5770658.3560495824 12646195.222181052 0 0 0 0 -35156131.61505127 79256513.75944519 0 79256513.75944519 -20362708.596054077 0 0 0 0 -57572041.966171265 -12246715.279121399 0 -12246715.279121399 46285670.267024517 0 0 0 0 -35051424.685653687 39275716.75718689 0 39275716.75718689 41418428.922149658 0 0 0 0 -16856034.694488525 35086953.997421265 0 35086953.997421265 -23794590.214942932 0 0 0 0 -47383369.064056396 15184859.530288696 0 15184859.530288696 1919878.9171905518 0 0 0 0 7710458.789980486 4839174.5245150253 0 4839174.5245150253 -1340688.5578885525 0 0 0 0 13187870.667201946 25142725.951950248 0 25142725.951950248 12476329.157217748 0 0 0 0 159057605.13456726 -2398049.1905975342 0 -2398049.1905975342 29664244.800064087 0 0 0 0 -70532534.658828735 5801309.1418075562 0 5801309.1418075562 5559630.8445739746 0 0 0 0 -85694051.20262146 35410213.768558502 0 35410213.768558502 64306644.782577515 0 0 0 0 -26550462.78235358 22678739.102928851 0 22678739.102928851 32774284.025358118 0 0 0 0 -17634592.032154031 16311641.801486364 0 16311641.801486364 20266035.241461068 0 0 0 0 144658454.34136963 -95321240.119094849 0 -95321240.119094849 -558818632.57885742 0 0 0 0 -86330358.347290039 51782033.993408203 0 51782033.993408203 39496214.010688782 0 0 0 0 -18772128.702927589 -16447113.201357841 0 -16447113.201357841 13666948.851409912 0 0 0 0 -25272442.336959839 202960712.3157196 0 202960712.3157196 884529686.44842529 0 0 0 0 7493635.0145721436 43975942.491317749 0 43975942.491317749 41760720.466278076 0 0 0 0 -67358233.986251831 57902133.112102509 0 57902133.112102509 91490759.27381897 0 0 0 0 -32627943.210388184 75959940.474060059 0 75959940.474060059 93577523.42158699 0 0 0 0 9325139.4395847321 43331807.216767073 0 43331807.216767073 -2584804.5047988892 0 0 0 0 -8854033.3735379279 2785098.549289925 0 2785098.549289925 5982983.9981416613 0 0 0 0 -18338196.327552795 9630187.8572235107 0 9630187.8572235107 20572174.321105957 0 0 0 0 13463273.297148865 23355216.281362858 0 23355216.281362858 9576985.6018922105 0 0 0 0 11925840.175018311 71008010.446838379 0 71008010.446838379 118063176.49578094 0 0 0 0 8099169.6177854538 67075916.985915065 0 67075916.985915065 76552732.332794189 0 0 0 0 6307508.0153808594 42729824.097389221 0 42729824.097389221 39752690.144248962 0 0 0 0 -4496910.4825439453 48358031.321769714 0 48358031.321769714 84693287.102737427 0 0 0 0 37183022.767314911 53139625.466342449 0 53139625.466342449 34928904.306365967 0 0 0 0 36963541.014945984 54925044.486773968 0 54925044.486773968 32804255.235961914 0 0 0 0 77822857.197494507 72001749.223491669 0 72001749.223491669 17785474.578300476 0 0 0 0 9877852.8681640625 30175875.90650177 0 30175875.90650177 20995940.249565125 0 0 0 0 46060570.073852539 46907792.832305908 0 46907792.832305908 1185524.1612854004 0 0 0 0 -5467797.7999572754 57476529.148323059 0 57476529.148323059 9932071.4884185791 0 0 0 0 -52300965.387714386 25603764.770701408 0 25603764.770701408 10372268.324493408 0 0 0 0 70995337.984039307 -24421628.240219116 0 -24421628.240219116 -34969780.452049255 0 0 0 0 48838974.748939514 43216936.435556412 0 43216936.435556412 -10639288.877365112 0 0 0 0 122249148.65380859 61833681.649230957 0 61833681.649230957 -40030512.594306946 0 0 0 0 111417246.99243164 63694052.13734436 0 63694052.13734436 -31883946.040962219 0 0 0 0 99794935.792491913 99280437.954216957 0 99280437.954216957 -4537718.3519897461 0 0 0 0 65111680.617401123 86980857.251243591 0 86980857.251243591 -381457.34790039062 0 0 0 0 64894880.972839355 86335532.896408081 0 86335532.896408081 30397526.545166016 0 0 0 0 6242925.8733825684 102326069.87148666 0 102326069.87148666 28973300.965576172 0 0 0 0 9235780.6325492859 29080083.010803342 0 29080083.010803342 -4444396.5932006836 0 0 0 0 38790090.134033203 15782343.945251465 0 15782343.945251465 54841142.233539581 0 0 0 0 47231829.978660583 74575336.791318893 0 74575336.791318893 22926519.642532349 0 0 0 0 34344172.888965607 51026116.660470963 0 51026116.660470963 78116620.887207031 0 0 0 0 63368739.344116211 64983473.600784302 0 64983473.600784302 23077721.381660461 0 0 0 0 79957728.613189697 70279327.490688324 0 70279327.490688324 8340033.4746856689 0 0 0 0 44240544.701568604 8621263.9383583069 0 8621263.9383583069 -1969532.786277771 0 0 0 0 177655.65093994141 14164635.152324677 0 14164635.152324677 -957271.73341369629 0 0 0 0 62250268.781768799 73024118.282550812 0 73024118.282550812 27215399.168434143 0 0 0 0 86083732.136352539 94451058.489585876 0 94451058.489585876 75149594.757423401 0 0 0 0 -391457.76943711191 1385514.7322260067 0 1385514.7322260067 182463.89787108451 0 0 0 0 -58865290.393737793 -157808960.93772125 0 -157808960.93772125 258163402.30960083 0 0 0 0 9502232.5932769775 17176139.153015137 0 17176139.153015137 229349068.59063721 0 0 0 0 37043332.707427979 -165391578.14835358 0 -165391578.14835358 196137811.55607796 0 0 0 0 114744359.49749756 119591198.73438263 0 119591198.73438263 170935599.99155045 0 0 0 0 98867032.786453247 -109858119.37327576 0 -109858119.37327576 -210579732.10217285 0 0 0 0 62705130.437423706 80694152.689189911 0 80694152.689189911 58563994.15284729 0 0 0 0 109393138.4866333 59179079.505622864 0 59179079.505622864 22953496.768536329 0 0 0 0 73462848.602325439 22907364.704006195 0 22907364.704006195 16440609.651275635 0 0 0 0 210250743.73626709 52348503.144668579 0 52348503.144668579 22774840.675292969 0 0 0 0 205556349.42358398 284676754.21333313 0 284676754.21333313 165746028.04818344 0 0 0 0 302055554.19250488 189785510.95082092 0 189785510.95082092 -168139312.67919445 0 0 0 0 82572051.625091553 79382025.707305908 0 79382025.707305908 54230348.045471191 0 0 0 0 87428913.521911621 86092713.585289001 0 86092713.585289001 58830057.732346058 0 0 0 0 34495271.627838135 -241251321.38739777 0 -241251321.38739777 273419958.67861557 0 0 0 0 15170419.038799286 80637178.448093414 0 80637178.448093414 362480498.30152893 0 0 0 0 1675047.4332575798 452045.05245986395 0 452045.05245986395 -286928.91067619808 0 0 0 0 160505075.45023346 -595153903.17790508 0 -595153903.17790508 -762056143.38035583 0 0 0 0 74508430.112442017 107476197.87632751 0 107476197.87632751 -87576498.625564575 0 0 0 0 1101668.7555040196 1171489.1205326393 0 1171489.1205326393 -1328148.5340990946 0 0 0 0 419447758.93169403 134235341.01418877 0 134235341.01418877 -468794769.027771 0 0 0 0 111390340.77293015 38945347.800289154 0 38945347.800289154 -67018697.625648499 0 0 0 0 88819786.236953735 13147112.683681488 0 13147112.683681488 -92980880.764411926 0 0 0 0 -275111220.09917831 -208006895.68158913 0 -208006895.68158913 -51651987.684082031 0 0 0 0 1425537.2998657227 167005105.02627563 0 167005105.02627563 -322117469.98411942 0 0 0 0 401601.21422041953 368931.49276694655 0 368931.49276694655 -398754.71650181711 0 0 0 0 545025729.30558777 -338573079.08017349 0 -338573079.08017349 -148798910.31590271 0 0 0 0 -15281327.775512695 407806812.90856171 0 407806812.90856171 1223010811.4335327 0 0 0 0 -134007830.38037109 -244218834.60409546 0 -244218834.60409546 222297961.5267868 0 0 0 0 -129405094.43841553 181784849.00073242 0 181784849.00073242 -279631303.62896729 0 0 0 0 237411918.30860901 362588689.76836014 0 362588689.76836014 -253381245.19004822 0 0 0 0 -664529752.19669342 -265342744.75505638 0 -265342744.75505638 -602763506.27737427 0 0 0 0 -134660673.81607056 550279530.16911316 0 550279530.16911316 -1338363536.223156 0 0 0 0 -1299067387.6209793 1265246684.3553371 0 1265246684.3553371 -731661689.152565 0 0 0 0 -370172035.65539551 603725372.42102814 0 603725372.42102814 -264150577.51309586 0 0 0 0 -388151382.20874023 568726191.18507957 0 568726191.18507957 -292190628.85383606 0 0 0 0 233310493.12597656 75927718.942619324 0 75927718.942619324 -428157670.06410217 0 0 0 0 -546781084.81314659 690383863.09059644 0 690383863.09059644 -111467987.87172699 0 0 0 0 228361419.97490692 -34931593.992238998 0 -34931593.992238998 -46187228.524887085 0 0 0 0 716244.91009639949 837399.75459980965 0 837399.75459980965 -957555.99840180576 0 0 0 0 -461925712.21047974 608840661.5860405 0 608840661.5860405 -254190453.93518066 0 0 0 0 -110109277.30207825 220373637.7925148 0 220373637.7925148 -183391606.13758469 0 0 0 0 122859175.58178711 83615318.099388123 0 83615318.099388123 -111080279.9131813 0 0 0 0 -13554757.359420776 1184209.9971122742 0 1184209.9971122742 -11492226.382339478 0 0 0 0 -35252675.185138702 17115654.293581963 0 17115654.293581963 -33712175.76234436 0 0 0 0 30785063.964019775 4949919.172504425 0 4949919.172504425 -48260234.208984375 0 0 0 0 32248394.12707901 15210991.375271797 0 15210991.375271797 -29431578.941627502 0 0 0 0 82555297.480270386 29951424.277452469 0 29951424.277452469 -41811643.136230469 0 0 0 0 2016185.2858734131 5265683.1468048096 0 5265683.1468048096 -9221215.6203231812 0 0 0 0 -4462899.5828680862 15456490.453825958 0 15456490.453825958 478058.36456494033 0 0 0 0 -15632251.346511841 12950308.917900085 0 12950308.917900085 12765424.089797974 0 0 0 0 30247780.263565063 21166246.003723145 0 21166246.003723145 -21481088.034034729 0 0 0 0 4540657.1105639935 9758832.9197864793 0 9758832.9197864793 183693.48744953237 0 0 0 0 10926856.507461548 9131187.0680274963 0 9131187.0680274963 1847271.390007019 0 0 0 0 -4487711.7478027344 14859702.34803772 0 14859702.34803772 -2280194.3770141602 0 0 0 0 -9649609.2866668701 20974700.08380127 0 20974700.08380127 980229.04090881348 0 0 0 0 -13282313.933120728 11369153.59526062 0 11369153.59526062 -3002626.8065795898 0 0 0 0 -876278.98138195276 1637444.3604140971 0 1637444.3604140971 701963.16356980056 0 0 0 0 12110602.744287718 11747211.621124975 0 11747211.621124975 -478511.19340452552 0 0 0 0 3441409.4773026705 16274021.509514837 0 16274021.509514837 4696207.0039470121 0 0 0 0 -5317808.6575927734 14298380.889385223 0 14298380.889385223 -324534.15450286865 0 0 0 0 -1427606.2333221436 13178800.702545166 0 13178800.702545166 -3892963.3643569946 0 0 0 0 -15867402.80480957 9709259.2119979858 0 9709259.2119979858 11210806.872982025 0 0 0 0 -11459609.459487915 17727916.400886536 0 17727916.400886536 52412477.236358643 0 0 0 0 11351910.775482178 28307767.414848328 0 28307767.414848328 41352721.915039062 0 0 0 0 4554149.6671952903 2373502.6798549145 0 2373502.6798549145 -858409.15871793777 0 0 0 0 -3550476.4208450317 3461578.1452388763 0 3461578.1452388763 71982207.214233398 0 0 0 0 74824225.55002594 -9976102.962223053 0 -9976102.962223053 -7231435.7183761597 0 0 0 0 13650917.279434204 13413638.761013031 0 13413638.761013031 -8195916.4787483215 0 0 0 0 
</DataArray>
<DataArray type="Float64" Name="cross_section_updated" format="ascii">
1 1 0.051203749962790687 1 1 1 1 0.051204405144103113 1 1 1 1 1 1 1 1 1 1 1 1 0.046919053834815788 1 1 1 1 0.046916637601862751 1 1 1 1 1 1 1 0.049880835279283608 1 1 1 1 1 1 1 1 0.049830089609229994 1 1 1 1 1 1 1 1 1 1 1 0.049690282405297437 0.049857630075464329 1 1 1 1 1 1 1 1 0.037588735318406841 1 1 1 1 1 1 1 1 1 1 1 1 1 1 1 1 1 1 1 1 1 1 0.039607544913121739 1 1 1 1 1 1 1 1 1 1 1 0.037561414657935568 1 1 1 0.045083458297758741 1 1 1 1 1 1 1 1 1 1 1 1 1 1 1 1 1 1 1 1 1 1 1 1 1 1 1 1 1 1 1 1 1 1 1 1 1 1 1 1 1 1 1 1 1 0.050055872849723862 1 0.04678735918241729 1 1 1 1 1 1 1 1 1 1 1 1 1 1 1 1 1 1 1 1 1 1 1 1 1 1 0.032813732532651171 1 1 0.048103055308459777 1 0.046563439416760208 1 1 1 1 1 1 1 1 1 1 1 1 1 1 0.060409364801536414 1 0.060413741840515352 1 1 1 1 1 1 1 0.022281048721286223 1 0.042092891100108137 1 1 1 1 1 1 0.050312886379949899 1 1 0.016144269892716168 1 1 1 1 1 1 0.01005478456781185 0.085322563760500986 1 1 0.05117009096925608 1 0.069899892127820093 1 0.050898234018970319 0.053051772552949461 1 1 1 0.07780004331151294 1 1 1 1 1 1 1 1 1 1 1 1 1 0.092320919634533316 1 1 1 1 1 1 1 0.099076481345703349 1 1 1 1 1 1 1 0.10544438391060201 1 1 1 1 0.050888302976350393 1 1 1 1 1 1 0.051292242919238083 1 1 1 0.05327327826763345 1 1 1 1 1 1 1 0.056622265524159207 1 1 1 1 1 1 0.055540351461657346 1 1 1 1 1 1 0.044043090096724205 1 1 1 1 1 1 1 0.05145288596195572 1 1 1 1 1 1 1 1 1 1 1 1 1 1 1 1 1 1 1 1 1 0.055092097256974212 0.050395916258868537 1 1 1 1 1 0.027704997252186433 1 1 1 1 1 1 1 0.056671659150370028 1 0.027384161770630883 1 1 1 0.064114982321506114 1 1 1 0.045829029979579272 1 0.050071397481237498 1 1 1 1 1 1 1 0.00061060731714374789 1 1 1 1 1 1 1 0.11081413213259003 1 1 1 0.049985872224086722 1 1 1 1 1 1 1 1 1 1 1 1 1 1 1 1 1 1 1 1 1 1 1 1 1 1 1 1 1 1 1 1 0.0042414196050529832 1 1 1 1 1 1 1 1 1 1 1 1 1 1 1 1 1 1 1 1 1 1 1 1 1 1 1 1 1 1 1 1 0.048417161413059559 1 1 1 1 1 1 1 1 1 1 1 1 1 1 1 1 1 1 1 1 0.049173475036323272 1 1 1 1 1 1 1 0.050686806064062118 1 1 1 1 1 0.052207921067347812 1 1 0.049992472497955624 1 0.037729511572359924 1 1 1 1 0.033766106661219659 1 1 0.029811416596089074 1 1 1 1 1 1 0.046230606829273393 1 1 1 1 1 1 1 1 1 1 1 1 1 1 1 1 1 1 1 0.03517766214956787 1 1 1 1 1 1 1 1 1 1 1 0.050255982914380312 0.032726454658256826 1 1 1 1 1 1 1 1 1 1 1 1 1 1 1 1 1 1 1 1 1 0.046836182352136463 1 0.048934713227782242 0.043073595532330887 1 1 0.051954315962937904 1 1 1 1 1 1 1 1 1 1 1 1 1 0.039696851720975708 1 1 1 1 1 1 1 0.050753832221816245 0.05199704011656045 1 1 1 1 1 1 1 1 0.048059899063472494 0.052473265901847241 1 1 1 0.053452237812382189 1 1 1 1 1 1 1 1 1 1 1 1 1 1 1 1 1 1 1 1 1 1 1 1 1 1 1 1 1 1 1 1 1 1 1 0.051362424334931295 1 1 0.049637413822697776 1 1 1 1 0.049258531130439723 1 1 1 0.049611672942340576 1 1 1 0.049902007682789587 1 1 0.04970921826004869 1 1 1 1 1 1 1 1 1 1 1 1 1 1 1 1 1 1 1 1 1 0.049197710687536089 1 1 1 0.049101989274469404 1 1 1 1 1 0.04783917231386256 1 1 1 1 1 1 0.049706614970182778 1 1 1 1 1 1 1 1 1 1 1 1 1 1 1 1 1 1 0.049802305626816243 1 1 1 1 1 1 1 1 1 1 1 1 1 1 1 1 1 1 1 1 1 0.049621117307741928 1 1 1 1 1 1 1 1 1 1 1 1 1 1 1 0.051008234746706779 1 1 1 1 1 1 1 1 1 1 1 1 1 1 1 1 1 1 0.054996535982096764 1 1 1 1 1 1 1 0.04862829073860582 1 1 1 1 1 1 1 1 1 1 1 1 1 1 1 1 1 1 1 1 1 0.050992690233917455 1 1 1 1 1 1 1 1 1 0.053019218079697623 1 1 1 1 1 1 1 1 0.0097300158835533709 1 1 1 1 1 1 1 1 1 1 1 1 1 1 1 1 1 1 1 0.10651300505847468 1 1 1 1 1 0.016694191563386099 1 1 1 0.049591781796470474 1 1 1 1 1 1 0.038924771736984651 1 1 1 1 1 1 1 1 1 1 0.05542321804697542 1 1 1 1 1 1 1 1 1 1 1 1 0.033553446264888633 1 0.067710004944112057 1 1 1 1 1 1 1 0.094855177524766854 1 1.3877787807814457e-17 1 1 1 1 1 1 1 1 1 1 1 1 1 1 1 1 1 1 1 1 1 1 1 1 1 1 1 1 1 1 1 1 1 1 1 1 1 1 1 1 1 1 1 1 1 0.04306465973915341 0.052034402172063315 1 1 0.050761204873790294 1 1 1 1 1 1 1 1 1 1 1 1 1 1 1 1 0.051617311801868446 1 1 1 1 0.094023061835478761 1 1 0.051911947310249562 1 1 1 1 1 1 0.089304271014010242 1 0.084841292722016043 1 1 0.049050076898360204 1 1 1 1 1 1 1 1 1 1 0.059783486202902622 1 1 1 1 1 0.051146460770204141 0.050103321807963216 1 1 1 1 0.070683500279274628 1 1 0.07538235977023322 1 0.026385307783082901 1 1 1 1 1 0.053933290673092896 1 1 0.050021541132037786 1 1 1 1 1 1 1 1 1 1 1 1 0.050414056881741047 1 1 1 1 1 1 1 1 1 1 1 1 1 1 1 0.05714357572631551 1 0.050001989989965467 1 0.047415391359008643 0.046095718482706688 1 0.057103053998615025 1 1 0.050046214218765275 1 1 1 1 1 1 0.034263169862834023 1 0.050317745901083018 1 1 0.027433538644561939 1 1 1 0.059747095488726122 1 1 0.049998845219277166 1 1 1 1 1 0.023813342162452691 1 1 0.050761200711420082 1 1 1 1 1 0.050125291045578918 1 0.062546395981179115 1 1 0.061268754414087925 1 1 0.048583950507520582 1 1 1 1 1 1 1 1 0.051196541853373578 1 1 1 1 1 1 1 1 1 1 0.053587054060997522 1 1 1 1 0.052803164992229604 1 1 0.051956900342588694 1 1 1 1 1 0.048059585234559409 1 1 1 1 1 0.050011771837018743 1 0.050355627138505762 1 1 1 1 1 1 0.050174761525948394 1 1 1 1 1 1 1 1 0.050959547931904298 0.060826768736924421 0.055786479185576873 1 1 1 1 0.049050197803373052 1 0.055082753566245674 1 1 1 0.060693379182242914 0.050039068720175717 1 1 1 0.053519279894878181 1 1 1 0.060845819105549384 1 0.046909795483007638 1 0.055799109197507836 0.05587947411765138 1 0.04998555805950905 1 1 1 1 0.065505129437544635 1 1 1 0.049726266344151032 1 0.06666522554755594 1 0.028017408393736391 1 1 1 1 1 1 1 0.050007352028068192 1 1 1 1 0.036928456062787336 1 1 1 1 1 1 1 1 0.049981697158918037 1 0.050020379952232012 0.049152022102274942 1 1 1 0.047266550954337794 1 1 1 1 0.043834507881892235 0.047976840343671043 1 1 0.041692528618361306 0.050435263667648056 1 1 1 1 1 0.050178058398180708 1 1 1 1 1 1 1 1 0.050113227593661588 1 0.050228332862443048 1 1 1 1 1 1 1 1 1 1 1 1 1 1 1 1 1 0.050180801803765732 1 1 1 1 1 1 1 1 1 1 1 1 1 1 1 1 1 1 1 1 1 1 1 1 1 0.049965823851382346 1 0.050508738019610422 1 1 1 1 1 0.049994428856128315 0.050006343920297076 1 1 1 1 0.049899194930384944 0.049980845494003431 1 0.050900069398489456 1 1 0.048756298419789415 1 1 0.052847981932807694 1 1 1 1 0.049625875079295181 0.049724367974391975 1 1 1 1 1 1 1 1 0.049989305995008185 1 1 0.049951731665760668 1 1 1 0.049757634887782343 1 1 0.049967964499316384 1 1 1 1 1 1 0.050521511515570924 1 1 1 1 1 1 0.043900186013918374 1 1 1 1 1 0.051618779261196152 1 1 0.059196995350572656 0.040590826785064718 1 1 0.044354849785337852 1 1 0.049973982222106139 1 1 1 1 1 1 1 1 1 1 1 1 0.057822747451159978 1 0.048931596856745724 1 1 0.049517588330295834 1 1 1 1 1 1 0.050008064976664199 1 1 1 0.048456916922195475 0.056765701757060305 0.050001255862846365 1 1 1 0.046628712770520803 0.05061904536909384 1 0.048286142704951643 0.059679695449740028 1 1 0.052593429748164 1 1 0.04905630330248989 1 0.047955579631503903 1 0.051884405162924307 1 1 1 0.050002619923955688 0.048725513258178428 1 1 0.049852234022563793 0.048781067720537127 0.052345109887328614 0.052081098133185968 1 1 1 0.050100062540965967 0.050221974110093395 1 1 0.047391884241171231 0.058060214998995927 0.051945796870993599 1 0.047102113225066772 0.050629341948905934 1 1 0.053522262188571347 1 0.052018594364667298 0.047105417632459311 1 0.056891746581311395 1 1 0.04995051785590221 1 0.056349143284334005 0.050714934639740056 1 1 1 1 0.050463664639904038 0.055484444886107723 1 1 0.049977750564120758 1 1 1 0.04993434628683345 1 1 1 1 1 1 1 1 1 1 1 1 1 1 1 1 1 1 1 1 1 1 1 1 1 1 1 1 1 1 1 1 1 1 1 1 1 1 1 1 1 1 1 1 1 1 1 1 1 1 1 1 1 1 1 1 1 1 0.036665961790211324 1 0.045782992686259322 1 1 1 1 1 1 1 1 1 1 1 1 1 1 0.035352303735338902 1 1 1 1 1 1 1 1 1 1 0.0451610530144664 1 1 1 1 1 1 1 1 1 1 1 1 1 1 1 1 1 1 1 1 1 1 1 1 1 1 1 1 1 1 1 1 1 1 1 1 1 1 1 1 1 1 1 1 1 1 0.049872451262922696 1 1 1 0.049341841417881158 1 0.051135337601630595 1 1 1 1 1 0.053155616616183662 1 0.047901573235409819 1 1 1 1 1 1 1 1 1 1 1 1 1 1 1 1 1 1 1 1 1 1 1 1 1 0.049250456867372942 1 1 1 1 1 1 0.032175351174178989 1 0.0440903080190585 1 1 1 0.024642092182869432 1 1 0.02020368608397511 1 1 1 1 1 1 1 1 1 1 1 1 1 1 1 1 1 1 1 1 1 1 1 1 1 1 1 1 1 1 1 1 1 1 1 1 1 0.054116245187313387 1 0.041380792753307735 1 1 1 1 1 1 1 1 1 1 0.050547203315806012 1 1 1 1 1 1 1 1 1 1 1 1 1 1 1 1 1 0.045942243164632857 1 1 1 0.050044045475405564 0.010478298635981098 1 0.030178075244808249 1 1 1 1 1 1 1 1 0.051833248695035479 1 1 1 1 0.050787095880995753 1 1 1 1 1 1 1 0.049547205756995095 1 1 0.035122874885178325 1 0.021922259206038922 1 1 0.051183295759836926 1 1 0.030245327207918907 0.050075555956507249 1 1 1 1 1 1 1 1 1 1 1 1 1 1 1 0.0082528174222397735 1 0.040738771628361384 1 1 1 0.055100799274008599 1 0.049080434196717315 1 1 1 1 1 1 1 1 1 1 1 1 0.050029656349271236 1 0.051335949351619163 1 1 1 1 1 1 1 1 0.049988628907012903 1 1 0.046403806468729991 1 1 1 0.049365815886744401 0.046930148234790012 1 1 1 1 1 1 1 1 1 1 1 1 1 1 1 1 1 1 1 1 1 0.047586120611230548 1 1 1 1 1 0.050002572509820549 1 0.049788690734949077 1 1 1 1 0.050231130615233863 1 1 0.049744433694194137 1 1 1 1 1 0.047608845001157821 1 1 1 1 0.056870652787857558 1 1 1 1 1 1 1 0.04817493611237271 1 1 1 0.051286305623085726 1 1 1 1 1 1 1 1 1 1 1 0.050730340357323836 1 1 1 1 1 1 1 1 0.049537452817874104 1 1 1 1 1 1 0.049000556522510591 1 1 1 1 1 1 0.049310581323136773 1 1 1 1 1 1 1 1 1 1 1 0.046646033835048659 1 1 1 0.049851124473437931 1 1 1 0.051129208388824877 1 0.04956785792495224 1 1 1 1 1 1 0.049847477618500287 1 1 1 1 1 1 1 1 1 1 1 1 1 1 1 0.051288588200273905 1 1 1 1 1 0.057941118714800316 1 1 1 1 1 1 1 1 0.052760686534669483 1 1 1 1 1 1 1 1 1 1 1 1 1 1 1 1 0.049213102087513894 1 1 1 1 0.051431729274641222 1 1 1 1 1 1 1 1 1 1 1 1 1 1 1 1 1 1 1 1 1 1 1 1 1 1 0.035446232011190924 1 1 1 0.04994460551333061 1 0.049354286016214957 1 1 1 1 0.044195177862222587 1 0.05039172796771136 1 1 1 1 1 0.049245828382544064 1 1 1 1 1 1 1 1 1 0.033292882792229146 1 1 1 1 1 1 1 1 1 1 1 1 1 1 1 1 1 1 1 1 1 1 1 1 0.048481739232845357 0.049367394352624425 1 1 1 1 1 0.049070032867634644 1 1 1 0.046487034629662222 1 1 1 0.047690617528623483 1 1 0.053923506886079775 1 0.048857743550889052 1 1 1 1 0.05045403719168378 1 1 1 1 0.051923201440271974 0.050348645126380959 1 1 1 1 1 1 1 1 1 1 1 1 0.048606045187523095 1 1 1 1 0.050094731674638487 1 1 1 1 1 0.050330912628818641 1 1 0.050025528648182258 1 1 1 1 1 1 1 1 1 1 1 1 1 1 1 1 0.050266568885570864 1 1 0.050541364425072642 1 1 1 0.050971467420510314 1 1 1 1 1 1 1 1 1 1 1 0.050430102995437681 1 1 1 1 1 1 1 1 1 1 1 1 1 1 1 1 0.050602252244331132 1 1 0.062063891139014907 1 0.066237084202920848 1 1 0.059345437837175712 1 0.051861320691679258 1 0.062421173540908301 1 1 1 1 1 1 1 1 1 1 1 1 1 0.060982198287366833 1 0.061023528156747608 0.047382001259268003 1 1 0.063577284807005904 0.050145077455286118 1 1 0.049988436052877117 0.042194884279847113 1 1 1 0.065268959017723074 1 0.032481862393338695 1 1 0.064108835271930065 1 1 1 1 0.092451901109640536 0.079552847924619627 1 0.069583135284042613 1 1 0.041959631645190142 0.049997414185510389 1 1 0.041051991070206684 1 1 1 0.032132141356428653 1 1 1 0.059621243083837649 0.055608896737621427 0.03383747278009766 1 1 0.039744761686667747 1 0.039411454378292757 0.05000349509890592 1 1 1 1 1 1 1 1 1 1 1 0.049057116093624217 0.050481964595682757 1 0.0286882251332852 1 0.072388713511166311 1 0.039895594462255636 1 1 1 0.049470380583150446 1 1 1 1 1 0.050259250345900855 1 1 1 1 1 1 1 1 1 1 1 1 1 1 1 1 1 1 1 1 1 1 1 1 0.052563943519867887 1 1 1 1 1 1 1 1 1 1 1 1 1 1 1 1 1 1 0.035613926711417304 1 1 1 1 1 1 1 1 1 1 1 0.088764380570182891 1 1 1 1 1 0.030468030462491934 1 1 1 1 1 1 1 1 1 1 1 1 1 1 0.053782517863032654 1 1 1 1 1 1 1 1 1 1 1 1 1 1 0.037888315160506933 1 0.067639515818208498 1 1 1 1 0.060981774084700444 1 1 1 1 1 1 1 1 1 1 1 1 0.02307143074704418 1 0.05027264664265349 1 1 1 1 0.050036879081394307 1 1 1 1 1 1 1 0.061992147993881752 1 1 1 1 1 1 1 0.0500120293072693 1 1 1 0.022051624914389265 1 0.04998619185195205 1 1 1 1 1 1 1 1 1 0.034570977006222588 1 1 1 1 1 1 1 1 1 1 1 1 1 1 1 1 1 1 1 1 1 1 1 1 1 1 1 1 1 1 1 1 1 1 1 1 1 1 1 1 1 1 1 0.047320520283223436 1 1 0.049475362408112677 1 1 1 1 1 1 1 1 1 1 0.04913793478639121 1 1 1 1 1 0.053041397279950303 1 1 0.049653574040872617 1 1 1 1 1 1 0.027214103632034504 1 1 1 1 0.050107053762352027 1 1 0.032889023542483339 1 0.041651612454135276 1 1 1 1 1 1 1 1 1 1 1 0.045163713980947429 1 0.033563392499524718 1 1 1 1 0.048410158709230107 1 1 1 1 1 1 1 1 1 1 1 1 1 1 1 1 1 1 1 1 1 0.05600464558111156 1 1 1 1 0.051861882244460568 1 1 1 1 1 1 1 0.043491519415875216 1 1 1 1 1 0.061996548945003276 1 1 1 0.039197094254334028 1 1 1 0.058273192463257302 1 1 0.052597649784714248 1 1 1 0.036791793557095109 1 1 0.045134536950742557 1 1 1 1 1 1 1 1 1 1 1 1 1 1 1 1 1 1 1 1 1 1 1 1 1 1 1 1 1 1 1 0.051878215800707547 1 1 1 1 1 1 1 1 1 1 1 0.048508444516946261 1 1 1 1 1 1 1 1 1 1 1 1 1 1 1 0.045525171184205238 0.046574897014033237 1 1 1 0.055548513944147934 1 1 1 1 0.048930832155196405 1 1 0.055249818038381859 1 1 1 1 1 1 1 1 1 1 1 1 1 0.056301376520030949 0.052405793517241325 1 1 1 1 1 1 1 1 1 1 1 0.067621772500365634 1 1 0.057852647285523986 1 1 1 1 1 1 1 1 1 1 1 1 1 1 1 1 1 1 1 0.063377403777331615 1 1 1 0.050078632649146471 1 1 1 1 1 0.046666739236997073 1 1 1 1 1 1 1 1 1 1 1 1 1 1 1 1 1 1 1 1 0.054696724237650846 1 1 0.052360368363069995 1 1 1 1 1 1 1 1 1 1 1 1 1 1 1 1 1 1 1 0.055314005487447443 1 1 1 1 1 1 1 1 1 1 1 1 1 1 1 1 1 1 1 1 1 1 1 1 1 1 1 1 1 1 1 1 0.049666303383911328 1 1 1 1 1 1 0.041532750526577164 1 1 1 1 1 0.044770217484509767 1 1 1 1 0.048093050868855208 1 1 1 1 1 1 1 1 1 1 1 1 1 1 1 1 1 1 1 1 1 1 0.049618918332040698 1 1 1 1 1 1 1 0.049910000383475026 1 1 0.046133855693551384 1 1 0.049579599544686943 1 1 1 1 1 1 0.048729451473714408 1 1 1 1 1 1 1 1 1 1 0.029472119209410518 1 0.067856776434005603 1 1 1 1 1 1 1 1 0.049864049072164573 1 1 0.028488731203716137 1 1 1 0.062243084582953245 1 1 1 0.058149034528836616 1 1 1 0.050000190513551257 0.049885444702676779 1 1 0.046389496351379449 1 1 0.042356766767529329 1 1 0.049971334650076152 1 1 1 1 1 1 1 1 1 0.04997136886472231 1 1 1 0.038352207070890001 1 1 1 0.03437223712971034 1 1 1 0.049963793104233822 1 0.049895697612784742 1 1 0.055137725913577941 1 1 1 1 1 1 1 1 0.036258218963352802 1 1 0.047455008763195354 1 1 1 1 1 1 1 1 1 1 1 1 1 0.038172195409075828 1 0.049967939669105024 1 1 1 0.051573568336886255 0.056772002368573535 1 0.043961902348796253 1 1 1 1 0.05000124963483546 1 0.0514320953567729 1 1 1 1 1 1 1 1 1 0.050295141230458237 1 1 1 1 1 1 1 1 1 1 1 1 1 1 1 1 1 1 1 1 1 1 1 1 1 1 1 1 0.049036166182399588 1 1 1 1 1 1 0.050655261855295827 1 1 1 1 1 1 0.050523622084353417 1 1 1 1 1 1 0.050200759565297279 1 1 1 0.050170702603327746 1 1 1 0.049728744647333525 1 1 0.024566246604579595 1 1 1 1 1 1 0.058736675269825872 1 1 1 0.025270586714465929 0.050017942661573993 1 1 1 1 1 1 1 1 1 1 1 1 1 1 1 1 1 0.050105118850155908 1 1 1 1 1 1 1 0.049905286722239102 1 1 1 1 1 0.040679140267176013 1 1 1 1 1 0.050006922380415722 1 1 0.050720013800360418 1 1 1 1 0.050191794433926538 1 1 1 1 1 1 0.060349123002822601 1 0.023946008996323244 1 0.061168099319667275 0.040232677406469325 1 0.05023177491315655 1 1 1 0.050111527622552332 1 1 1 1 1 0.05023178089154217 1 1 1 0.050046371380692692 1 1 1 1 0.050159992766067446 0.048303077131396949 0.052825881435329569 1 1 1 1 0.05006938534750844 0.041418515108407279 1 0.042595008625870269 1 1 1 1 1 1 0.049998473186596462 1 0.049902698324441802 1 1 0.049253249844441682 1 1 1 0.050612993329597469 1 1 0.043958099537541012 1 1 1 1 1 1 1 1 1 1 1 1 0.04962194217940738 1 1 1 1 0.045322755776719924 1 1 1 1 0.0416582136653188 1 1 1 1 1 1 1 1 1 0.048837808812667277 0.052374461411577533 0.0562980752023753 1 1 1 0.050007318109699161 0.050068826408913483 1 1 0.047928540465880312 1 0.050401985222309043 1 1 1 1 1 1 1 0.038649137697434902 1 1 1 1 1 1 1 1 1 1 1 1 1 1 1 1 0.049723294140811711 1 1 1 1 1 1 1 1 1 0.049150394806624031 1 1 0.04289184097793837 1 0.043190343604376284 1 0.047441522490244747 1 1 0.036162204783017848 1 1 1 0.049999820796173759 0.059142663771174789 1 1 0.050551001653235964 1 1 1 0.037210500345466982 1 1 1 1 0.050207866571390806 1 1 1 1 1 1 1 1 1 1 1 0.042342392385779928 0.049993934791751155 1 1 1 1 1 1 1 1 1 1 1 1 1 1 1 1 1 1 1 1 1 1 1 1 1 1 1 1 1 1 1 1 0.050011743447317347 1 1 1 1 1 1 1 1 1 1 1 1 1 1 1 1 1 1 1 0.055284763104267887 1 1 1 1 1 1 0.049969414144278967 0.042859286872636231 1 1 0.045195084165144027 0.046252184919830436 1 1 1 0.04644554610446569 1 1 1 1 1 1 1 1 1 1 1 1 1 1 1 1 1 1 1 1 1 1 1 0.055529159598598055 1 0.034474055148464702 1 0.051853285241771352 1 1 1 1 1 1 0.049603572128004342 1 0.053085881883045305 0.050769633100499145 1 1 0.085367934713212551 1 1 1 1 1 1 0.04979707031387029 0.079477120590757983 1 1 0.061194093120672158 0.04087832447136408 1 1 0.046132478502391543 0.049937544387716519 1 1 1 1 1 1 1 1 0.049043563778519976 1 1 1 1 1 0.055221056459749472 1 1 0.080046131791992325 1 1 1 0.049910460112728906 1 1 1 1 1 1 1 1 1 1 1 1 1 1 1 1 1 1 1 1 1 1 1 1 1 1 1 1 1 1 1 1 1 1 0.051063042803483269 1 1 0.037653864263767045 1 0.031058195076607675 0.051971221906199579 1 1 1 1 1 1 1 1 1 0.027322270808500009 1 1 1 1 1 0.024106734657517295 1 1 1 1 1 1 1 0.047757439874059088 1 1 1 1 1 1 1 1 0.043357448849562955 1 1 1 1 1 0.039231540441482533 1 1 1 1 1 1 1 1 1 1 1 1 1 1 1 1 1 1 1 1 1 1 1 1 1 1 1 1 1 1 0.049179540216517909 0.049336021196618632 1 1 1 1 1 1 1 0.050603933400187623 1 1 1 0.047321849790738349 1 0.048144723773274299 1 1 1 1 1 1 1 1 1 1 1 1 1 1 1 1 1 1 1 1 1 0.050131617593711125 1 1 1 1 1 1 0.040901333663920417 1 1 1 1 1 1 1 0.046825120639557336 1 1 0.050056744658519114 1 1 1 1 1 1 0.035671228577689534 1 1 1 0.050570954244892011 1 1 0.039696043725965177 0.048605835111257212 1 1 1 1 1 1 1 1 1 1 1 1 1 1 1 1 1 1 1 1 1 1 1 1 1 1 1 1 0.05033239933623973 1 1 1 1 1 1 1 1 1 1 1 1 1 1 1 1 1 1 1 0.045914970872686846 1 1 1 0.043124566160043065 0.049960713300589141 1 1 1 1 1 0.050007558983155176 1 1 1 0.049793047465485255 1 1 1 1 1 0.049406156825735723 1 1 1 1 1 1 1 1 1 1 1 1 1 1 1 1 1 1 1 1 1 0.051003133350769794 1 1 1 1 1 1 0.054164341361710638 1 1 1 1 1 1 1 1 1 1 1 1 0.04892765943830904 1 1 1 1 0.054352187449053617 1 0.048931814285073344 1 1 1 1 1 1 1 1 1 1 1 1 1 0.059746158345862943 1 1 1 1 1 0.065372882637804525 1 1 1 1 1 1 0.05434191931351158 1 1 1 1 1 1 1 1 1 1 1 1 0.051262486048902448 1 1 0.054601059598174892 1 1 0.046722540040737781 1 1 0.048953832918659471 1 1 1 1 1 1 1 1 1 1 0.057118667975833246 1 1 1 1 1 1 1 1 0.050004609173970774 1 1 1 0.050075712718855858 1 1 1 0.056523254134587531 1 1 0.060446159138110044 1 1 1 0.045368188102738127 1 1 1 1 1 0.05945395135614906 1 0.050000726624575095 1 1 1 1 0.049904524607692791 0.060352287286060916 1 1 1 0.08431351746933996 1 1 1 1 0.050208447350557475 1 1 1 1 1 1 1 1 1 1 1 1 1 1 1 0.050328540201243513 1 1 0.055989516830121142 0.041894002671897246 1 1 1 1 0.042427316532666903 1 1 1 1 1 1 0.050126650308814732 1 1 1 1 1 1 0.050040121033628496 1 1 1 1 1 1 1 1 0.047997067663320181 1 1 1 1 1 1 1 1 1 1 0.050266102520100608 1 1 0.044678536573879449 1 1 0.046438178634629457 1 1 1 1 1 0.066220755817561067 0.049985246444193734 1 1 0.049966585195245689 0.050584816920139761 1 0.052156651565846035 1 0.043981643380537047 1 0.042995877097724983 0.05440530894655049 1 1 0.056985902272949938 1 0.048956531780966817 1 0.047348281709320914 1 0.049787545984603582 1 0.04935214034845066 1 1 0.050015837456615517 1 0.059693744157102102 1 0.046899186296456577 1 1 1 1 1 1 0.052365140660401974 1 1 1 0.050020592556662566 1 1 1 1 1 1 1 1 1 0.050146318801842601 1 1 0.04976534921219905 1 0.050004169116122738 1 0.051103308185134602 1 1 1 0.11415738855823879 0.050090428177001656 1 1 1 1 1 1 1 1 1 1 1 0.05033273657190146 1 1 1 1 1 0.05084227483411826 1 1 1 1 1 1 1 1 1 1 1 1 1 1 1 1 1 0.049769065244249511 1 1 1 1 1 1 0.04549373727748203 1 1 1 0.046646480773325574 1 1 0.050561894823449111 1 1 1 0.041776816087482301 1 0.035385863999487857 0.051811124144504707 1 1 1 1 1 1 1 1 1 0.046105923458530526 1 1 1 1 1 1 1 0.049968591373537125 1 0.048672409187020461 1 0.049548992213527938 1 1 1 1 1 1 1 1 1 1 1 1 1 1 1 1 1 1 1 1 1 1 1 1 1 1 1 1 1 1 1 1 1 1 1 1 1 0.069946075896959656 1 1 0.069251324244808413 0.034323724738178463 1 1 1 1 0.034392558587876515 1 1 1 1 1 0.039471121334754944 1 1 0.050045123466877638 0.08027188666790451 1 1 1 1 1 1 0.062422356774203241 1 0.050010440555690795 1 1 0.044016635216715255 0.050901683848208215 1 0.053295247473243081 1 1 1 0.052452602633862783 1 1 1 1 0.053695026905901021 1 1 1 0.043036007662943403 1 1 0.06333435172453275 0.049854777654040748 1 1 1 0.028598759074211486 1 1 1 1 0.050246993711237205 1 1 0.045486256342790118 1 1 1 0.053436872832373021 1 1 0.046191640600962487 1 1 1 0.063341531328682588 1 0.041831668447055263 1 1 0.040265002248204944 1 1 0.041777334527400636 0.050006607624449362 1 1 0.070565370461403931 1 0.050109367290484125 0.034823605040511518 1 1 1 1 0.061369076386161979 1 1 1 1 0.066155377220015729 1 1 1 1 1 1 1 1 1 1 1 1 0.022312500777412231 1 1 1 1 0.050005420544091614 1 0.062759571966133174 1 1 1 1 1 0.040342900416063199 0.049985958676167785 0.050134996370735922 1 1 1 1 1 1 1 1 0.036594085730366543 1 1 1 1 1 1 0.043250119172980148 1 1 1 1 0.037536991800788566 1 1 1 1 1 1 1 1 1 1 1 1 1 1 1 1 1 1 0.044799829452029344 1 0.070857900037279584 1 1 0.060607165066660085 0.060827220935635487 1 0.04175888898660457 1 1 0.051003605355417078 1 0.048727273066247065 1 0.044798440009062496 1 0.048354371266277313 1 1 1 1 0.049386136882813805 1 1 1 0.046689043040488515 1 1 1 1 1 1 1 1 1 1 1 1 1 1 1 1 1 1 1 1 1 1 1 1 1 0.049615386406092199 1 1 1 1 1 0.0072412059505547952 1 1 1 1 1 1 1 1 1 1 1 0.049224128559932856 1 1 1 1 1 0.04964202013806332 1 1 0.050813645753028366 0.010642003546647863 1 1 1 0.037764976431620231 1 1 0.055476002716767295 0.035993139837410135 1 0.016370511694027243 1 1 1 1 1 1 1 1 1 1 1 1 1 1 1 1 0.048820142223512913 1 1 1 1 0.051183066722466156 1 1 1 1 1 1 1 1 0.05569602812671369 0.052674499572768013 1 1 0.049937022046521715 1 1 1 1 1 1 1 1 1 0.049689390375585528 0.053552068012741608 1 1 0.049994347836328001 1 1 1 0.050490846952030662 1 1 1 1 1 1 1 1 1 1 1 1 1 1 1 1 1 1 1 1 1 1 1 1 1 1 0.049612522857647348 1 1 1 1 1 1 1 1 1 1 1 1 1 1 1 1 1 1 1 1 0.067113914875844199 1 1 1 0.0460770620359362 0.049912430579619346 1 1 1 0.066723297242386168 1 1 0.050150799113696298 1 1 1 1 1 0.051323497358600007 1 0.047894428852515512 1 1 1 1 1 1 1 1 0.050614511504856782 1 1 1 0.057615725429829151 1 1 0.051935737329360507 1 0.049972255747635891 1 1 1 0.043622789395075051 1 1 1 0.031146817812693808 1 1 1 1 1 1 1 1 1 1 1 1 1 1 1 1 1 0.019973123279762417 1 1 1 1 1 1 1 1 1 0.048509713741236853 1 1 1 1 1 1 1 1 0.010342298541023663 1 1 1 1 1 1 1 1 1 1 1 1 1 0.050101713054202295 1 1 1 0.050285246595027616 1 1 1 1 1 1 1 1 1 1 1 1 1 1 1 1 1 1 1 0.045917353013338644 1 1 1 0.055827756598385951 1 0.050112938457811368 1 1 1 0.071351134921096016 1 1 1 0.050097747447388624 0.05221013772436281 1 1 1 1 1 1 1 1 1 1 1 1 1 1 1 1 1 1 1 1 1 1 0.049711969951629187 1 1 1 1 0.049287464226915323 1 1 1 1 0.049575494275286132 1 1 1 1 1 1 1 0.052416397855863425 1 1 1 1 0.051522806191537936 1 1 1 1 1 1 0.050554183048672138 1 1 1 1 1 1 0.050899811423411448 1 1 1 0.049963441297809691 1 1 1 1 1 1 1 1 1 0.048810629385853566 1 1 1 1 1 1 0.046683458931640318 1 1 1 1 1 1 1 1 1 1 1 0.049990755255775288 1 1 0.052526560186836706 1 1 1 1 1 0.049443849498755292 1 1 0.044137514018247129 1 1 1 1 1 1 1 0.074244199041737624 0.047918019344044702 1 1 1 1 0.04927220942069728 1 1 1 1 1 1 0.050007712303455493 1 1 1 1 1 1 1 1 1 1 0.051628201601159635 1 1 1 1 1 1 1 1 1 1 1 1 0.049099370563315911 1 0.049700383523037593 1 1 1 0.036849584892852644 1 1 0.085145408615073248 1 1 1 1 0.043295126249448077 1 1 1 1 1 0.085756464352671091 1 1 1 1 1 1 1 1 0.085637227599361002 1 1 1 1 0.047991571362797462 1 1 1 1 1 1 1 0.049279888575788938 1 1 1 1 1 1 1 1 1 1 0.048095775120092873 1 1 1 0.050487939922909862 1 0.051627029557686013 1 1 1 1 1 1 0.049986366525614626 1 0.055369712101003762 1 0.050186099325282105 1 1 1 1 0.048180011790918707 1 1 1 1 1 1 1 1 1 1 1 1 1 1 0.050261012051600676 1 0.065156667398287543 1 1 1 1 1 1 1 0.049426712847747835 1 1 1 1 1 1 1 1 1 1 1 1 1 0.067841010515284156 1 1 1 1 0.071091546819047752 1 1 1 1 1 1 1 1 1 1 1 1 1 1 1 1 1 1 1 1 1 1 1 1 0.050425159567585552 1 1 1 1 0.063792145008247467 1 1 1 0.050231220374041624 1 1 0.050001754780970069 1 1 0.050328469616393035 1 1 1 1 1 1 1 1 1 1 1 1 1 1 1 0.05011259576153497 1 1 0.050029152931498302 1 1 1 1 1 1 1 0.035099682627386788 1 1 1 1 1 0.029717760299057455 1 1 1 0.091731298798437624 1 1 1 0.097482371457696795 1 1 1 1 1 1 1 0.054749851349411897 1 1 1 0.053200254628530799 1 0.049432226795544765 0.042961508060186254 1 1 1 1 1 0.048000228170797771 1 1 1 1 1 1 1 1 1 1 0.047584813898264904 1 1 1 1 1 1 1 1 1 1 1 1 1 1 1 1 1 1 1 1 1 1 1 1 1 1 1 1 1 1 1 1 1 1 1 1 1 0.049942155936718385 1 1 1 1 1 1 1 1 1 1 1 1 1 1 1 1 0.050548572135117403 1 1 1 1 1 1 1 1 1 0.049942235641040195 1 1 1 1 1 1 1 0.050220102518724385 1 1 1 1 1 1 1 1 1 1 1 1 1 1 1 1 1 1 1 1 1 0.047775448248076821 1 1 1 1 1 1 1 1 1 1 1 1 1 1 1 1 1 0.04828368403331057 1 1 1 1 1 1 1 1 1 1 1 1 1 1 1 1 1 1 1 1 1 1 1 1 1 1 1 1 1 1 1 1 1 1 1 1 1 1 1 1 1 1 1 1 1 1 0.051358248160036563 1 1 1 1 1 1 1 1 1 1 1 1 1 0.053340605790404116 1 0.049988200751338453 1 1 1 1 1 0.049953453935527935 1 1 1 1 1 0.048294408288027599 0.044295335506372123 1 1 1 1 1 1 1 1 1 1 1 1 1 1 1 1 1 0.048508298389320872 0.052388390423127401 1 1 1 1 1 1 0.050706919855988582 1 0.052581876832631082 1 1 1 1 1 1 1 1 1 0.051821529229549079 1 1 1 1 1 1 1 1 1 1 1 1 1 1 1 1 1 1 1 0.04895149044657035 1 1 1 1 1 0.051162321775030148 1 0.052325089961336536 1 1 1 1 1 1 1 0.05213834166144396 1 1 1 0.051162768186306398 1 1 1 0.057857622337917226 1 1 0.055856384219850182 1 1 1 0.041267335257567442 1 1 0.043668686397583874 1 0.06073660652392069 1 0.045064327510895008 1 1 0.0525904069894736 1 1 1 1 1 1 1 1 1 1 1 1 1 1 1 1 1 1 1 1 1 0.049739283594945692 1 0.063866303397998897 1 1 1 1 1 1 1 0.062210676813391937 1 1 1 1 1 1 1 1 1 1 1 1 1 1 1 1 1 1 1 0.049702724892755366 1 1 1 0.049435069138307433 1 1 1 1 1 1 1 1 1 1 0.047646125749782602 1 1 1 1 0.045635735401606155 1 1 0.04890692977121202 1 1 1 1 1 0.051293404314618776 1 1 1 1 0.051060009619361302 1 0.047674227876446436 1 1 0.06723498791180918 1 1 1 1 1 1 1 0.066746749586490572 1 1 0.05036524640033288 1 0.064481504078699695 1 1 1 1 1 1 1 1 1 1 1 1 1 1 1 1 1 1 0.049418376450269953 1 1 1 1 1 1 1 0.048553946702226757 1 1 1 1 0.055060276769401686 1 1 1 1 1 1 1 1 1 0.049471860632904568 1 1 1 1 0.047407986102093486 1 1 1 1 1 1 1 1 1 1 1 1 0.050613243421494709 1 1 1 1 1 1 1 1 1 0.060581677010321168 1 1 1 1 1 1 1 1 1 1 1 1 0.055345476727412433 1 1 0.051318631552286879 1 1 1 1 1 1 1 1 1 0.049224515830789045 0.10624472670313716 0.033338313186572183 1 1 1 0.050005212379620662 1 1 1 1 1 1 0.016010692538164777 1 1 1 0.044820189616494047 0.05017166989647534 1 1 1 1 1 1 1 1 1 1 1 1 0.065253806376017298 1 1 1 0.049837942208416836 0.012026605819444119 1 1 1 1 1 0.0083393329562556889 1 1 1 1 0.0092117983640099578 1 1 1 1 0.050264956858206714 1 1 1 1 1 0.090576023060016983 0.069862983221944244 0.041439463572625283 1 1 1 0.058219209106552212 0.061557139310920564 1 1 1 1 1 1 1 1 1 0.036968007209627632 0.049599561370488571 1 1 1 0.050702681356884327 0.049821898107433593 1 1 1 1 1 1 1 1 1 1 1 1 1 1 1 1 1 0.034686760568745277 1 0.03216813439550955 1 1 1 1 0.017765581951795159 1 1 1 1 1 1 1 0.019934666583526259 1 1 1 1 1 1 1 0.029216811173831347 1 1 0.070888195754855984 1 0.02879077097656588 0.019570785767123906 1 1 1 0.06606034788568714 0.049981962972368441 1 1 1 0.049969707170610569 0.050673429858539357 1 1 1 1 1 1 1 1 1 1 0.049459726231804092 1 1 1 1 1 1 1 0.056243064134136392 1 1 1 1 0.066606943171664684 1 1 1 1 1 1 0.012756029546351683 1 1 1 1 0.050257072033183442 1 0.021659154189877818 1 1 1 1 1 1 1 1 1 1 1 1 1 1 0.0091838967185668904 1 1 1 1 1 1 1 0.0078096112171641002 1 1 1 1 0.04991840092833303 1 1 1 0.059916630385655326 1 1 1 1 1 1 1 1 1 1 1 1 1 1 1 1 1 1 1 1 1 1 0.056513516363435649 1 0.052328957903471557 1 1 0.051392630502468249 1 1 1 0.05342727428798355 1 1 0.05409765950673244 1 1 1 1 1 1 1 1 1 1 1 1 1 1 1 1 1 1 1 1 0.054719464585342568 0.048065008795626682 0.048625527160678625 1 1 1 1 1 1 1 1 1 1 1 1 1 0.058098523847250214 1 1 1 0.044430308211139136 1 1 0.070146289976726797 1 1 1 1 0.062117720997090869 1 1 0.058243857932557583 0.04929021673920457 1 1 1 1 0.051911874304836902 1 1 0.047244199823483608 1 0.049129293716893084 1 1 1 1 1 1 1 1 1 1 1 1 0.044592527784195854 1 1 1 1 1 1 1 0.054095980338663231 1 0.049761621896375161 1 1 1 1 0.053247320347575899 1 1 1 1 1 1 1 1 1 1 1 1 1 1 1 1 1 1 1 1 1 1 1 0.056084096223153655 1 1 1 0.049549811917618772 1 0.036884513247461399 1 1 1 0.076850281501844253 1 1 1 1 1 0.049914022749730079 1 1 0.035457486882104039 1 1 1 1 1 1 1 1 0.05112049884267552 1 1 1 1 1 0.052339513877333467 1 1 1 1 1 1 1 1 1 1 1 1 1 1 0.052120431896566011 1 1 1 1 0.052578189901649738 1 1 1 1 1 1 1 1 1 1 1 1 0.049296926199453306 1 1 1 1 0.050434531188821879 1 1 1 1 1 1 1 1 1 1 1 1 1 0.045636830252428193 1 1 0.049438217184031019 1 1 1 0.050662740837591799 1 1 1 1 1 1 1 1 1 1 1 1 1 0.048482107972422347 0.066727305383048344 1 0.053601591847749097 0.055880110995494302 1 1 1 0.047282304221143524 0.096236287559026717 1 0.057097851600173367 1 0.050316577134831744 1 0.071327856277123583 1 1 1 0.039977907962910626 1 0.049904500593356035 1 1 1 1 0.065992571387505888 1 1 1 1 1 1 0.041903978931653464 1 1 1 1 1 0.10061008246493386 1 1 0.050022005707951511 1 1 0.031915772337663982 1 1 0.050301822955144931 1 1 1 1 1 0.018736376913569375 1 0.028372744067513105 1 1 1 1 1 1 1 1 1 1 1 1 1 0.048499854202110157 1 1 0.048725492493003196 1 1 1 1 1 1 1 1 1 0.045094976669042316 1 1 1 1 1 1 1 1 1 0.0078000310270864501 1 1 0.048402132633280949 1 0.0069249317912834576 1 1 1 1 1 1 1 0.038016423596284266 1 1 1 1 1 1 1 0.0099816742336511707 1 0.055979293181369363 1 1 0.04740791471192618 1 1 1 0.050039890473395403 1 1 1 1 0.049813262566569205 1 1 1 1 1 0.050070743125119638 1 1 1 1 1 1 1 1 1 1 1 1 1 1 1 1 1 1 1 1 1 0.051517797052882917 1 1 0.051635390422045568 1 1 1 0.048976300095830663 1 1 1 1 0.050552124557984524 1 1 1 1 1 1 1 1 1 1 1 1 1 1 1 1 1 1 1 1 1 1 1 0.053417205589703254 1 1 1 1 1 1 0.059592844161303019 1 1 1 1 1 1 1 1 1 1 1 1 1 0.049905087196664824 1 0.087230797377437969 1 1 0.046731616907504145 1 1 1 1 0.096326348842308243 0.054449335613189501 1 0.051469297819838958 1 0.066284978402932668 1 1 1 1 1 0.1044141017586861 1 1 0.11022807184062755 0.10854611024816728 1 1 1 1 1 0.037353619954386658 1 1 0.050003294263140138 1 1 1 1 1 1 1 1 0.079956449647611519 0.040791361233225909 1 1 1 0.066687901890265702 1 0.050006846335638899 1 1 1 1 1 0.055210618405450676 1 0.03872859901919648 1 1 1 1 1 0.053059424035733861 0.050386658033850285 1 1 1 1 0.050049434372503324 1 1 1 1 0.05096593831946189 1 1 1 1 1 1 1 1 1 1 1 1 1 1 1 1 1 0.050823557429763147 1 1 0.050246926552759669 1 1 1 0.050239691088312936 1 1 1 1 1 1 1 1 1 1 1 1 1 1 1 1 1 1 1 0.052226632471210871 1 1 1 1 1 1 1 1 1 1 1 1 1 1 0.053899089112387333 0.048809681628630086 1 1 1 0.050102225096978495 1 1 1 1 1 0.051508564882068175 1 1 1 1 1 1 1 1 1 1 1 0.050377652072443865 1 1 0.050137960984130904 1 1 1 1 1 1 1 1 1 1 0.057365807691684811 1 1 1 0.06503510695522273 1 0.054600601569320006 1 0.045660305638173151 1 1 1 0.050014148660246449 0.044277937793160693 1 0.060000785232061482 1 1 0.048693946135273204 1 1 0.04661318471115676 0.065130625760294575 1 1 1 0.065635056279286966 1 1 0.040075598136311862 1 0.06437330522640955 1 1 1 0.03737535923418598 1 1 0.042349879401756912 0.039328138459245252 1 0.038808999699745161 1 1 0.033892824873833077 1 0.047343893163486694 1 1 1 1 1 1 1 1 1 0.049227160708495109 1 1 1 1 1 0.051310356716777458 1 1 1 1 1 1 1 1 1 1 0.034296304046235418 1 1 1 1 0.039889889433087855 0.034630521968341384 1 1 0.077755517363493204 1 0.080853509893783218 1 1 1 1 1 0.081439774835537979 1 1 0.034230825128485728 1 0.049990618653155072 1 1 1 1 1 1 1 0.033762255027144847 1 1 1 1 1 1 1 1 1 0.073864356276310411 1 0.049920503204242087 1 0.050059747525368639 1 0.045825689392771297 1 1 1 1 0.050236893161173191 1 1 1 1 1 0.050756635124521901 0.033424001727606623 1 1 1 1 1 1 0.048788265090165525 1 1 1 1 1 0.064406539121207709 1 1 1 1 0.076902663090146095 1 1 0.060657694473843504 1 0.070566221836736692 1 1 1 0.040918249672508275 1 0.082192943042803168 1 1 0.078577986956362922 0.049996032188424702 0.076755825682797332 1 1 1 1 1 1 0.050000074396829346 0.027877253669656685 0.046303509947451478 1 1 1 1 0.046391161300208747 1 0.054403442422820789 1 0.039502413211815815 1 1 1 1 1 1 0.051039734429749434 1 1 1 1 1 1 1 1 1 1 1 1 1 1 1 1 1 1 1 1 1 1 1 1 1 1 1 1 1 1 1 1 1 1 1 1 1 1 1 1 1 1 1 1 1 1 1 1 1 0.05731983135427339 1 1 1 0.069845774153011103 0.049928770102384792 1 1 1 1 1 1 1 1 1 1 1 1 1 1 1 1 1 1 1 0.038427484211171758 1 1 1 1 1 1 1 0.052747068451765758 1 1 0.032558791656406405 1 1 0.046670157713469759 1 1 0.061056464936301721 1 0.041171441151775373 1 1 0.040538247257993903 1 1 1 0.050185100758618845 1 0.063732374080920001 1 0.042590703023994342 0.04386291862307512 1 1 1 0.060512970909207431 0.050140448789087563 1 1 0.040614972073215391 1 1 0.064003435555003291 1 1 1 1 1 1 1 1 1 1 1 1 0.061276117644805027 1 1 1 1 0.059214474042451476 1 1 1 1 0.025131670866946086 1 1 1 1 1 1 1 1 1 0.046342384545774044 1 0.050014591676033664 1 1 1 1 0.041710755150990972 1 1 1 0.041448683546556356 1 1 1 1 1 1 0.029661462035537503 1 1 0.050623326879388017 1 1 1 0.079358792976899212 1 1 1 1 1 1 1 0.03881211844672032 1 1 1 1 1 0.043884188368444585 1 1 1 1 1 1 1 1 1 1 1 1 1 1 1 0.030926012791654592 1 1 1 1 1 0.047124685714149933 1 1 0.057993768297918462 1 0.041899369285306208 1 1 1 1 0.04875456815241145 0.049356003945485262 1 1 0.055968967411396578 1 1 1 1 1 1 1 1 1 1 1 0.050904585846004505 1 0.052513256972973224 1 1 1 1 1 0.050782489915448127 1 1 1 0.047394370203236252 1 1 1 0.049576752584444717 1 1 1 1 1 1 1 1 1 1 1 1 1 0.070223981549909054 1 1 1 1 1 1 1 0.041436822809387583 1 0.048008092581450668 1 1 1 1 1 1 1 0.049835268172072025 0.013239698297836337 1 1 1 1 1 1 1 1 1 0.051414543083407302 1 1 1 1 1 1 0.031605688168342125 0.050516903088118154 0.049914976851240161 1 0.022975128337292469 1 1 1 1 1 1 0.029059780886112073 1 0.048979056807689533 1 0.052943721505787175 1 0.013255654134825497 1 1 1 1 1 1 0.0099717156814477358 1 1 0.049707351712027961 1 1 1 1 0.051117480549952278 1 1 1 1 1 1 1 1 1 1 1 1 1 1 1 1 1 1 1 1 1 0.10590329196698692 1 0.047932975526349161 1 1 1 1 1 1 1 1 1 1 1 1 1 1 1 1 1 1 1 1 1 1 1 1 1 1 1 1 1 1 1 1 1 1 1 1 1 1 1 1 1 1 1 1 1 1 1 1 1 1 1 1 1 1 1 1 1 1 0.050370148984550903 1 1 1 1 1 1 1 1 1 1 1 1 1 1 1 1 1 1 1 1 1 1 1 0.051068619712644661 1 1 1 0.052056705013331567 1 0.049603765840942615 1 1 1 1 1 1 1 1 1 1 1 1 1 1 1 1 1 1 1 1 1 1 1 1 1 1 1 1 1 1 1 1 1 1 1 1 1 1 1 0.048515611687984239 1 0.052768785434195928 1 1 1 1 1 1 1 1 1 1 1 1 1 1 1 1 1 1 1 1 1 1 1 1 1 0.0404296707026107 1 1 1 1 1 1 1 1 1 1 1 1 1 1 1 1 1 1 1 1 1 1 1 1 1 1 1 1 1 1 1 1 1 1 1 1 1 1 1 1 1 1 1 1 1 1 1 1 1 1 1 1 1 1 1 1 1 1 1 1 1 1 1 1 1 1 1 1 1 0.0027018607529863854 1 1 1 1 1 1 1 0.017782013004147341 1 1 0.048382477516198466 1 1 1 1 1 1 1 1 1 1 1 1 1 1 1 1 1 1 1 1 0.026919552731249553 1 1 1 1 1 1 1 1 1 1 1 1 1 1 1 1 1 1 1 1 1 1 1 1 1 1 1 1 1 1 1 1 0.049903879586921399 1 1 1 1 0.044821132193334209 1 0.050518284088706164 1 1 1 1 1 1 0.049931770523400892 1 1 0.049535514334289363 1 1 0.049814525251777292 0.049910083266519384 1 0.050076756361232155 1 1 1 0.049842778744791552 1 1 1 1 1 1 1 1 1 1 1 1 1 1 1 0.047924017703097413 1 1 1 1 1 1 1 1 0.049904020114859629 1 1 1 1 1 1 1 1 1 1 1 1 1 1 1 1 1 1 1 1 1 1 1 1 1 1 1 1 1 1 1 1 1 1 1 1 0.024761155483810093 1 1 1 1 1 1 1 0.055881976069967837 1 1 0.057954132939991077 1 0.018864800775143426 1 1 1 1 1 1 1 1 1 1 1 0.05000430244406015 0.050033062649360485 1 1 0.05300775200786139 1 1 0.050098276791448126 0.049524725101479733 1 1 1 1 0.047185396228064523 1 0.057805729547846477 1 1 0.04637995678359233 1 0.049393197864565225 0.054212839553513276 1 0.024817890042608402 1 0.051356428831636172 1 1 1 1 1 1 1 0.050276957354853963 1 0.049887252982304744 1 1 1 1 1 0.050029046361212658 1 1 1 0.028174812946353579 1 1 0.052709011417325105 1 0.049060093233721 1 0.033325023672376858 0.049423278923344166 1 1 0.07552228434080431 1 1 1 1 1 1 0.037146405009062869 1 1 1 1 1 1 1 1 0.06370142138788705 0.050102820042809748 1 1 1 0.071052423700260783 1 1 1 1 0.04774054648432241 0.080865630457344906 1 0.070343218723691758 1 1 1 0.057350805742671936 1 1 1 1 1 1 1 1 1 1 1 1 1 1 1 1 0.054207089429241538 1 1 1 1 1 1 0.04176259506452222 1 0.036708797084634842 1 1 1 0.041974363199807699 0.031978727381731409 1 1 0.050099891429341181 1 0.049976368703842478 1 1 1 1 1 1 1 1 1 1 1 1 0.049972197130667514 0.050028253232159273 1 1 1 1 1 0.055797162156716804 1 1 1 1 1 1 1 0.056972733486967297 1 1 1 0.050000906274696333 1 0.031486192711122782 1 1 0.050130888782722607 1 1 1 1 1 1 1 1 1 0.053250132145581379 1 1 0.051329768466589737 1 1 1 1 1 1 1 1 1 1 1 0.043144794327251004 1 1 1 1 1 1 1 1 1 1 1 1 1 1 1 1 1 1 1 1 1 1 0.050676454502731352 1 1 1 1 1 1 1 1 1 1 1 0.050212645248368618 1 1 1 1 0.045444105848796962 1 1 1 1 1 1 1 1 1 1 1 0.049364356404618517 1 1 1 1 1 0.047107337185829212 1 0.049968105776875944 1 1 1 1 1 1 1 1 1 0.036613461276976136 1 1 0.026605898579393383 1 1 0.057675313084392575 1 1 1 1 0.052151892721723297 1 1 1 1 1 1 1 1 1 1 1 1 1 1 1 1 1 1 1 1 1 0.058556117388302839 1 1 0.034590206695911646 1 0.056022081708477799 1 1 1 1 1 1 1 1 1 0.039325844952564706 1 1 0.057005345559128839 0.049980110927029406 0.045128293826601162 1 1 1 0.050001714761085073 1 1 1 1 1 1 0.055393633568778924 0.049998044846325612 1 0.065905112842177788 1 1 0.068678416722597502 1 1 0.037595222422922861 1 1 1 1 0.038428000661506825 1 1 1 1 0.036612399976638052 1 1 1 1 1 1 1 1 1 1 1 0.046908189047151952 1 1 0.052289209830342145 1 0.037343786211850361 0.050320262115061007 1 1 0.050019104775399836 0.043928842471472843 0.052293321378410987 1 1 1 1 1 1 1 1 1 1 0.048582619688750626 1 1 1 1 1 1 1 1 1 0.046911486352907469 1 1 1 1 1 0.049508937409400031 1 1 1 1 1 1 1 1 1 1 0.045300495282644904 1 1 1 1 1 1 1 1 1 1 1 1 1 1 1 1 1 1 1 1 1 1 1 1 0.025333804142468171 0.055614539635483073 1 1 1 1 1 1 1 1 0.041139194965188391 1 1 1 1 1 1 1 1 1 1 1 1 1 1 1 1 0.047458898433465818 1 1 1 1 0.029623794142782729 1 1 1 0.069063058391841181 0.049967877327266694 1 1 1 1 1 1 0.049964854733084652 1 0.056093255523420801 1 1 1 0.0462089540358325 1 1 1 1 1 1 1 1 0.048599011211637101 1 0.028540719666237474 0.064555221113559408 1 1 1 1 1 1 1 1 1 1 1 1 0.054246364527939253 1 1 0.054683232862032194 1 0.05149188974764006 1 1 1 1 1 1 1 1 1 1 1 1 1 1 1 1 1 1 1 1 1 1 1 0.052757387173158962 1 1 1 1 1 0.021040386614989207 1 1 1 1 1 1 1 1 1 1 0.048966617751201466 1 1 1 0.049642411299609779 1 1 1 1 1 1 1 1 1 1 1 0.05022636522333758 0.026334476445067451 1 1 1 1 1 0.033559087326110237 1 1 1 0.039468507753123591 1 1 1 1 1 1 1 1 1 1 0.049867106556447799 1 1 1 1 1 1 1 0.050109561337041753 0.038553603428093206 1 0.060402870282969839 1 1 1 1 0.047084657625763915 1 1 1 1 1 0.041762871994388592 1 1 1 1 1 1 1 1 1 1 0.050025919909566494 1 1 1 1 1 1 1 1 1 1 0.042775965123634366 1 1 1 1 1 1 1 0.047775454782105514 1 1 1 1 1 1 1 1 1 1 1 1 1 1 1 1 1 1 1 1 0.050777096824424134 1 1 1 0.052390858442543632 1 1 1 1 1 1 1 1 1 1 1 1 1 0.054927308608208811 1 0.060393346380983461 0.043207495844839308 1 0.054556986570545661 0.033475721336649868 1 1 1 1 1 0.05018438510014997 1 1 1 1 1 1 1 0.045063870475591912 1 1 0.033711716879112549 1 1 0.062563108045045307 1 1 0.058055276201802009 1 1 0.044033726997869255 0.045828254827136247 0.053417167786542617 0.051323028638930353 1 1 0.048076961158214138 0.049923238033842104 1 1 0.060471965686495099 1 1 0.054462937160410292 1 1 1 1 0.043098691042527087 0.033414550233641045 0.047043397644825485 0.031424243092249497 1 1 1 0.051068815966175241 1 0.049712742673333435 1 0.061006353720102491 1 0.047381390904287148 0.057753877920101643 1 1 1 1 1 1 1 0.048122930478378186 1 1 0.016275381032579583 1 0.050439999590284681 1 1 0.043366730287681746 0.054442921432830693 1 1 1 1 1 1 1 1 1 1 1 1 1 1 1 1 1 0.049662217926450591 1 1 1 1 1 1 1 1 1 1 1 1 1 1 1 1 1 0.050795070913350421 1 1 1 1 1 1 1 1 1 1 1 1 1 1 0.072285461699642534 0.05296628118972535 1 1 1 1 0.05000646661627247 1 0.073142524724523456 1 1 1 0.044645596925478481 0.053069360044841793 1 0.04935983669077592 1 1 1 1 1 1 1 1 1 1 1 1 1 1 1 1 1 1 1 0.07566395553668849 1 0.050096447085931757 1 1 1 1 0.049598966213627513 1 1 1 1 1 1 1 1 1 1 1 1 1 1 1 1 1 1 1 1 0.049752049010291344 1 1 1 1 1 1 1 1 1 1 1 1 1 1 0.05082963533600468 1 1 1 1 1 1 1 1 1 1 1 1 1 1 1 1 1 1 1 1 1 1 1 1 1 1 1 1 1 1 1 1 1 1 1 1 1 1 1 1 1 1 1 1 1 1 1 1 1 1 1 1 1 1 1 1 1 1 1 1 1 1 0.038753099538908764 1 1 1 0.040293410879716982 1 1 0.044813770711478566 1 1 1 1 1 1 1 1 1 1 1 0.045479640168238404 1 1 1 1 0.051491504943343196 1 1 1 1 1 1 1 1 1 1 1 1 1 1 1 1 1 1 1 1 1 1 1 1 1 1 1 1 1 0.050272973226363191 1 1 1 1 0.050273222634011891 1 1 1 1 1 1 1 1 1 1 0.049230122951414754 1 1 0.04837417069673644 1 1 1 1 1 1 1 1 1 1 1 1 0.051123669348726489 1 1 1 1 1 1 1 1 0.048847197615046051 1 1 1 1 1 1 1 1 1 1 0.040528954042126551 1 0.05367868624041762 1 1 1 0.032447687582146029 1 1 1 0.053363741981920759 1 0.019890320018942087 1 0.036300746282986379 0.050274898110137273 1 1 1 1 1 0.05045106122290928 1 1 1 1 1 1 1 1 1 1 1 1 1 1 1 1 1 1 1 1 1 1 1 0.050295268271053128 1 1 0.054661382574371503 1 1 1 0.051300755723940925 1 0.050080068250898571 1 1 1 1 1 1 1 1 1 1 1 1 0.050311924897056895 1 1 1 1 1 1 1 1 1 1 1 1 1 1 1 1 1 1 1 0.050721016204544778 1 1 1 1 1 1 1 1 1 1 1 1 1 1 1 1 1 1 1 1 1 1 1 1 1 1 1 0.050343351116307278 1 1 1 1 1 1 1 1 1 1 1 1 1 1 1 1 1 1 0.050591649881322698 1 1 1 0.050797658403001378 1 1 1 0.049720783154146103 0.050115826712814615 1 1 1 1 1 0.04968399119010318 1 1 1 1 1 1 1 0.048876818909002029 0.049226198634412077 1 1 1 0.050325012633456193 1 0.050439271669389538 1 1 1 1 1 1 0.069968498683626867 0.057266201260836737 1 1 0.057065826709130046 0.053538342085829707 1 1 1 1 1 1 1 1 1 1 0.049962546279680477 1 1 1 1 1 1 0.050677590122800847 1 1 1 1 1 1 1 1 1 1 1 1 1 1 1 1 1 0.049888638634520935 1 1 1 1 0.042659218228557783 1 1 0.049653025910124403 1 1 1 1 1 1 1 1 1 1 1 0.053320309837137855 1 0.058002433186463545 1 0.060107860981852668 1 1 1 1 1 1 1 1 1 1 1 1 1 1 1 1 1 1 1 0.048955762320966378 1 1 0.047010670861602655 1 1 1 0.050029110973531687 1 1 0.052169895437230308 1 1 1 1 0.043819407069067506 1 1 1 1 1 1 1 0.043114419020548994 1 1 1 1 1 1 1 1 1 1 1 1 1 1 1 1 1 1 1 1 1 1 1 1 1 1 1 1 1 0.036878389376373485 1 1 1 1 1 1 1 1 1 1 1 1 1 1 1 1 1 1 1 1 1 1 1 1 1 1 1 1 1 1 1 1 1 1 1 1 1 0.053272770653844628 0.058137440185610484 0.042031440751276974 1 1 0.067980077388821419 1 1 1 0.050613947772474799 1 0.050079521201297425 1 1 1 1 1 0.05010156487204255 1 1 1 1 1 1 1 0.072408216002543282 1 1 1 1 1 1 1 1 1 1 1 1 1 1 0.05491939104756266 1 1 1 0.050043265752051556 1 0.076513305532608433 1 1 1 1 1 1 1 1 0.047882072958850636 1 1 1 1 1 1 1 0.049996679446253994 1 0.050133206291565334 1 0.06021108044492772 1 1 1 1 1 1 1 1 0.046725652493828249 1 1 0.0484160855833526 0.051386903237906879 0.045256394237321612 1 0.0738529057964879 1 0.037819855892011436 1 1 1 1 1 1 1 1 1 1 1 1 1 1 1 1 1 1 1 1 1 0.031726208152482921 1 1 0.056415716270583165 0.041208254116584853 1 1 1 0.049898925405660793 1 1 1 1 1 1 1 0.050993460123025303 1 0.050371441707681194 1 1 1 1 0.050023883835772817 1 1 0.051373183725579488 1 1 1 1 1 1 1 0.060974165199144101 1 1 0.061412742146140786 1 1 1 0.061354541171130622 1 1 1 1 1 1 1 1 1 0.051378618157285671 1 1 1 1 1 1 0.054501079529576155 1 1 0.071873413079762249 1 1 1 1 0.082731883547839558 1 1 1 1 1 1 0.047187305239495839 0.045641668252593623 0.057876508059791054 1 1 1 0.049894295769178414 1 0.049984174150053934 1 0.052037827620556407 1 1 1 1 1 1 0.05965570439689398 1 1 1 0.06001919799291193 1 1 1 0.051466508211120844 1 1 1 1 1 1 1 1 1 1 1 1 0.049750615058563027 1 1 1 0.050181119905926358 1 1 1 1 1 0.049258063198370478 0.061628382490551012 1 1 0.050199429060440608 1 0.061116707761120492 0.05667144296808671 0.041796029505624673 1 1 1 0.04983488475527123 1 1 1 1 1 0.072976203440112505 1 1 1 1 1 1 1 1 1 1 1 1 0.050038235823452223 1 1 1 1 1 1 0.039763080228540582 1 1 0.040575095151887036 1 1 0.050113427771878757 1 1 1 1 1 0.049432994879412551 1 1 0.050481297593100466 1 0.049806403756454676 1 0.050106898472632236 1 1 1 1 1 1 0.050145134296084443 1 1 1 1 0.049504020408319402 1 1 1 1 1 1 1 1 1 1 0.048513376350400442 1 1 1 1 1 0.048526078620477711 1 1 1 1 1 1 1 1 1 1 1 1 1 1 1 0.048978758792767044 1 1 1 1 1 0.046794640947707092 1 0.047173678310380884 1 1 1 1 1 0.051557667269899493 1 1 1 1 1 0.054121221468228356 1 1 1 1 1 0.049036795061007138 1 1 1 1 1 1 1 1 1 1 0.045547717937921145 1 0.049990248072994889 1 0.0748807528974475 1 1 0.039032410877808635 1 1 1 1 1 1 1 1 0.053996130888213312 1 0.045029019901893202 1 1 1 1 1 1 1 1 1 1 0.04417567048586811 1 1 1 1 1 1 1 1 1 1 0.049083574142645289 1 1 1 0.065913284312616588 1 0.046193578093094295 0.077754190079031477 1 1 1 0.052817995381501864 1 1 1 0.062290202299133013 0.04993505760368408 1 1 1 1 1 1 1 1 1 1 0.049989039721683476 0.049906073946317686 1 1 1 1 1 0.050068827428314103 1 1 1 1 1 1 1 1 1 1 0.062458043643974087 1 0.045683611614488404 0.052690839737509806 0.054476661274034846 1 1 1 1 1 1 1 1 0.051549547854708708 1 1 1 1 1 1 1 1 1 1 1 1 1 1 1 1 1 1 1 1 1 1 1 1 1 1 1 1 1 0.047478912984331684 1 1 1 1 0.049069759483393233 1 1 1 1 1 1 1 1 0.051086358737970398 1 1 1 1 1 1 1 1 0.048408473674670466 1 1 1 1 1 1 1 1 1 1 1 1 1 1 1 1 1 1 1 1 1 1 1 1 1 1 0.044280620925958206 1 1 1 1 1 1 0.03331718580853496 1 0.071316904710539947 1 1 0.048080033881240755 1 1 1 0.075116541335254569 1 0.044662163036493674 1 1 1 0.050204478310153233 1 1 1 0.064470539627659834 1 1 1 1 1 1 0.053912999514027143 1 1 1 1 1 1 1 1 1 1 1 1 1 1 1 1 1 1 1 1 1 1 1 1 1 1 1 0.054667765217657864 1 0.061205762532230396 1 1 1 1 0.056537997314572562 1 1 1 1 1 1 1 1 1 1 1 1 1 0.052983019790800966 1 1 0.05406937852877125 1 1 0.055360401225197517 1 1 1 1 1 0.064459978245957714 1 1 1 1 1 1 1 1 0.051630259501246917 1 0.055243330156609954 1 1 1 1 1 0.049389315853321555 0.046759286367403216 1 1 0.050619732860550506 1 1 1 0.06008881117313182 1 1 1 1 1 1 1 0.049392599506995108 1 1 1 1 1 1 1 1 1 1 1 1 1 1 1 1 0.053906004003085609 1 1 1 1 1 0.057918769640922865 1 0.054356549023011083 1 1 1 1 1 1 1 1 1 1 1 1 0.054710061860117981 1 0.055065577575544755 1 1 1 1 1 1 0.062018797154121369 0.051147841242206206 1 1 1 1 1 1 1 1 1 1 1 1 1 1 1 1 1 1 1 1 1 0.049576557166419871 1 1 0.048961647197739211 1 1 1 1 1 0.052158167061815655 1 1 1 1 1 1 0.04987719873158232 1 1 1 1 1 1 1 1 1 1 1 1 1 1 1 1 0.050773274486494768 1 1 0.05697383346347136 1 1 1 1 0.045626433209459444 1 1 1 1 1 1 1 1 1 1 1 0.047948977027272868 1 1 1 1 1 1 1 1 1 1 1 1 1 1 1 1 1 1 1 0.05695321957857663 1 1 1 1 1 1 1 1 1 1 1 1 0.050071051924094834 1 1 1 1 1 1 1 1 1 1 1 1 1 0.049717148838157865 0.10355555320469476 1 1 1 1 1 1 0.075245409402028174 1 1 1 1 1 1 1 1 1 1 1 1 1 1 1 1 1 1 1 1 1 1 1 1 1 1 1 1 1 1 1 1 1 1 1 0.049581171848348385 1 1 1 1 1 1 1 1 0.049613514276823201 1 1 1 1 1 1 1 1 1 1 1 1 0.05038678876331798 1 1 1 1 0.071940353843204977 1 0.088093947651885787 1 1 1 1 1 1 1 1 0.04782614059106545 1 1 1 1 1 1 1 1 1 1 0.045503596773252011 1 1 1 0.03442057823192525 1 1 0.047135853195402894 1 1 1 1 0.026680295686318301 1 1 0.022538696753690982 1 1 1 1 1 1 1 1 0.04118662862151555 1 1 1 0.034914657129852297 1 1 1 1 1 1 1 0.062818214418396912 1 0.050229346827785959 1 0.082448656055625166 1 0.076256786922855452 0.08739035474506604 1 1 1 0.050359110716716976 0.049762995383486192 0.04251316465147946 1 1 0.082060467905976348 1 1 1 0.02043563220830702 1 1 1 1 0.051934242673703286 1 1 1 1 1 1 1 1 1 1 1 1 1 1 1 1 1 1 1 1 1 1 1 1 1 1 1 1 1 1 1 1 1 1 1 1 1 1 0.050485491143377539 1 1 1 1 1 1 1 1 0.045251662265263386 1 1 1 1 0.044055009355926322 1 1 0.04810075594092357 1 1 0.046001901006054779 1 1 1 1 0.048392581425647785 1 1 1 1 1 0.047874270999283909 1 1 1 1 1 1 1 1 1 1 1 1 1 0.041038650578712907 0.049520408684331635 1 1 1 0.046332465032806344 1 1 1 1 1 1 1 1 1 1 1 1 1 1 0.051107497058368118 1 1 1 1 1 1 0.050350540172810196 1 1 0.050421592096905006 1 1 1 1 1 1 1 1 1 1 0.053571828477474548 1 1 1 1 1 0.05638129002034957 1 1 1 1 1 1 1 1 1 1 0.04038819142112561 1 1 1 1 1 1 1 1 1 1 1 1 1 1 1 0.049940660651388656 1 1 1 1 1 1 1 1 1 1 1 1 1 1 1 1 1 1 1 1 1 1 1 0.050048050221255261 1 0.044637069730858236 1 1 1 0.050533541364632791 1 1 1 1 1 1 1 1 1 0.048624509740075275 1 1 1 0.040829905604804123 1 1 1 1 1 1 1 1 1 1 1 1 1 1 1 1 0.073045098562564789 1 1 1 1 1 0.038721227335097905 1 1 1 0.074661721803988779 1 0.050025394256321964 1 1 1 1 1 1 0.070499417624398472 1 1 1 1 1 1 1 1 1 1 1 1 1 1 1 1 1 1 1 1 1 1 1 1 1 1 1 0.043449145196741354 1 1 0.047916056042244554 1 1 1 1 1 1 1 0.050822254877644572 1 1 1 1 0.04957775598879563 1 1 0.049579125423642872 1 1 1 1 1 1 0.050227114582097998 1 1 1 0.050110118435043989 1 1 1 0.050110414672202168 1 1 1 1 1 0.054005965150149451 1 1 1 1 1 0.06027969571019582 1 1 1 1 1 1 1 1 0.068274147698781665 1 1 0.049244562079540699 1 1 1 1 0.047703390368232276 1 1 1 1 0.046025566627911477 1 1 1 1 0.071444770485352582 1 1 1 0.065524437572665156 1 0.050135223830584955 1 1 1 1 1 1 1 1 1 1 0.050298661639460451 1 1 1 1 1 1 1 0.050538939268631455 0.070095350776328585 1 1 1 1 1 0.074195085014236273 1 1 1 1 1 0.067668648650950874 1 1 1 0.051781071950609617 1 1 0.0498853937867191 1 1 0.047488849704979026 1 1 1 0.076256862557822214 1 1 1 1 1 1 0.051247395336549803 1 1 1 1 1 0.050197260313831329 1 1 1 1 1 0.05008215504504987 1 1 1 1 1 1 0.050721502871943006 1 1 1 1 0.039609435139358606 1 1 1 1 1 0.049557444514534768 1 1 1 1 1 1 1 1 1 1 0.039211807008889751 1 1 1 1 1 1 1 0.045392894615786022 1 1 1 1 0.0487217589300733 0.04635748858330814 1 1 0.063803424071226994 1 1 1 1 1 1 1 0.054754905209789109 1 1 1 1 1 1 1 0.041474230846239565 1 0.049267290373678246 1 1 0.045956006136735242 1 1 1 1 0.051895345821772805 1 0.045772151183092233 1 1 1 1 1 1 1 1 1 1 0.049748626736413441 1 1 1 1 1 0.049494109951072097 1 1 1 0.041106434901088687 1 1 1 1 0.049882990024125232 1 1 0.071817715095271656 1 1 1 1 1 0.061143269621799716 1 0.033577598632962807 1 0.049987720041590328 0.057912004797978721 1 1 1 1 0.041068771262018564 0.051156435230946248 1 1 1 1 1 1 1 1 1 1 1 1 1 0.050387322484702693 1 1 1 1 1 1 0.049164701249514955 0.049768142147615241 1 1 1 1 1 1 1 1 1 1 1 1 1 0.049120745975172929 1 1 1 1 1 1 1 1 1 1 1 1 1 1 1 1 1 1 1 1 1 1 1 1 1 1 1 1 1 1 1 1 1 0.049931127596742626 1 1 0.049661098397614921 1 1 1 1 1 1 1 0.049250379485203999 1 1 1 0.050272306893553234 1 1 0.063084102034774006 1 1 1 0.048902154830204395 0.049984212575541198 1 1 1 1 0.040779528665854492 0.050679659956038972 1 1 1 1 1 1 1 1 1 1 1 1 1 1 0.039488956918510724 1 1 0.049996530413940699 1 1 1 0.038323098666311547 1 1 1 1 0.050156244887920073 1 1 0.024722037387636217 1 1 1 1 1 1 1 1 1 1 1 0.0097499957250523073 1 1 1 1 1 1 1 5.5511151231257827e-17 1 1 1 1 1 1 1 1 1 1 1 1 1 1 1 1 1 1 0.051603040980908121 1 1 1 1 1 1 0.055002809301415184 1 0.049031975027199859 1 1 1 1 1 0.052122619425043766 1 1 0.055582191229105155 1 1 1 0.021541663702007871 1 1 1 0.050809873335241319 1 1 1 1 1 1 1 1 1 1 1 1 1 1 0.050689229757826193 1 1 1 1 0.051961827020149967 0.054013094864887742 1 1 1 1 1 1 1 1 1 1 1 1 1 1 1 1 1 1 1 0.049051620703064978 1 1 1 1 1 1 1 1 0.047239837825034083 1 0.04900129395839399 1 1 1 1 1 1 1 0.049993921774790825 1 0.04993591244674276 1 1 1 1 1 0.045342251167590303 1 1 1 1 1 1 0.049750150240063629 1 1 1 1 1 0.055463370658764582 0.059667369626805224 1 1 1 0.063525220103153979 0.039795090125002874 0.042450585745690946 1 1 1 1 1 0.063720104298765345 1 1 1 1 1 0.037386600075440563 1 1 1 1 0.043868290661291297 1 0.063482212595929871 0.059118343143987277 1 0.046005813340662234 0.04741626284329279 1 1 1 0.046674234157152647 1 1 1 0.041581875489289717 1 1 1 0.046721968344129228 1 1 1 0.042411124586150165 1 1 1 1 1 1 1 1 0.049475452085058554 1 1 1 0.045656291948947936 1 1 1 1 1 1 0.051874442726620819 1 1 1 1 1 1 0.041487856961914121 1 1 1 1 1 1 1 1 1 1 1 1 1 1 0.049612926274086921 1 0.06468547603993384 1 1 1 0.044103512858070307 1 1 0.050302863609293313 1 0.058373237617164377 1 0.053547112910600908 1 1 0.043342316448355407 1 1 1 1 1 1 0.055273859860693678 1 1 1 1 0.049956342900435206 1 1 1 1 1 1 0.051840417186244769 1 1 1 1 1 1 1 1 1 1 0.051152426248604964 1 1 1 1 1 1 1 1 1 1 1 1 1 1 1 1 1 1 1 0.083187291499613916 0.054358044357476716 1 1 1 0.072814316564737386 1 1 0.068548822014937741 1 1 0.067687287003417321 1 1 0.043261741591856855 1 1 0.057140254732739315 0.049574046684135023 1 1 1 1 0.073358475228826311 1 1 1 1 1 1 1 1 1 1 1 0.067023412490578999 0.042705204210581535 1 1 1 0.063195690382187836 1 0.050038948848476664 1 0.050038323697361067 1 1 1 1 1 0.050264744536604622 1 1 0.054316722319589325 1 0.058001876160938659 1 1 0.05002590686502096 0.056165260937581771 0.055867062732691125 1 1 1 1 0.053740747918909947 1 1 0.054455562855865072 1 0.062566964496236416 1 1 0.043805886186865109 1 1 1 1 1 1 1 1 0.061510475464442063 1 0.06150262988847717 0.054152063870115764 1 1 1 1 1 0.050182668671208325 0.060118669987162879 1 1 1 0.068924258127654667 0.063000263800741738 1 1 1 1 1 1 1 1 0.050078005161539832 1 0.057802264405543632 1 1 1 1 1 1 1 1 1 1 1 1 1 1 1 1 1 1 1 1 1 1 1 1 1 1 1 1 1 0.050652459532264854 1 1 1 1 1 1 1 1 1 1 1 1 1 1 1 0.051406336229118332 1 1 0.049788011773364477 1 1 1 1 1 0.049952116794890478 1 1 1 1 1 1 1 1 1 1 1 1 1 0.04983589497847403 1 1 1 1 1 1 1 1 1 0.050512576407871032 1 1 0.057079723632197085 1 1 1 1 0.049998100871310167 0.049721819847719444 0.065889589950624217 1 1 1 1 1 0.05425189458189502 1 1 1 
</DataArray>
</CellData>
</Piece>
</UnstructuredGrid>
</VTKFile>
