<?xml version="1.0"?>
<VTKFile type="UnstructuredGrid" version="0.1" byte_order="LittleEndian">
<UnstructuredGrid>
<Piece NumberOfPoints="30156" NumberOfCells="10569">
<Points>
<DataArray type="Float64" NumberOfComponents="3" format="ascii">
-0.5 -0.5 0 -0.46860935356359301 -0.4716247601870463 0 -0.44138414188997571 -0.5 0 -0.5 -0.5 0 -0.46860935356359301 -0.4716247601870463 0 -0.5 -0.45368417051362708 0 -0.46860935356359301 -0.4716247601870463 0 -0.44138414188997571 -0.5 0 -0.44373922468922428 -0.46708366919693861 0 -0.44138414188997571 -0.5 0 -0.44373922468922428 -0.46708366919693861 0 -0.42848098353757758 -0.4712912712481841 0 -0.44666692743510272 -0.44282911341298181 0 -0.45798068478843762 -0.44053863329087989 0 -0.43381302958248019 -0.44258083223160721 0 -0.45125040592494359 -0.43878050037838479 0 -0.45798068478843762 -0.44053863329087989 0 -0.43381302958248019 -0.44258083223160721 0 -0.45125040592494359 -0.43878050037838479 0 -0.44074645873626223 -0.4382910044992358 0 -0.43381302958248019 -0.44258083223160721 0 -0.45798068478843762 -0.44053863329087989 0 -0.43381302958248019 -0.44258083223160721 0 -0.44666692743510272 -0.44282911341298181 0 -0.45458540561180583 -0.45409838932824431 0 -0.45798068478843762 -0.44053863329087989 0 -0.44666692743510272 -0.44282911341298181 0 -0.43957809815966431 -0.45137334764801817 0 -0.45458540561180583 -0.45409838932824431 0 -0.45125040592494359 -0.43878050037838479 0 -0.44074645873626223 -0.4382910044992358 0 -0.44666692743510272 -0.44282911341298181 0 -0.43381302958248019 -0.44258083223160721 0 -0.44074645873626223 -0.4382910044992358 0 -0.43751624137632872 -0.43814047269837142 0 -0.44666692743510272 -0.44282911341298181 0 -0.43957809815966431 -0.45137334764801817 0 -0.43381302958248019 -0.44258083223160721 0 -0.43957809815966431 -0.45137334764801817 0 -0.44373922468922428 -0.46708366919693861 0 -0.43065591625229671 -0.45803535725140321 0 -0.43957809815966431 -0.45137334764801817 0 -0.44373922468922428 -0.46708366919693861 0 -0.45458540561180583 -0.45409838932824431 0 -0.46860935356359301 -0.4716247601870463 0 -0.45458540561180583 -0.45409838932824431 0 -0.47093814503481352 -0.45114081223360081 0 -0.46860935356359301 -0.4716247601870463 0 -0.44373922468922428 -0.46708366919693861 0 -0.45458540561180583 -0.45409838932824431 0 -0.45458540561180583 -0.45409838932824431 0 -0.45798068478843762 -0.44053863329087989 0 -0.47093814503481352 -0.45114081223360081 0 -0.45125040592494359 -0.43878050037838479 0 -0.45798068478843762 -0.44053863329087989 0 -0.45399083980939559 -0.4348348321941648 0 -0.45798068478843762 -0.44053863329087989 0 -0.48214436818904333 -0.43870206080962459 0 -0.46860935356359301 -0.4716247601870463 0 -0.47093814503481352 -0.45114081223360081 0 -0.5 -0.45368417051362708 0 -0.48214436818904333 -0.43870206080962459 0 -0.47093814503481352 -0.45114081223360081 0 -0.5 -0.45368417051362708 0 -0.45798068478843762 -0.44053863329087989 0 -0.48214436818904333 -0.43870206080962459 0 -0.47093814503481352 -0.45114081223360081 0 -0.48214436818904333 -0.43870206080962459 0 -0.5 -0.45368417051362708 0 -0.49999999999999961 -0.39121555143091152 0 -0.48214436818904333 -0.43870206080962459 0 -0.47917208045877552 -0.40685719185339753 0 -0.49999999999999961 -0.39121555143091152 0 -0.48214436818904333 -0.43870206080962459 0 -0.47917208045877552 -0.40685719185339753 0 -0.46190030379456848 -0.42582299198835938 0 -0.47917208045877552 -0.40685719185339753 0 -0.45834416091755159 -0.4224988322758837 0 -0.50000000000000266 -0.37625599721554409 0 -0.49999999999999961 -0.39121555143091152 0 -0.47809538505193128 -0.38373577432322098 0 -0.47917208045877552 -0.40685719185339753 0 -0.49999999999999961 -0.39121555143091152 0 -0.47917208045877552 -0.40685719185339753 0 -0.49999999999999961 -0.39121555143091152 0 -0.47809538505193128 -0.38373577432322098 0 -0.47917208045877552 -0.40685719185339753 0 -0.47809538505193128 -0.38373577432322098 0 -0.4562942774091826 -0.39808154788458883 0 -0.47809538505193128 -0.38373577432322098 0 -0.4562942774091826 -0.39808154788458883 0 -0.45429064667093277 -0.36454062509685042 0 -0.4562942774091826 -0.39808154788458883 0 -0.4354602524783906 -0.38042392603318997 0 -0.45429064667093277 -0.36454062509685042 0 -0.4562942774091826 -0.39808154788458883 0 -0.43870160679350412 -0.40058637322139601 0 -0.438944672890971 -0.41835480388456819 0 -0.4562942774091826 -0.39808154788458883 0 -0.43870160679350412 -0.40058637322139601 0 -0.4354602524783906 -0.38042392603318997 0 -0.44074645873626223 -0.4382910044992358 0 -0.45834416091755159 -0.4224988322758837 0 -0.46190030379456848 -0.42582299198835938 0 -0.45798068478843762 -0.44053863329087989 0 -0.48214436818904333 -0.43870206080962459 0 -0.46190030379456848 -0.42582299198835938 0 -0.45798068478843762 -0.44053863329087989 0 -0.45399083980939559 -0.4348348321941648 0 -0.46190030379456848 -0.42582299198835938 0 -0.47917208045877552 -0.40685719185339753 0 -0.45834416091755159 -0.4224988322758837 0 -0.46190030379456848 -0.42582299198835938 0 -0.47917208045877552 -0.40685719185339753 0 -0.4562942774091826 -0.39808154788458883 0 -0.45834416091755159 -0.4224988322758837 0 -0.4562942774091826 -0.39808154788458883 0 -0.45834416091755159 -0.4224988322758837 0 -0.438944672890971 -0.41835480388456819 0 -0.44074645873626223 -0.4382910044992358 0 -0.45399083980939559 -0.4348348321941648 0 -0.46190030379456848 -0.42582299198835938 0 -0.43751624137632872 -0.43814047269837142 0 -0.45834416091755159 -0.4224988322758837 0 -0.44074645873626223 -0.4382910044992358 0 -0.43751624137632872 -0.43814047269837142 0 -0.45834416091755159 -0.4224988322758837 0 -0.43751624137632872 -0.43814047269837142 0 -0.45834416091755159 -0.4224988322758837 0 -0.438944672890971 -0.41835480388456819 0 -0.44074645873626223 -0.4382910044992358 0 -0.46190030379456848 -0.42582299198835938 0 -0.45125040592494359 -0.43878050037838479 0 -0.44074645873626223 -0.4382910044992358 0 -0.45399083980939559 -0.4348348321941648 0 -0.43751624137632872 -0.43814047269837142 0 -0.438944672890971 -0.41835480388456819 0 -0.4144413395475034 -0.43706515604320312 0 -0.43870160679350412 -0.40058637322139601 0 -0.438944672890971 -0.41835480388456819 0 -0.42233522448127431 -0.40750863725634989 0 -0.438944672890971 -0.41835480388456819 0 -0.42233522448127431 -0.40750863725634989 0 -0.4144413395475034 -0.43706515604320312 0 -0.42233522448127431 -0.40750863725634989 0 -0.4144413395475034 -0.43706515604320312 0 -0.39855316224479909 -0.41319025614961519 0 -0.43870160679350412 -0.40058637322139601 0 -0.4354602524783906 -0.38042392603318997 0 -0.4132231888202707 -0.39079800449325269 0 -0.43870160679350412 -0.40058637322139601 0 -0.42233522448127431 -0.40750863725634989 0 -0.4132231888202707 -0.39079800449325269 0 -0.42233522448127431 -0.40750863725634989 0 -0.4132231888202707 -0.39079800449325269 0 -0.39855316224479909 -0.41319025614961519 0 -0.4354602524783906 -0.38042392603318997 0 -0.4132231888202707 -0.39079800449325269 0 -0.40865055985917992 -0.37232192521179569 0 -0.4132231888202707 -0.39079800449325269 0 -0.39363700061900542 -0.37996143275930799 0 -0.39458131510345451 -0.39463922637655507 0 -0.4132231888202707 -0.39079800449325269 0 -0.39363700061900542 -0.37996143275930799 0 -0.40865055985917992 -0.37232192521179569 0 -0.4132231888202707 -0.39079800449325269 0 -0.39458131510345451 -0.39463922637655507 0 -0.39855316224479909 -0.41319025614961519 0 -0.39458131510345451 -0.39463922637655507 0 -0.37763105849602741 -0.38609409550699969 0 -0.37345153171335432 -0.40470054699450952 0 -0.39458131510345451 -0.39463922637655507 0 -0.39855316224479909 -0.41319025614961519 0 -0.37345153171335432 -0.40470054699450952 0 -0.39363700061900542 -0.37996143275930799 0 -0.37763105849602741 -0.38609409550699969 0 -0.37502948216613591 -0.37147003818258562 0 -0.39363700061900542 -0.37996143275930799 0 -0.39458131510345451 -0.39463922637655507 0 -0.37763105849602741 -0.38609409550699969 0 -0.4144413395475034 -0.43706515604320312 0 -0.39136643771867818 -0.43598983938803221 0 -0.4144413395475034 -0.43706515604320312 0 -0.39136643771867818 -0.43598983938803221 0 -0.39855316224479909 -0.41319025614961519 0 -0.39855316224479909 -0.41319025614961519 0 -0.38047309832905851 -0.42163038249540402 0 -0.37345153171335432 -0.40470054699450952 0 -0.39136643771867818 -0.43598983938803221 0 -0.36829153588985297 -0.43491452273286141 0 -0.39136643771867818 -0.43598983938803221 0 -0.38047309832905851 -0.42163038249540402 0 -0.36829153588985297 -0.43491452273286141 0 -0.39136643771867818 -0.43598983938803221 0 -0.39855316224479909 -0.41319025614961519 0 -0.38047309832905851 -0.42163038249540402 0 -0.39136643771867818 -0.43598983938803221 0 -0.37371999038825499 -0.44712249952325123 0 -0.36829153588985297 -0.43491452273286141 0 -0.39650119013283491 -0.44545984122179422 0 -0.37371999038825499 -0.44712249952325123 0 -0.39650119013283491 -0.44545984122179422 0 -0.39154517331800981 -0.45612143949345119 0 -0.37371999038825499 -0.44712249952325123 0 -0.39136643771867818 -0.43598983938803221 0 -0.39650119013283491 -0.44545984122179422 0 -0.37371999038825499 -0.44712249952325123 0 -0.4144413395475034 -0.43706515604320312 0 -0.39650119013283491 -0.44545984122179422 0 -0.40183145120156061 -0.44507081856652531 0 -0.4144413395475034 -0.43706515604320312 0 -0.39136643771867818 -0.43598983938803221 0 -0.39650119013283491 -0.44545984122179422 0 -0.40183145120156061 -0.44507081856652531 0 -0.39154517331800981 -0.45612143949345119 0 -0.40910493863108249 -0.45694042106853061 0 -0.39650119013283491 -0.44545984122179422 0 -0.40183145120156061 -0.44507081856652531 0 -0.39154517331800981 -0.45612143949345119 0 -0.39650119013283491 -0.44545984122179422 0 -0.40183145120156061 -0.44507081856652531 0 -0.39340682564992691 -0.46619284153898272 0 -0.40910493863108249 -0.45694042106853061 0 -0.39154517331800981 -0.45612143949345119 0 -0.39340682564992691 -0.46619284153898272 0 -0.40910493863108249 -0.45694042106853061 0 -0.39340682564992691 -0.46619284153898272 0 -0.41193094441339939 -0.47657598396980799 0 -0.40910493863108249 -0.45694042106853061 0 -0.39154517331800981 -0.45612143949345119 0 -0.39340682564992691 -0.46619284153898272 0 -0.3796521354328049 -0.46488409159361549 0 -0.39154517331800981 -0.45612143949345119 0 -0.3796521354328049 -0.46488409159361549 0 -0.37371999038825499 -0.44712249952325123 0 -0.39340682564992691 -0.46619284153898272 0 -0.3796521354328049 -0.46488409159361549 0 -0.37706188032537702 -0.4807521332203612 0 -0.37706188032537702 -0.4807521332203612 0 -0.39830309927740692 -0.5 0 -0.3666383571033886 -0.49999999999999922 0 -0.39340682564992691 -0.46619284153898272 0 -0.37706188032537702 -0.4807521332203612 0 -0.39517568741652748 -0.48088023968228799 0 -0.37706188032537702 -0.4807521332203612 0 -0.39830309927740692 -0.5 0 -0.39517568741652748 -0.48088023968228799 0 -0.39830309927740692 -0.5 0 -0.39517568741652748 -0.48088023968228799 0 -0.41193094441339939 -0.47657598396980799 0 -0.39340682564992691 -0.46619284153898272 0 -0.39517568741652748 -0.48088023968228799 0 -0.41193094441339939 -0.47657598396980799 0 -0.44138414188997571 -0.5 0 -0.39830309927740692 -0.5 0 -0.41193094441339939 -0.47657598396980799 0 -0.41193094441339939 -0.47657598396980799 0 -0.42848098353757758 -0.4712912712481841 0 -0.42051807196055918 -0.4624645022060685 0 -0.44138414188997571 -0.5 0 -0.41193094441339939 -0.47657598396980799 0 -0.42848098353757758 -0.4712912712481841 0 -0.44373922468922428 -0.46708366919693861 0 -0.42848098353757758 -0.4712912712481841 0 -0.43065591625229671 -0.45803535725140321 0 -0.42848098353757758 -0.4712912712481841 0 -0.43065591625229671 -0.45803535725140321 0 -0.42051807196055918 -0.4624645022060685 0 -0.43065591625229671 -0.45803535725140321 0 -0.42224895163146958 -0.449193379427624 0 -0.42051807196055918 -0.4624645022060685 0 -0.43957809815966431 -0.45137334764801817 0 -0.43065591625229671 -0.45803535725140321 0 -0.42979811255534239 -0.45005917027663622 0 -0.42996396258770347 -0.44381218796250083 0 -0.41412219993452831 -0.44474457534558798 0 -0.43751624137632872 -0.43814047269837142 0 -0.4144413395475034 -0.43706515604320312 0 -0.43957809815966431 -0.45137334764801817 0 -0.43381302958248019 -0.44258083223160721 0 -0.43165899925814449 -0.44253922577107868 0 -0.42996396258770347 -0.44381218796250083 0 -0.42480305161223819 -0.44768800059807851 0 -0.41412219993452831 -0.44474457534558798 0 -0.43957809815966431 -0.45137334764801817 0 -0.42979811255534239 -0.45005917027663622 0 -0.43165899925814449 -0.44253922577107868 0 -0.43165899925814449 -0.44253922577107868 0 -0.41412219993452831 -0.44474457534558798 0 -0.42996396258770347 -0.44381218796250083 0 -0.43165899925814449 -0.44253922577107868 0 -0.41412219993452831 -0.44474457534558798 0 -0.43751624137632872 -0.43814047269837142 0 -0.4144413395475034 -0.43706515604320312 0 -0.43165899925814449 -0.44253922577107868 0 -0.42979811255534239 -0.45005917027663622 0 -0.42996396258770347 -0.44381218796250083 0 -0.43165899925814449 -0.44253922577107868 0 -0.43751624137632872 -0.43814047269837142 0 -0.43381302958248019 -0.44258083223160721 0 -0.43165899925814449 -0.44253922577107868 0 -0.44074645873626223 -0.4382910044992358 0 -0.43751624137632872 -0.43814047269837142 0 -0.43381302958248019 -0.44258083223160721 0 -0.43751624137632872 -0.43814047269837142 0 -0.43165899925814449 -0.44253922577107868 0 -0.44074645873626223 -0.4382910044992358 0 -0.43381302958248019 -0.44258083223160721 0 -0.42996396258770347 -0.44381218796250083 0 -0.43165899925814449 -0.44253922577107868 0 -0.43381302958248019 -0.44258083223160721 0 -0.43165899925814449 -0.44253922577107868 0 -0.43065591625229671 -0.45803535725140321 0 -0.42979811255534239 -0.45005917027663622 0 -0.42224895163146958 -0.449193379427624 0 -0.42979811255534239 -0.45005917027663622 0 -0.42996396258770347 -0.44381218796250083 0 -0.42480305161223819 -0.44768800059807851 0 -0.42996396258770347 -0.44381218796250083 0 -0.42480305161223819 -0.44768800059807851 0 -0.42979811255534239 -0.45005917027663622 0 -0.42480305161223819 -0.44768800059807851 0 -0.42224895163146958 -0.449193379427624 0 -0.42480305161223819 -0.44768800059807851 0 -0.42224895163146958 -0.449193379427624 0 -0.40183145120156061 -0.44507081856652531 0 -0.42480305161223819 -0.44768800059807851 0 -0.41412219993452831 -0.44474457534558798 0 -0.40183145120156061 -0.44507081856652531 0 -0.42480305161223819 -0.44768800059807851 0 -0.42224895163146958 -0.449193379427624 0 -0.4144413395475034 -0.43706515604320312 0 -0.43165899925814449 -0.44253922577107868 0 -0.41412219993452831 -0.44474457534558798 0 -0.40183145120156061 -0.44507081856652531 0 -0.42224895163146958 -0.449193379427624 0 -0.40910493863108249 -0.45694042106853061 0 -0.42224895163146958 -0.449193379427624 0 -0.40910493863108249 -0.45694042106853061 0 -0.40183145120156061 -0.44507081856652531 0 -0.41412219993452831 -0.44474457534558798 0 -0.4144413395475034 -0.43706515604320312 0 -0.40183145120156061 -0.44507081856652531 0 -0.41412219993452831 -0.44474457534558798 0 -0.41193094441339939 -0.47657598396980799 0 -0.40910493863108249 -0.45694042106853061 0 -0.42051807196055918 -0.4624645022060685 0 -0.42224895163146958 -0.449193379427624 0 -0.40910493863108249 -0.45694042106853061 0 -0.42051807196055918 -0.4624645022060685 0 -0.45431789396630767 -0.27646865513296109 0 -0.43363988072749859 -0.25378542656053571 0 -0.4603218035990862 -0.2440151072774833 0 -0.45431789396630767 -0.27646865513296109 0 -0.4777322503447019 -0.25957726544333509 0 -0.4603218035990862 -0.2440151072774833 0 -0.45431789396630767 -0.27646865513296109 0 -0.42675937105504669 -0.28083742548089002 0 -0.43363988072749859 -0.25378542656053571 0 -0.4777322503447019 -0.25957726544333509 0 -0.5 -0.26799024627547768 0 -0.5 -0.24092380854046111 0 -0.4777322503447019 -0.25957726544333509 0 -0.5 -0.26799024627547768 0 -0.47998177622016269 -0.28161292581385289 0 -0.45431789396630767 -0.27646865513296109 0 -0.4777322503447019 -0.25957726544333509 0 -0.47998177622016269 -0.28161292581385289 0 -0.5 -0.29505668401049429 0 -0.46785873678980427 -0.30897177820699628 0 -0.5 -0.32212312174551089 0 -0.47998177622016269 -0.28161292581385289 0 -0.5 -0.29505668401049429 0 -0.46785873678980427 -0.30897177820699628 0 -0.5 -0.26799024627547768 0 -0.47998177622016269 -0.28161292581385289 0 -0.5 -0.29505668401049429 0 -0.46785873678980427 -0.30897177820699628 0 -0.44291947370669271 -0.29855958841708602 0 -0.43303352939775253 -0.32041118062381863 0 -0.45431789396630767 -0.27646865513296109 0 -0.47998177622016269 -0.28161292581385289 0 -0.46785873678980427 -0.30897177820699628 0 -0.45431789396630767 -0.27646865513296109 0 -0.46785873678980427 -0.30897177820699628 0 -0.44291947370669271 -0.29855958841708602 0 -0.45431789396630767 -0.27646865513296109 0 -0.44291947370669271 -0.29855958841708602 0 -0.42675937105504669 -0.28083742548089002 0 -0.46785873678980427 -0.30897177820699628 0 -0.45535568626516959 -0.33902611948772671 0 -0.43303352939775253 -0.32041118062381863 0 -0.45535568626516959 -0.33902611948772671 0 -0.42525634028900772 -0.3518218365390256 0 -0.43303352939775253 -0.32041118062381863 0 -0.45535568626516959 -0.33902611948772671 0 -0.43303352939775253 -0.32041118062381863 0 -0.46785873678980427 -0.30897177820699628 0 -0.45535568626516959 -0.33902611948772671 0 -0.47881709301872338 -0.33358361524081598 0 -0.46785873678980427 -0.30897177820699628 0 -0.5 -0.32212312174551089 0 -0.47881709301872338 -0.33358361524081598 0 -0.5 -0.32212312174551089 0 -0.47881709301872338 -0.33358361524081598 0 -0.5 -0.34918955948052749 0 -0.45535568626516959 -0.33902611948772671 0 -0.47881709301872338 -0.33358361524081598 0 -0.47767784313258671 -0.35764105835163468 0 -0.47881709301872338 -0.33358361524081598 0 -0.47767784313258671 -0.35764105835163468 0 -0.5 -0.34918955948052749 0 -0.50000000000000266 -0.37625599721554409 0 -0.47809538505193128 -0.38373577432322098 0 -0.47767784313258671 -0.35764105835163468 0 -0.50000000000000266 -0.37625599721554409 0 -0.47767784313258671 -0.35764105835163468 0 -0.50000000000000266 -0.37625599721554409 0 -0.47767784313258671 -0.35764105835163468 0 -0.5 -0.34918955948052749 0 -0.47809538505193128 -0.38373577432322098 0 -0.47767784313258671 -0.35764105835163468 0 -0.45429064667093277 -0.36454062509685042 0 -0.45535568626516959 -0.33902611948772671 0 -0.47767784313258671 -0.35764105835163468 0 -0.45535568626516959 -0.33902611948772671 0 -0.47767784313258671 -0.35764105835163468 0 -0.45429064667093277 -0.36454062509685042 0 -0.45535568626516959 -0.33902611948772671 0 -0.45429064667093277 -0.36454062509685042 0 -0.42525634028900772 -0.3518218365390256 0 -0.4354602524783906 -0.38042392603318997 0 -0.45429064667093277 -0.36454062509685042 0 -0.42525634028900772 -0.3518218365390256 0 -0.4354602524783906 -0.38042392603318997 0 -0.42525634028900772 -0.3518218365390256 0 -0.40865055985917992 -0.37232192521179569 0 -0.42525634028900772 -0.3518218365390256 0 -0.40727234419050318 -0.355320169099415 0 -0.40857610288777158 -0.33539310506009928 0 -0.42525634028900772 -0.3518218365390256 0 -0.40727234419050318 -0.355320169099415 0 -0.40865055985917992 -0.37232192521179569 0 -0.40727234419050318 -0.355320169099415 0 -0.40865055985917992 -0.37232192521179569 0 -0.39270639926896461 -0.36444530678465947 0 -0.39363700061900542 -0.37996143275930799 0 -0.40865055985917992 -0.37232192521179569 0 -0.39270639926896461 -0.36444530678465947 0 -0.39363700061900542 -0.37996143275930799 0 -0.39270639926896461 -0.36444530678465947 0 -0.37502948216613591 -0.37147003818258562 0 -0.39270639926896461 -0.36444530678465947 0 -0.37502948216613591 -0.37147003818258562 0 -0.37845887485034102 -0.3553796728693 0 -0.37845887485034102 -0.3553796728693 0 -0.3929040787631346 -0.35115464120163092 0 -0.38456474127787987 -0.33691862963057129 0 -0.37845887485034102 -0.3553796728693 0 -0.38456474127787987 -0.33691862963057129 0 -0.3709876856575175 -0.34483281177302277 0 -0.39270639926896461 -0.36444530678465947 0 -0.37845887485034102 -0.3553796728693 0 -0.3929040787631346 -0.35115464120163092 0 -0.40727234419050318 -0.355320169099415 0 -0.3929040787631346 -0.35115464120163092 0 -0.40857610288777158 -0.33539310506009928 0 -0.40727234419050318 -0.355320169099415 0 -0.39270639926896461 -0.36444530678465947 0 -0.3929040787631346 -0.35115464120163092 0 -0.3929040787631346 -0.35115464120163092 0 -0.38456474127787987 -0.33691862963057129 0 -0.40857610288777158 -0.33539310506009928 0 -0.39413667797610641 -0.31891937407030618 0 -0.40857610288777158 -0.33539310506009928 0 -0.41071137253033541 -0.30179624175991049 0 -0.38456474127787987 -0.33691862963057129 0 -0.39413667797610641 -0.31891937407030618 0 -0.40857610288777158 -0.33539310506009928 0 -0.38456474127787987 -0.33691862963057129 0 -0.37640345306108153 -0.31758956688068141 0 -0.36504274353766908 -0.33048994811161508 0 -0.38456474127787987 -0.33691862963057129 0 -0.37640345306108153 -0.31758956688068141 0 -0.39413667797610641 -0.31891937407030618 0 -0.37640345306108153 -0.31758956688068141 0 -0.39413667797610641 -0.31891937407030618 0 -0.39020784342757159 -0.30299313238291947 0 -0.40857610288777158 -0.33539310506009928 0 -0.43303352939775253 -0.32041118062381863 0 -0.41071137253033541 -0.30179624175991049 0 -0.42525634028900772 -0.3518218365390256 0 -0.40857610288777158 -0.33539310506009928 0 -0.43303352939775253 -0.32041118062381863 0 -0.44291947370669271 -0.29855958841708602 0 -0.43303352939775253 -0.32041118062381863 0 -0.41071137253033541 -0.30179624175991049 0 -0.44291947370669271 -0.29855958841708602 0 -0.41071137253033541 -0.30179624175991049 0 -0.42675937105504669 -0.28083742548089002 0 -0.41146184335541591 -0.28546711904423572 0 -0.41071137253033541 -0.30179624175991049 0 -0.42675937105504669 -0.28083742548089002 0 -0.43303352939775253 -0.32041118062381863 0 -0.41071137253033541 -0.30179624175991049 0 -0.39413667797610641 -0.31891937407030618 0 -0.41071137253033541 -0.30179624175991049 0 -0.39020784342757159 -0.30299313238291947 0 -0.37640345306108153 -0.31758956688068141 0 -0.39020784342757159 -0.30299313238291947 0 -0.36636885438585592 -0.29798474019077931 0 -0.39020784342757159 -0.30299313238291947 0 -0.38838921566291829 -0.28318130289600252 0 -0.36636885438585592 -0.29798474019077931 0 -0.41071137253033541 -0.30179624175991049 0 -0.39020784342757159 -0.30299313238291947 0 -0.38838921566291829 -0.28318130289600252 0 -0.41146184335541591 -0.28546711904423572 0 -0.38838921566291829 -0.28318130289600252 0 -0.4006508306959724 -0.27694456576270438 0 -0.41146184335541591 -0.28546711904423572 0 -0.41071137253033541 -0.30179624175991049 0 -0.38838921566291829 -0.28318130289600252 0 -0.41071137253033541 -0.30179624175991049 0 -0.38838921566291829 -0.28318130289600252 0 -0.38838921566291829 -0.28318130289600252 0 -0.4006508306959724 -0.27694456576270438 0 -0.38601349680082547 -0.26333884455390483 0 -0.38838921566291829 -0.28318130289600252 0 -0.36606705879550122 -0.26456636403209438 0 -0.38838921566291829 -0.28318130289600252 0 -0.38601349680082547 -0.26333884455390483 0 -0.36606705879550122 -0.26456636403209438 0 -0.38601349680082547 -0.26333884455390483 0 -0.41153618198503888 -0.2523194842721081 0 -0.39134949549471232 -0.2418610061304188 0 -0.4006508306959724 -0.27694456576270438 0 -0.38601349680082547 -0.26333884455390483 0 -0.41153618198503888 -0.2523194842721081 0 -0.4006508306959724 -0.27694456576270438 0 -0.41153618198503888 -0.2523194842721081 0 -0.41153618198503888 -0.2523194842721081 0 -0.41522903304909498 -0.26867032302148042 0 -0.43363988072749859 -0.25378542656053571 0 -0.4006508306959724 -0.27694456576270438 0 -0.41153618198503888 -0.2523194842721081 0 -0.41522903304909498 -0.26867032302148042 0 -0.41146184335541591 -0.28546711904423572 0 -0.4006508306959724 -0.27694456576270438 0 -0.41522903304909498 -0.26867032302148042 0 -0.41146184335541591 -0.28546711904423572 0 -0.41522903304909498 -0.26867032302148042 0 -0.42675937105504669 -0.28083742548089002 0 -0.41522903304909498 -0.26867032302148042 0 -0.42675937105504669 -0.28083742548089002 0 -0.43363988072749859 -0.25378542656053571 0 -0.32072650774881262 -0.25147522666376648 0 -0.33887364628692179 -0.27321863144872188 0 -0.31033347762326441 -0.27035504464687909 0 -0.33887364628692179 -0.27321863144872188 0 -0.31964423785876661 -0.28856742330154428 0 -0.31033347762326441 -0.27035504464687909 0 -0.32072650774881262 -0.25147522666376648 0 -0.33887364628692179 -0.27321863144872188 0 -0.34374490192808399 -0.24595142516818649 0 -0.33887364628692179 -0.27321863144872188 0 -0.34374490192808399 -0.24595142516818649 0 -0.36606705879550122 -0.26456636403209438 0 -0.34374490192808399 -0.24595142516818649 0 -0.33887364628692179 -0.27321863144872188 0 -0.36606705879550122 -0.26456636403209438 0 -0.34374490192808399 -0.24595142516818649 0 -0.36606705879550122 -0.26456636403209438 0 -0.36959445160708371 -0.2399718803367539 0 -0.34374490192808399 -0.24595142516818649 0 -0.38601349680082547 -0.26333884455390483 0 -0.36606705879550122 -0.26456636403209438 0 -0.36959445160708371 -0.2399718803367539 0 -0.33887364628692179 -0.27321863144872188 0 -0.36606705879550122 -0.26456636403209438 0 -0.34874506099368152 -0.28905087385259959 0 -0.38838921566291829 -0.28318130289600252 0 -0.36606705879550122 -0.26456636403209438 0 -0.36636885438585592 -0.29798474019077931 0 -0.36606705879550122 -0.26456636403209438 0 -0.34874506099368152 -0.28905087385259959 0 -0.36636885438585592 -0.29798474019077931 0 -0.37640345306108153 -0.31758956688068141 0 -0.36636885438585592 -0.29798474019077931 0 -0.35765395571262382 -0.31784893539664028 0 -0.34874506099368152 -0.28905087385259959 0 -0.36636885438585592 -0.29798474019077931 0 -0.34676233571073278 -0.3065086100373472 0 -0.36636885438585592 -0.29798474019077931 0 -0.34676233571073278 -0.3065086100373472 0 -0.35765395571262382 -0.31784893539664028 0 -0.34874506099368152 -0.28905087385259959 0 -0.34676233571073278 -0.3065086100373472 0 -0.33400239064575948 -0.3004858377292573 0 -0.34676233571073278 -0.3065086100373472 0 -0.33400239064575948 -0.3004858377292573 0 -0.33123652700276901 -0.31256264127898309 0 -0.33400239064575948 -0.3004858377292573 0 -0.32182576599205398 -0.30375222101892052 0 -0.33123652700276901 -0.31256264127898309 0 -0.33887364628692179 -0.27321863144872188 0 -0.33400239064575948 -0.3004858377292573 0 -0.33887364628692179 -0.27321863144872188 0 -0.33400239064575948 -0.3004858377292573 0 -0.31964423785876661 -0.28856742330154428 0 -0.33887364628692179 -0.27321863144872188 0 -0.34874506099368152 -0.28905087385259959 0 -0.33400239064575948 -0.3004858377292573 0 -0.31270232805655113 -0.30906519676739691 0 -0.32182576599205398 -0.30375222101892052 0 -0.31165052356405271 -0.29838152124190331 0 -0.31964423785876661 -0.28856742330154428 0 -0.32182576599205398 -0.30375222101892052 0 -0.31165052356405271 -0.29838152124190331 0 -0.31270232805655113 -0.30906519676739691 0 -0.32182576599205398 -0.30375222101892052 0 -0.3216560855018501 -0.31265369321125452 0 -0.32182576599205398 -0.30375222101892052 0 -0.3216560855018501 -0.31265369321125452 0 -0.33123652700276901 -0.31256264127898309 0 -0.33400239064575948 -0.3004858377292573 0 -0.31964423785876661 -0.28856742330154428 0 -0.32182576599205398 -0.30375222101892052 0 -0.32476380927493032 -0.31878623309330822 0 -0.31965018173965781 -0.32152704615848771 0 -0.33179384393358258 -0.32476713091907339 0 -0.3216560855018501 -0.31265369321125452 0 -0.32476380927493032 -0.31878623309330822 0 -0.33123652700276901 -0.31256264127898309 0 -0.3216560855018501 -0.31265369321125452 0 -0.32476380927493032 -0.31878623309330822 0 -0.31965018173965781 -0.32152704615848771 0 -0.31270232805655113 -0.30906519676739691 0 -0.31965018173965781 -0.32152704615848771 0 -0.31270232805655113 -0.30906519676739691 0 -0.3216560855018501 -0.31265369321125452 0 -0.31965018173965781 -0.32152704615848771 0 -0.31965018173965781 -0.32152704615848771 0 -0.33021046132242909 -0.34046823572445128 0 -0.31965018173965781 -0.32152704615848771 0 -0.33021046132242909 -0.34046823572445128 0 -0.33179384393358258 -0.32476713091907339 0 -0.31965018173965781 -0.32152704615848771 0 -0.33021046132242909 -0.34046823572445128 0 -0.30595748755334451 -0.32966727263356599 0 -0.33021046132242909 -0.34046823572445128 0 -0.30711459221304471 -0.34778309807331198 0 -0.30595748755334451 -0.32966727263356599 0 -0.33021046132242909 -0.34046823572445128 0 -0.33989887618334758 -0.3330060138877966 0 -0.33179384393358258 -0.32476713091907339 0 -0.33021046132242909 -0.34046823572445128 0 -0.33989887618334758 -0.3330060138877966 0 -0.34449083873180908 -0.34554140067099148 0 -0.33989887618334758 -0.3330060138877966 0 -0.34256722552370739 -0.32111863177582389 0 -0.33179384393358258 -0.32476713091907339 0 -0.34256722552370739 -0.32111863177582389 0 -0.33179384393358258 -0.32476713091907339 0 -0.33123652700276901 -0.31256264127898309 0 -0.32476380927493032 -0.31878623309330822 0 -0.33179384393358258 -0.32476713091907339 0 -0.33123652700276901 -0.31256264127898309 0 -0.34676233571073278 -0.3065086100373472 0 -0.34256722552370739 -0.32111863177582389 0 -0.33123652700276901 -0.31256264127898309 0 -0.34676233571073278 -0.3065086100373472 0 -0.34256722552370739 -0.32111863177582389 0 -0.35765395571262382 -0.31784893539664028 0 -0.34256722552370739 -0.32111863177582389 0 -0.35765395571262382 -0.31784893539664028 0 -0.35084463702261182 -0.33304174278190951 0 -0.35765395571262382 -0.31784893539664028 0 -0.36504274353766908 -0.33048994811161508 0 -0.35084463702261182 -0.33304174278190951 0 -0.37640345306108153 -0.31758956688068141 0 -0.35765395571262382 -0.31784893539664028 0 -0.36504274353766908 -0.33048994811161508 0 -0.38456474127787987 -0.33691862963057129 0 -0.36504274353766908 -0.33048994811161508 0 -0.3709876856575175 -0.34483281177302277 0 -0.36504274353766908 -0.33048994811161508 0 -0.35723876215579181 -0.34535238721967249 0 -0.3709876856575175 -0.34483281177302277 0 -0.36504274353766908 -0.33048994811161508 0 -0.35084463702261182 -0.33304174278190951 0 -0.35723876215579181 -0.34535238721967249 0 -0.33989887618334758 -0.3330060138877966 0 -0.34256722552370739 -0.32111863177582389 0 -0.35084463702261182 -0.33304174278190951 0 -0.35084463702261182 -0.33304174278190951 0 -0.34449083873180908 -0.34554140067099148 0 -0.35723876215579181 -0.34535238721967249 0 -0.33989887618334758 -0.3330060138877966 0 -0.35084463702261182 -0.33304174278190951 0 -0.34449083873180908 -0.34554140067099148 0 -0.34449083873180908 -0.34554140067099148 0 -0.34876783138045109 -0.35292453824508518 0 -0.35723876215579181 -0.34535238721967249 0 -0.34876783138045109 -0.35292453824508518 0 -0.35122265026005572 -0.3606185538845384 0 -0.34288157183282908 -0.35845409165651348 0 -0.34449083873180908 -0.34554140067099148 0 -0.34876783138045109 -0.35292453824508518 0 -0.34288157183282908 -0.35845409165651348 0 -0.35636339504248338 -0.35448424099049308 0 -0.35922370059442849 -0.3617172831226389 0 -0.35122265026005572 -0.3606185538845384 0 -0.34876783138045109 -0.35292453824508518 0 -0.35636339504248338 -0.35448424099049308 0 -0.35122265026005572 -0.3606185538845384 0 -0.34876783138045109 -0.35292453824508518 0 -0.35636339504248338 -0.35448424099049308 0 -0.35723876215579181 -0.34535238721967249 0 -0.35636339504248338 -0.35448424099049308 0 -0.35723876215579181 -0.34535238721967249 0 -0.36509417222820162 -0.35405916723607278 0 -0.35723876215579181 -0.34535238721967249 0 -0.36509417222820162 -0.35405916723607278 0 -0.3709876856575175 -0.34483281177302277 0 -0.35636339504248338 -0.35448424099049308 0 -0.36509417222820162 -0.35405916723607278 0 -0.35922370059442849 -0.3617172831226389 0 -0.37845887485034102 -0.3553796728693 0 -0.36509417222820162 -0.35405916723607278 0 -0.3682926150686478 -0.36258860744130939 0 -0.37845887485034102 -0.3553796728693 0 -0.36509417222820162 -0.35405916723607278 0 -0.3709876856575175 -0.34483281177302277 0 -0.37502948216613591 -0.37147003818258562 0 -0.37845887485034102 -0.3553796728693 0 -0.3682926150686478 -0.36258860744130939 0 -0.37502948216613591 -0.37147003818258562 0 -0.3682926150686478 -0.36258860744130939 0 -0.36302382989661242 -0.36954369287227401 0 -0.37502948216613591 -0.37147003818258562 0 -0.36302382989661242 -0.36954369287227401 0 -0.36528160042732588 -0.37841400820534582 0 -0.36509417222820162 -0.35405916723607278 0 -0.3682926150686478 -0.36258860744130939 0 -0.35922370059442849 -0.3617172831226389 0 -0.3682926150686478 -0.36258860744130939 0 -0.36302382989661242 -0.36954369287227401 0 -0.35922370059442849 -0.3617172831226389 0 -0.36302382989661242 -0.36954369287227401 0 -0.36528160042732588 -0.37841400820534582 0 -0.35925212760702357 -0.37511349731665139 0 -0.34077074090520032 -0.35940942529041509 0 -0.35448952840275011 -0.3840157960374736 0 -0.34006812056777469 -0.3729030535018385 0 -0.34077074090520032 -0.35940942529041509 0 -0.35448952840275011 -0.3840157960374736 0 -0.36302382989661242 -0.36954369287227401 0 -0.35421355170140612 -0.36848049215151241 0 -0.35925212760702357 -0.37511349731665139 0 -0.35421355170140612 -0.36848049215151241 0 -0.34077074090520032 -0.35940942529041509 0 -0.35448952840275011 -0.3840157960374736 0 -0.36302382989661242 -0.36954369287227401 0 -0.35421355170140612 -0.36848049215151241 0 -0.35922370059442849 -0.3617172831226389 0 -0.35421355170140612 -0.36848049215151241 0 -0.35922370059442849 -0.3617172831226389 0 -0.35122265026005572 -0.3606185538845384 0 -0.35421355170140612 -0.36848049215151241 0 -0.35122265026005572 -0.3606185538845384 0 -0.34077074090520032 -0.35940942529041509 0 -0.35122265026005572 -0.3606185538845384 0 -0.34077074090520032 -0.35940942529041509 0 -0.34288157183282908 -0.35845409165651348 0 -0.34006812056777469 -0.3729030535018385 0 -0.34077074090520032 -0.35940942529041509 0 -0.32416834802040873 -0.36692344458893023 0 -0.34077074090520032 -0.35940942529041509 0 -0.32416834802040873 -0.36692344458893023 0 -0.34006812056777469 -0.3729030535018385 0 -0.32416834802040873 -0.36692344458893023 0 -0.33470831046611998 -0.3787530108001112 0 -0.32416834802040873 -0.36692344458893023 0 -0.33470831046611998 -0.3787530108001112 0 -0.34077074090520032 -0.35940942529041509 0 -0.34288157183282908 -0.35845409165651348 0 -0.33021046132242909 -0.34046823572445128 0 -0.34077074090520032 -0.35940942529041509 0 -0.32416834802040873 -0.36692344458893023 0 -0.33021046132242909 -0.34046823572445128 0 -0.34077074090520032 -0.35940942529041509 0 -0.33021046132242909 -0.34046823572445128 0 -0.34449083873180908 -0.34554140067099148 0 -0.34077074090520032 -0.35940942529041509 0 -0.34449083873180908 -0.34554140067099148 0 -0.34077074090520032 -0.35940942529041509 0 -0.34288157183282908 -0.35845409165651348 0 -0.33021046132242909 -0.34046823572445128 0 -0.32416834802040873 -0.36692344458893023 0 -0.30711459221304471 -0.34778309807331198 0 -0.32416834802040873 -0.36692344458893023 0 -0.30711459221304471 -0.34778309807331198 0 -0.32416834802040873 -0.36692344458893023 0 -0.30971715866003008 -0.37346385816026623 0 -0.30510920713473633 -0.36280023310454612 0 -0.32416834802040873 -0.36692344458893023 0 -0.30971715866003008 -0.37346385816026623 0 -0.32416834802040873 -0.36692344458893023 0 -0.30971715866003008 -0.37346385816026623 0 -0.31977974000161807 -0.37959604540102282 0 -0.30971715866003008 -0.37346385816026623 0 -0.30510920713473633 -0.36280023310454612 0 -0.29526596929965082 -0.3800042717316009 0 -0.30510920713473633 -0.36280023310454612 0 -0.2926634028526649 -0.35432351164464748 0 -0.29526596929965082 -0.3800042717316009 0 -0.32416834802040873 -0.36692344458893023 0 -0.30510920713473633 -0.36280023310454612 0 -0.30711459221304471 -0.34778309807331198 0 -0.30510920713473633 -0.36280023310454612 0 -0.30711459221304471 -0.34778309807331198 0 -0.2926634028526649 -0.35432351164464748 0 -0.2926634028526649 -0.35432351164464748 0 -0.27440110522353339 -0.35345108085454868 0 -0.29006083640568031 -0.32864275155769412 0 -0.2926634028526649 -0.35432351164464748 0 -0.27931483410846392 -0.36869304146392101 0 -0.27440110522353339 -0.35345108085454868 0 -0.2926634028526649 -0.35432351164464748 0 -0.27931483410846392 -0.36869304146392101 0 -0.29526596929965082 -0.3800042717316009 0 -0.2926634028526649 -0.35432351164464748 0 -0.29526596929965082 -0.3800042717316009 0 -0.27931483410846392 -0.36869304146392101 0 -0.26166973769926472 -0.36111888201040349 0 -0.26163163198006961 -0.37827800633634617 0 -0.27931483410846392 -0.36869304146392101 0 -0.26166973769926472 -0.36111888201040349 0 -0.27440110522353339 -0.35345108085454868 0 -0.26166973769926472 -0.36111888201040349 0 -0.26163163198006961 -0.37827800633634617 0 -0.24696891466673401 -0.36680581742481427 0 -0.26166973769926472 -0.36111888201040349 0 -0.24696891466673401 -0.36680581742481427 0 -0.24353678124457051 -0.35306136111810749 0 -0.26166973769926472 -0.36111888201040349 0 -0.25685731260100381 -0.34784069051697541 0 -0.24353678124457051 -0.35306136111810749 0 -0.26166973769926472 -0.36111888201040349 0 -0.25685731260100381 -0.34784069051697541 0 -0.27440110522353339 -0.35345108085454868 0 -0.25685731260100381 -0.34784069051697541 0 -0.27440110522353339 -0.35345108085454868 0 -0.2672217595463407 -0.33697468442585538 0 -0.27440110522353339 -0.35345108085454868 0 -0.2672217595463407 -0.33697468442585538 0 -0.29006083640568031 -0.32864275155769412 0 -0.25685731260100381 -0.34784069051697541 0 -0.2672217595463407 -0.33697468442585538 0 -0.24355394904722399 -0.33426584600686821 0 -0.2672217595463407 -0.33697468442585538 0 -0.25696488229075182 -0.32094626457849229 0 -0.24355394904722399 -0.33426584600686821 0 -0.25696488229075182 -0.32094626457849229 0 -0.2567928049414831 -0.30674121199338839 0 -0.24213105036768989 -0.31339542597678971 0 -0.2672217595463407 -0.33697468442585538 0 -0.25696488229075182 -0.32094626457849229 0 -0.27313564193999618 -0.30964669634400599 0 -0.2672217595463407 -0.33697468442585538 0 -0.29006083640568031 -0.32864275155769412 0 -0.27313564193999618 -0.30964669634400599 0 -0.29006083640568031 -0.32864275155769412 0 -0.2988499610341846 -0.31541117822012699 0 -0.28747961962818691 -0.30317265880673588 0 -0.29006083640568031 -0.32864275155769412 0 -0.28747961962818691 -0.30317265880673588 0 -0.29006083640568031 -0.32864275155769412 0 -0.28747961962818691 -0.30317265880673588 0 -0.27313564193999618 -0.30964669634400599 0 -0.29006083640568031 -0.32864275155769412 0 -0.27313564193999618 -0.30964669634400599 0 -0.30711459221304471 -0.34778309807331198 0 -0.2926634028526649 -0.35432351164464748 0 -0.29006083640568031 -0.32864275155769412 0 -0.2926634028526649 -0.35432351164464748 0 -0.29006083640568031 -0.32864275155769412 0 -0.30711459221304471 -0.34778309807331198 0 -0.29006083640568031 -0.32864275155769412 0 -0.30595748755334451 -0.32966727263356599 0 -0.30711459221304471 -0.34778309807331198 0 -0.29006083640568031 -0.32864275155769412 0 -0.31965018173965781 -0.32152704615848771 0 -0.2988499610341846 -0.31541117822012699 0 -0.30264071121747471 -0.30323043576601449 0 -0.31965018173965781 -0.32152704615848771 0 -0.30595748755334451 -0.32966727263356599 0 -0.2988499610341846 -0.31541117822012699 0 -0.29006083640568031 -0.32864275155769412 0 -0.30595748755334451 -0.32966727263356599 0 -0.2988499610341846 -0.31541117822012699 0 -0.31270232805655113 -0.30906519676739691 0 -0.31965018173965781 -0.32152704615848771 0 -0.30264071121747471 -0.30323043576601449 0 -0.31965018173965781 -0.32152704615848771 0 -0.30264071121747471 -0.30323043576601449 0 -0.31270232805655113 -0.30906519676739691 0 -0.30264071121747471 -0.30323043576601449 0 -0.31165052356405271 -0.29838152124190331 0 -0.31964423785876661 -0.28856742330154428 0 -0.30143957469541682 -0.28729232935564009 0 -0.31033347762326441 -0.27035504464687909 0 -0.30264071121747471 -0.30323043576601449 0 -0.31165052356405271 -0.29838152124190331 0 -0.30143957469541682 -0.28729232935564009 0 -0.31964423785876661 -0.28856742330154428 0 -0.31165052356405271 -0.29838152124190331 0 -0.30143957469541682 -0.28729232935564009 0 -0.30143957469541682 -0.28729232935564009 0 -0.28563124069529261 -0.28493382537354067 0 -0.29571760533043639 -0.27212565488235968 0 -0.30264071121747471 -0.30323043576601449 0 -0.28563124069529261 -0.28493382537354067 0 -0.28563124069529261 -0.28493382537354067 0 -0.28747961962818691 -0.30317265880673588 0 -0.27091558170113272 -0.28534388018910101 0 -0.30264071121747471 -0.30323043576601449 0 -0.30143957469541682 -0.28729232935564009 0 -0.28563124069529261 -0.28493382537354067 0 -0.28563124069529261 -0.28493382537354067 0 -0.28747961962818691 -0.30317265880673588 0 -0.30264071121747471 -0.30323043576601449 0 -0.28563124069529261 -0.28493382537354067 0 -0.28747961962818691 -0.30317265880673588 0 -0.2988499610341846 -0.31541117822012699 0 -0.30264071121747471 -0.30323043576601449 0 -0.28747961962818691 -0.30317265880673588 0 -0.2988499610341846 -0.31541117822012699 0 -0.28747961962818691 -0.30317265880673588 0 -0.28747961962818691 -0.30317265880673588 0 -0.27313564193999618 -0.30964669634400599 0 -0.27091558170113272 -0.28534388018910101 0 -0.27313564193999618 -0.30964669634400599 0 -0.2567928049414831 -0.30674121199338839 0 -0.25621044747431149 -0.29065064113031852 0 -0.25696488229075182 -0.32094626457849229 0 -0.27313564193999618 -0.30964669634400599 0 -0.2567928049414831 -0.30674121199338839 0 -0.27313564193999618 -0.30964669634400599 0 -0.25621044747431149 -0.29065064113031852 0 -0.2567928049414831 -0.30674121199338839 0 -0.25621044747431149 -0.29065064113031852 0 -0.2407081516881559 -0.29252500594671133 0 -0.28747961962818691 -0.30317265880673588 0 -0.27091558170113272 -0.28534388018910101 0 -0.27313564193999618 -0.30964669634400599 0 -0.25621044747431149 -0.29065064113031852 0 -0.27091558170113272 -0.28534388018910101 0 -0.28563124069529261 -0.28493382537354067 0 -0.27100569589536522 -0.26920153702083022 0 -0.28563124069529261 -0.28493382537354067 0 -0.27091558170113272 -0.28534388018910101 0 -0.27100569589536522 -0.26920153702083022 0 -0.28563124069529261 -0.28493382537354067 0 -0.27100569589536522 -0.26920153702083022 0 -0.28320861036957479 -0.2610285805156326 0 -0.25621044747431149 -0.29065064113031852 0 -0.27091558170113272 -0.28534388018910101 0 -0.25435154377407732 -0.26751510157146691 0 -0.27091558170113272 -0.28534388018910101 0 -0.25435154377407732 -0.26751510157146691 0 -0.27091558170113272 -0.28534388018910101 0 -0.27100569589536522 -0.26920153702083022 0 -0.25435154377407732 -0.26751510157146691 0 -0.27100569589536522 -0.26920153702083022 0 -0.25638015109543832 -0.25346924866811887 0 -0.27100569589536522 -0.26920153702083022 0 -0.25435154377407732 -0.26751510157146691 0 -0.25638015109543832 -0.25346924866811887 0 -0.25435154377407732 -0.26751510157146691 0 -0.25638015109543832 -0.25346924866811887 0 -0.2493389891838439 -0.25321987494249693 0 -0.25638015109543832 -0.25346924866811887 0 -0.27077162411602079 -0.25784353796613507 0 -0.27249203910370512 -0.24767478565995901 0 -0.27100569589536522 -0.26920153702083022 0 -0.25638015109543832 -0.25346924866811887 0 -0.27077162411602079 -0.25784353796613507 0 -0.27100569589536522 -0.26920153702083022 0 -0.27077162411602079 -0.25784353796613507 0 -0.28320861036957479 -0.2610285805156326 0 -0.28320861036957479 -0.2610285805156326 0 -0.28749792763866178 -0.24569003862083921 0 -0.27249203910370512 -0.24767478565995901 0 -0.27077162411602079 -0.25784353796613507 0 -0.28320861036957479 -0.2610285805156326 0 -0.27249203910370512 -0.24767478565995901 0 -0.28320861036957479 -0.2610285805156326 0 -0.29959962444809007 -0.25722121144157772 0 -0.28749792763866178 -0.24569003862083921 0 -0.28320861036957479 -0.2610285805156326 0 -0.29571760533043639 -0.27212565488235968 0 -0.29959962444809007 -0.25722121144157772 0 -0.28563124069529261 -0.28493382537354067 0 -0.28320861036957479 -0.2610285805156326 0 -0.28563124069529261 -0.28493382537354067 0 -0.28320861036957479 -0.2610285805156326 0 -0.29571760533043639 -0.27212565488235968 0 -0.29571760533043639 -0.27212565488235968 0 -0.31033347762326441 -0.27035504464687909 0 -0.29959962444809007 -0.25722121144157772 0 -0.30143957469541682 -0.28729232935564009 0 -0.29571760533043639 -0.27212565488235968 0 -0.31033347762326441 -0.27035504464687909 0 -0.32072650774881262 -0.25147522666376648 0 -0.29959962444809007 -0.25722121144157772 0 -0.30450559005062572 -0.2418241359191928 0 -0.32072650774881262 -0.25147522666376648 0 -0.31033347762326441 -0.27035504464687909 0 -0.29959962444809007 -0.25722121144157772 0 -0.33385757448777981 -0.46609046918754649 0 -0.33983578817500298 -0.44911679796852372 0 -0.32355540408842431 -0.45007500098206887 0 -0.33385757448777981 -0.46609046918754649 0 -0.33983578817500298 -0.44911679796852372 0 -0.33385757448777981 -0.46609046918754649 0 -0.34341507121228748 -0.4712738924178228 0 -0.3455980042885306 -0.4487776553036249 0 -0.33385757448777981 -0.46609046918754649 0 -0.33983578817500298 -0.44911679796852372 0 -0.3455980042885306 -0.4487776553036249 0 -0.33983578817500298 -0.44911679796852372 0 -0.32355540408842431 -0.45007500098206887 0 -0.33983578817500298 -0.44911679796852372 0 -0.33339759586884388 -0.44204801545309191 0 -0.32355540408842431 -0.45007500098206887 0 -0.33339759586884388 -0.44204801545309191 0 -0.32355540408842431 -0.45007500098206887 0 -0.32798725866391282 -0.4333970699457852 0 -0.33983578817500298 -0.44911679796852372 0 -0.3455980042885306 -0.4487776553036249 0 -0.33983578817500298 -0.44911679796852372 0 -0.34256007129587013 -0.44138186435449772 0 -0.3455980042885306 -0.4487776553036249 0 -0.34256007129587013 -0.44138186435449772 0 -0.33339759586884388 -0.44204801545309191 0 -0.33981226165396022 -0.43469237326675741 0 -0.33983578817500298 -0.44911679796852372 0 -0.34256007129587013 -0.44138186435449772 0 -0.33339759586884388 -0.44204801545309191 0 -0.34256007129587013 -0.44138186435449772 0 -0.33981226165396022 -0.43469237326675741 0 -0.33983578817500298 -0.44911679796852372 0 -0.34256007129587013 -0.44138186435449772 0 -0.32355540408842431 -0.45007500098206887 0 -0.31813780844548201 -0.44178029853526929 0 -0.32798725866391282 -0.4333970699457852 0 -0.32355540408842431 -0.45007500098206887 0 -0.30357624950820322 -0.45125089990589312 0 -0.32355540408842431 -0.45007500098206887 0 -0.31813780844548201 -0.44178029853526929 0 -0.30357624950820322 -0.45125089990589312 0 -0.32355540408842431 -0.45007500098206887 0 -0.32798725866391282 -0.4333970699457852 0 -0.31813780844548201 -0.44178029853526929 0 -0.31236034737028417 -0.43582633620733302 0 -0.30772939714933778 -0.44103761654544532 0 -0.32355540408842431 -0.45007500098206887 0 -0.31860014242365148 -0.46872261473023258 0 -0.30357624950820322 -0.45125089990589312 0 -0.33385757448777981 -0.46609046918754649 0 -0.32355540408842431 -0.45007500098206887 0 -0.31860014242365148 -0.46872261473023258 0 -0.32355540408842431 -0.45007500098206887 0 -0.31860014242365148 -0.46872261473023258 0 -0.31860014242365148 -0.46872261473023258 0 -0.32787936080055602 -0.4830641404065692 0 -0.31364488075888092 -0.48737022847839678 0 -0.31860014242365148 -0.46872261473023258 0 -0.31364488075888092 -0.48737022847839678 0 -0.33385757448777981 -0.46609046918754649 0 -0.31860014242365148 -0.46872261473023258 0 -0.32787936080055602 -0.4830641404065692 0 -0.31364488075888092 -0.48737022847839678 0 -0.3348898929625499 -0.49069638522972242 0 -0.31028875039812498 -0.49999999999999961 0 -0.32787936080055602 -0.4830641404065692 0 -0.31364488075888092 -0.48737022847839678 0 -0.3348898929625499 -0.49069638522972242 0 -0.3348898929625499 -0.49069638522972242 0 -0.33846355375075682 -0.5 0 -0.31028875039812498 -0.49999999999999961 0 -0.32787936080055602 -0.4830641404065692 0 -0.31364488075888092 -0.48737022847839678 0 -0.3348898929625499 -0.49069638522972242 0 -0.33146811572337048 -0.4846094124105525 0 -0.33552763627341048 -0.48075045225727819 0 -0.32787936080055602 -0.4830641404065692 0 -0.3348898929625499 -0.49069638522972242 0 -0.33146811572337048 -0.4846094124105525 0 -0.3348898929625499 -0.49069638522972242 0 -0.33552763627341048 -0.48075045225727819 0 -0.34597396031575628 -0.48636205768885288 0 -0.3348898929625499 -0.49069638522972242 0 -0.33846355375075682 -0.5 0 -0.34597396031575628 -0.48636205768885288 0 -0.33385757448777981 -0.46609046918754649 0 -0.32787936080055602 -0.4830641404065692 0 -0.33385757448777981 -0.46609046918754649 0 -0.32787936080055602 -0.4830641404065692 0 -0.33552763627341048 -0.48075045225727819 0 -0.32787936080055602 -0.4830641404065692 0 -0.33146811572337048 -0.4846094124105525 0 -0.33552763627341048 -0.48075045225727819 0 -0.32787936080055602 -0.4830641404065692 0 -0.33552763627341048 -0.48075045225727819 0 -0.33552763627341048 -0.48075045225727819 0 -0.34341507121228748 -0.4712738924178228 0 -0.34597396031575628 -0.48636205768885288 0 -0.33385757448777981 -0.46609046918754649 0 -0.33552763627341048 -0.48075045225727819 0 -0.34341507121228748 -0.4712738924178228 0 -0.34341507121228748 -0.4712738924178228 0 -0.35611818069595991 -0.4743888276518119 0 -0.34597396031575628 -0.48636205768885288 0 -0.35611818069595991 -0.4743888276518119 0 -0.34597396031575628 -0.48636205768885288 0 -0.3666383571033886 -0.49999999999999922 0 -0.33846355375075682 -0.5 0 -0.34597396031575628 -0.48636205768885288 0 -0.3666383571033886 -0.49999999999999922 0 -0.35611818069595991 -0.4743888276518119 0 -0.3666383571033886 -0.49999999999999922 0 -0.37706188032537702 -0.4807521332203612 0 -0.35611818069595991 -0.4743888276518119 0 -0.3666383571033886 -0.49999999999999922 0 -0.3796521354328049 -0.46488409159361549 0 -0.37706188032537702 -0.4807521332203612 0 -0.35611818069595991 -0.4743888276518119 0 -0.3796521354328049 -0.46488409159361549 0 -0.35611818069595991 -0.4743888276518119 0 -0.37371999038825499 -0.44712249952325123 0 -0.35611818069595991 -0.4743888276518119 0 -0.3455980042885306 -0.4487776553036249 0 -0.35611818069595991 -0.4743888276518119 0 -0.3455980042885306 -0.4487776553036249 0 -0.37371999038825499 -0.44712249952325123 0 -0.34341507121228748 -0.4712738924178228 0 -0.35611818069595991 -0.4743888276518119 0 -0.3455980042885306 -0.4487776553036249 0 -0.3455980042885306 -0.4487776553036249 0 -0.35644419669005512 -0.44102666539994428 0 -0.37371999038825499 -0.44712249952325123 0 -0.34256007129587013 -0.44138186435449772 0 -0.3455980042885306 -0.4487776553036249 0 -0.35644419669005512 -0.44102666539994428 0 -0.34256007129587013 -0.44138186435449772 0 -0.35644419669005512 -0.44102666539994428 0 -0.34521663406102798 -0.43383920607768761 0 -0.34256007129587013 -0.44138186435449772 0 -0.34521663406102798 -0.43383920607768761 0 -0.34256007129587013 -0.44138186435449772 0 -0.3455980042885306 -0.4487776553036249 0 -0.35644419669005512 -0.44102666539994428 0 -0.37371999038825499 -0.44712249952325123 0 -0.36829153588985297 -0.43491452273286141 0 -0.3455980042885306 -0.4487776553036249 0 -0.37371999038825499 -0.44712249952325123 0 -0.38047309832905851 -0.42163038249540402 0 -0.36829153588985297 -0.43491452273286141 0 -0.36424374999485509 -0.42091867880113759 0 -0.36424374999485509 -0.42091867880113759 0 -0.35378594998098178 -0.4095087357052225 0 -0.37345153171335432 -0.40470054699450952 0 -0.38047309832905851 -0.42163038249540402 0 -0.36424374999485509 -0.42091867880113759 0 -0.37345153171335432 -0.40470054699450952 0 -0.35378594998098178 -0.4095087357052225 0 -0.34521663406102798 -0.43383920607768761 0 -0.34217157154983419 -0.41553703525632529 0 -0.36424374999485509 -0.42091867880113759 0 -0.35378594998098178 -0.4095087357052225 0 -0.34521663406102798 -0.43383920607768761 0 -0.35378594998098178 -0.4095087357052225 0 -0.34521663406102798 -0.43383920607768761 0 -0.35378594998098178 -0.4095087357052225 0 -0.34355878916663468 -0.40273348289090322 0 -0.34217157154983419 -0.41553703525632529 0 -0.36829153588985297 -0.43491452273286141 0 -0.34521663406102798 -0.43383920607768761 0 -0.36829153588985297 -0.43491452273286141 0 -0.36424374999485509 -0.42091867880113759 0 -0.34521663406102798 -0.43383920607768761 0 -0.35644419669005512 -0.44102666539994428 0 -0.36829153588985297 -0.43491452273286141 0 -0.34521663406102798 -0.43383920607768761 0 -0.36528160042732588 -0.37841400820534582 0 -0.35448952840275011 -0.3840157960374736 0 -0.35925212760702357 -0.37511349731665139 0 -0.37763105849602741 -0.38609409550699969 0 -0.37502948216613591 -0.37147003818258562 0 -0.36528160042732588 -0.37841400820534582 0 -0.37763105849602741 -0.38609409550699969 0 -0.36528160042732588 -0.37841400820534582 0 -0.36567223193177861 -0.38891352045316457 0 -0.36528160042732588 -0.37841400820534582 0 -0.36567223193177861 -0.38891352045316457 0 -0.35448952840275011 -0.3840157960374736 0 -0.35378594998098178 -0.4095087357052225 0 -0.37345153171335432 -0.40470054699450952 0 -0.35664242944892688 -0.39683139269787532 0 -0.36567223193177861 -0.38891352045316457 0 -0.37345153171335432 -0.40470054699450952 0 -0.35664242944892688 -0.39683139269787532 0 -0.37763105849602741 -0.38609409550699969 0 -0.36567223193177861 -0.38891352045316457 0 -0.37345153171335432 -0.40470054699450952 0 -0.35378594998098178 -0.4095087357052225 0 -0.35664242944892688 -0.39683139269787532 0 -0.34355878916663468 -0.40273348289090322 0 -0.35664242944892688 -0.39683139269787532 0 -0.34524827291183152 -0.39058257701129212 0 -0.34355878916663468 -0.40273348289090322 0 -0.35664242944892688 -0.39683139269787532 0 -0.35448952840275011 -0.3840157960374736 0 -0.34524827291183152 -0.39058257701129212 0 -0.36567223193177861 -0.38891352045316457 0 -0.35664242944892688 -0.39683139269787532 0 -0.35448952840275011 -0.3840157960374736 0 -0.35448952840275011 -0.3840157960374736 0 -0.34524827291183152 -0.39058257701129212 0 -0.34391468219348309 -0.38088027394374391 0 -0.34006812056777469 -0.3729030535018385 0 -0.35448952840275011 -0.3840157960374736 0 -0.34391468219348309 -0.38088027394374391 0 -0.35421355170140612 -0.36848049215151241 0 -0.35448952840275011 -0.3840157960374736 0 -0.35925212760702357 -0.37511349731665139 0 -0.34006812056777469 -0.3729030535018385 0 -0.34391468219348309 -0.38088027394374391 0 -0.33470831046611998 -0.3787530108001112 0 -0.34524827291183152 -0.39058257701129212 0 -0.33470831046611998 -0.3787530108001112 0 -0.34524827291183152 -0.39058257701129212 0 -0.34391468219348309 -0.38088027394374391 0 -0.33470831046611998 -0.3787530108001112 0 -0.34524827291183152 -0.39058257701129212 0 -0.33470831046611998 -0.3787530108001112 0 -0.34005697487706937 -0.38797637953242009 0 -0.33470831046611998 -0.3787530108001112 0 -0.34005697487706937 -0.38797637953242009 0 -0.33070604743496401 -0.3889913354848083 0 -0.33470831046611998 -0.3787530108001112 0 -0.33070604743496401 -0.3889913354848083 0 -0.32457164459562321 -0.38609128885355631 0 -0.34005697487706937 -0.38797637953242009 0 -0.33203269147443087 -0.39780931830789051 0 -0.33406946476174021 -0.41050854503593742 0 -0.34005697487706937 -0.38797637953242009 0 -0.34355878916663468 -0.40273348289090322 0 -0.33406946476174021 -0.41050854503593742 0 -0.34005697487706937 -0.38797637953242009 0 -0.33406946476174021 -0.41050854503593742 0 -0.34005697487706937 -0.38797637953242009 0 -0.33070604743496401 -0.3889913354848083 0 -0.33203269147443087 -0.39780931830789051 0 -0.33070604743496401 -0.3889913354848083 0 -0.33203269147443087 -0.39780931830789051 0 -0.32604575919513989 -0.39699255681245771 0 -0.34524827291183152 -0.39058257701129212 0 -0.34005697487706937 -0.38797637953242009 0 -0.34355878916663468 -0.40273348289090322 0 -0.33203269147443087 -0.39780931830789051 0 -0.32765117210795469 -0.40482202362531428 0 -0.32604575919513989 -0.39699255681245771 0 -0.33203269147443087 -0.39780931830789051 0 -0.32765117210795469 -0.40482202362531428 0 -0.33406946476174021 -0.41050854503593742 0 -0.32765117210795469 -0.40482202362531428 0 -0.32183683689857712 -0.40239199666442632 0 -0.31959901262480378 -0.40943034080763202 0 -0.32765117210795469 -0.40482202362531428 0 -0.32183683689857712 -0.40239199666442632 0 -0.32604575919513989 -0.39699255681245771 0 -0.32183683689857712 -0.40239199666442632 0 -0.31903934337824791 -0.39674576487287933 0 -0.32604575919513989 -0.39699255681245771 0 -0.32183683689857712 -0.40239199666442632 0 -0.31487302181973459 -0.40275148031057179 0 -0.31959901262480378 -0.40943034080763202 0 -0.31487302181973459 -0.40275148031057179 0 -0.31903934337824791 -0.39674576487287933 0 -0.31314181533233842 -0.39665483403420099 0 -0.31487302181973459 -0.40275148031057179 0 -0.31314181533233842 -0.39665483403420099 0 -0.30957124659664309 -0.40040611681975402 0 -0.32183683689857712 -0.40239199666442632 0 -0.31487302181973459 -0.40275148031057179 0 -0.31903934337824791 -0.39674576487287933 0 -0.31314181533233842 -0.39665483403420099 0 -0.31642414619880588 -0.38934898404747859 0 -0.31124176776149121 -0.3921741386699189 0 -0.31903934337824791 -0.39674576487287933 0 -0.31314181533233842 -0.39665483403420099 0 -0.31642414619880588 -0.38934898404747859 0 -0.31903934337824791 -0.39674576487287933 0 -0.32191448082489182 -0.39233473736814067 0 -0.31642414619880588 -0.38934898404747859 0 -0.33070604743496401 -0.3889913354848083 0 -0.32191448082489182 -0.39233473736814067 0 -0.32604575919513989 -0.39699255681245771 0 -0.31903934337824791 -0.39674576487287933 0 -0.32191448082489182 -0.39233473736814067 0 -0.32604575919513989 -0.39699255681245771 0 -0.33070604743496401 -0.3889913354848083 0 -0.32191448082489182 -0.39233473736814067 0 -0.32457164459562321 -0.38609128885355631 0 -0.32191448082489182 -0.39233473736814067 0 -0.32457164459562321 -0.38609128885355631 0 -0.31642414619880588 -0.38934898404747859 0 -0.31642414619880588 -0.38934898404747859 0 -0.31977974000161807 -0.37959604540102282 0 -0.31074330488794111 -0.38293943976287648 0 -0.32457164459562321 -0.38609128885355631 0 -0.31642414619880588 -0.38934898404747859 0 -0.31977974000161807 -0.37959604540102282 0 -0.31642414619880588 -0.38934898404747859 0 -0.3110187030635056 -0.38846089502246273 0 -0.31124176776149121 -0.3921741386699189 0 -0.31642414619880588 -0.38934898404747859 0 -0.31074330488794111 -0.38293943976287648 0 -0.3110187030635056 -0.38846089502246273 0 -0.30971715866003008 -0.37346385816026623 0 -0.31977974000161807 -0.37959604540102282 0 -0.31074330488794111 -0.38293943976287648 0 -0.33470831046611998 -0.3787530108001112 0 -0.32457164459562321 -0.38609128885355631 0 -0.31977974000161807 -0.37959604540102282 0 -0.32416834802040873 -0.36692344458893023 0 -0.33470831046611998 -0.3787530108001112 0 -0.31977974000161807 -0.37959604540102282 0 -0.34521663406102798 -0.43383920607768761 0 -0.34217157154983419 -0.41553703525632529 0 -0.33422701977878622 -0.4210952065718726 0 -0.33406946476174021 -0.41050854503593742 0 -0.32798725866391282 -0.4333970699457852 0 -0.33981226165396022 -0.43469237326675741 0 -0.33422701977878622 -0.4210952065718726 0 -0.32798725866391282 -0.4333970699457852 0 -0.33981226165396022 -0.43469237326675741 0 -0.32798725866391282 -0.4333970699457852 0 -0.33339759586884388 -0.44204801545309191 0 -0.33981226165396022 -0.43469237326675741 0 -0.32798725866391282 -0.4333970699457852 0 -0.34521663406102798 -0.43383920607768761 0 -0.33981226165396022 -0.43469237326675741 0 -0.33422701977878622 -0.4210952065718726 0 -0.34521663406102798 -0.43383920607768761 0 -0.33981226165396022 -0.43469237326675741 0 -0.34521663406102798 -0.43383920607768761 0 -0.33981226165396022 -0.43469237326675741 0 -0.34166533640114799 -0.4348953578982257 0 -0.34256007129587013 -0.44138186435449772 0 -0.33981226165396022 -0.43469237326675741 0 -0.34166533640114799 -0.4348953578982257 0 -0.34256007129587013 -0.44138186435449772 0 -0.34521663406102798 -0.43383920607768761 0 -0.34166533640114799 -0.4348953578982257 0 -0.33981226165396022 -0.43469237326675741 0 -0.34166533640114799 -0.4348953578982257 0 -0.33981226165396022 -0.43469237326675741 0 -0.33422701977878622 -0.4210952065718726 0 -0.33406946476174021 -0.41050854503593742 0 -0.33422701977878622 -0.4210952065718726 0 -0.32798725866391282 -0.4333970699457852 0 -0.34217157154983419 -0.41553703525632529 0 -0.33406946476174021 -0.41050854503593742 0 -0.33422701977878622 -0.4210952065718726 0 -0.33406946476174021 -0.41050854503593742 0 -0.32574987879283218 -0.42042981805121871 0 -0.32798725866391282 -0.4333970699457852 0 -0.34355878916663468 -0.40273348289090322 0 -0.34217157154983419 -0.41553703525632529 0 -0.33406946476174021 -0.41050854503593742 0 -0.32765117210795469 -0.40482202362531428 0 -0.33406946476174021 -0.41050854503593742 0 -0.325465671751406 -0.41229398560515751 0 -0.33406946476174021 -0.41050854503593742 0 -0.32574987879283218 -0.42042981805121871 0 -0.325465671751406 -0.41229398560515751 0 -0.32574987879283218 -0.42042981805121871 0 -0.325465671751406 -0.41229398560515751 0 -0.3191614445566015 -0.41633179557504008 0 -0.32574987879283218 -0.42042981805121871 0 -0.31815183164442368 -0.4212738241015716 0 -0.3191614445566015 -0.41633179557504008 0 -0.32765117210795469 -0.40482202362531428 0 -0.325465671751406 -0.41229398560515751 0 -0.31959901262480378 -0.40943034080763202 0 -0.325465671751406 -0.41229398560515751 0 -0.31959901262480378 -0.40943034080763202 0 -0.3191614445566015 -0.41633179557504008 0 -0.31959901262480378 -0.40943034080763202 0 -0.31324034012927182 -0.41435171647292562 0 -0.31171940546996257 -0.40872750101555289 0 -0.31487302181973459 -0.40275148031057179 0 -0.31959901262480378 -0.40943034080763202 0 -0.31171940546996257 -0.40872750101555289 0 -0.31959901262480378 -0.40943034080763202 0 -0.3191614445566015 -0.41633179557504008 0 -0.31324034012927182 -0.41435171647292562 0 -0.31815183164442368 -0.4212738241015716 0 -0.3191614445566015 -0.41633179557504008 0 -0.31293051088561191 -0.42005969159170692 0 -0.3191614445566015 -0.41633179557504008 0 -0.31324034012927182 -0.41435171647292562 0 -0.31293051088561191 -0.42005969159170692 0 -0.31293051088561191 -0.42005969159170692 0 -0.3155461193671415 -0.42543086098989402 0 -0.30937185266742417 -0.42398929469818802 0 -0.3155461193671415 -0.42543086098989402 0 -0.32225509308578643 -0.43276917216715732 0 -0.31046546214034743 -0.4285999482977631 0 -0.31815183164442368 -0.4212738241015716 0 -0.31293051088561191 -0.42005969159170692 0 -0.3155461193671415 -0.42543086098989402 0 -0.3155461193671415 -0.42543086098989402 0 -0.32095385286414629 -0.42531116891480542 0 -0.32225509308578643 -0.43276917216715732 0 -0.31815183164442368 -0.4212738241015716 0 -0.3155461193671415 -0.42543086098989402 0 -0.32095385286414629 -0.42531116891480542 0 -0.32574987879283218 -0.42042981805121871 0 -0.32095385286414629 -0.42531116891480542 0 -0.32426019484729379 -0.4278877174181589 0 -0.32574987879283218 -0.42042981805121871 0 -0.32426019484729379 -0.4278877174181589 0 -0.32798725866391282 -0.4333970699457852 0 -0.32574987879283218 -0.42042981805121871 0 -0.31815183164442368 -0.4212738241015716 0 -0.32095385286414629 -0.42531116891480542 0 -0.32095385286414629 -0.42531116891480542 0 -0.32426019484729379 -0.4278877174181589 0 -0.32225509308578643 -0.43276917216715732 0 -0.31813780844548201 -0.44178029853526929 0 -0.32798725866391282 -0.4333970699457852 0 -0.32225509308578643 -0.43276917216715732 0 -0.32426019484729379 -0.4278877174181589 0 -0.32798725866391282 -0.4333970699457852 0 -0.32225509308578643 -0.43276917216715732 0 -0.32798725866391282 -0.4333970699457852 0 -0.32225509308578643 -0.43276917216715732 0 -0.31813780844548201 -0.44178029853526929 0 -0.32225509308578643 -0.43276917216715732 0 -0.31236034737028417 -0.43582633620733302 0 -0.32225509308578643 -0.43276917216715732 0 -0.30107568088423631 -0.43044919279937088 0 -0.31236034737028417 -0.43582633620733302 0 -0.29623255271298649 -0.43155649220516629 0 -0.30320636112594612 -0.43753980554465371 0 -0.32225509308578643 -0.43276917216715732 0 -0.30107568088423631 -0.43044919279937088 0 -0.31046546214034743 -0.4285999482977631 0 -0.32225509308578643 -0.43276917216715732 0 -0.31236034737028417 -0.43582633620733302 0 -0.29623255271298649 -0.43155649220516629 0 -0.32225509308578643 -0.43276917216715732 0 -0.30107568088423631 -0.43044919279937088 0 -0.29623255271298649 -0.43155649220516629 0 -0.32225509308578643 -0.43276917216715732 0 -0.29623255271298649 -0.43155649220516629 0 -0.29623255271298649 -0.43155649220516629 0 -0.29650314727117588 -0.44173877722067018 0 -0.30320636112594612 -0.43753980554465371 0 -0.30177891444767502 -0.42604791244263218 0 -0.30372404027020222 -0.42284298505153411 0 -0.29618707403393341 -0.42350566929582611 0 -0.30107568088423631 -0.43044919279937088 0 -0.30177891444767502 -0.42604791244263218 0 -0.29618707403393341 -0.42350566929582611 0 -0.30107568088423631 -0.43044919279937088 0 -0.30177891444767502 -0.42604791244263218 0 -0.30528319008197702 -0.42638586665789763 0 -0.30177891444767502 -0.42604791244263218 0 -0.30372404027020222 -0.42284298505153411 0 -0.30528319008197702 -0.42638586665789763 0 -0.30107568088423631 -0.43044919279937088 0 -0.30528319008197702 -0.42638586665789763 0 -0.31046546214034743 -0.4285999482977631 0 -0.30372404027020222 -0.42284298505153411 0 -0.30528319008197702 -0.42638586665789763 0 -0.30937185266742417 -0.42398929469818802 0 -0.30528319008197702 -0.42638586665789763 0 -0.31046546214034743 -0.4285999482977631 0 -0.30937185266742417 -0.42398929469818802 0 -0.3155461193671415 -0.42543086098989402 0 -0.31046546214034743 -0.4285999482977631 0 -0.30937185266742417 -0.42398929469818802 0 -0.31293051088561191 -0.42005969159170692 0 -0.30937185266742417 -0.42398929469818802 0 -0.30793837609888891 -0.41870468842012659 0 -0.31324034012927182 -0.41435171647292562 0 -0.31293051088561191 -0.42005969159170692 0 -0.30793837609888891 -0.41870468842012659 0 -0.31324034012927182 -0.41435171647292562 0 -0.30793837609888891 -0.41870468842012659 0 -0.30766432697067359 -0.41303435457935772 0 -0.30793837609888891 -0.41870468842012659 0 -0.30766432697067359 -0.41303435457935772 0 -0.30046251531836521 -0.41548934212143118 0 -0.30372404027020222 -0.42284298505153411 0 -0.30937185266742417 -0.42398929469818802 0 -0.30793837609888891 -0.41870468842012659 0 -0.31324034012927182 -0.41435171647292562 0 -0.31171940546996257 -0.40872750101555289 0 -0.30766432697067359 -0.41303435457935772 0 -0.31171940546996257 -0.40872750101555289 0 -0.30766432697067359 -0.41303435457935772 0 -0.30424246736565003 -0.40880806820250121 0 -0.31171940546996257 -0.40872750101555289 0 -0.30424246736565003 -0.40880806820250121 0 -0.30822643029568902 -0.40501474707505669 0 -0.298575185307771 -0.40640608947884382 0 -0.30046251531836521 -0.41548934212143118 0 -0.29255895990745517 -0.40979846478309812 0 -0.30424246736565003 -0.40880806820250121 0 -0.298575185307771 -0.40640608947884382 0 -0.30046251531836521 -0.41548934212143118 0 -0.30766432697067359 -0.41303435457935772 0 -0.30424246736565003 -0.40880806820250121 0 -0.30046251531836521 -0.41548934212143118 0 -0.30372404027020222 -0.42284298505153411 0 -0.30046251531836521 -0.41548934212143118 0 -0.29618707403393341 -0.42350566929582611 0 -0.30372404027020222 -0.42284298505153411 0 -0.30793837609888891 -0.41870468842012659 0 -0.30046251531836521 -0.41548934212143118 0 -0.30046251531836521 -0.41548934212143118 0 -0.28795562720119189 -0.41792580557118481 0 -0.29618707403393341 -0.42350566929582611 0 -0.30046251531836521 -0.41548934212143118 0 -0.29255895990745517 -0.40979846478309812 0 -0.28795562720119189 -0.41792580557118481 0 -0.29255895990745517 -0.40979846478309812 0 -0.2832331619238776 -0.41060136390354501 0 -0.29256830978607068 -0.39856972284048559 0 -0.29255895990745517 -0.40979846478309812 0 -0.2832331619238776 -0.41060136390354501 0 -0.28795562720119189 -0.41792580557118481 0 -0.2832331619238776 -0.41060136390354501 0 -0.28795562720119189 -0.41792580557118481 0 -0.27632644328915668 -0.41730682611559289 0 -0.28795562720119189 -0.41792580557118481 0 -0.27989626868268619 -0.42812921343158439 0 -0.27632644328915668 -0.41730682611559289 0 -0.30107568088423631 -0.43044919279937088 0 -0.29618707403393341 -0.42350566929582611 0 -0.27989626868268619 -0.42812921343158439 0 -0.30107568088423631 -0.43044919279937088 0 -0.27989626868268619 -0.42812921343158439 0 -0.30107568088423631 -0.43044919279937088 0 -0.29623255271298649 -0.43155649220516629 0 -0.27989626868268619 -0.42812921343158439 0 -0.29623255271298649 -0.43155649220516629 0 -0.27989626868268619 -0.42812921343158439 0 -0.28554938347169689 -0.43884428617415788 0 -0.28795562720119189 -0.41792580557118481 0 -0.29618707403393341 -0.42350566929582611 0 -0.27989626868268619 -0.42812921343158439 0 -0.29623255271298649 -0.43155649220516629 0 -0.28554938347169689 -0.43884428617415788 0 -0.29650314727117588 -0.44173877722067018 0 -0.30971715866003008 -0.37346385816026623 0 -0.30242863812242082 -0.38292886121670422 0 -0.29526596929965082 -0.3800042717316009 0 -0.30971715866003008 -0.37346385816026623 0 -0.29526596929965082 -0.3800042717316009 0 -0.30242863812242082 -0.38292886121670422 0 -0.2954565894737935 -0.38188521158832611 0 -0.29526596929965082 -0.3800042717316009 0 -0.30971715866003008 -0.37346385816026623 0 -0.31074330488794111 -0.38293943976287648 0 -0.30242863812242082 -0.38292886121670422 0 -0.31074330488794111 -0.38293943976287648 0 -0.30667919703430829 -0.38699240473152191 0 -0.30242863812242082 -0.38292886121670422 0 -0.31074330488794111 -0.38293943976287648 0 -0.3110187030635056 -0.38846089502246273 0 -0.30667919703430829 -0.38699240473152191 0 -0.3110187030635056 -0.38846089502246273 0 -0.30725683376743818 -0.39098027707661959 0 -0.31124176776149121 -0.3921741386699189 0 -0.30667919703430829 -0.38699240473152191 0 -0.30194850533023582 -0.38965255057894638 0 -0.30725683376743818 -0.39098027707661959 0 -0.3110187030635056 -0.38846089502246273 0 -0.30667919703430829 -0.38699240473152191 0 -0.30725683376743818 -0.39098027707661959 0 -0.30667919703430829 -0.38699240473152191 0 -0.30194850533023582 -0.38965255057894638 0 -0.30242863812242082 -0.38292886121670422 0 -0.30194850533023582 -0.38965255057894638 0 -0.30242863812242082 -0.38292886121670422 0 -0.29739946695427311 -0.38666838687078448 0 -0.30242863812242082 -0.38292886121670422 0 -0.29739946695427311 -0.38666838687078448 0 -0.2954565894737935 -0.38188521158832611 0 -0.30194850533023582 -0.38965255057894638 0 -0.29739946695427311 -0.38666838687078448 0 -0.29648244249439337 -0.39150973879017692 0 -0.30194850533023582 -0.38965255057894638 0 -0.29955894361755242 -0.39538428953478638 0 -0.29648244249439337 -0.39150973879017692 0 -0.29955894361755242 -0.39538428953478638 0 -0.29969920974671499 -0.40034901188482419 0 -0.29256830978607068 -0.39856972284048559 0 -0.29955894361755242 -0.39538428953478638 0 -0.30402378548874431 -0.398148467562494 0 -0.29969920974671499 -0.40034901188482419 0 -0.29955894361755242 -0.39538428953478638 0 -0.30402378548874431 -0.398148467562494 0 -0.30435078645974523 -0.39378980653019829 0 -0.30194850533023582 -0.38965255057894638 0 -0.30435078645974523 -0.39378980653019829 0 -0.30725683376743818 -0.39098027707661959 0 -0.30194850533023582 -0.38965255057894638 0 -0.29955894361755242 -0.39538428953478638 0 -0.30435078645974523 -0.39378980653019829 0 -0.30435078645974523 -0.39378980653019829 0 -0.30725683376743818 -0.39098027707661959 0 -0.30836734044536779 -0.39542570316883252 0 -0.30725683376743818 -0.39098027707661959 0 -0.31124176776149121 -0.3921741386699189 0 -0.30836734044536779 -0.39542570316883252 0 -0.31314181533233842 -0.39665483403420099 0 -0.31124176776149121 -0.3921741386699189 0 -0.30836734044536779 -0.39542570316883252 0 -0.31314181533233842 -0.39665483403420099 0 -0.30836734044536779 -0.39542570316883252 0 -0.30957124659664309 -0.40040611681975402 0 -0.30402378548874431 -0.398148467562494 0 -0.30836734044536779 -0.39542570316883252 0 -0.30957124659664309 -0.40040611681975402 0 -0.30402378548874431 -0.398148467562494 0 -0.30435078645974523 -0.39378980653019829 0 -0.30836734044536779 -0.39542570316883252 0 -0.30402378548874431 -0.398148467562494 0 -0.30957124659664309 -0.40040611681975402 0 -0.30376982453343698 -0.40323649000751122 0 -0.31487302181973459 -0.40275148031057179 0 -0.30957124659664309 -0.40040611681975402 0 -0.30822643029568902 -0.40501474707505669 0 -0.31487302181973459 -0.40275148031057179 0 -0.31171940546996257 -0.40872750101555289 0 -0.30822643029568902 -0.40501474707505669 0 -0.30957124659664309 -0.40040611681975402 0 -0.30822643029568902 -0.40501474707505669 0 -0.30376982453343698 -0.40323649000751122 0 -0.30424246736565003 -0.40880806820250121 0 -0.30822643029568902 -0.40501474707505669 0 -0.30376982453343698 -0.40323649000751122 0 -0.30424246736565003 -0.40880806820250121 0 -0.298575185307771 -0.40640608947884382 0 -0.30376982453343698 -0.40323649000751122 0 -0.298575185307771 -0.40640608947884382 0 -0.29969920974671499 -0.40034901188482419 0 -0.29256830978607068 -0.39856972284048559 0 -0.30402378548874431 -0.398148467562494 0 -0.30376982453343698 -0.40323649000751122 0 -0.29969920974671499 -0.40034901188482419 0 -0.298575185307771 -0.40640608947884382 0 -0.30376982453343698 -0.40323649000751122 0 -0.29969920974671499 -0.40034901188482419 0 -0.298575185307771 -0.40640608947884382 0 -0.29255895990745517 -0.40979846478309812 0 -0.29256830978607068 -0.39856972284048559 0 -0.2832331619238776 -0.41060136390354501 0 -0.29256830978607068 -0.39856972284048559 0 -0.27989001474367148 -0.39821173337778198 0 -0.28929983098490419 -0.38850954116309222 0 -0.28043577994698149 -0.38671621559233721 0 -0.27989001474367148 -0.39821173337778198 0 -0.29256830978607068 -0.39856972284048559 0 -0.28929983098490419 -0.38850954116309222 0 -0.27989001474367148 -0.39821173337778198 0 -0.29256830978607068 -0.39856972284048559 0 -0.29648244249439337 -0.39150973879017692 0 -0.28929983098490419 -0.38850954116309222 0 -0.29955894361755242 -0.39538428953478638 0 -0.29256830978607068 -0.39856972284048559 0 -0.29648244249439337 -0.39150973879017692 0 -0.27931483410846392 -0.36869304146392101 0 -0.29526596929965082 -0.3800042717316009 0 -0.28043577994698149 -0.38671621559233721 0 -0.28929983098490419 -0.38850954116309222 0 -0.2954565894737935 -0.38188521158832611 0 -0.29526596929965082 -0.3800042717316009 0 -0.29739946695427311 -0.38666838687078448 0 -0.29648244249439337 -0.39150973879017692 0 -0.28929983098490419 -0.38850954116309222 0 -0.29739946695427311 -0.38666838687078448 0 -0.28929983098490419 -0.38850954116309222 0 -0.2954565894737935 -0.38188521158832611 0 -0.29526596929965082 -0.3800042717316009 0 -0.28043577994698149 -0.38671621559233721 0 -0.28929983098490419 -0.38850954116309222 0 -0.29526596929965082 -0.3800042717316009 0 -0.28043577994698149 -0.38671621559233721 0 -0.2954565894737935 -0.38188521158832611 0 -0.29526596929965082 -0.3800042717316009 0 -0.27931483410846392 -0.36869304146392101 0 -0.28043577994698149 -0.38671621559233721 0 -0.26163163198006961 -0.37827800633634617 0 -0.28043577994698149 -0.38671621559233721 0 -0.26560559059431132 -0.3934281594530713 0 -0.26163163198006961 -0.37827800633634617 0 -0.28043577994698149 -0.38671621559233721 0 -0.26560559059431132 -0.3934281594530713 0 -0.28043577994698149 -0.38671621559233721 0 -0.27989001474367148 -0.39821173337778198 0 -0.26560559059431132 -0.3934281594530713 0 -0.2832331619238776 -0.41060136390354501 0 -0.27989001474367148 -0.39821173337778198 0 -0.26855420990535112 -0.40820282440469807 0 -0.27989001474367148 -0.39821173337778198 0 -0.26560559059431132 -0.3934281594530713 0 -0.26855420990535112 -0.40820282440469807 0 -0.25787763811223641 -0.40244101881277439 0 -0.25427217763450383 -0.39225077177120882 0 -0.24182301249818461 -0.40636500329152908 0 -0.25787763811223641 -0.40244101881277439 0 -0.26560559059431132 -0.3934281594530713 0 -0.26855420990535112 -0.40820282440469807 0 -0.25787763811223641 -0.40244101881277439 0 -0.25427217763450383 -0.39225077177120882 0 -0.26560559059431132 -0.3934281594530713 0 -0.25427217763450383 -0.39225077177120882 0 -0.26163163198006961 -0.37827800633634617 0 -0.2444230149877166 -0.38074167096232248 0 -0.26163163198006961 -0.37827800633634617 0 -0.2444230149877166 -0.38074167096232248 0 -0.24696891466673401 -0.36680581742481427 0 -0.25427217763450383 -0.39225077177120882 0 -0.26560559059431132 -0.3934281594530713 0 -0.26163163198006961 -0.37827800633634617 0 -0.27989626868268619 -0.42812921343158439 0 -0.25871685648113613 -0.42580923406379811 0 -0.2680069869231177 -0.43883322950001252 0 -0.27989626868268619 -0.42812921343158439 0 -0.2680069869231177 -0.43883322950001252 0 -0.28554938347169689 -0.43884428617415788 0 -0.27989626868268619 -0.42812921343158439 0 -0.26788952149682849 -0.41882196835028951 0 -0.25871685648113613 -0.42580923406379811 0 -0.27989626868268619 -0.42812921343158439 0 -0.25871685648113613 -0.42580923406379811 0 -0.27989626868268619 -0.42812921343158439 0 -0.27632644328915668 -0.41730682611559289 0 -0.26788952149682849 -0.41882196835028951 0 -0.2832331619238776 -0.41060136390354501 0 -0.27632644328915668 -0.41730682611559289 0 -0.26855420990535112 -0.40820282440469807 0 -0.27632644328915668 -0.41730682611559289 0 -0.26855420990535112 -0.40820282440469807 0 -0.26788952149682849 -0.41882196835028951 0 -0.25787763811223641 -0.40244101881277439 0 -0.25595382912581272 -0.41466174373577369 0 -0.24182301249818461 -0.40636500329152908 0 -0.26788952149682849 -0.41882196835028951 0 -0.25595382912581272 -0.41466174373577369 0 -0.25871685648113613 -0.42580923406379811 0 -0.26855420990535112 -0.40820282440469807 0 -0.26788952149682849 -0.41882196835028951 0 -0.25595382912581272 -0.41466174373577369 0 -0.25787763811223641 -0.40244101881277439 0 -0.26855420990535112 -0.40820282440469807 0 -0.25595382912581272 -0.41466174373577369 0 -0.25871685648113613 -0.42580923406379811 0 -0.2680069869231177 -0.43883322950001252 0 -0.24950441689448469 -0.42849049473851042 0 -0.25595382912581272 -0.41466174373577369 0 -0.25871685648113613 -0.42580923406379811 0 -0.24950441689448469 -0.42849049473851042 0 -0.25718582129078482 -0.45061598618549148 0 -0.24391244769765269 -0.43966814373056301 0 -0.24950441689448469 -0.42849049473851042 0 -0.25718582129078482 -0.45061598618549148 0 -0.24950441689448469 -0.42849049473851042 0 -0.25718582129078482 -0.45061598618549148 0 -0.2680069869231177 -0.43883322950001252 0 -0.24950441689448469 -0.42849049473851042 0 -0.25718582129078482 -0.45061598618549148 0 -0.26486722568708482 -0.47274147763247248 0 -0.24938382012493951 -0.46659320980833019 0 -0.25718582129078482 -0.45061598618549148 0 -0.26486722568708482 -0.47274147763247248 0 -0.28359709492798202 -0.45242679882971709 0 -0.282581725914683 -0.47679873075344942 0 -0.26486722568708482 -0.47274147763247248 0 -0.25718582129078482 -0.45061598618549148 0 -0.28359709492798202 -0.45242679882971709 0 -0.26486722568708482 -0.47274147763247248 0 -0.25718582129078482 -0.45061598618549148 0 -0.2680069869231177 -0.43883322950001252 0 -0.28359709492798202 -0.45242679882971709 0 -0.2680069869231177 -0.43883322950001252 0 -0.28554938347169689 -0.43884428617415788 0 -0.28359709492798202 -0.45242679882971709 0 -0.28554938347169689 -0.43884428617415788 0 -0.29650314727117588 -0.44173877722067018 0 -0.28359709492798202 -0.45242679882971709 0 -0.28359709492798202 -0.45242679882971709 0 -0.30357624950820322 -0.45125089990589312 0 -0.29650314727117588 -0.44173877722067018 0 -0.28359709492798202 -0.45242679882971709 0 -0.30357624950820322 -0.45125089990589312 0 -0.28359709492798202 -0.45242679882971709 0 -0.29912568823169072 -0.47027329398640499 0 -0.282581725914683 -0.47679873075344942 0 -0.28359709492798202 -0.45242679882971709 0 -0.30357624950820322 -0.45125089990589312 0 -0.29912568823169072 -0.47027329398640499 0 -0.31860014242365148 -0.46872261473023258 0 -0.30357624950820322 -0.45125089990589312 0 -0.29912568823169072 -0.47027329398640499 0 -0.31236034737028417 -0.43582633620733302 0 -0.30772939714933778 -0.44103761654544532 0 -0.30320636112594612 -0.43753980554465371 0 -0.31813780844548201 -0.44178029853526929 0 -0.30772939714933778 -0.44103761654544532 0 -0.30357624950820322 -0.45125089990589312 0 -0.29650314727117588 -0.44173877722067018 0 -0.30772939714933778 -0.44103761654544532 0 -0.30357624950820322 -0.45125089990589312 0 -0.29650314727117588 -0.44173877722067018 0 -0.30772939714933778 -0.44103761654544532 0 -0.30320636112594612 -0.43753980554465371 0 -0.31364488075888092 -0.48737022847839678 0 -0.2927699906432728 -0.49368511423919847 0 -0.31028875039812498 -0.49999999999999961 0 -0.29109192546289481 -0.5 0 -0.2927699906432728 -0.49368511423919847 0 -0.31364488075888092 -0.48737022847839678 0 -0.31028875039812498 -0.49999999999999961 0 -0.2927699906432728 -0.49368511423919847 0 -0.31364488075888092 -0.48737022847839678 0 -0.31028875039812498 -0.49999999999999961 0 -0.31364488075888092 -0.48737022847839678 0 -0.29912568823169072 -0.47027329398640499 0 -0.2927699906432728 -0.49368511423919847 0 -0.31860014242365148 -0.46872261473023258 0 -0.31364488075888092 -0.48737022847839678 0 -0.29912568823169072 -0.47027329398640499 0 -0.29912568823169072 -0.47027329398640499 0 -0.282581725914683 -0.47679873075344942 0 -0.2927699906432728 -0.49368511423919847 0 -0.282581725914683 -0.47679873075344942 0 -0.2927699906432728 -0.49368511423919847 0 -0.27254863008338481 -0.4948669690794536 0 -0.29109192546289481 -0.5 0 -0.2927699906432728 -0.49368511423919847 0 -0.27189510052766458 -0.49999999999999961 0 -0.2927699906432728 -0.49368511423919847 0 -0.27189510052766458 -0.49999999999999961 0 -0.2927699906432728 -0.49368511423919847 0 -0.27189510052766458 -0.49999999999999961 0 -0.27254863008338481 -0.4948669690794536 0 -0.27189510052766458 -0.49999999999999961 0 -0.27254863008338481 -0.4948669690794536 0 -0.25810630713196048 -0.48748483476553339 0 -0.282581725914683 -0.47679873075344942 0 -0.27254863008338481 -0.4948669690794536 0 -0.26486722568708482 -0.47274147763247248 0 -0.27254863008338481 -0.4948669690794536 0 -0.26486722568708482 -0.47274147763247248 0 -0.26486722568708482 -0.47274147763247248 0 -0.25810630713196048 -0.48748483476553339 0 -0.24938382012493951 -0.46659320980833019 0 -0.27189510052766458 -0.49999999999999961 0 -0.25810630713196048 -0.48748483476553339 0 -0.24778898003546951 -0.5 0 -0.27254863008338481 -0.4948669690794536 0 -0.26486722568708482 -0.47274147763247248 0 -0.25810630713196048 -0.48748483476553339 0 -0.25810630713196048 -0.48748483476553339 0 -0.23924817050894881 -0.4847254632444985 0 -0.24778898003546951 -0.5 0 -0.23924817050894881 -0.4847254632444985 0 -0.24778898003546951 -0.5 0 -0.2236828595432743 -0.5 0 -0.25810630713196048 -0.48748483476553339 0 -0.23924817050894881 -0.4847254632444985 0 -0.24938382012493951 -0.46659320980833019 0 -0.23924817050894881 -0.4847254632444985 0 -0.23376479786532139 -0.47078326106463297 0 -0.24938382012493951 -0.46659320980833019 0 -0.2227622583527277 -0.48349147382849472 0 -0.23376479786532139 -0.47078326106463297 0 -0.2185020885287012 -0.46443991413371921 0 -0.23924817050894881 -0.4847254632444985 0 -0.2227622583527277 -0.48349147382849472 0 -0.23376479786532139 -0.47078326106463297 0 -0.23924817050894881 -0.4847254632444985 0 -0.2227622583527277 -0.48349147382849472 0 -0.2236828595432743 -0.5 0 -0.24391244769765269 -0.43966814373056301 0 -0.23486360870782561 -0.44992733998899231 0 -0.23410638109147211 -0.42928587182152222 0 -0.25718582129078482 -0.45061598618549148 0 -0.24391244769765269 -0.43966814373056301 0 -0.23486360870782561 -0.44992733998899231 0 -0.25718582129078482 -0.45061598618549148 0 -0.23486360870782561 -0.44992733998899231 0 -0.24938382012493951 -0.46659320980833019 0 -0.23376479786532139 -0.47078326106463297 0 -0.23486360870782561 -0.44992733998899231 0 -0.24938382012493951 -0.46659320980833019 0 -0.23376479786532139 -0.47078326106463297 0 -0.23486360870782561 -0.44992733998899231 0 -0.2185020885287012 -0.46443991413371921 0 -0.23486360870782561 -0.44992733998899231 0 -0.21970699041005529 -0.44913841694488088 0 -0.2185020885287012 -0.46443991413371921 0 -0.23486360870782561 -0.44992733998899231 0 -0.22384207788554589 -0.43870209638454211 0 -0.23410638109147211 -0.42928587182152222 0 -0.23486360870782561 -0.44992733998899231 0 -0.21970699041005529 -0.44913841694488088 0 -0.22384207788554589 -0.43870209638454211 0 -0.21193190658762159 -0.44028809254194329 0 -0.19674402064340671 -0.44615670164388482 0 -0.20166497172520911 -0.43220131766050929 0 -0.21970699041005529 -0.44913841694488088 0 -0.22384207788554589 -0.43870209638454211 0 -0.21193190658762159 -0.44028809254194329 0 -0.21970699041005529 -0.44913841694488088 0 -0.21193190658762159 -0.44028809254194329 0 -0.20846901086832509 -0.45302413736582559 0 -0.21193190658762159 -0.44028809254194329 0 -0.20846901086832509 -0.45302413736582559 0 -0.19674402064340671 -0.44615670164388482 0 -0.20846901086832509 -0.45302413736582559 0 -0.2185020885287012 -0.46443991413371921 0 -0.20135265357638371 -0.46515415785752823 0 -0.21970699041005529 -0.44913841694488088 0 -0.20846901086832509 -0.45302413736582559 0 -0.2185020885287012 -0.46443991413371921 0 -0.20846901086832509 -0.45302413736582559 0 -0.20135265357638371 -0.46515415785752823 0 -0.19674402064340671 -0.44615670164388482 0 -0.20135265357638371 -0.46515415785752823 0 -0.19674402064340671 -0.44615670164388482 0 -0.18676335660232829 -0.46469156247384158 0 -0.19674402064340671 -0.44615670164388482 0 -0.17694993007997359 -0.44331932197882817 0 -0.19061775089475641 -0.429861348337361 0 -0.2227622583527277 -0.48349147382849472 0 -0.20679911760119549 -0.47942708301096387 0 -0.19957673905107909 -0.5 0 -0.2227622583527277 -0.48349147382849472 0 -0.2236828595432743 -0.5 0 -0.19957673905107909 -0.5 0 -0.2185020885287012 -0.46443991413371921 0 -0.20135265357638371 -0.46515415785752823 0 -0.20679911760119549 -0.47942708301096387 0 -0.2227622583527277 -0.48349147382849472 0 -0.2185020885287012 -0.46443991413371921 0 -0.20679911760119549 -0.47942708301096387 0 -0.20135265357638371 -0.46515415785752823 0 -0.1908383272143454 -0.48318554851693479 0 -0.18676335660232829 -0.46469156247384158 0 -0.20135265357638371 -0.46515415785752823 0 -0.20679911760119549 -0.47942708301096387 0 -0.1908383272143454 -0.48318554851693479 0 -0.1908383272143454 -0.48318554851693479 0 -0.19957673905107909 -0.5 0 -0.17547061855888391 -0.5 0 -0.20679911760119549 -0.47942708301096387 0 -0.1908383272143454 -0.48318554851693479 0 -0.19957673905107909 -0.5 0 -0.1908383272143454 -0.48318554851693479 0 -0.17547061855888391 -0.5 0 -0.1724672865577522 -0.48448331750393658 0 -0.17547061855888391 -0.5 0 -0.1513644980666887 -0.50000000000001421 0 -0.1509174703946497 -0.48981619343999822 0 -0.1724672865577522 -0.48448331750393658 0 -0.1509174703946497 -0.48981619343999822 0 -0.17547061855888391 -0.5 0 -0.1724672865577522 -0.48448331750393658 0 -0.1509174703946497 -0.48981619343999822 0 -0.1724672865577522 -0.48448331750393658 0 -0.1608031740822958 -0.47548972808763612 0 -0.17019797163626499 -0.46717400513013368 0 -0.1724672865577522 -0.48448331750393658 0 -0.1608031740822958 -0.47548972808763612 0 -0.1509174703946497 -0.48981619343999822 0 -0.18081585029622149 -0.47550111115956328 0 -0.18676335660232829 -0.46469156247384158 0 -0.17019797163626499 -0.46717400513013368 0 -0.1724672865577522 -0.48448331750393658 0 -0.18081585029622149 -0.47550111115956328 0 -0.17019797163626499 -0.46717400513013368 0 -0.1908383272143454 -0.48318554851693479 0 -0.18081585029622149 -0.47550111115956328 0 -0.18676335660232829 -0.46469156247384158 0 -0.1908383272143454 -0.48318554851693479 0 -0.1724672865577522 -0.48448331750393658 0 -0.18081585029622149 -0.47550111115956328 0 -0.18676335660232829 -0.46469156247384158 0 -0.17694993007997359 -0.44331932197882817 0 -0.17019797163626499 -0.46717400513013368 0 -0.19674402064340671 -0.44615670164388482 0 -0.18676335660232829 -0.46469156247384158 0 -0.17694993007997359 -0.44331932197882817 0 -0.17694993007997359 -0.44331932197882817 0 -0.14962996774051959 -0.46048539627647572 0 -0.14834246508639279 -0.43115459911295317 0 -0.1608031740822958 -0.47548972808763612 0 -0.17019797163626499 -0.46717400513013368 0 -0.14962996774051959 -0.46048539627647572 0 -0.17694993007997359 -0.44331932197882817 0 -0.17019797163626499 -0.46717400513013368 0 -0.14962996774051959 -0.46048539627647572 0 -0.14962996774051959 -0.46048539627647572 0 -0.14834246508639279 -0.43115459911295317 0 -0.14962996774051959 -0.46048539627647572 0 -0.14834246508639279 -0.43115459911295317 0 -0.12275342716221251 -0.44283471985438411 0 -0.14962996774051959 -0.46048539627647572 0 -0.12733660258664531 -0.47060890535621841 0 -0.12275342716221251 -0.44283471985438411 0 -0.1303414095750515 -0.49490809672000702 0 -0.13056492341106909 -0.5 0 -0.1513644980666887 -0.50000000000001421 0 -0.12733660258664531 -0.47060890535621841 0 -0.1303414095750515 -0.49490809672000702 0 -0.1509174703946497 -0.48981619343999822 0 -0.1303414095750515 -0.49490809672000702 0 -0.1509174703946497 -0.48981619343999822 0 -0.1303414095750515 -0.49490809672000702 0 -0.1513644980666887 -0.50000000000001421 0 -0.1509174703946497 -0.48981619343999822 0 -0.1513644980666887 -0.50000000000001421 0 -0.1509174703946497 -0.48981619343999822 0 -0.14962996774051959 -0.46048539627647572 0 -0.1509174703946497 -0.48981619343999822 0 -0.14962996774051959 -0.46048539627647572 0 -0.12733660258664531 -0.47060890535621841 0 -0.1509174703946497 -0.48981619343999822 0 -0.1608031740822958 -0.47548972808763612 0 -0.14962996774051959 -0.46048539627647572 0 -0.1509174703946497 -0.48981619343999822 0 -0.1470549624322659 -0.40182380194943068 0 -0.1348469204790016 -0.38968221805657638 0 -0.14576745977813721 -0.37249300478590819 0 -0.1470549624322659 -0.40182380194943068 0 -0.1587847002944803 -0.38279824095706327 0 -0.14576745977813721 -0.37249300478590819 0 -0.1470549624322659 -0.40182380194943068 0 -0.14576745977813721 -0.37249300478590819 0 -0.1587847002944803 -0.38279824095706327 0 -0.14576745977813721 -0.37249300478590819 0 -0.1348469204790016 -0.38968221805657638 0 -0.132159492578835 -0.37789609771469967 0 -0.14576745977813721 -0.37249300478590819 0 -0.1348469204790016 -0.38968221805657638 0 -0.132159492578835 -0.37789609771469967 0 -0.1205549642197935 -0.38875083364918939 0 -0.1348469204790016 -0.38968221805657638 0 -0.1253750294698868 -0.40262164292467523 0 -0.1205549642197935 -0.38875083364918939 0 -0.1470549624322659 -0.40182380194943068 0 -0.1348469204790016 -0.38968221805657638 0 -0.1253750294698868 -0.40262164292467523 0 -0.1470549624322659 -0.40182380194943068 0 -0.1253750294698868 -0.40262164292467523 0 -0.13010444046654279 -0.41907067889225558 0 -0.13010444046654279 -0.41907067889225558 0 -0.14834246508639279 -0.43115459911295317 0 -0.12275342716221251 -0.44283471985438411 0 -0.1470549624322659 -0.40182380194943068 0 -0.14834246508639279 -0.43115459911295317 0 -0.1642944952134115 -0.41086139703922958 0 -0.1470549624322659 -0.40182380194943068 0 -0.14834246508639279 -0.43115459911295317 0 -0.1470549624322659 -0.40182380194943068 0 -0.13010444046654279 -0.41907067889225558 0 -0.14834246508639279 -0.43115459911295317 0 -0.14834246508639279 -0.43115459911295317 0 -0.1642944952134115 -0.41086139703922958 0 -0.17619028494089631 -0.42357372072558308 0 -0.17694993007997359 -0.44331932197882817 0 -0.14834246508639279 -0.43115459911295317 0 -0.17619028494089631 -0.42357372072558308 0 -0.17619028494089631 -0.42357372072558308 0 -0.19061775089475641 -0.429861348337361 0 -0.19152670048767609 -0.41337615629461261 0 -0.17694993007997359 -0.44331932197882817 0 -0.17619028494089631 -0.42357372072558308 0 -0.19061775089475641 -0.429861348337361 0 -0.17619028494089631 -0.42357372072558308 0 -0.17959441583595981 -0.40521713411424393 0 -0.19152670048767609 -0.41337615629461261 0 -0.1642944952134115 -0.41086139703922958 0 -0.17619028494089631 -0.42357372072558308 0 -0.17959441583595981 -0.40521713411424393 0 -0.17959441583595981 -0.40521713411424393 0 -0.18218919167156489 -0.38997376913242071 0 -0.1949331734265968 -0.3991039006840339 0 -0.17959441583595981 -0.40521713411424393 0 -0.16843264927561361 -0.3944138608095844 0 -0.18218919167156489 -0.38997376913242071 0 -0.1470549624322659 -0.40182380194943068 0 -0.1642944952134115 -0.41086139703922958 0 -0.16843264927561361 -0.3944138608095844 0 -0.1470549624322659 -0.40182380194943068 0 -0.16843264927561361 -0.3944138608095844 0 -0.1587847002944803 -0.38279824095706327 0 -0.1642944952134115 -0.41086139703922958 0 -0.17959441583595981 -0.40521713411424393 0 -0.16843264927561361 -0.3944138608095844 0 -0.1587847002944803 -0.38279824095706327 0 -0.17699271179291809 -0.37767542478317723 0 -0.16076546663585889 -0.36594097707957118 0 -0.16843264927561361 -0.3944138608095844 0 -0.1587847002944803 -0.38279824095706327 0 -0.17699271179291809 -0.37767542478317723 0 -0.16843264927561361 -0.3944138608095844 0 -0.17699271179291809 -0.37767542478317723 0 -0.18218919167156489 -0.38997376913242071 0 -0.17699271179291809 -0.37767542478317723 0 -0.18218919167156489 -0.38997376913242071 0 -0.19536455139252579 -0.38402219194533888 0 -0.19536455139252579 -0.38402219194533888 0 -0.19536109692707551 -0.36933983268890103 0 -0.21134914463856261 -0.37455010610009642 0 -0.17699271179291809 -0.37767542478317723 0 -0.19536455139252579 -0.38402219194533888 0 -0.19536109692707551 -0.36933983268890103 0 -0.19536455139252579 -0.38402219194533888 0 -0.1949331734265968 -0.3991039006840339 0 -0.2113619898984368 -0.39349011828340441 0 -0.18218919167156489 -0.38997376913242071 0 -0.19536455139252579 -0.38402219194533888 0 -0.1949331734265968 -0.3991039006840339 0 -0.17959441583595981 -0.40521713411424393 0 -0.1949331734265968 -0.3991039006840339 0 -0.19152670048767609 -0.41337615629461261 0 -0.1949331734265968 -0.3991039006840339 0 -0.2113619898984368 -0.39349011828340441 0 -0.20847218015968699 -0.41094969134556558 0 -0.2113619898984368 -0.39349011828340441 0 -0.20847218015968699 -0.41094969134556558 0 -0.22333301537891551 -0.40913207694994319 0 -0.2113619898984368 -0.39349011828340441 0 -0.2274855449394711 -0.38845202495103059 0 -0.21134914463856261 -0.37455010610009642 0 -0.19536455139252579 -0.38402219194533888 0 -0.2113619898984368 -0.39349011828340441 0 -0.21134914463856261 -0.37455010610009642 0 -0.19674402064340671 -0.44615670164388482 0 -0.20166497172520911 -0.43220131766050929 0 -0.19061775089475641 -0.429861348337361 0 -0.20166497172520911 -0.43220131766050929 0 -0.19061775089475641 -0.429861348337361 0 -0.2006305974913771 -0.42054087172074839 0 -0.19061775089475641 -0.429861348337361 0 -0.2006305974913771 -0.42054087172074839 0 -0.19152670048767609 -0.41337615629461261 0 -0.1949331734265968 -0.3991039006840339 0 -0.19152670048767609 -0.41337615629461261 0 -0.20847218015968699 -0.41094969134556558 0 -0.2006305974913771 -0.42054087172074839 0 -0.19152670048767609 -0.41337615629461261 0 -0.20847218015968699 -0.41094969134556558 0 -0.2006305974913771 -0.42054087172074839 0 -0.20847218015968699 -0.41094969134556558 0 -0.21674898368624171 -0.42624975200660742 0 -0.20847218015968699 -0.41094969134556558 0 -0.21674898368624171 -0.42624975200660742 0 -0.22333301537891551 -0.40913207694994319 0 -0.20166497172520911 -0.43220131766050929 0 -0.2006305974913771 -0.42054087172074839 0 -0.21674898368624171 -0.42624975200660742 0 -0.22384207788554589 -0.43870209638454211 0 -0.21193190658762159 -0.44028809254194329 0 -0.21674898368624171 -0.42624975200660742 0 -0.21193190658762159 -0.44028809254194329 0 -0.20166497172520911 -0.43220131766050929 0 -0.21674898368624171 -0.42624975200660742 0 -0.22384207788554589 -0.43870209638454211 0 -0.21674898368624171 -0.42624975200660742 0 -0.23410638109147211 -0.42928587182152222 0 -0.21674898368624171 -0.42624975200660742 0 -0.23410638109147211 -0.42928587182152222 0 -0.22333301537891551 -0.40913207694994319 0 -0.23410638109147211 -0.42928587182152222 0 -0.22333301537891551 -0.40913207694994319 0 -0.24182301249818461 -0.40636500329152908 0 -0.23410638109147211 -0.42928587182152222 0 -0.24182301249818461 -0.40636500329152908 0 -0.24950441689448469 -0.42849049473851042 0 -0.24182301249818461 -0.40636500329152908 0 -0.24950441689448469 -0.42849049473851042 0 -0.25595382912581272 -0.41466174373577369 0 -0.24182301249818461 -0.40636500329152908 0 -0.24950441689448469 -0.42849049473851042 0 -0.24391244769765269 -0.43966814373056301 0 -0.23410638109147211 -0.42928587182152222 0 -0.24950441689448469 -0.42849049473851042 0 -0.2274855449394711 -0.38845202495103059 0 -0.23020381886655311 -0.36501895189783079 0 -0.21134914463856261 -0.37455010610009642 0 -0.2274855449394711 -0.38845202495103059 0 -0.2444230149877166 -0.38074167096232248 0 -0.23020381886655311 -0.36501895189783079 0 -0.22333301537891551 -0.40913207694994319 0 -0.24182301249818461 -0.40636500329152908 0 -0.2274855449394711 -0.38845202495103059 0 -0.2113619898984368 -0.39349011828340441 0 -0.22333301537891551 -0.40913207694994319 0 -0.2274855449394711 -0.38845202495103059 0 -0.24182301249818461 -0.40636500329152908 0 -0.2274855449394711 -0.38845202495103059 0 -0.2444230149877166 -0.38074167096232248 0 -0.25427217763450383 -0.39225077177120882 0 -0.24182301249818461 -0.40636500329152908 0 -0.2444230149877166 -0.38074167096232248 0 -0.24696891466673401 -0.36680581742481427 0 -0.23020381886655311 -0.36501895189783079 0 -0.24353678124457051 -0.35306136111810749 0 -0.2444230149877166 -0.38074167096232248 0 -0.24696891466673401 -0.36680581742481427 0 -0.23020381886655311 -0.36501895189783079 0 -0.23020381886655311 -0.36501895189783079 0 -0.24353678124457051 -0.35306136111810749 0 -0.2269080903160646 -0.34374842177439108 0 -0.23020381886655311 -0.36501895189783079 0 -0.2269080903160646 -0.34374842177439108 0 -0.20866039144391491 -0.35257072590276811 0 -0.25685731260100381 -0.34784069051697541 0 -0.24353678124457051 -0.35306136111810749 0 -0.24355394904722399 -0.33426584600686821 0 -0.24353678124457051 -0.35306136111810749 0 -0.24355394904722399 -0.33426584600686821 0 -0.2269080903160646 -0.34374842177439108 0 -0.24355394904722399 -0.33426584600686821 0 -0.24213105036768989 -0.31339542597678971 0 -0.25696488229075182 -0.32094626457849229 0 -0.24355394904722399 -0.33426584600686821 0 -0.24213105036768989 -0.31339542597678971 0 -0.24355394904722399 -0.33426584600686821 0 -0.24213105036768989 -0.31339542597678971 0 -0.22492487219992119 -0.31803714515745329 0 -0.22492487219992119 -0.31803714515745329 0 -0.2269080903160646 -0.34374842177439108 0 -0.21232007482164289 -0.33148326767221881 0 -0.24355394904722399 -0.33426584600686821 0 -0.22492487219992119 -0.31803714515745329 0 -0.2269080903160646 -0.34374842177439108 0 -0.2269080903160646 -0.34374842177439108 0 -0.21232007482164289 -0.33148326767221881 0 -0.20866039144391491 -0.35257072590276811 0 -0.21232007482164289 -0.33148326767221881 0 -0.19798113272355919 -0.33656441819540728 0 -0.20866039144391491 -0.35257072590276811 0 -0.22492487219992119 -0.31803714515745329 0 -0.21232007482164289 -0.33148326767221881 0 -0.21020732604509909 -0.31449263642236452 0 -0.21232007482164289 -0.33148326767221881 0 -0.21020732604509909 -0.31449263642236452 0 -0.19433000268887801 -0.32008617717654941 0 -0.19433000268887801 -0.32008617717654941 0 -0.19798113272355919 -0.33656441819540728 0 -0.1812895315551375 -0.33600023855029759 0 -0.21232007482164289 -0.33148326767221881 0 -0.19433000268887801 -0.32008617717654941 0 -0.19798113272355919 -0.33656441819540728 0 -0.19798113272355919 -0.33656441819540728 0 -0.19236775480386351 -0.34908755553794529 0 -0.1812895315551375 -0.33600023855029759 0 -0.19236775480386351 -0.34908755553794529 0 -0.19536109692707551 -0.36933983268890103 0 -0.17880572948962359 -0.35858689229624863 0 -0.19798113272355919 -0.33656441819540728 0 -0.19236775480386351 -0.34908755553794529 0 -0.20866039144391491 -0.35257072590276811 0 -0.19236775480386351 -0.34908755553794529 0 -0.19536109692707551 -0.36933983268890103 0 -0.20866039144391491 -0.35257072590276811 0 -0.19536109692707551 -0.36933983268890103 0 -0.21134914463856261 -0.37455010610009642 0 -0.20866039144391491 -0.35257072590276811 0 -0.23020381886655311 -0.36501895189783079 0 -0.21134914463856261 -0.37455010610009642 0 -0.20866039144391491 -0.35257072590276811 0 -0.22544467797638759 -0.25612056484321521 0 -0.2392852530086251 -0.27165458591663272 0 -0.23778750584702241 -0.24968632295383231 0 -0.22544467797638759 -0.25612056484321521 0 -0.22375147975279469 -0.2710906771926993 0 -0.21031649381043671 -0.26415797944276542 0 -0.22544467797638759 -0.25612056484321521 0 -0.2392852530086251 -0.27165458591663272 0 -0.22544467797638759 -0.25612056484321521 0 -0.23778750584702241 -0.24968632295383231 0 -0.22556858140930719 -0.24490690292043141 0 -0.25435154377407732 -0.26751510157146691 0 -0.2392852530086251 -0.27165458591663272 0 -0.23778750584702241 -0.24968632295383231 0 -0.2392852530086251 -0.27165458591663272 0 -0.23778750584702241 -0.24968632295383231 0 -0.25435154377407732 -0.26751510157146691 0 -0.2493389891838439 -0.25321987494249693 0 -0.23778750584702241 -0.24968632295383231 0 -0.25435154377407732 -0.26751510157146691 0 -0.23778750584702241 -0.24968632295383231 0 -0.25621044747431149 -0.29065064113031852 0 -0.25435154377407732 -0.26751510157146691 0 -0.2392852530086251 -0.27165458591663272 0 -0.25621044747431149 -0.29065064113031852 0 -0.2392852530086251 -0.27165458591663272 0 -0.2392852530086251 -0.27165458591663272 0 -0.22375147975279469 -0.2710906771926993 0 -0.2267624750564432 -0.28642288517642839 0 -0.22544467797638759 -0.25612056484321521 0 -0.2392852530086251 -0.27165458591663272 0 -0.22375147975279469 -0.2710906771926993 0 -0.22375147975279469 -0.2710906771926993 0 -0.2267624750564432 -0.28642288517642839 0 -0.21388183527384011 -0.27888695664335977 0 -0.2267624750564432 -0.28642288517642839 0 -0.2205844553206483 -0.29940137611436679 0 -0.2102708304621555 -0.29182263560606753 0 -0.2267624750564432 -0.28642288517642839 0 -0.2407081516881559 -0.29252500594671133 0 -0.232286490501601 -0.30270905441434909 0 -0.2267624750564432 -0.28642288517642839 0 -0.232286490501601 -0.30270905441434909 0 -0.2205844553206483 -0.29940137611436679 0 -0.2392852530086251 -0.27165458591663272 0 -0.2267624750564432 -0.28642288517642839 0 -0.2407081516881559 -0.29252500594671133 0 -0.25621044747431149 -0.29065064113031852 0 -0.2392852530086251 -0.27165458591663272 0 -0.2407081516881559 -0.29252500594671133 0 -0.2392852530086251 -0.27165458591663272 0 -0.2407081516881559 -0.29252500594671133 0 -0.2567928049414831 -0.30674121199338839 0 -0.24213105036768989 -0.31339542597678971 0 -0.2407081516881559 -0.29252500594671133 0 -0.24213105036768989 -0.31339542597678971 0 -0.2407081516881559 -0.29252500594671133 0 -0.24213105036768989 -0.31339542597678971 0 -0.2407081516881559 -0.29252500594671133 0 -0.232286490501601 -0.30270905441434909 0 -0.22492487219992119 -0.31803714515745329 0 -0.232286490501601 -0.30270905441434909 0 -0.2205844553206483 -0.29940137611436679 0 -0.24213105036768989 -0.31339542597678971 0 -0.22492487219992119 -0.31803714515745329 0 -0.232286490501601 -0.30270905441434909 0 -0.21020732604509909 -0.31449263642236452 0 -0.2205844553206483 -0.29940137611436679 0 -0.20157053975630029 -0.30193986899151121 0 -0.22492487219992119 -0.31803714515745329 0 -0.21020732604509909 -0.31449263642236452 0 -0.2205844553206483 -0.29940137611436679 0 -0.2205844553206483 -0.29940137611436679 0 -0.20157053975630029 -0.30193986899151121 0 -0.2102708304621555 -0.29182263560606753 0 -0.19433000268887801 -0.32008617717654941 0 -0.20157053975630029 -0.30193986899151121 0 -0.17876877079536779 -0.30205380324079312 0 -0.21020732604509909 -0.31449263642236452 0 -0.19433000268887801 -0.32008617717654941 0 -0.20157053975630029 -0.30193986899151121 0 -0.20157053975630029 -0.30193986899151121 0 -0.19418762070330681 -0.28258364369352701 0 -0.17876877079536779 -0.30205380324079312 0 -0.20157053975630029 -0.30193986899151121 0 -0.19418762070330681 -0.28258364369352701 0 -0.2102708304621555 -0.29182263560606753 0 -0.19418762070330681 -0.28258364369352701 0 -0.2102708304621555 -0.29182263560606753 0 -0.21388183527384011 -0.27888695664335977 0 -0.2267624750564432 -0.28642288517642839 0 -0.2102708304621555 -0.29182263560606753 0 -0.21388183527384011 -0.27888695664335977 0 -0.19418762070330681 -0.28258364369352701 0 -0.21388183527384011 -0.27888695664335977 0 -0.21031649381043671 -0.26415797944276542 0 -0.22375147975279469 -0.2710906771926993 0 -0.21388183527384011 -0.27888695664335977 0 -0.21031649381043671 -0.26415797944276542 0 -0.19418762070330681 -0.28258364369352701 0 -0.19435815259376579 -0.25563918435242527 0 -0.21031649381043671 -0.26415797944276542 0 -0.19418762070330681 -0.28258364369352701 0 -0.19435815259376579 -0.25563918435242527 0 -0.17711220224338189 -0.27069182493505262 0 -0.19435815259376579 -0.25563918435242527 0 -0.21031649381043671 -0.26415797944276542 0 -0.21152547014113221 -0.25356184176667002 0 -0.22544467797638759 -0.25612056484321521 0 -0.21031649381043671 -0.26415797944276542 0 -0.21152547014113221 -0.25356184176667002 0 -0.22544467797638759 -0.25612056484321521 0 -0.21152547014113221 -0.25356184176667002 0 -0.21160410294414969 -0.24058654376979799 0 -0.1649289882894876 -0.26029160095395659 0 -0.17754895813047661 -0.24597893687872591 0 -0.16214774546827659 -0.2445163022413237 0 -0.1649289882894876 -0.26029160095395659 0 -0.1444932553453035 -0.26458812422329098 0 -0.16214774546827659 -0.2445163022413237 0 -0.1649289882894876 -0.26029160095395659 0 -0.17711220224338189 -0.27069182493505262 0 -0.17754895813047661 -0.24597893687872591 0 -0.19435815259376579 -0.25563918435242527 0 -0.17711220224338189 -0.27069182493505262 0 -0.17754895813047661 -0.24597893687872591 0 -0.19435815259376579 -0.25563918435242527 0 -0.17711220224338189 -0.27069182493505262 0 -0.19418762070330681 -0.28258364369352701 0 -0.17711220224338189 -0.27069182493505262 0 -0.17779058630399641 -0.28571211278250108 0 -0.1649289882894876 -0.26029160095395659 0 -0.17711220224338189 -0.27069182493505262 0 -0.15479393830159791 -0.27219427970369869 0 -0.17711220224338189 -0.27069182493505262 0 -0.15986625189299811 -0.28574446551767979 0 -0.15479393830159791 -0.27219427970369869 0 -0.17711220224338189 -0.27069182493505262 0 -0.15986625189299811 -0.28574446551767979 0 -0.17779058630399641 -0.28571211278250108 0 -0.17711220224338189 -0.27069182493505262 0 -0.15986625189299811 -0.28574446551767979 0 -0.19418762070330681 -0.28258364369352701 0 -0.17779058630399641 -0.28571211278250108 0 -0.17876877079536779 -0.30205380324079312 0 -0.15986625189299811 -0.28574446551767979 0 -0.17779058630399641 -0.28571211278250108 0 -0.17876877079536779 -0.30205380324079312 0 -0.17876877079536779 -0.30205380324079312 0 -0.1605851170899974 -0.30756829339496028 0 -0.17806784535551029 -0.3183778474231625 0 -0.15986625189299811 -0.28574446551767979 0 -0.17876877079536779 -0.30205380324079312 0 -0.1605851170899974 -0.30756829339496028 0 -0.14262030154261399 -0.30079710610030658 0 -0.13904614708166199 -0.3079081898303353 0 -0.14349601393085279 -0.3207468455052811 0 -0.1605851170899974 -0.30756829339496028 0 -0.14262030154261399 -0.30079710610030658 0 -0.14349601393085279 -0.3207468455052811 0 -0.15986625189299811 -0.28574446551767979 0 -0.1605851170899974 -0.30756829339496028 0 -0.14262030154261399 -0.30079710610030658 0 -0.14262030154261399 -0.30079710610030658 0 -0.14349601393085279 -0.3207468455052811 0 -0.1362638395549452 -0.29765389836070172 0 -0.1309776896879051 -0.31889363663771908 0 -0.12144025900730621 -0.30724345994929592 0 -0.13904614708166199 -0.3079081898303353 0 -0.1362638395549452 -0.29765389836070172 0 -0.1309776896879051 -0.31889363663771908 0 -0.1362638395549452 -0.29765389836070172 0 -0.120298048268659 -0.29209624741894069 0 -0.12144025900730621 -0.30724345994929592 0 -0.1362638395549452 -0.29765389836070172 0 -0.1309776896879051 -0.31889363663771908 0 -0.14262030154261399 -0.30079710610030658 0 -0.13904614708166199 -0.3079081898303353 0 -0.1362638395549452 -0.29765389836070172 0 -0.1362638395549452 -0.29765389836070172 0 -0.14154998942198391 -0.2764141600836838 0 -0.120298048268659 -0.29209624741894069 0 -0.1362638395549452 -0.29765389836070172 0 -0.14154998942198391 -0.2764141600836838 0 -0.14262030154261399 -0.30079710610030658 0 -0.1362638395549452 -0.29765389836070172 0 -0.14154998942198391 -0.2764141600836838 0 -0.14262030154261399 -0.30079710610030658 0 -0.14154998942198391 -0.2764141600836838 0 -0.15986625189299811 -0.28574446551767979 0 -0.14262030154261399 -0.30079710610030658 0 -0.14262030154261399 -0.30079710610030658 0 -0.14154998942198391 -0.2764141600836838 0 -0.14632534961171689 -0.2807659708796163 0 -0.15986625189299811 -0.28574446551767979 0 -0.14262030154261399 -0.30079710610030658 0 -0.14632534961171689 -0.2807659708796163 0 -0.1649289882894876 -0.26029160095395659 0 -0.15479393830159791 -0.27219427970369869 0 -0.1444932553453035 -0.26458812422329098 0 -0.15986625189299811 -0.28574446551767979 0 -0.15479393830159791 -0.27219427970369869 0 -0.14632534961171689 -0.2807659708796163 0 -0.1411954557357821 -0.26833747332561109 0 -0.14221939100273501 -0.27372450603773829 0 -0.1444932553453035 -0.26458812422329098 0 -0.15479393830159791 -0.27219427970369869 0 -0.14221939100273501 -0.27372450603773829 0 -0.1444932553453035 -0.26458812422329098 0 -0.14221939100273501 -0.27372450603773829 0 -0.1444932553453035 -0.26458812422329098 0 -0.1411954557357821 -0.26833747332561109 0 -0.1444932553453035 -0.26458812422329098 0 -0.14136781924934469 -0.27226411319580052 0 -0.14154998942198391 -0.2764141600836838 0 -0.1399222362105795 -0.26978502777072749 0 -0.1411954557357821 -0.26833747332561109 0 -0.14136781924934469 -0.27226411319580052 0 -0.14221939100273501 -0.27372450603773829 0 -0.1411954557357821 -0.26833747332561109 0 -0.14136781924934469 -0.27226411319580052 0 -0.1399222362105795 -0.26978502777072749 0 -0.1411954557357821 -0.26833747332561109 0 -0.14136781924934469 -0.27226411319580052 0 -0.14136781924934469 -0.27226411319580052 0 -0.1399222362105795 -0.26978502777072749 0 -0.14136781924934469 -0.27226411319580052 0 -0.14221939100273501 -0.27372450603773829 0 -0.14221939100273501 -0.27372450603773829 0 -0.14154998942198391 -0.2764141600836838 0 -0.14136781924934469 -0.27226411319580052 0 -0.14154998942198391 -0.2764141600836838 0 -0.14221939100273501 -0.27372450603773829 0 -0.14632534961171689 -0.2807659708796163 0 -0.14136781924934469 -0.27226411319580052 0 -0.14221939100273501 -0.27372450603773829 0 -0.14154998942198391 -0.2764141600836838 0 -0.15479393830159791 -0.27219427970369869 0 -0.14221939100273501 -0.27372450603773829 0 -0.14632534961171689 -0.2807659708796163 0 -0.14221939100273501 -0.27372450603773829 0 -0.14154998942198391 -0.2764141600836838 0 -0.14632534961171689 -0.2807659708796163 0 -0.1399222362105795 -0.26978502777072749 0 -0.1203774640655936 -0.26228830178351148 0 -0.1160193840357694 -0.27574321148556469 0 -0.14154998942198391 -0.2764141600836838 0 -0.1399222362105795 -0.26978502777072749 0 -0.120298048268659 -0.29209624741894069 0 -0.1399222362105795 -0.26978502777072749 0 -0.1160193840357694 -0.27574321148556469 0 -0.120298048268659 -0.29209624741894069 0 -0.1399222362105795 -0.26978502777072749 0 -0.120298048268659 -0.29209624741894069 0 -0.1411954557357821 -0.26833747332561109 0 -0.1399222362105795 -0.26978502777072749 0 -0.1411954557357821 -0.26833747332561109 0 -0.1399222362105795 -0.26978502777072749 0 -0.1259634612710267 -0.24584659284409099 0 -0.1399222362105795 -0.26978502777072749 0 -0.1203774640655936 -0.26228830178351148 0 -0.1259634612710267 -0.24584659284409099 0 -0.1411954557357821 -0.26833747332561109 0 -0.14012116928103671 -0.24386398738854809 0 -0.1259634612710267 -0.24584659284409099 0 -0.1399222362105795 -0.26978502777072749 0 -0.1259634612710267 -0.24584659284409099 0 -0.1411954557357821 -0.26833747332561109 0 -0.14012116928103671 -0.24386398738854809 0 -0.1411954557357821 -0.26833747332561109 0 -0.1444932553453035 -0.26458812422329098 0 -0.14012116928103671 -0.24386398738854809 0 -0.1444932553453035 -0.26458812422329098 0 -0.16214774546827659 -0.2445163022413237 0 -0.1444932553453035 -0.26458812422329098 0 -0.15093403999830679 -0.2387090659730905 0 -0.1622503620521725 -0.34783395190359512 0 -0.17880572948962359 -0.35858689229624863 0 -0.1622503620521725 -0.34783395190359512 0 -0.16076546663585889 -0.36594097707957118 0 -0.17880572948962359 -0.35858689229624863 0 -0.17699271179291809 -0.37767542478317723 0 -0.19536109692707551 -0.36933983268890103 0 -0.17880572948962359 -0.35858689229624863 0 -0.17699271179291809 -0.37767542478317723 0 -0.16076546663585889 -0.36594097707957118 0 -0.17880572948962359 -0.35858689229624863 0 -0.19536109692707551 -0.36933983268890103 0 -0.17880572948962359 -0.35858689229624863 0 -0.1622503620521725 -0.34783395190359512 0 -0.17880572948962359 -0.35858689229624863 0 -0.1812895315551375 -0.33600023855029759 0 -0.19236775480386351 -0.34908755553794529 0 -0.17880572948962359 -0.35858689229624863 0 -0.1812895315551375 -0.33600023855029759 0 -0.1812895315551375 -0.33600023855029759 0 -0.17806784535551029 -0.3183778474231625 0 -0.16441298336094101 -0.32384338722109429 0 -0.19433000268887801 -0.32008617717654941 0 -0.1812895315551375 -0.33600023855029759 0 -0.17806784535551029 -0.3183778474231625 0 -0.19433000268887801 -0.32008617717654941 0 -0.17876877079536779 -0.30205380324079312 0 -0.17806784535551029 -0.3183778474231625 0 -0.1605851170899974 -0.30756829339496028 0 -0.17806784535551029 -0.3183778474231625 0 -0.16441298336094101 -0.32384338722109429 0 -0.1622503620521725 -0.34783395190359512 0 -0.1812895315551375 -0.33600023855029759 0 -0.1622503620521725 -0.34783395190359512 0 -0.1812895315551375 -0.33600023855029759 0 -0.1603459959157062 -0.33556952674163848 0 -0.16441298336094101 -0.32384338722109429 0 -0.1603459959157062 -0.33556952674163848 0 -0.1479398120679643 -0.33520989182814948 0 -0.1812895315551375 -0.33600023855029759 0 -0.16441298336094101 -0.32384338722109429 0 -0.1603459959157062 -0.33556952674163848 0 -0.1622503620521725 -0.34783395190359512 0 -0.1603459959157062 -0.33556952674163848 0 -0.1479398120679643 -0.33520989182814948 0 -0.1622503620521725 -0.34783395190359512 0 -0.14416233290495889 -0.33607967534172573 0 -0.1622503620521725 -0.34783395190359512 0 -0.1479398120679643 -0.33520989182814948 0 -0.14416233290495889 -0.33607967534172573 0 -0.1479398120679643 -0.33520989182814948 0 -0.14416233290495889 -0.33607967534172573 0 -0.14349601393085279 -0.3207468455052811 0 -0.14416233290495889 -0.33607967534172573 0 -0.14349601393085279 -0.3207468455052811 0 -0.14416233290495889 -0.33607967534172573 0 -0.14294888083555449 -0.32725263893046319 0 -0.13771699830434009 -0.33189919243610799 0 -0.1479398120679643 -0.33520989182814948 0 -0.14416233290495889 -0.33607967534172573 0 -0.14416233290495889 -0.33607967534172573 0 -0.13771699830434009 -0.33189919243610799 0 -0.16441298336094101 -0.32384338722109429 0 -0.14349601393085279 -0.3207468455052811 0 -0.1605851170899974 -0.30756829339496028 0 -0.16441298336094101 -0.32384338722109429 0 -0.14349601393085279 -0.3207468455052811 0 -0.16441298336094101 -0.32384338722109429 0 -0.1479398120679643 -0.33520989182814948 0 -0.14349601393085279 -0.3207468455052811 0 -0.14416233290495889 -0.33607967534172573 0 -0.14294888083555449 -0.32725263893046319 0 -0.14349601393085279 -0.3207468455052811 0 -0.14294888083555449 -0.32725263893046319 0 -0.14349601393085279 -0.3207468455052811 0 -0.13685373793470729 -0.32502271031435392 0 -0.13904614708166199 -0.3079081898303353 0 -0.14349601393085279 -0.3207468455052811 0 -0.1309776896879051 -0.31889363663771908 0 -0.14349601393085279 -0.3207468455052811 0 -0.1309776896879051 -0.31889363663771908 0 -0.14349601393085279 -0.3207468455052811 0 -0.13685373793470729 -0.32502271031435392 0 -0.1309776896879051 -0.31889363663771908 0 -0.13685373793470729 -0.32502271031435392 0 -0.12912910691488341 -0.3263212380621987 0 -0.13771699830434009 -0.33189919243610799 0 -0.14294888083555449 -0.32725263893046319 0 -0.13685373793470729 -0.32502271031435392 0 -0.13771699830434009 -0.33189919243610799 0 -0.12912910691488341 -0.3263212380621987 0 -0.1309776896879051 -0.31889363663771908 0 -0.13685373793470729 -0.32502271031435392 0 -0.12912910691488341 -0.3263212380621987 0 -0.1309776896879051 -0.31889363663771908 0 -0.14416233290495889 -0.33607967534172573 0 -0.1291525128197501 -0.33950550618934988 0 -0.13427557496098269 -0.34969029183818001 0 -0.14416233290495889 -0.33607967534172573 0 -0.1291525128197501 -0.33950550618934988 0 -0.13771699830434009 -0.33189919243610799 0 -0.1291525128197501 -0.33950550618934988 0 -0.14416233290495889 -0.33607967534172573 0 -0.13771699830434009 -0.33189919243610799 0 -0.1291525128197501 -0.33950550618934988 0 -0.12912910691488341 -0.3263212380621987 0 -0.13771699830434009 -0.33189919243610799 0 -0.14294888083555449 -0.32725263893046319 0 -0.13771699830434009 -0.33189919243610799 0 -0.12912910691488341 -0.3263212380621987 0 -0.13771699830434009 -0.33189919243610799 0 -0.1291525128197501 -0.33950550618934988 0 -0.12912910691488341 -0.3263212380621987 0 -0.12564840210709141 -0.34030670215166903 0 -0.12912910691488341 -0.3263212380621987 0 -0.1291525128197501 -0.33950550618934988 0 -0.12564840210709141 -0.34030670215166903 0 -0.1291525128197501 -0.33950550618934988 0 -0.12564840210709141 -0.34030670215166903 0 -0.12516602340961891 -0.34224489867322949 0 -0.1291525128197501 -0.33950550618934988 0 -0.12564840210709141 -0.34030670215166903 0 -0.12564840210709141 -0.34030670215166903 0 -0.12516602340961891 -0.34224489867322949 0 -0.13556783296080299 -0.36441836230862751 0 -0.117344977524786 -0.34999204601331368 0 -0.1291525128197501 -0.33950550618934988 0 -0.13427557496098269 -0.34969029183818001 0 -0.117344977524786 -0.34999204601331368 0 -0.13427557496098269 -0.34969029183818001 0 -0.13556783296080299 -0.36441836230862751 0 -0.117344977524786 -0.34999204601331368 0 -0.13427557496098269 -0.34969029183818001 0 -0.1451515404134372 -0.35846165044476808 0 -0.13556783296080299 -0.36441836230862751 0 -0.1622503620521725 -0.34783395190359512 0 -0.1451515404134372 -0.35846165044476808 0 -0.14416233290495889 -0.33607967534172573 0 -0.1451515404134372 -0.35846165044476808 0 -0.14416233290495889 -0.33607967534172573 0 -0.13427557496098269 -0.34969029183818001 0 -0.1451515404134372 -0.35846165044476808 0 -0.1622503620521725 -0.34783395190359512 0 -0.14416233290495889 -0.33607967534172573 0 -0.1451515404134372 -0.35846165044476808 0 -0.1622503620521725 -0.34783395190359512 0 -0.16076546663585889 -0.36594097707957118 0 -0.1451515404134372 -0.35846165044476808 0 -0.1587847002944803 -0.38279824095706327 0 -0.16076546663585889 -0.36594097707957118 0 -0.14576745977813721 -0.37249300478590819 0 -0.16076546663585889 -0.36594097707957118 0 -0.1451515404134372 -0.35846165044476808 0 -0.14576745977813721 -0.37249300478590819 0 -0.1451515404134372 -0.35846165044476808 0 -0.14576745977813721 -0.37249300478590819 0 -0.1451515404134372 -0.35846165044476808 0 -0.14576745977813721 -0.37249300478590819 0 -0.13556783296080299 -0.36441836230862751 0 -0.14576745977813721 -0.37249300478590819 0 -0.13556783296080299 -0.36441836230862751 0 -0.13556783296080299 -0.36441836230862751 0 -0.1194541056539304 -0.37443377973389702 0 -0.1236378273063946 -0.37072371234014001 0 -0.13556783296080299 -0.36441836230862751 0 -0.1236378273063946 -0.37072371234014001 0 -0.117344977524786 -0.34999204601331368 0 -0.132159492578835 -0.37789609771469967 0 -0.13556783296080299 -0.36441836230862751 0 -0.1194541056539304 -0.37443377973389702 0 -0.13556783296080299 -0.36441836230862751 0 -0.1194541056539304 -0.37443377973389702 0 -0.132159492578835 -0.37789609771469967 0 -0.14576745977813721 -0.37249300478590819 0 -0.13556783296080299 -0.36441836230862751 0 -0.1451515404134372 -0.35846165044476808 0 -0.13556783296080299 -0.36441836230862751 0 -0.1236378273063946 -0.37072371234014001 0 -0.1022929759574754 -0.3633600699000008 0 -0.117344977524786 -0.34999204601331368 0 -0.1236378273063946 -0.37072371234014001 0 -0.1022929759574754 -0.3633600699000008 0 -0.1194541056539304 -0.37443377973389702 0 -0.1236378273063946 -0.37072371234014001 0 -0.1078019417455338 -0.37365703779062748 0 -0.1236378273063946 -0.37072371234014001 0 -0.1078019417455338 -0.37365703779062748 0 -0.1022929759574754 -0.3633600699000008 0 -0.1078019417455338 -0.37365703779062748 0 -0.1022929759574754 -0.3633600699000008 0 -0.085756586414065694 -0.3780464124058347 0 -0.1022929759574754 -0.3633600699000008 0 -0.085756586414065694 -0.3780464124058347 0 -0.1022929759574754 -0.3633600699000008 0 -0.087196109601529417 -0.35815188531278941 0 -0.1022929759574754 -0.3633600699000008 0 -0.10166551749616511 -0.35199695382407098 0 -0.117344977524786 -0.34999204601331368 0 -0.10166551749616511 -0.35199695382407098 0 -0.10971313269867029 -0.3439502153153256 0 -0.090920655501179642 -0.34824701358662258 0 -0.10971313269867029 -0.3439502153153256 0 -0.090920655501179642 -0.34824701358662258 0 -0.095518814639087415 -0.35543898065587087 0 -0.10166551749616511 -0.35199695382407098 0 -0.090920655501179642 -0.34824701358662258 0 -0.1022929759574754 -0.3633600699000008 0 -0.095518814639087415 -0.35543898065587087 0 -0.087196109601529417 -0.35815188531278941 0 -0.1022929759574754 -0.3633600699000008 0 -0.095518814639087415 -0.35543898065587087 0 -0.10166551749616511 -0.35199695382407098 0 -0.10166551749616511 -0.35199695382407098 0 -0.10971313269867029 -0.3439502153153256 0 -0.117344977524786 -0.34999204601331368 0 -0.10971313269867029 -0.3439502153153256 0 -0.117344977524786 -0.34999204601331368 0 -0.1022929759574754 -0.3633600699000008 0 -0.117344977524786 -0.34999204601331368 0 -0.1291525128197501 -0.33950550618934988 0 -0.117344977524786 -0.34999204601331368 0 -0.12516602340961891 -0.34224489867322949 0 -0.10971313269867029 -0.3439502153153256 0 -0.117344977524786 -0.34999204601331368 0 -0.1291525128197501 -0.33950550618934988 0 -0.12516602340961891 -0.34224489867322949 0 -0.117344977524786 -0.34999204601331368 0 -0.12564840210709141 -0.34030670215166903 0 -0.10971313269867029 -0.3439502153153256 0 -0.12564840210709141 -0.34030670215166903 0 -0.10971313269867029 -0.3439502153153256 0 -0.1193732666946144 -0.33149986267785519 0 -0.12564840210709141 -0.34030670215166903 0 -0.12516602340961891 -0.34224489867322949 0 -0.10971313269867029 -0.3439502153153256 0 -0.12912910691488341 -0.3263212380621987 0 -0.12564840210709141 -0.34030670215166903 0 -0.1193732666946144 -0.33149986267785519 0 -0.10971313269867029 -0.3439502153153256 0 -0.1193732666946144 -0.33149986267785519 0 -0.10982292953946041 -0.32996575062625272 0 -0.12912910691488341 -0.3263212380621987 0 -0.1309776896879051 -0.31889363663771908 0 -0.1137718547508091 -0.31634649012989552 0 -0.1309776896879051 -0.31889363663771908 0 -0.1137718547508091 -0.31634649012989552 0 -0.12144025900730621 -0.30724345994929592 0 -0.1309776896879051 -0.31889363663771908 0 -0.1137718547508091 -0.31634649012989552 0 -0.12912910691488341 -0.3263212380621987 0 -0.1193732666946144 -0.33149986267785519 0 -0.1137718547508091 -0.31634649012989552 0 -0.12912910691488341 -0.3263212380621987 0 -0.1137718547508091 -0.31634649012989552 0 -0.1193732666946144 -0.33149986267785519 0 -0.10982292953946041 -0.32996575062625272 0 -0.1137718547508091 -0.31634649012989552 0 -0.1137718547508091 -0.31634649012989552 0 -0.1058898627742125 -0.31122702719922318 0 -0.101540198285247 -0.32496656969984988 0 -0.10067386032673691 -0.31440746706715261 0 -0.086625017098000773 -0.33037994083306538 0 -0.1137718547508091 -0.31634649012989552 0 -0.101540198285247 -0.32496656969984988 0 -0.10067386032673691 -0.31440746706715261 0 -0.1137718547508091 -0.31634649012989552 0 -0.10067386032673691 -0.31440746706715261 0 -0.1137718547508091 -0.31634649012989552 0 -0.10067386032673691 -0.31440746706715261 0 -0.1058898627742125 -0.31122702719922318 0 -0.10982292953946041 -0.32996575062625272 0 -0.1137718547508091 -0.31634649012989552 0 -0.101540198285247 -0.32496656969984988 0 -0.10067386032673691 -0.31440746706715261 0 -0.088793412324251891 -0.3126486892018781 0 -0.10971313269867029 -0.3439502153153256 0 -0.09680732971122763 -0.33373319984288502 0 -0.090920655501179642 -0.34824701358662258 0 -0.10971313269867029 -0.3439502153153256 0 -0.09680732971122763 -0.33373319984288502 0 -0.10982292953946041 -0.32996575062625272 0 -0.101540198285247 -0.32496656969984988 0 -0.09680732971122763 -0.33373319984288502 0 -0.10971313269867029 -0.3439502153153256 0 -0.10982292953946041 -0.32996575062625272 0 -0.09680732971122763 -0.33373319984288502 0 -0.101540198285247 -0.32496656969984988 0 -0.09680732971122763 -0.33373319984288502 0 -0.086625017098000773 -0.33037994083306538 0 -0.086625017098000773 -0.33037994083306538 0 -0.072576173869268359 -0.34635241459898147 0 -0.086625017098000773 -0.33037994083306538 0 -0.072576173869268359 -0.34635241459898147 0 -0.090920655501179642 -0.34824701358662258 0 -0.09680732971122763 -0.33373319984288502 0 -0.086625017098000773 -0.33037994083306538 0 -0.090920655501179642 -0.34824701358662258 0 -0.10067386032673691 -0.31440746706715261 0 -0.086625017098000773 -0.33037994083306538 0 -0.086625017098000773 -0.33037994083306538 0 -0.088793412324251891 -0.3126486892018781 0 -0.074478983844801977 -0.319295423115174 0 -0.10067386032673691 -0.31440746706715261 0 -0.086625017098000773 -0.33037994083306538 0 -0.088793412324251891 -0.3126486892018781 0 -0.086625017098000773 -0.33037994083306538 0 -0.074478983844801977 -0.319295423115174 0 -0.073960648783230706 -0.33278444084742059 0 -0.074478983844801977 -0.319295423115174 0 -0.060730957435007803 -0.31077804354276439 0 -0.061339303762377118 -0.33540541299449772 0 -0.086625017098000773 -0.33037994083306538 0 -0.073960648783230706 -0.33278444084742059 0 -0.072576173869268359 -0.34635241459898147 0 -0.074478983844801977 -0.319295423115174 0 -0.073960648783230706 -0.33278444084742059 0 -0.061339303762377118 -0.33540541299449772 0 -0.073960648783230706 -0.33278444084742059 0 -0.068244841750389917 -0.33941498095154432 0 -0.072576173869268359 -0.34635241459898147 0 -0.073960648783230706 -0.33278444084742059 0 -0.068244841750389917 -0.33941498095154432 0 -0.061339303762377118 -0.33540541299449772 0 -0.068244841750389917 -0.33941498095154432 0 -0.065049246623686149 -0.34386386381052081 0 -0.061339303762377118 -0.33540541299449772 0 -0.068244841750389917 -0.33941498095154432 0 -0.065049246623686149 -0.34386386381052081 0 -0.072576173869268359 -0.34635241459898147 0 -0.065049246623686149 -0.34386386381052081 0 -0.071413655567438922 -0.35270718361703868 0 -0.056721797218021161 -0.34763872050629718 0 -0.071413655567438922 -0.35270718361703868 0 -0.056721797218021161 -0.34763872050629718 0 -0.065049246623686149 -0.34386386381052081 0 -0.07121469220597787 -0.34790031642943697 0 -0.071413655567438922 -0.35270718361703868 0 -0.065049246623686149 -0.34386386381052081 0 -0.072576173869268359 -0.34635241459898147 0 -0.07121469220597787 -0.34790031642943697 0 -0.072576173869268359 -0.34635241459898147 0 -0.07121469220597787 -0.34790031642943697 0 -0.072576173869268359 -0.34635241459898147 0 -0.07121469220597787 -0.34790031642943697 0 -0.071413655567438922 -0.35270718361703868 0 -0.072576173869268359 -0.34635241459898147 0 -0.071413655567438922 -0.35270718361703868 0 -0.071413655567438922 -0.35270718361703868 0 -0.070659720058118547 -0.37283822781862203 0 -0.080881103523869624 -0.3676942895662772 0 -0.071413655567438922 -0.35270718361703868 0 -0.070659720058118547 -0.37283822781862203 0 -0.055696211078244739 -0.3620501710076805 0 -0.071413655567438922 -0.35270718361703868 0 -0.070659720058118547 -0.37283822781862203 0 -0.1022929759574754 -0.3633600699000008 0 -0.080881103523869624 -0.3676942895662772 0 -0.085756586414065694 -0.3780464124058347 0 -0.1022929759574754 -0.3633600699000008 0 -0.080881103523869624 -0.3676942895662772 0 -0.087196109601529417 -0.35815188531278941 0 -0.071413655567438922 -0.35270718361703868 0 -0.080881103523869624 -0.3676942895662772 0 -0.087196109601529417 -0.35815188531278941 0 -0.070659720058118547 -0.37283822781862203 0 -0.080881103523869624 -0.3676942895662772 0 -0.085756586414065694 -0.3780464124058347 0 -0.072576173869268359 -0.34635241459898147 0 -0.071413655567438922 -0.35270718361703868 0 -0.090920655501179642 -0.34824701358662258 0 -0.071413655567438922 -0.35270718361703868 0 -0.090920655501179642 -0.34824701358662258 0 -0.095518814639087415 -0.35543898065587087 0 -0.087196109601529417 -0.35815188531278941 0 -0.090920655501179642 -0.34824701358662258 0 -0.071413655567438922 -0.35270718361703868 0 -0.087196109601529417 -0.35815188531278941 0 -0.071413655567438922 -0.35270718361703868 0 -0.087196109601529417 -0.35815188531278941 0 -0.090920655501179642 -0.34824701358662258 0 -0.099936074755680726 -0.25451062533925939 0 -0.106979688764908 -0.26633443365231008 0 -0.089876230944157726 -0.26801749202297698 0 -0.099936074755680726 -0.25451062533925939 0 -0.111926538359004 -0.25350696961356028 0 -0.106979688764908 -0.26633443365231008 0 -0.111926538359004 -0.25350696961356028 0 -0.1203774640655936 -0.26228830178351148 0 -0.1259634612710267 -0.24584659284409099 0 -0.111926538359004 -0.25350696961356028 0 -0.1203774640655936 -0.26228830178351148 0 -0.106979688764908 -0.26633443365231008 0 -0.1203774640655936 -0.26228830178351148 0 -0.1160193840357694 -0.27574321148556469 0 -0.106979688764908 -0.26633443365231008 0 -0.1160193840357694 -0.27574321148556469 0 -0.106979688764908 -0.26633443365231008 0 -0.100880151995301 -0.28140178010062522 0 -0.106979688764908 -0.26633443365231008 0 -0.100880151995301 -0.28140178010062522 0 -0.089876230944157726 -0.26801749202297698 0 -0.100880151995301 -0.28140178010062522 0 -0.120298048268659 -0.29209624741894069 0 -0.097106651120496379 -0.29851905652262911 0 -0.100880151995301 -0.28140178010062522 0 -0.097106651120496379 -0.29851905652262911 0 -0.085583013157861265 -0.288624837890121 0 -0.1160193840357694 -0.27574321148556469 0 -0.100880151995301 -0.28140178010062522 0 -0.120298048268659 -0.29209624741894069 0 -0.120298048268659 -0.29209624741894069 0 -0.12144025900730621 -0.30724345994929592 0 -0.1058898627742125 -0.31122702719922318 0 -0.10067386032673691 -0.31440746706715261 0 -0.120298048268659 -0.29209624741894069 0 -0.1137718547508091 -0.31634649012989552 0 -0.12144025900730621 -0.30724345994929592 0 -0.1058898627742125 -0.31122702719922318 0 -0.10067386032673691 -0.31440746706715261 0 -0.088793412324251891 -0.3126486892018781 0 -0.097106651120496379 -0.29851905652262911 0 -0.10067386032673691 -0.31440746706715261 0 -0.120298048268659 -0.29209624741894069 0 -0.1058898627742125 -0.31122702719922318 0 -0.10067386032673691 -0.31440746706715261 0 -0.120298048268659 -0.29209624741894069 0 -0.097106651120496379 -0.29851905652262911 0 -0.088793412324251891 -0.3126486892018781 0 -0.074478983844801977 -0.319295423115174 0 -0.075449045105312307 -0.30140944590265428 0 -0.088793412324251891 -0.3126486892018781 0 -0.097106651120496379 -0.29851905652262911 0 -0.086733030426980454 -0.30030050737932062 0 -0.088793412324251891 -0.3126486892018781 0 -0.086733030426980454 -0.30030050737932062 0 -0.075449045105312307 -0.30140944590265428 0 -0.075449045105312307 -0.30140944590265428 0 -0.06012261110763694 -0.28615067409103112 0 -0.060730957435007803 -0.31077804354276439 0 -0.074478983844801977 -0.319295423115174 0 -0.075449045105312307 -0.30140944590265428 0 -0.060730957435007803 -0.31077804354276439 0 -0.074449266934750666 -0.2887445678787689 0 -0.076642398368192172 -0.2787933136312693 0 -0.06012261110763694 -0.28615067409103112 0 -0.075449045105312307 -0.30140944590265428 0 -0.074449266934750666 -0.2887445678787689 0 -0.06012261110763694 -0.28615067409103112 0 -0.074449266934750666 -0.2887445678787689 0 -0.085583013157861265 -0.288624837890121 0 -0.076642398368192172 -0.2787933136312693 0 -0.086733030426980454 -0.30030050737932062 0 -0.075449045105312307 -0.30140944590265428 0 -0.085583013157861265 -0.288624837890121 0 -0.075449045105312307 -0.30140944590265428 0 -0.074449266934750666 -0.2887445678787689 0 -0.085583013157861265 -0.288624837890121 0 -0.097106651120496379 -0.29851905652262911 0 -0.086733030426980454 -0.30030050737932062 0 -0.085583013157861265 -0.288624837890121 0 -0.089876230944157726 -0.26801749202297698 0 -0.076642398368192172 -0.2787933136312693 0 -0.072593155440843674 -0.26529446531241913 0 -0.100880151995301 -0.28140178010062522 0 -0.085583013157861265 -0.288624837890121 0 -0.089876230944157726 -0.26801749202297698 0 -0.085583013157861265 -0.288624837890121 0 -0.089876230944157726 -0.26801749202297698 0 -0.076642398368192172 -0.2787933136312693 0 -0.072593155440843674 -0.26529446531241913 0 -0.06012261110763694 -0.28615067409103112 0 -0.076642398368192172 -0.2787933136312693 0 -0.072593155440843674 -0.26529446531241913 0 -0.06012261110763694 -0.28615067409103112 0 -0.072593155440843674 -0.26529446531241913 0 -0.059536288126043127 -0.2624148643455666 0 -0.06012261110763694 -0.28615067409103112 0 -0.072593155440843674 -0.26529446531241913 0 -0.059536288126043127 -0.2624148643455666 0 -0.069833207221240631 -0.24949570074920191 0 -0.072593155440843674 -0.26529446531241913 0 -0.085063699774051968 -0.2444382565338081 0 -0.069833207221240631 -0.24949570074920191 0 -0.059536288126043127 -0.2624148643455666 0 -0.058949965144447787 -0.23867905460010219 0 -0.069833207221240631 -0.24949570074920191 0 -0.099936074755680726 -0.25451062533925939 0 -0.089876230944157726 -0.26801749202297698 0 -0.085063699774051968 -0.2444382565338081 0 -0.089876230944157726 -0.26801749202297698 0 -0.072593155440843674 -0.26529446531241913 0 -0.085063699774051968 -0.2444382565338081 0 -0.072593155440843674 -0.26529446531241913 0 -0.085063699774051968 -0.2444382565338081 0 -0.047238550536702263 -0.255967767539931 0 -0.042510837996958241 -0.27211860342512589 0 -0.031445869201948723 -0.24932675125673501 0 -0.042510837996958241 -0.27211860342512589 0 -0.022919632676605468 -0.27258031580085579 0 -0.031445869201948723 -0.24932675125673501 0 -0.059536288126043127 -0.2624148643455666 0 -0.047238550536702263 -0.255967767539931 0 -0.042510837996958241 -0.27211860342512589 0 -0.059536288126043127 -0.2624148643455666 0 -0.058949965144447787 -0.23867905460010219 0 -0.059536288126043127 -0.2624148643455666 0 -0.047238550536702263 -0.255967767539931 0 -0.058949965144447787 -0.23867905460010219 0 -0.059536288126043127 -0.2624148643455666 0 -0.06012261110763694 -0.28615067409103112 0 -0.059536288126043127 -0.2624148643455666 0 -0.042510837996958241 -0.27211860342512589 0 -0.06012261110763694 -0.28615067409103112 0 -0.042510837996958241 -0.27211860342512589 0 -0.037567888098569292 -0.28908607241114309 0 -0.022919632676605468 -0.27258031580085579 0 -0.042510837996958241 -0.27211860342512589 0 -0.037567888098569292 -0.28908607241114309 0 -0.06012261110763694 -0.28615067409103112 0 -0.037567888098569292 -0.28908607241114309 0 -0.06012261110763694 -0.28615067409103112 0 -0.048007569880217281 -0.30641232606460578 0 -0.06012261110763694 -0.28615067409103112 0 -0.048007569880217281 -0.30641232606460578 0 -0.06012261110763694 -0.28615067409103112 0 -0.060730957435007803 -0.31077804354276439 0 -0.06012261110763694 -0.28615067409103112 0 -0.060730957435007803 -0.31077804354276439 0 -0.048007569880217281 -0.30641232606460578 0 -0.060730957435007803 -0.31077804354276439 0 -0.048007569880217281 -0.30641232606460578 0 -0.052215725237038629 -0.31463967039064789 0 -0.037567888098569292 -0.28908607241114309 0 -0.048007569880217281 -0.30641232606460578 0 -0.031436669629853593 -0.30379003314680969 0 -0.048007569880217281 -0.30641232606460578 0 -0.031436669629853593 -0.30379003314680969 0 -0.034825433152268701 -0.31519083990475549 0 -0.022389060866950489 -0.3124270470085676 0 -0.01439339615126093 -0.29583388034497599 0 -0.031436669629853593 -0.30379003314680969 0 -0.022389060866950489 -0.3124270470085676 0 -0.01439339615126093 -0.29583388034497599 0 -0.031436669629853593 -0.30379003314680969 0 -0.022389060866950489 -0.3124270470085676 0 -0.034825433152268701 -0.31519083990475549 0 -0.022389060866950489 -0.3124270470085676 0 -0.01439339615126093 -0.29583388034497599 0 -0.0041558322323851371 -0.32375473999443188 0 -0.01439339615126093 -0.29583388034497599 0 -0.0041558322323851371 -0.32375473999443188 0 -0.01439339615126093 -0.29583388034497599 0 -0.0041558322323851371 -0.32375473999443188 0 0.00344479299637647 -0.30935306983003408 0 -0.007598068754001798 -0.281731738241005 0 0.00344479299637647 -0.30935306983003408 0 -0.01439339615126093 -0.29583388034497599 0 -0.007598068754001798 -0.281731738241005 0 0.00344479299637647 -0.30935306983003408 0 -0.01439339615126093 -0.29583388034497599 0 -0.007598068754001798 -0.281731738241005 0 -0.022919632676605468 -0.27258031580085579 0 -0.01439339615126093 -0.29583388034497599 0 -0.007598068754001798 -0.281731738241005 0 -0.037567888098569292 -0.28908607241114309 0 -0.01439339615126093 -0.29583388034497599 0 -0.022919632676605468 -0.27258031580085579 0 -0.01439339615126093 -0.29583388034497599 0 -0.022919632676605468 -0.27258031580085579 0 -0.037567888098569292 -0.28908607241114309 0 -0.031436669629853593 -0.30379003314680969 0 -0.01439339615126093 -0.29583388034497599 0 -0.007598068754001798 -0.281731738241005 0 -0.013502837657256119 -0.26696223523352758 0 -0.007598068754001798 -0.281731738241005 0 -0.022919632676605468 -0.27258031580085579 0 -0.013502837657256119 -0.26696223523352758 0 -0.007598068754001798 -0.281731738241005 0 -0.013502837657256119 -0.26696223523352758 0 0.0010283086524795269 -0.26382967217164027 0 -0.007598068754001798 -0.281731738241005 0 0.0010283086524795269 -0.26382967217164027 0 -0.013502837657256119 -0.26696223523352758 0 -0.01049806497833097 -0.25719584393063832 0 -0.019407606560510299 -0.25219273222605021 0 -0.013502837657256119 -0.26696223523352758 0 -0.01049806497833097 -0.25719584393063832 0 0.0010283086524795269 -0.26382967217164027 0 -0.0043729597489988326 -0.2517189646714269 0 -0.01049806497833097 -0.25719584393063832 0 0.0010283086524795269 -0.26382967217164027 0 -0.0043729597489988326 -0.2517189646714269 0 0.0010283086524795269 -0.26382967217164027 0 0.0013068550856104801 -0.24928749042306059 0 -0.01049806497833097 -0.25719584393063832 0 -0.019407606560510299 -0.25219273222605021 0 -0.0099631634673652304 -0.24891243009490241 0 -0.0043729597489988326 -0.2517189646714269 0 -0.01049806497833097 -0.25719584393063832 0 -0.0099631634673652304 -0.24891243009490241 0 -0.022919632676605468 -0.27258031580085579 0 -0.031445869201948723 -0.24932675125673501 0 -0.022919632676605468 -0.27258031580085579 0 -0.013502837657256119 -0.26696223523352758 0 -0.019407606560510299 -0.25219273222605021 0 -0.022919632676605468 -0.27258031580085579 0 -0.019407606560510299 -0.25219273222605021 0 -0.031445869201948723 -0.24932675125673501 0 -0.013502837657256119 -0.26696223523352758 0 -0.019407606560510299 -0.25219273222605021 0 -0.037248138634225443 -0.36291781122495459 0 -0.042029938868603761 -0.34257025739555441 0 -0.023777487425381109 -0.34693563001175692 0 -0.037248138634225443 -0.36291781122495459 0 -0.047924021449773771 -0.3537942400336217 0 -0.042029938868603761 -0.34257025739555441 0 -0.037248138634225443 -0.36291781122495459 0 -0.028816692144755209 -0.38220292260317063 0 -0.049128311882878653 -0.37764411325049119 0 -0.037248138634225443 -0.36291781122495459 0 -0.055696211078244739 -0.3620501710076805 0 -0.047924021449773771 -0.3537942400336217 0 -0.037248138634225443 -0.36291781122495459 0 -0.055696211078244739 -0.3620501710076805 0 -0.049128311882878653 -0.37764411325049119 0 -0.070659720058118547 -0.37283822781862203 0 -0.055696211078244739 -0.3620501710076805 0 -0.049128311882878653 -0.37764411325049119 0 -0.071413655567438922 -0.35270718361703868 0 -0.055696211078244739 -0.3620501710076805 0 -0.056721797218021161 -0.34763872050629718 0 -0.055696211078244739 -0.3620501710076805 0 -0.047924021449773771 -0.3537942400336217 0 -0.056721797218021161 -0.34763872050629718 0 -0.056721797218021161 -0.34763872050629718 0 -0.042029938868603761 -0.34257025739555441 0 -0.047924021449773771 -0.3537942400336217 0 -0.056721797218021161 -0.34763872050629718 0 -0.042029938868603761 -0.34257025739555441 0 -0.065049246623686149 -0.34386386381052081 0 -0.061339303762377118 -0.33540541299449772 0 -0.052237037645415221 -0.33895783054610851 0 -0.065049246623686149 -0.34386386381052081 0 -0.056721797218021161 -0.34763872050629718 0 -0.052237037645415221 -0.33895783054610851 0 -0.061339303762377118 -0.33540541299449772 0 -0.052237037645415221 -0.33895783054610851 0 -0.051597149552559597 -0.32403829570208081 0 -0.052237037645415221 -0.33895783054610851 0 -0.051597149552559597 -0.32403829570208081 0 -0.044407598541953509 -0.33212918544636322 0 -0.056721797218021161 -0.34763872050629718 0 -0.052237037645415221 -0.33895783054610851 0 -0.042029938868603761 -0.34257025739555441 0 -0.060730957435007803 -0.31077804354276439 0 -0.061339303762377118 -0.33540541299449772 0 -0.060730957435007803 -0.31077804354276439 0 -0.061339303762377118 -0.33540541299449772 0 -0.051597149552559597 -0.32403829570208081 0 -0.060730957435007803 -0.31077804354276439 0 -0.051597149552559597 -0.32403829570208081 0 -0.052215725237038629 -0.31463967039064789 0 -0.051597149552559597 -0.32403829570208081 0 -0.046460480220670182 -0.3207190584877056 0 -0.044407598541953509 -0.33212918544636322 0 -0.048007569880217281 -0.30641232606460578 0 -0.052215725237038629 -0.31463967039064789 0 -0.046460480220670182 -0.3207190584877056 0 -0.051597149552559597 -0.32403829570208081 0 -0.052215725237038629 -0.31463967039064789 0 -0.046460480220670182 -0.3207190584877056 0 -0.048007569880217281 -0.30641232606460578 0 -0.03589252865279921 -0.32667397803818132 0 -0.034825433152268701 -0.31519083990475549 0 -0.048007569880217281 -0.30641232606460578 0 -0.03589252865279921 -0.32667397803818132 0 -0.048007569880217281 -0.30641232606460578 0 -0.046460480220670182 -0.3207190584877056 0 -0.03589252865279921 -0.32667397803818132 0 -0.046460480220670182 -0.3207190584877056 0 -0.03589252865279921 -0.32667397803818132 0 -0.044407598541953509 -0.33212918544636322 0 -0.03589252865279921 -0.32667397803818132 0 -0.034825433152268701 -0.31519083990475549 0 -0.030384725582640909 -0.32902021367215872 0 -0.03589252865279921 -0.32667397803818132 0 -0.036526888372184388 -0.33707726272296401 0 -0.023777487425381109 -0.34693563001175692 0 -0.042029938868603761 -0.34257025739555441 0 -0.036526888372184388 -0.33707726272296401 0 -0.023777487425381109 -0.34693563001175692 0 -0.042029938868603761 -0.34257025739555441 0 -0.044407598541953509 -0.33212918544636322 0 -0.036526888372184388 -0.33707726272296401 0 -0.052237037645415221 -0.33895783054610851 0 -0.042029938868603761 -0.34257025739555441 0 -0.044407598541953509 -0.33212918544636322 0 -0.03589252865279921 -0.32667397803818132 0 -0.044407598541953509 -0.33212918544636322 0 -0.036526888372184388 -0.33707726272296401 0 -0.030384725582640909 -0.32902021367215872 0 -0.017649919648906321 -0.32575729286025928 0 -0.01367005991364877 -0.3378271707658792 0 -0.03589252865279921 -0.32667397803818132 0 -0.023777487425381109 -0.34693563001175692 0 -0.03589252865279921 -0.32667397803818132 0 -0.030384725582640909 -0.32902021367215872 0 -0.023777487425381109 -0.34693563001175692 0 -0.030384725582640909 -0.32902021367215872 0 -0.01367005991364877 -0.3378271707658792 0 -0.023777487425381109 -0.34693563001175692 0 -0.022389060866950489 -0.3124270470085676 0 -0.030384725582640909 -0.32902021367215872 0 -0.017649919648906321 -0.32575729286025928 0 -0.022389060866950489 -0.3124270470085676 0 -0.034825433152268701 -0.31519083990475549 0 -0.030384725582640909 -0.32902021367215872 0 -0.022389060866950489 -0.3124270470085676 0 -0.030384725582640909 -0.32902021367215872 0 -0.022389060866950489 -0.3124270470085676 0 -0.017649919648906321 -0.32575729286025928 0 -0.0041558322323851371 -0.32375473999443188 0 -0.0041558322323851371 -0.32375473999443188 0 -0.01367005991364877 -0.3378271707658792 0 0.0060817316864912267 -0.35167559964388762 0 -0.017649919648906321 -0.32575729286025928 0 -0.0041558322323851371 -0.32375473999443188 0 -0.01367005991364877 -0.3378271707658792 0 -0.0092786322858928079 -0.35201913231893561 0 -0.023777487425381109 -0.34693563001175692 0 -0.01166244619796435 -0.36719728198533341 0 -0.01367005991364877 -0.3378271707658792 0 -0.0092786322858928079 -0.35201913231893561 0 0.0060817316864912267 -0.35167559964388762 0 -0.0092786322858928079 -0.35201913231893561 0 -0.01166244619796435 -0.36719728198533341 0 0.0060817316864912267 -0.35167559964388762 0 -0.01367005991364877 -0.3378271707658792 0 -0.0092786322858928079 -0.35201913231893561 0 -0.023777487425381109 -0.34693563001175692 0 -0.023777487425381109 -0.34693563001175692 0 -0.01166244619796435 -0.36719728198533341 0 -0.037248138634225443 -0.36291781122495459 0 -0.023777487425381109 -0.34693563001175692 0 -0.025376191100581529 -0.36481341145630392 0 -0.025376191100581529 -0.36481341145630392 0 -0.01166244619796435 -0.36719728198533341 0 -0.028816692144755209 -0.38220292260317063 0 -0.01166244619796435 -0.36719728198533341 0 -0.028816692144755209 -0.38220292260317063 0 -0.037248138634225443 -0.36291781122495459 0 -0.025376191100581529 -0.36481341145630392 0 -0.028816692144755209 -0.38220292260317063 0 -0.01166244619796435 -0.36719728198533341 0 -0.0067708828369791377 -0.37537811707837748 0 -0.028816692144755209 -0.38220292260317063 0 -0.023777487425381109 -0.34693563001175692 0 -0.025376191100581529 -0.36481341145630392 0 -0.01166244619796435 -0.36719728198533341 0 -0.01166244619796435 -0.36719728198533341 0 -0.0067708828369791377 -0.37537811707837748 0 -0.01166244619796435 -0.36719728198533341 0 0.0060817316864912267 -0.35167559964388762 0 -0.01166244619796435 -0.36719728198533341 0 0.0060817316864912267 -0.35167559964388762 0 0.00096672044108670342 -0.36736290043080683 0 -0.0067708828369791377 -0.37537811707837748 0 0.00096672044108670342 -0.36736290043080683 0 0.0040116864224377441 -0.37451211819115138 0 -0.01166244619796435 -0.36719728198533341 0 -0.0067708828369791377 -0.37537811707837748 0 0.00096672044108670342 -0.36736290043080683 0 -0.0067708828369791377 -0.37537811707837748 0 0.0010500141983273851 -0.3827803795847553 0 0.0040116864224377441 -0.37451211819115138 0 -0.0067708828369791377 -0.37537811707837748 0 -0.01149445087347092 -0.39085657306947957 0 0.0010500141983273851 -0.3827803795847553 0 -0.01149445087347092 -0.39085657306947957 0 0.0010500141983273851 -0.3827803795847553 0 0.00074553601579404271 -0.39468089658491429 0 -0.01149445087347092 -0.39085657306947957 0 -0.0091132179642211524 -0.40335168505740548 0 -0.025741359248236818 -0.40419929775705837 0 -0.0091132179642211524 -0.40335168505740548 0 0.0025016804319674961 -0.40514504311622868 0 0.00074553601579404271 -0.39468089658491429 0 -0.01149445087347092 -0.39085657306947957 0 -0.0091132179642211524 -0.40335168505740548 0 0.00074553601579404271 -0.39468089658491429 0 -0.01149445087347092 -0.39085657306947957 0 -0.025741359248236818 -0.40419929775705837 0 -0.028816692144755209 -0.38220292260317063 0 -0.0067708828369791377 -0.37537811707837748 0 -0.01149445087347092 -0.39085657306947957 0 -0.028816692144755209 -0.38220292260317063 0 -0.028816692144755209 -0.38220292260317063 0 -0.045970938091545857 -0.39720856322100789 0 -0.049128311882878653 -0.37764411325049119 0 -0.028816692144755209 -0.38220292260317063 0 -0.045970938091545857 -0.39720856322100789 0 -0.025741359248236818 -0.40419929775705837 0 -0.045970938091545857 -0.39720856322100789 0 -0.038031870532743352 -0.40708148097946162 0 -0.025741359248236818 -0.40419929775705837 0 -0.028816692144755209 -0.38220292260317063 0 -0.045970938091545857 -0.39720856322100789 0 -0.045970938091545857 -0.39720856322100789 0 -0.050493478802614587 -0.40936437784456192 0 -0.038031870532743352 -0.40708148097946162 0 -0.050493478802614587 -0.40936437784456192 0 -0.069220196870653838 -0.3927327549116662 0 -0.056378171290382161 -0.38864698362751232 0 -0.050493478802614587 -0.40936437784456192 0 -0.069220196870653838 -0.3927327549116662 0 -0.045970938091545857 -0.39720856322100789 0 -0.056378171290382161 -0.38864698362751232 0 -0.050493478802614587 -0.40936437784456192 0 -0.045970938091545857 -0.39720856322100789 0 -0.056378171290382161 -0.38864698362751232 0 -0.049128311882878653 -0.37764411325049119 0 -0.070659720058118547 -0.37283822781862203 0 -0.056378171290382161 -0.38864698362751232 0 -0.049128311882878653 -0.37764411325049119 0 -0.053509305942839709 -0.43989742612664401 0 -0.065339388700692141 -0.44636637745583119 0 -0.067279792785671935 -0.41954956618374861 0 -0.05232857723150014 -0.42684920099373608 0 -0.053509305942839709 -0.43989742612664401 0 -0.067279792785671935 -0.41954956618374861 0 -0.05232857723150014 -0.42684920099373608 0 -0.045642073950492031 -0.42633688299813172 0 -0.046473909924631657 -0.43393748378508151 0 -0.05232857723150014 -0.42684920099373608 0 -0.046473909924631657 -0.43393748378508151 0 -0.053509305942839709 -0.43989742612664401 0 -0.050493478802614587 -0.40936437784456192 0 -0.069220196870653838 -0.3927327549116662 0 -0.067279792785671935 -0.41954956618374861 0 -0.05232857723150014 -0.42684920099373608 0 -0.050493478802614587 -0.40936437784456192 0 -0.067279792785671935 -0.41954956618374861 0 -0.05232857723150014 -0.42684920099373608 0 -0.050493478802614587 -0.40936437784456192 0 -0.045642073950492031 -0.42633688299813172 0 -0.050493478802614587 -0.40936437784456192 0 -0.031766760734573712 -0.4259960007774557 0 -0.050493478802614587 -0.40936437784456192 0 -0.039992330507452253 -0.42549709304511901 0 -0.045642073950492031 -0.42633688299813172 0 -0.050493478802614587 -0.40936437784456192 0 -0.038031870532743352 -0.40708148097946162 0 -0.031766760734573712 -0.4259960007774557 0 -0.050493478802614587 -0.40936437784456192 0 -0.031766760734573712 -0.4259960007774557 0 -0.039992330507452253 -0.42549709304511901 0 -0.025741359248236818 -0.40419929775705837 0 -0.038031870532743352 -0.40708148097946162 0 -0.031766760734573712 -0.4259960007774557 0 -0.031766760734573712 -0.4259960007774557 0 -0.039992330507452253 -0.42549709304511901 0 -0.034100404023457938 -0.42990183604510213 0 -0.039992330507452253 -0.42549709304511901 0 -0.045642073950492031 -0.42633688299813172 0 -0.038919454136009043 -0.43375720120353012 0 -0.046473909924631657 -0.43393748378508151 0 -0.038919454136009043 -0.43375720120353012 0 -0.041970138362317368 -0.44284670760336559 0 -0.045642073950492031 -0.42633688299813172 0 -0.046473909924631657 -0.43393748378508151 0 -0.038919454136009043 -0.43375720120353012 0 -0.038919454136009043 -0.43375720120353012 0 -0.034100404023457938 -0.42990183604510213 0 -0.03010081283609831 -0.43577726368827763 0 -0.038919454136009043 -0.43375720120353012 0 -0.03010081283609831 -0.43577726368827763 0 -0.041970138362317368 -0.44284670760336559 0 -0.039992330507452253 -0.42549709304511901 0 -0.038919454136009043 -0.43375720120353012 0 -0.034100404023457938 -0.42990183604510213 0 -0.031766760734573712 -0.4259960007774557 0 -0.034100404023457938 -0.42990183604510213 0 -0.03010081283609831 -0.43577726368827763 0 -0.031766760734573712 -0.4259960007774557 0 -0.02019125774345476 -0.43627646745118709 0 -0.031766760734573712 -0.4259960007774557 0 -0.011577496147159571 -0.42187661475934662 0 -0.031766760734573712 -0.4259960007774557 0 -0.02019125774345476 -0.43627646745118709 0 -0.011577496147159571 -0.42187661475934662 0 -0.031766760734573712 -0.4259960007774557 0 -0.03010081283609831 -0.43577726368827763 0 -0.02019125774345476 -0.43627646745118709 0 -0.025741359248236818 -0.40419929775705837 0 -0.031766760734573712 -0.4259960007774557 0 -0.011577496147159571 -0.42187661475934662 0 -0.0091132179642211524 -0.40335168505740548 0 -0.025741359248236818 -0.40419929775705837 0 -0.011577496147159571 -0.42187661475934662 0 -0.0091132179642211524 -0.40335168505740548 0 -0.011577496147159571 -0.42187661475934662 0 0.0025016804319674961 -0.40514504311622868 0 -0.011577496147159571 -0.42187661475934662 0 0.0025016804319674961 -0.40514504311622868 0 0.0086117684402545348 -0.41775722874123722 0 -0.011577496147159571 -0.42187661475934662 0 0.0086117684402545348 -0.41775722874123722 0 -0.011577496147159571 -0.42187661475934662 0 0.0086117684402545348 -0.41775722874123722 0 0.001674167645876754 -0.42911232185463949 0 -0.02019125774345476 -0.43627646745118709 0 -0.0067765288699597947 -0.43328047637030698 0 -0.0076662571694472914 -0.44027114821051822 0 -0.02019125774345476 -0.43627646745118709 0 -0.011577496147159571 -0.42187661475934662 0 -0.0067765288699597947 -0.43328047637030698 0 -0.011577496147159571 -0.42187661475934662 0 -0.0067765288699597947 -0.43328047637030698 0 0.001674167645876754 -0.42911232185463949 0 -0.0067765288699597947 -0.43328047637030698 0 -0.0003296034887381483 -0.43693858821846748 0 0.001674167645876754 -0.42911232185463949 0 -0.0067765288699597947 -0.43328047637030698 0 -0.0003296034887381483 -0.43693858821846748 0 -0.0076662571694472914 -0.44027114821051822 0 -0.0003296034887381483 -0.43693858821846748 0 -0.0076662571694472914 -0.44027114821051822 0 -0.0068896025298082631 -0.44658062186466119 0 -0.0076662571694472914 -0.44027114821051822 0 -0.0086157547523360994 -0.44655693412491881 0 -0.0068896025298082631 -0.44658062186466119 0 -0.02019125774345476 -0.43627646745118709 0 -0.0076662571694472914 -0.44027114821051822 0 -0.0086157547523360994 -0.44655693412491881 0 -0.02019125774345476 -0.43627646745118709 0 -0.0086157547523360994 -0.44655693412491881 0 -0.0068896025298082631 -0.44658062186466119 0 -0.0048972670816622484 -0.45617218807045912 0 0.001836813946430961 -0.45364484976599062 0 -0.0048972670816622484 -0.45617218807045912 0 -0.0048593620346090282 -0.46423594082265429 0 0.0025144738502857859 -0.4608460050054406 0 -0.0048972670816622484 -0.45617218807045912 0 0.0025144738502857859 -0.4608460050054406 0 0.001836813946430961 -0.45364484976599062 0 -0.0048593620346090282 -0.46423594082265429 0 -0.01392101693202602 -0.45998012260665427 0 -0.01097908983574015 -0.47282447710054132 0 -0.0048972670816622484 -0.45617218807045912 0 -0.0048593620346090282 -0.46423594082265429 0 -0.01392101693202602 -0.45998012260665427 0 -0.0068896025298082631 -0.44658062186466119 0 -0.0048972670816622484 -0.45617218807045912 0 -0.01392101693202602 -0.45998012260665427 0 -0.01392101693202602 -0.45998012260665427 0 -0.023533360558302189 -0.46953604863129672 0 -0.031789408539264173 -0.45771287093711049 0 -0.0068896025298082631 -0.44658062186466119 0 -0.01392101693202602 -0.45998012260665427 0 -0.031789408539264173 -0.45771287093711049 0 -0.01392101693202602 -0.45998012260665427 0 -0.01097908983574015 -0.47282447710054132 0 -0.023533360558302189 -0.46953604863129672 0 -0.023533360558302189 -0.46953604863129672 0 -0.037321619602049397 -0.47317079898607772 0 -0.031789408539264173 -0.45771287093711049 0 -0.0086157547523360994 -0.44655693412491881 0 -0.0068896025298082631 -0.44658062186466119 0 -0.031789408539264173 -0.45771287093711049 0 -0.02019125774345476 -0.43627646745118709 0 -0.0086157547523360994 -0.44655693412491881 0 -0.031789408539264173 -0.45771287093711049 0 -0.03010081283609831 -0.43577726368827763 0 -0.02019125774345476 -0.43627646745118709 0 -0.031789408539264173 -0.45771287093711049 0 -0.0068896025298082631 -0.44658062186466119 0 -0.031789408539264173 -0.45771287093711049 0 -0.006937674979134778 -0.5 0 -3.3139809501259172e-05 -0.48447452236021971 0 -0.023655667882431178 -0.48399197352609957 0 -3.3139809501259172e-05 -0.48447452236021971 0 -0.01097908983574015 -0.47282447710054132 0 -0.023655667882431178 -0.48399197352609957 0 -3.3139809501259172e-05 -0.48447452236021971 0 -0.01097908983574015 -0.47282447710054132 0 0.0029860898260974859 -0.47135691133017638 0 -0.0048593620346090282 -0.46423594082265429 0 -0.01097908983574015 -0.47282447710054132 0 0.0029860898260974859 -0.47135691133017638 0 -0.01097908983574015 -0.47282447710054132 0 -0.023533360558302189 -0.46953604863129672 0 -0.023655667882431178 -0.48399197352609957 0 -0.023533360558302189 -0.46953604863129672 0 -0.023655667882431178 -0.48399197352609957 0 -0.037321619602049397 -0.47317079898607772 0 -0.006937674979134778 -0.5 0 -0.023655667882431178 -0.48399197352609957 0 -0.034198127754933798 -0.5 0 -0.023655667882431178 -0.48399197352609957 0 -0.034198127754933798 -0.5 0 -0.050529481556573663 -0.48573058773394029 0 -0.023655667882431178 -0.48399197352609957 0 -0.037321619602049397 -0.47317079898607772 0 -0.050529481556573663 -0.48573058773394029 0 -0.056689214548720078 -0.46884512000955991 0 -0.050529481556573663 -0.48573058773394029 0 -0.063398984615712334 -0.47318318872791348 0 -0.037321619602049397 -0.47317079898607772 0 -0.056689214548720078 -0.46884512000955991 0 -0.050529481556573663 -0.48573058773394029 0 -0.061458580530732831 -0.499999999999996 0 -0.063398984615712334 -0.47318318872791348 0 -0.050529481556573663 -0.48573058773394029 0 -0.061458580530732831 -0.499999999999996 0 -0.063398984615712334 -0.47318318872791348 0 -0.034198127754933798 -0.5 0 -0.050529481556573663 -0.48573058773394029 0 -0.061458580530732831 -0.499999999999996 0 -0.03010081283609831 -0.43577726368827763 0 -0.041970138362317368 -0.44284670760336559 0 -0.031789408539264173 -0.45771287093711049 0 -0.041970138362317368 -0.44284670760336559 0 -0.031789408539264173 -0.45771287093711049 0 -0.050466530020790247 -0.45253119349190762 0 -0.056689214548720078 -0.46884512000955991 0 -0.031789408539264173 -0.45771287093711049 0 -0.050466530020790247 -0.45253119349190762 0 -0.056689214548720078 -0.46884512000955991 0 -0.031789408539264173 -0.45771287093711049 0 -0.037321619602049397 -0.47317079898607772 0 -0.056689214548720078 -0.46884512000955991 0 -0.031789408539264173 -0.45771287093711049 0 -0.056689214548720078 -0.46884512000955991 0 -0.050466530020790247 -0.45253119349190762 0 -0.065339388700692141 -0.44636637745583119 0 -0.056689214548720078 -0.46884512000955991 0 -0.065339388700692141 -0.44636637745583119 0 -0.063398984615712334 -0.47318318872791348 0 -0.050466530020790247 -0.45253119349190762 0 -0.053509305942839709 -0.43989742612664401 0 -0.065339388700692141 -0.44636637745583119 0 -0.046473909924631657 -0.43393748378508151 0 -0.041970138362317368 -0.44284670760336559 0 -0.053509305942839709 -0.43989742612664401 0 -0.041970138362317368 -0.44284670760336559 0 -0.050466530020790247 -0.45253119349190762 0 -0.053509305942839709 -0.43989742612664401 0 -0.065339388700692141 -0.44636637745583119 0 -0.063398984615712334 -0.47318318872791348 0 -0.065339388700692141 -0.44636637745583119 0 -0.083336049127357634 -0.46366153031703422 0 -0.063398984615712334 -0.47318318872791348 0 -0.083336049127357634 -0.46366153031703422 0 -0.08905138685954829 -0.44045305479695102 0 -0.1062189298086359 -0.46237958126116691 0 -0.065339388700692141 -0.44636637745583119 0 -0.083336049127357634 -0.46366153031703422 0 -0.08905138685954829 -0.44045305479695102 0 -0.061458580530732831 -0.499999999999996 0 -0.063398984615712334 -0.47318318872791348 0 -0.079422088950148823 -0.48251904992155459 0 -0.061458580530732831 -0.499999999999996 0 -0.079422088950148823 -0.48251904992155459 0 -0.085611964643091121 -0.5 0 -0.083336049127357634 -0.46366153031703422 0 -0.063398984615712334 -0.47318318872791348 0 -0.079422088950148823 -0.48251904992155459 0 -0.083336049127357634 -0.46366153031703422 0 -0.079422088950148823 -0.48251904992155459 0 -0.097240944961506121 -0.48063018870583069 0 -0.079422088950148823 -0.48251904992155459 0 -0.085611964643091121 -0.5 0 -0.097240944961506121 -0.48063018870583069 0 -0.085611964643091121 -0.5 0 -0.097240944961506121 -0.48063018870583069 0 -0.1097653487554494 -0.49999999999999989 0 -0.097240944961506121 -0.48063018870583069 0 -0.1154565249541514 -0.48295122862051942 0 -0.1097653487554494 -0.49999999999999989 0 -0.083336049127357634 -0.46366153031703422 0 -0.097240944961506121 -0.48063018870583069 0 -0.1062189298086359 -0.46237958126116691 0 -0.097240944961506121 -0.48063018870583069 0 -0.1154565249541514 -0.48295122862051942 0 -0.1062189298086359 -0.46237958126116691 0 -0.12733660258664531 -0.47060890535621841 0 -0.1303414095750515 -0.49490809672000702 0 -0.1154565249541514 -0.48295122862051942 0 -0.12733660258664531 -0.47060890535621841 0 -0.1154565249541514 -0.48295122862051942 0 -0.1062189298086359 -0.46237958126116691 0 -0.1303414095750515 -0.49490809672000702 0 -0.13056492341106909 -0.5 0 -0.1097653487554494 -0.49999999999999989 0 -0.1303414095750515 -0.49490809672000702 0 -0.1097653487554494 -0.49999999999999989 0 -0.1303414095750515 -0.49490809672000702 0 -0.1154565249541514 -0.48295122862051942 0 -0.1097653487554494 -0.49999999999999989 0 -0.08905138685954829 -0.44045305479695102 0 -0.1062189298086359 -0.46237958126116691 0 -0.12275342716221251 -0.44283471985438411 0 -0.12733660258664531 -0.47060890535621841 0 -0.1062189298086359 -0.46237958126116691 0 -0.12275342716221251 -0.44283471985438411 0 -0.08905138685954829 -0.44045305479695102 0 -0.12275342716221251 -0.44283471985438411 0 -0.1069963181819559 -0.41691863061983497 0 -0.13010444046654279 -0.41907067889225558 0 -0.12275342716221251 -0.44283471985438411 0 -0.1069963181819559 -0.41691863061983497 0 -0.08905138685954829 -0.44045305479695102 0 -0.1069963181819559 -0.41691863061983497 0 -0.086853270416777595 -0.42013907471089751 0 -0.1069963181819559 -0.41691863061983497 0 -0.089368402259990237 -0.40215151293077178 0 -0.086853270416777595 -0.42013907471089751 0 -0.1069963181819559 -0.41691863061983497 0 -0.1074526090126644 -0.40026910664022369 0 -0.089368402259990237 -0.40215151293077178 0 -0.1253750294698868 -0.40262164292467523 0 -0.13010444046654279 -0.41907067889225558 0 -0.1069963181819559 -0.41691863061983497 0 -0.1253750294698868 -0.40262164292467523 0 -0.1069963181819559 -0.41691863061983497 0 -0.1074526090126644 -0.40026910664022369 0 -0.1205549642197935 -0.38875083364918939 0 -0.1033403783470583 -0.38444919715916731 0 -0.1074526090126644 -0.40026910664022369 0 -0.1253750294698868 -0.40262164292467523 0 -0.1205549642197935 -0.38875083364918939 0 -0.1074526090126644 -0.40026910664022369 0 -0.1194541056539304 -0.37443377973389702 0 -0.1033403783470583 -0.38444919715916731 0 -0.1194541056539304 -0.37443377973389702 0 -0.1205549642197935 -0.38875083364918939 0 -0.1033403783470583 -0.38444919715916731 0 -0.1194541056539304 -0.37443377973389702 0 -0.1078019417455338 -0.37365703779062748 0 -0.1033403783470583 -0.38444919715916731 0 -0.132159492578835 -0.37789609771469967 0 -0.1194541056539304 -0.37443377973389702 0 -0.1205549642197935 -0.38875083364918939 0 -0.1078019417455338 -0.37365703779062748 0 -0.1033403783470583 -0.38444919715916731 0 -0.085756586414065694 -0.3780464124058347 0 -0.1033403783470583 -0.38444919715916731 0 -0.1074526090126644 -0.40026910664022369 0 -0.089368402259990237 -0.40215151293077178 0 -0.089368402259990237 -0.40215151293077178 0 -0.085756586414065694 -0.3780464124058347 0 -0.069220196870653838 -0.3927327549116662 0 -0.1033403783470583 -0.38444919715916731 0 -0.089368402259990237 -0.40215151293077178 0 -0.085756586414065694 -0.3780464124058347 0 -0.070659720058118547 -0.37283822781862203 0 -0.085756586414065694 -0.3780464124058347 0 -0.069220196870653838 -0.3927327549116662 0 -0.085756586414065694 -0.3780464124058347 0 -0.069220196870653838 -0.3927327549116662 0 -0.070659720058118547 -0.37283822781862203 0 -0.069220196870653838 -0.3927327549116662 0 -0.070659720058118547 -0.37283822781862203 0 -0.056378171290382161 -0.38864698362751232 0 -0.069220196870653838 -0.3927327549116662 0 -0.069220196870653838 -0.3927327549116662 0 -0.067279792785671935 -0.41954956618374861 0 -0.089368402259990237 -0.40215151293077178 0 -0.069220196870653838 -0.3927327549116662 0 -0.067279792785671935 -0.41954956618374861 0 -0.065339388700692141 -0.44636637745583119 0 -0.08905138685954829 -0.44045305479695102 0 -0.067279792785671935 -0.41954956618374861 0 -0.065339388700692141 -0.44636637745583119 0 -0.067279792785671935 -0.41954956618374861 0 -0.08905138685954829 -0.44045305479695102 0 -0.067279792785671935 -0.41954956618374861 0 -0.086853270416777595 -0.42013907471089751 0 -0.089368402259990237 -0.40215151293077178 0 -0.067279792785671935 -0.41954956618374861 0 -0.086853270416777595 -0.42013907471089751 0 -0.092226900508284512 -0.083558932085990023 0 -0.068498885466608886 -0.085592445233651421 0 -0.083481188857154637 -0.1074110701024908 0 -0.092226900508284512 -0.083558932085990023 0 -0.0721027931917574 -0.065656751876716976 0 -0.1009726121594183 -0.059706794069490518 0 -0.0721027931917574 -0.065656751876716976 0 -0.1009726121594183 -0.059706794069490518 0 -0.092226900508284512 -0.083558932085990023 0 -0.0721027931917574 -0.065656751876716976 0 -0.068498885466608886 -0.085592445233651421 0 -0.083481188857154637 -0.1074110701024908 0 -0.06014898406759641 -0.12014721724954031 0 -0.051450570551751847 -0.099728762419118044 0 -0.068498885466608886 -0.085592445233651421 0 -0.083481188857154637 -0.1074110701024908 0 -0.051450570551751847 -0.099728762419118044 0 -0.083481188857154637 -0.1074110701024908 0 -0.06014898406759641 -0.12014721724954031 0 -0.074735477206024803 -0.13126320811899139 0 -0.083481188857154637 -0.1074110701024908 0 -0.1029342503858716 -0.1069785153068346 0 -0.09482153853260411 -0.12945071588027141 0 -0.083481188857154637 -0.1074110701024908 0 -0.074735477206024803 -0.13126320811899139 0 -0.083481188857154637 -0.1074110701024908 0 -0.074735477206024803 -0.13126320811899139 0 -0.09482153853260411 -0.12945071588027141 0 -0.092226900508284512 -0.083558932085990023 0 -0.083481188857154637 -0.1074110701024908 0 -0.10548616849529829 -0.091993176670340682 0 -0.092226900508284512 -0.083558932085990023 0 -0.083481188857154637 -0.1074110701024908 0 -0.1029342503858716 -0.1069785153068346 0 -0.1188864067751853 -0.098418370061462673 0 -0.10548616849529829 -0.091993176670340682 0 -0.083481188857154637 -0.1074110701024908 0 -0.1029342503858716 -0.1069785153068346 0 -0.10548616849529829 -0.091993176670340682 0 -0.1029342503858716 -0.1069785153068346 0 -0.1142556035628462 -0.1281335200636762 0 -0.1029342503858716 -0.1069785153068346 0 -0.09482153853260411 -0.12945071588027141 0 -0.1142556035628462 -0.1281335200636762 0 -0.1195898713899016 -0.1137685962941125 0 -0.1142556035628462 -0.1281335200636762 0 -0.13510539055085111 -0.129598756104846 0 -0.1029342503858716 -0.1069785153068346 0 -0.1195898713899016 -0.1137685962941125 0 -0.1142556035628462 -0.1281335200636762 0 -0.1029342503858716 -0.1069785153068346 0 -0.1195898713899016 -0.1137685962941125 0 -0.1188864067751853 -0.098418370061462673 0 -0.1195898713899016 -0.1137685962941125 0 -0.1188864067751853 -0.098418370061462673 0 -0.13420893086787869 -0.10917636936858929 0 -0.1188864067751853 -0.098418370061462673 0 -0.11161136149055211 -0.078080783962452216 0 -0.13570169370036059 -0.09019182369339461 0 -0.1188864067751853 -0.098418370061462673 0 -0.10548616849529829 -0.091993176670340682 0 -0.11161136149055211 -0.078080783962452216 0 -0.092226900508284512 -0.083558932085990023 0 -0.10548616849529829 -0.091993176670340682 0 -0.11161136149055211 -0.078080783962452216 0 -0.092226900508284512 -0.083558932085990023 0 -0.11161136149055211 -0.078080783962452216 0 -0.1009726121594183 -0.059706794069490518 0 -0.11161136149055211 -0.078080783962452216 0 -0.1009726121594183 -0.059706794069490518 0 -0.10741728672505341 -0.058378571617187958 0 -0.092226900508284512 -0.083558932085990023 0 -0.1009726121594183 -0.059706794069490518 0 -0.11161136149055211 -0.078080783962452216 0 -0.10741728672505341 -0.058378571617187958 0 -0.13075188493785719 -0.071803221011781271 0 -0.10741728672505341 -0.058378571617187958 0 -0.13075188493785719 -0.071803221011781271 0 -0.1134224499588167 -0.048412055850026448 0 -0.10741728672505341 -0.058378571617187958 0 -0.12541429573023419 -0.054669457806775512 0 -0.10741728672505341 -0.058378571617187958 0 -0.13075188493785719 -0.071803221011781271 0 -0.12541429573023419 -0.054669457806775512 0 -0.10741728672505341 -0.058378571617187958 0 -0.12541429573023419 -0.054669457806775512 0 -0.1134224499588167 -0.048412055850026448 0 -0.12119793105417929 -0.039973945387982247 0 -0.12541429573023419 -0.054669457806775512 0 -0.12119793105417929 -0.039973945387982247 0 -0.1225528045947059 -0.027303398981776229 0 -0.1287656820004725 -0.033813725329979172 0 -0.12119793105417929 -0.039973945387982247 0 -0.110585293774644 -0.033490172970906042 0 -0.1225528045947059 -0.027303398981776229 0 -0.1134224499588167 -0.048412055850026448 0 -0.12119793105417929 -0.039973945387982247 0 -0.110585293774644 -0.033490172970906042 0 -0.1134224499588167 -0.048412055850026448 0 -0.110585293774644 -0.033490172970906042 0 -0.1024974425099726 -0.055548131467280493 0 -0.110585293774644 -0.033490172970906042 0 -0.1024974425099726 -0.055548131467280493 0 -0.084362599916840642 -0.045114958313034678 0 -0.110585293774644 -0.033490172970906042 0 -0.092450451181512835 -0.023056999816659169 0 -0.084362599916840642 -0.045114958313034678 0 -0.110585293774644 -0.033490172970906042 0 -0.1024974425099726 -0.055548131467280493 0 -0.1009726121594183 -0.059706794069490518 0 -0.1024974425099726 -0.055548131467280493 0 -0.084362599916840642 -0.045114958313034678 0 -0.1009726121594183 -0.059706794069490518 0 -0.1024974425099726 -0.055548131467280493 0 -0.10741728672505341 -0.058378571617187958 0 -0.1009726121594183 -0.059706794069490518 0 -0.1024974425099726 -0.055548131467280493 0 -0.1024974425099726 -0.055548131467280493 0 -0.10741728672505341 -0.058378571617187958 0 -0.1009726121594183 -0.059706794069490518 0 -0.10741728672505341 -0.058378571617187958 0 -0.1134224499588167 -0.048412055850026448 0 -0.1024974425099726 -0.055548131467280493 0 -0.10741728672505341 -0.058378571617187958 0 -0.1207610724454848 -0.0057378199361568828 0 -0.11867314503931629 -0.01143221447453192 0 -0.095578112592554249 0.001926486421287764 0 -0.1207610724454848 -0.0057378199361568828 0 -0.12713940856238881 -0.0076790342467774756 0 -0.11867314503931629 -0.01143221447453192 0 -0.12713940856238881 -0.0076790342467774756 0 -0.12694403342152311 -0.013481873708208761 0 -0.11867314503931629 -0.01143221447453192 0 -0.12713940856238881 -0.0076790342467774756 0 -0.1207610724454848 -0.0057378199361568828 0 -0.11867314503931629 -0.01143221447453192 0 -0.12713940856238881 -0.0076790342467774756 0 -0.11867314503931629 -0.01143221447453192 0 -0.12694403342152311 -0.013481873708208761 0 -0.12721118461146169 -0.019307905818047141 0 -0.1207610724454848 -0.0057378199361568828 0 -0.11867314503931629 -0.01143221447453192 0 -0.110585293774644 -0.033490172970906042 0 -0.11867314503931629 -0.01143221447453192 0 -0.1225528045947059 -0.027303398981776229 0 -0.11867314503931629 -0.01143221447453192 0 -0.1225528045947059 -0.027303398981776229 0 -0.12721118461146169 -0.019307905818047141 0 -0.110585293774644 -0.033490172970906042 0 -0.11867314503931629 -0.01143221447453192 0 -0.110585293774644 -0.033490172970906042 0 -0.11867314503931629 -0.01143221447453192 0 -0.092450451181512835 -0.023056999816659169 0 -0.11867314503931629 -0.01143221447453192 0 -0.092450451181512835 -0.023056999816659169 0 -0.1207610724454848 -0.0057378199361568828 0 -0.095578112592554249 0.001926486421287764 0 -0.11867314503931629 -0.01143221447453192 0 -0.092450451181512835 -0.023056999816659169 0 -0.095578112592554249 0.001926486421287764 0 -0.092450451181512835 -0.023056999816659169 0 -0.075698985327375984 -0.01499575284052187 0 -0.095578112592554249 0.001926486421287764 0 -0.075698985327375984 -0.01499575284052187 0 -0.066018597316211639 -0.004128755832913996 0 -0.095578112592554249 0.001926486421287764 0 -0.092450451181512835 -0.023056999816659169 0 -0.067679690860335859 -0.024505774440656491 0 -0.075698985327375984 -0.01499575284052187 0 -0.092450451181512835 -0.023056999816659169 0 -0.066227757323709724 -0.034681785158787143 0 -0.092450451181512835 -0.023056999816659169 0 -0.067679690860335859 -0.024505774440656491 0 -0.066227757323709724 -0.034681785158787143 0 -0.067679690860335859 -0.024505774440656491 0 -0.063694021957130351 -0.033224099509145663 0 -0.060483006505215917 -0.018760106725269739 0 -0.067679690860335859 -0.024505774440656491 0 -0.066227757323709724 -0.034681785158787143 0 -0.063694021957130351 -0.033224099509145663 0 -0.067679690860335859 -0.024505774440656491 0 -0.075698985327375984 -0.01499575284052187 0 -0.060483006505215917 -0.018760106725269739 0 -0.075698985327375984 -0.01499575284052187 0 -0.066018597316211639 -0.004128755832913996 0 -0.060483006505215917 -0.018760106725269739 0 -0.0721027931917574 -0.065656751876716976 0 -0.1009726121594183 -0.059706794069490518 0 -0.084362599916840642 -0.045114958313034678 0 -0.1024974425099726 -0.055548131467280493 0 -0.084362599916840642 -0.045114958313034678 0 -0.092450451181512835 -0.023056999816659169 0 -0.084362599916840642 -0.045114958313034678 0 -0.066227757323709724 -0.034681785158787143 0 -0.084362599916840642 -0.045114958313034678 0 -0.066227757323709724 -0.034681785158787143 0 -0.060901750699622781 -0.051736614937119653 0 -0.084362599916840642 -0.045114958313034678 0 -0.066227757323709724 -0.034681785158787143 0 -0.066227757323709724 -0.034681785158787143 0 -0.063694021957130351 -0.033224099509145663 0 -0.0721027931917574 -0.065656751876716976 0 -0.084362599916840642 -0.045114958313034678 0 -0.060901750699622781 -0.051736614937119653 0 -0.060901750699622781 -0.051736614937119653 0 -0.044687718547993867 -0.044230702153607471 0 -0.043232974224096041 -0.071606709683941297 0 -0.066227757323709724 -0.034681785158787143 0 -0.063694021957130351 -0.033224099509145663 0 -0.044687718547993867 -0.044230702153607471 0 -0.066227757323709724 -0.034681785158787143 0 -0.044687718547993867 -0.044230702153607471 0 -0.066227757323709724 -0.034681785158787143 0 -0.060901750699622781 -0.051736614937119653 0 -0.044687718547993867 -0.044230702153607471 0 -0.063694021957130351 -0.033224099509145663 0 -0.044687718547993867 -0.044230702153607471 0 -0.047196307948246981 -0.026649125848240508 0 -0.044687718547993867 -0.044230702153607471 0 -0.028078966169070029 -0.028458313589475821 0 -0.02480322477966982 -0.052978278910547849 0 -0.044687718547993867 -0.044230702153607471 0 -0.047196307948246981 -0.026649125848240508 0 -0.028078966169070029 -0.028458313589475821 0 -0.044687718547993867 -0.044230702153607471 0 -0.02480322477966982 -0.052978278910547849 0 -0.043232974224096041 -0.071606709683941297 0 -0.066018597316211639 -0.004128755832913996 0 -0.060483006505215917 -0.018760106725269739 0 -0.044641204068414167 -0.0073907901472365376 0 -0.063694021957130351 -0.033224099509145663 0 -0.047196307948246981 -0.026649125848240508 0 -0.060483006505215917 -0.018760106725269739 0 -0.047196307948246981 -0.026649125848240508 0 -0.060483006505215917 -0.018760106725269739 0 -0.044641204068414167 -0.0073907901472365376 0 -0.047196307948246981 -0.026649125848240508 0 -0.044641204068414167 -0.0073907901472365376 0 -0.028078966169070029 -0.028458313589475821 0 -0.044641204068414167 -0.0073907901472365376 0 -0.019808520525367499 -0.0042707229380058746 0 -0.028078966169070029 -0.028458313589475821 0 -0.019808520525367499 -0.0042707229380058746 0 -0.028078966169070029 -0.028458313589475821 0 -0.0030060452987310032 -0.01851748451798883 0 -0.019808520525367499 -0.0042707229380058746 0 -0.028078966169070029 -0.028458313589475821 0 -0.028078966169070029 -0.028458313589475821 0 -0.0030060452987310032 -0.01851748451798883 0 -0.011918936913827999 -0.038665886338667382 0 -0.0030060452987310032 -0.01851748451798883 0 -0.011918936913827999 -0.038665886338667382 0 0.0043743383666140544 -0.034901800016082528 0 -0.019808520525367499 -0.0042707229380058746 0 -0.0030060452987310032 -0.01851748451798883 0 -0.0026022678282156138 0.0030506715727892961 0 -0.028078966169070029 -0.028458313589475821 0 -0.02480322477966982 -0.052978278910547849 0 -0.011918936913827999 -0.038665886338667382 0 -0.0049944084449103279 -0.056229233753622578 0 0.0043743383666140544 -0.034901800016082528 0 -0.011918936913827999 -0.038665886338667382 0 -0.0049944084449103279 -0.056229233753622578 0 0.0043743383666140544 -0.034901800016082528 0 -0.02480322477966982 -0.052978278910547849 0 -0.0049944084449103279 -0.056229233753622578 0 -0.01436315525643422 -0.077556667491162926 0 -0.02480322477966982 -0.052978278910547849 0 -0.011918936913827999 -0.038665886338667382 0 -0.0049944084449103279 -0.056229233753622578 0 -0.0049944084449103279 -0.056229233753622578 0 -0.00063661575850596517 -0.068356521312683952 0 -0.01436315525643422 -0.077556667491162926 0 -0.0049944084449103279 -0.056229233753622578 0 -0.01436315525643422 -0.077556667491162926 0 -0.00063661575850596517 -0.068356521312683952 0 -0.01436315525643422 -0.077556667491162926 0 -0.0030389219259473739 -0.07989054809467884 0 -0.0030389219259473739 -0.07989054809467884 0 -0.0086750527447154169 -0.092982315577749552 0 0.0047930415549946401 -0.09357784811120172 0 -0.01436315525643422 -0.077556667491162926 0 -0.0030389219259473739 -0.07989054809467884 0 -0.0086750527447154169 -0.092982315577749552 0 -0.01436315525643422 -0.077556667491162926 0 -0.0030389219259473739 -0.07989054809467884 0 -0.01436315525643422 -0.077556667491162926 0 -0.0086750527447154169 -0.092982315577749552 0 -0.025447856907910769 -0.1027903774769479 0 -0.01436315525643422 -0.077556667491162926 0 -0.03287587509250077 -0.087171042864596246 0 -0.025447856907910769 -0.1027903774769479 0 -0.01436315525643422 -0.077556667491162926 0 -0.043232974224096041 -0.071606709683941297 0 -0.03287587509250077 -0.087171042864596246 0 -0.01436315525643422 -0.077556667491162926 0 -0.025447856907910769 -0.1027903774769479 0 -0.01436315525643422 -0.077556667491162926 0 -0.043232974224096041 -0.071606709683941297 0 -0.02480322477966982 -0.052978278910547849 0 -0.01436315525643422 -0.077556667491162926 0 -0.043232974224096041 -0.071606709683941297 0 -0.043232974224096041 -0.071606709683941297 0 -0.03287587509250077 -0.087171042864596246 0 -0.051450570551751847 -0.099728762419118044 0 -0.068498885466608886 -0.085592445233651421 0 -0.043232974224096041 -0.071606709683941297 0 -0.051450570551751847 -0.099728762419118044 0 -0.0721027931917574 -0.065656751876716976 0 -0.060901750699622781 -0.051736614937119653 0 -0.043232974224096041 -0.071606709683941297 0 -0.0721027931917574 -0.065656751876716976 0 -0.068498885466608886 -0.085592445233651421 0 -0.043232974224096041 -0.071606709683941297 0 -0.0721027931917574 -0.065656751876716976 0 -0.043232974224096041 -0.071606709683941297 0 -0.06014898406759641 -0.12014721724954031 0 -0.051450570551751847 -0.099728762419118044 0 -0.036532558559386891 -0.12802408746273319 0 -0.03287587509250077 -0.087171042864596246 0 -0.051450570551751847 -0.099728762419118044 0 -0.025447856907910769 -0.1027903774769479 0 -0.051450570551751847 -0.099728762419118044 0 -0.025447856907910769 -0.1027903774769479 0 -0.036532558559386891 -0.12802408746273319 0 -0.025447856907910769 -0.1027903774769479 0 -0.01277641336921705 -0.12863356313899679 0 -0.036532558559386891 -0.12802408746273319 0 -0.025447856907910769 -0.1027903774769479 0 -0.036532558559386891 -0.12802408746273319 0 -0.0086750527447154169 -0.092982315577749552 0 0.0024860517225809269 -0.1096202054044471 0 0.0047930415549946401 -0.09357784811120172 0 -0.0086750527447154169 -0.092982315577749552 0 -0.025447856907910769 -0.1027903774769479 0 0.0024860517225809269 -0.1096202054044471 0 -0.025447856907910769 -0.1027903774769479 0 -0.01277641336921705 -0.12863356313899679 0 0.0024860517225809269 -0.1096202054044471 0 -0.01277641336921705 -0.12863356313899679 0 -0.0029556637671569971 -0.15216148491650031 0 0.01480640462816874 -0.1328272420280466 0 -0.01277641336921705 -0.12863356313899679 0 -0.02550492484331077 -0.145648247218539 0 -0.036532558559386891 -0.12802408746273319 0 -0.02550492484331077 -0.145648247218539 0 -0.0029556637671569971 -0.15216148491650031 0 -0.027642728309929941 -0.1661643031259461 0 -0.01277641336921705 -0.12863356313899679 0 -0.02550492484331077 -0.145648247218539 0 -0.0029556637671569971 -0.15216148491650031 0 -0.0029556637671569971 -0.15216148491650031 0 -0.0076202790813661636 -0.17200120550354309 0 -0.027642728309929941 -0.1661643031259461 0 -0.0076202790813661636 -0.17200120550354309 0 -0.005735718211671942 -0.18998355091012581 0 0.0091483747768656282 -0.18869647514528251 0 -0.0076202790813661636 -0.17200120550354309 0 -0.005735718211671942 -0.18998355091012581 0 -0.017433686554388528 -0.18764302003121011 0 -0.0076202790813661636 -0.17200120550354309 0 -0.021202058692931819 -0.1772084199997038 0 -0.017433686554388528 -0.18764302003121011 0 -0.021202058692931819 -0.1772084199997038 0 -0.029716187907134772 -0.18549561341716189 0 -0.027642728309929941 -0.1661643031259461 0 -0.021202058692931819 -0.1772084199997038 0 -0.029716187907134772 -0.18549561341716189 0 -0.017433686554388528 -0.18764302003121011 0 -0.0076202790813661636 -0.17200120550354309 0 -0.021202058692931819 -0.1772084199997038 0 -0.027642728309929941 -0.1661643031259461 0 -0.027642728309929941 -0.1661643031259461 0 -0.043560846778093992 -0.16998230374096299 0 -0.047617260210862988 -0.15325779744851861 0 -0.029716187907134772 -0.18549561341716189 0 -0.027642728309929941 -0.1661643031259461 0 -0.043560846778093992 -0.16998230374096299 0 -0.029716187907134772 -0.18549561341716189 0 -0.043560846778093992 -0.16998230374096299 0 -0.043090382959114257 -0.18627639131161761 0 -0.043560846778093992 -0.16998230374096299 0 -0.043090382959114257 -0.18627639131161761 0 -0.057244053903765038 -0.17896748415199301 0 -0.057244053903765038 -0.17896748415199301 0 -0.057777319181257107 -0.19120743510917351 0 -0.072264019645328026 -0.1863633438030215 0 -0.043560846778093992 -0.16998230374096299 0 -0.047617260210862988 -0.15325779744851861 0 -0.065989765554894927 -0.15511534613549219 0 -0.057244053903765038 -0.17896748415199301 0 -0.065989765554894927 -0.15511534613549219 0 -0.043560846778093992 -0.16998230374096299 0 -0.057244053903765038 -0.17896748415199301 0 -0.065989765554894927 -0.15511534613549219 0 -0.047617260210862988 -0.15325779744851861 0 -0.056781201487381437 -0.13726584281590179 0 -0.065989765554894927 -0.15511534613549219 0 -0.06014898406759641 -0.12014721724954031 0 -0.056781201487381437 -0.13726584281590179 0 -0.036532558559386891 -0.12802408746273319 0 -0.047617260210862988 -0.15325779744851861 0 -0.056781201487381437 -0.13726584281590179 0 -0.036532558559386891 -0.12802408746273319 0 -0.02550492484331077 -0.145648247218539 0 -0.027642728309929941 -0.1661643031259461 0 -0.047617260210862988 -0.15325779744851861 0 -0.02550492484331077 -0.145648247218539 0 -0.047617260210862988 -0.15325779744851861 0 -0.036532558559386891 -0.12802408746273319 0 -0.047617260210862988 -0.15325779744851861 0 -0.036532558559386891 -0.12802408746273319 0 -0.019407606560510299 -0.25219273222605021 0 -0.024104965185066711 -0.2349016930287422 0 -0.031445869201948723 -0.24932675125673501 0 -0.019407606560510299 -0.25219273222605021 0 -0.024104965185066711 -0.2349016930287422 0 -0.01152287853457514 -0.2384623472403157 0 -0.0099631634673652304 -0.24891243009490241 0 -0.0040143075144109096 -0.24499226240608071 0 -0.01152287853457514 -0.2384623472403157 0 -0.019407606560510299 -0.25219273222605021 0 -0.0099631634673652304 -0.24891243009490241 0 -0.01152287853457514 -0.2384623472403157 0 -0.0040143075144109096 -0.24499226240608071 0 -0.01152287853457514 -0.2384623472403157 0 0.0042385479800219443 -0.23996894676387959 0 -0.0043729597489988326 -0.2517189646714269 0 -0.0099631634673652304 -0.24891243009490241 0 -0.0040143075144109096 -0.24499226240608071 0 -0.0043729597489988326 -0.2517189646714269 0 -0.0040143075144109096 -0.24499226240608071 0 0.0013068550856104801 -0.24928749042306059 0 -0.01152287853457514 -0.2384623472403157 0 -0.0140349840911345 -0.22184724313656601 0 0.0042385479800219443 -0.23996894676387959 0 -0.0140349840911345 -0.22184724313656601 0 0.0042385479800219443 -0.23996894676387959 0 -0.0140349840911345 -0.22184724313656601 0 0.0042385479800219443 -0.23996894676387959 0 0.001615768630269976 -0.22693028408857571 0 -0.0140349840911345 -0.22184724313656601 0 -0.00080959091868537398 -0.21840147056845541 0 0.001615768630269976 -0.22693028408857571 0 -0.024104965185066711 -0.2349016930287422 0 -0.028246346994939629 -0.2215078976001722 0 -0.039972105727291957 -0.22607318671261439 0 -0.024104965185066711 -0.2349016930287422 0 -0.01152287853457514 -0.2384623472403157 0 -0.0140349840911345 -0.22184724313656601 0 -0.024104965185066711 -0.2349016930287422 0 -0.0140349840911345 -0.22184724313656601 0 -0.028246346994939629 -0.2215078976001722 0 -0.0140349840911345 -0.22184724313656601 0 -0.028246346994939629 -0.2215078976001722 0 -0.03230851616229112 -0.2037255395092524 0 -0.0140349840911345 -0.22184724313656601 0 -0.03230851616229112 -0.2037255395092524 0 -0.0044459224694277863 -0.20528461782446991 0 -0.03230851616229112 -0.2037255395092524 0 -0.0140349840911345 -0.22184724313656601 0 -0.0044459224694277863 -0.20528461782446991 0 -0.03230851616229112 -0.2037255395092524 0 -0.0140349840911345 -0.22184724313656601 0 -0.00080959091868537398 -0.21840147056845541 0 -0.0044459224694277863 -0.20528461782446991 0 -0.0044459224694277863 -0.20528461782446991 0 -0.005735718211671942 -0.18998355091012581 0 -0.015691879488976521 -0.19788551399471341 0 -0.0044459224694277863 -0.20528461782446991 0 -0.005735718211671942 -0.18998355091012581 0 0.0091483747768656282 -0.18869647514528251 0 -0.005735718211671942 -0.18998355091012581 0 -0.017433686554388528 -0.18764302003121011 0 -0.015691879488976521 -0.19788551399471341 0 -0.015691879488976521 -0.19788551399471341 0 -0.029019349573080971 -0.19932575081037041 0 -0.03230851616229112 -0.2037255395092524 0 -0.0044459224694277863 -0.20528461782446991 0 -0.015691879488976521 -0.19788551399471341 0 -0.03230851616229112 -0.2037255395092524 0 -0.017433686554388528 -0.18764302003121011 0 -0.015691879488976521 -0.19788551399471341 0 -0.024148096907681701 -0.19276506852012051 0 -0.015691879488976521 -0.19788551399471341 0 -0.029019349573080971 -0.19932575081037041 0 -0.024148096907681701 -0.19276506852012051 0 -0.029019349573080971 -0.19932575081037041 0 -0.031791371014162302 -0.20021834809900479 0 -0.03230851616229112 -0.2037255395092524 0 -0.029019349573080971 -0.19932575081037041 0 -0.030446830181845769 -0.19402181172326899 0 -0.032884902744742629 -0.19789480991047709 0 -0.029019349573080971 -0.19932575081037041 0 -0.030446830181845769 -0.19402181172326899 0 -0.024148096907681701 -0.19276506852012051 0 -0.029019349573080971 -0.19932575081037041 0 -0.032884902744742629 -0.19789480991047709 0 -0.031791371014162302 -0.20021834809900479 0 -0.029716187907134772 -0.18549561341716189 0 -0.030446830181845769 -0.19402181172326899 0 -0.024148096907681701 -0.19276506852012051 0 -0.029716187907134772 -0.18549561341716189 0 -0.017433686554388528 -0.18764302003121011 0 -0.024148096907681701 -0.19276506852012051 0 -0.043090382959114257 -0.18627639131161761 0 -0.036465613776588732 -0.19462781595821521 0 -0.048498342252638549 -0.202819622168495 0 -0.036465613776588732 -0.19462781595821521 0 -0.048498342252638549 -0.202819622168495 0 -0.03230851616229112 -0.2037255395092524 0 -0.029716187907134772 -0.18549561341716189 0 -0.030446830181845769 -0.19402181172326899 0 -0.036465613776588732 -0.19462781595821521 0 -0.029716187907134772 -0.18549561341716189 0 -0.043090382959114257 -0.18627639131161761 0 -0.036465613776588732 -0.19462781595821521 0 -0.036465613776588732 -0.19462781595821521 0 -0.032884902744742629 -0.19789480991047709 0 -0.03230851616229112 -0.2037255395092524 0 -0.030446830181845769 -0.19402181172326899 0 -0.036465613776588732 -0.19462781595821521 0 -0.032884902744742629 -0.19789480991047709 0 -0.032884902744742629 -0.19789480991047709 0 -0.031791371014162302 -0.20021834809900479 0 -0.03230851616229112 -0.2037255395092524 0 -0.057777319181257107 -0.19120743510917351 0 -0.058363642162852447 -0.21494324485463781 0 -0.057777319181257107 -0.19120743510917351 0 -0.058363642162852447 -0.21494324485463781 0 -0.067142340994493219 -0.20159324902926051 0 -0.057777319181257107 -0.19120743510917351 0 -0.056418763597123403 -0.20237642734961209 0 -0.058363642162852447 -0.21494324485463781 0 -0.043090382959114257 -0.18627639131161761 0 -0.057244053903765038 -0.17896748415199301 0 -0.048498342252638549 -0.202819622168495 0 -0.057244053903765038 -0.17896748415199301 0 -0.048498342252638549 -0.202819622168495 0 -0.057244053903765038 -0.17896748415199301 0 -0.057777319181257107 -0.19120743510917351 0 -0.048498342252638549 -0.202819622168495 0 -0.056418763597123403 -0.20237642734961209 0 -0.048498342252638549 -0.202819622168495 0 -0.057777319181257107 -0.19120743510917351 0 -0.056418763597123403 -0.20237642734961209 0 -0.048498342252638549 -0.202819622168495 0 -0.056418763597123403 -0.20237642734961209 0 -0.048498342252638549 -0.202819622168495 0 -0.058363642162852447 -0.21494324485463781 0 -0.048498342252638549 -0.202819622168495 0 -0.058363642162852447 -0.21494324485463781 0 -0.039972105727291957 -0.22607318671261439 0 -0.048498342252638549 -0.202819622168495 0 -0.03230851616229112 -0.2037255395092524 0 -0.048498342252638549 -0.202819622168495 0 -0.039972105727291957 -0.22607318671261439 0 -0.028246346994939629 -0.2215078976001722 0 -0.03230851616229112 -0.2037255395092524 0 -0.039972105727291957 -0.22607318671261439 0 -0.048498342252638549 -0.202819622168495 0 -0.03230851616229112 -0.2037255395092524 0 -0.039972105727291957 -0.22607318671261439 0 -0.058363642162852447 -0.21494324485463781 0 -0.058949965144447787 -0.23867905460010219 0 -0.068406062976269569 -0.22582450100372989 0 -0.058363642162852447 -0.21494324485463781 0 -0.039972105727291957 -0.22607318671261439 0 -0.058949965144447787 -0.23867905460010219 0 -0.058363642162852447 -0.21494324485463781 0 -0.058949965144447787 -0.23867905460010219 0 -0.024104965185066711 -0.2349016930287422 0 -0.039972105727291957 -0.22607318671261439 0 -0.031445869201948723 -0.24932675125673501 0 -0.039972105727291957 -0.22607318671261439 0 -0.058949965144447787 -0.23867905460010219 0 -0.031445869201948723 -0.24932675125673501 0 -0.039972105727291957 -0.22607318671261439 0 -0.031445869201948723 -0.24932675125673501 0 -0.047238550536702263 -0.255967767539931 0 -0.058949965144447787 -0.23867905460010219 0 -0.031445869201948723 -0.24932675125673501 0 -0.085063699774051968 -0.2444382565338081 0 -0.072430850957998158 -0.23680229723538901 0 -0.07990131967398087 -0.2255739732901029 0 -0.085063699774051968 -0.2444382565338081 0 -0.069833207221240631 -0.24949570074920191 0 -0.072430850957998158 -0.23680229723538901 0 -0.058949965144447787 -0.23867905460010219 0 -0.069833207221240631 -0.24949570074920191 0 -0.072430850957998158 -0.23680229723538901 0 -0.072430850957998158 -0.23680229723538901 0 -0.068406062976269569 -0.22582450100372989 0 -0.07990131967398087 -0.2255739732901029 0 -0.058949965144447787 -0.23867905460010219 0 -0.072430850957998158 -0.23680229723538901 0 -0.068406062976269569 -0.22582450100372989 0 -0.068406062976269569 -0.22582450100372989 0 -0.07990131967398087 -0.2255739732901029 0 -0.071792460279250139 -0.21327436931969329 0 -0.085063699774051968 -0.2444382565338081 0 -0.07990131967398087 -0.2255739732901029 0 -0.097534244107260304 -0.22358204775519699 0 -0.085063699774051968 -0.2444382565338081 0 -0.097534244107260304 -0.22358204775519699 0 -0.07990131967398087 -0.2255739732901029 0 -0.086054527363872146 -0.21252509715484089 0 -0.097534244107260304 -0.22358204775519699 0 -0.086054527363872146 -0.21252509715484089 0 -0.07701959689281962 -0.2025016181065537 0 -0.098045911391921634 -0.19796972299081789 0 -0.086054527363872146 -0.21252509715484089 0 -0.071792460279250139 -0.21327436931969329 0 -0.07701959689281962 -0.2025016181065537 0 -0.07990131967398087 -0.2255739732901029 0 -0.086054527363872146 -0.21252509715484089 0 -0.071792460279250139 -0.21327436931969329 0 -0.058363642162852447 -0.21494324485463781 0 -0.068406062976269569 -0.22582450100372989 0 -0.071792460279250139 -0.21327436931969329 0 -0.058363642162852447 -0.21494324485463781 0 -0.071792460279250139 -0.21327436931969329 0 -0.067142340994493219 -0.20159324902926051 0 -0.071792460279250139 -0.21327436931969329 0 -0.07701959689281962 -0.2025016181065537 0 -0.067142340994493219 -0.20159324902926051 0 -0.07701959689281962 -0.2025016181065537 0 -0.067142340994493219 -0.20159324902926051 0 -0.072264019645328026 -0.1863633438030215 0 -0.057777319181257107 -0.19120743510917351 0 -0.067142340994493219 -0.20159324902926051 0 -0.072264019645328026 -0.1863633438030215 0 -0.07701959689281962 -0.2025016181065537 0 -0.098045911391921634 -0.19796972299081789 0 -0.072264019645328026 -0.1863633438030215 0 -0.098045911391921634 -0.19796972299081789 0 -0.1155844204163102 -0.19622376883967099 0 -0.1059892906740514 -0.1799439417582975 0 -0.1155844204163102 -0.19622376883967099 0 -0.1249210938478047 -0.20931913626051779 0 -0.1120046863314742 -0.2219081579174545 0 -0.098045911391921634 -0.19796972299081789 0 -0.097534244107260304 -0.22358204775519699 0 -0.1120046863314742 -0.2219081579174545 0 -0.086054527363872146 -0.21252509715484089 0 -0.098045911391921634 -0.19796972299081789 0 -0.097534244107260304 -0.22358204775519699 0 -0.098045911391921634 -0.19796972299081789 0 -0.1155844204163102 -0.19622376883967099 0 -0.1120046863314742 -0.2219081579174545 0 -0.098045911391921634 -0.19796972299081789 0 -0.1120046863314742 -0.2219081579174545 0 -0.097534244107260304 -0.22358204775519699 0 -0.1120046863314742 -0.2219081579174545 0 -0.10583421593628201 -0.24025597487364181 0 -0.1249210938478047 -0.20931913626051779 0 -0.1120046863314742 -0.2219081579174545 0 -0.12651834856449179 -0.2285889626919527 0 -0.1120046863314742 -0.2219081579174545 0 -0.1259634612710267 -0.24584659284409099 0 -0.12651834856449179 -0.2285889626919527 0 -0.1120046863314742 -0.2219081579174545 0 -0.1259634612710267 -0.24584659284409099 0 -0.111926538359004 -0.25350696961356028 0 -0.10583421593628201 -0.24025597487364181 0 -0.1259634612710267 -0.24584659284409099 0 -0.1120046863314742 -0.2219081579174545 0 -0.10583421593628201 -0.24025597487364181 0 -0.1259634612710267 -0.24584659284409099 0 -0.085063699774051968 -0.2444382565338081 0 -0.097534244107260304 -0.22358204775519699 0 -0.10583421593628201 -0.24025597487364181 0 -0.099936074755680726 -0.25451062533925939 0 -0.085063699774051968 -0.2444382565338081 0 -0.10583421593628201 -0.24025597487364181 0 -0.099936074755680726 -0.25451062533925939 0 -0.111926538359004 -0.25350696961356028 0 -0.10583421593628201 -0.24025597487364181 0 -0.083366270543590096 -0.14324389920588659 0 -0.086640514521082901 -0.15577507360442211 0 -0.070128361512816567 -0.15009285313754481 0 -0.083366270543590096 -0.14324389920588659 0 -0.086640514521082901 -0.15577507360442211 0 -0.096699351895086438 -0.14817073757301091 0 -0.083366270543590096 -0.14324389920588659 0 -0.096699351895086438 -0.14817073757301091 0 -0.09482153853260411 -0.12945071588027141 0 -0.083366270543590096 -0.14324389920588659 0 -0.074735477206024803 -0.13126320811899139 0 -0.09482153853260411 -0.12945071588027141 0 -0.06014898406759641 -0.12014721724954031 0 -0.056781201487381437 -0.13726584281590179 0 -0.074735477206024803 -0.13126320811899139 0 -0.083366270543590096 -0.14324389920588659 0 -0.074735477206024803 -0.13126320811899139 0 -0.070128361512816567 -0.15009285313754481 0 -0.074735477206024803 -0.13126320811899139 0 -0.065989765554894927 -0.15511534613549219 0 -0.074735477206024803 -0.13126320811899139 0 -0.065989765554894927 -0.15511534613549219 0 -0.070128361512816567 -0.15009285313754481 0 -0.056781201487381437 -0.13726584281590179 0 -0.074735477206024803 -0.13126320811899139 0 -0.065989765554894927 -0.15511534613549219 0 -0.057244053903765038 -0.17896748415199301 0 -0.065989765554894927 -0.15511534613549219 0 -0.069942667413834744 -0.16891406305844661 0 -0.065989765554894927 -0.15511534613549219 0 -0.070128361512816567 -0.15009285313754481 0 -0.069942667413834744 -0.16891406305844661 0 -0.070128361512816567 -0.15009285313754481 0 -0.069942667413834744 -0.16891406305844661 0 -0.084087136452369093 -0.17403128806418131 0 -0.070128361512816567 -0.15009285313754481 0 -0.084087136452369093 -0.17403128806418131 0 -0.057244053903765038 -0.17896748415199301 0 -0.069942667413834744 -0.16891406305844661 0 -0.072264019645328026 -0.1863633438030215 0 -0.069942667413834744 -0.16891406305844661 0 -0.072264019645328026 -0.1863633438030215 0 -0.084087136452369093 -0.17403128806418131 0 -0.098045911391921634 -0.19796972299081789 0 -0.084087136452369093 -0.17403128806418131 0 -0.098045911391921634 -0.19796972299081789 0 -0.072264019645328026 -0.1863633438030215 0 -0.084087136452369093 -0.17403128806418131 0 -0.086640514521082901 -0.15577507360442211 0 -0.070128361512816567 -0.15009285313754481 0 -0.084087136452369093 -0.17403128806418131 0 -0.086640514521082901 -0.15577507360442211 0 -0.084087136452369093 -0.17403128806418131 0 -0.098921452201552323 -0.16333659004148679 0 -0.098921452201552323 -0.16333659004148679 0 -0.1154350829680791 -0.16769759958543731 0 -0.10927528180784191 -0.15374423405176871 0 -0.098921452201552323 -0.16333659004148679 0 -0.1059892906740514 -0.1799439417582975 0 -0.1154350829680791 -0.16769759958543731 0 -0.084087136452369093 -0.17403128806418131 0 -0.098921452201552323 -0.16333659004148679 0 -0.1059892906740514 -0.1799439417582975 0 -0.098045911391921634 -0.19796972299081789 0 -0.084087136452369093 -0.17403128806418131 0 -0.1059892906740514 -0.1799439417582975 0 -0.1155844204163102 -0.19622376883967099 0 -0.1059892906740514 -0.1799439417582975 0 -0.1238617406140763 -0.18040468102819121 0 -0.1059892906740514 -0.1799439417582975 0 -0.1238617406140763 -0.18040468102819121 0 -0.1154350829680791 -0.16769759958543731 0 -0.1238617406140763 -0.18040468102819121 0 -0.1154350829680791 -0.16769759958543731 0 -0.12641116824588169 -0.1713304133016004 0 -0.1154350829680791 -0.16769759958543731 0 -0.1185829800700226 -0.15623113629087509 0 -0.10927528180784191 -0.15374423405176871 0 -0.1154350829680791 -0.16769759958543731 0 -0.1239219108219939 -0.16376758408332179 0 -0.12641116824588169 -0.1713304133016004 0 -0.1154350829680791 -0.16769759958543731 0 -0.1239219108219939 -0.16376758408332179 0 -0.1185829800700226 -0.15623113629087509 0 -0.1239219108219939 -0.16376758408332179 0 -0.1185829800700226 -0.15623113629087509 0 -0.12557695673982089 -0.14928852482051791 0 -0.1185829800700226 -0.15623113629087509 0 -0.1147983919604338 -0.1457469820321485 0 -0.12557695673982089 -0.14928852482051791 0 -0.1147983919604338 -0.1457469820321485 0 -0.1142556035628462 -0.1281335200636762 0 -0.12557695673982089 -0.14928852482051791 0 -0.1147983919604338 -0.1457469820321485 0 -0.10927528180784191 -0.15374423405176871 0 -0.1063011376216373 -0.14133749493390441 0 -0.1185829800700226 -0.15623113629087509 0 -0.1147983919604338 -0.1457469820321485 0 -0.10927528180784191 -0.15374423405176871 0 -0.098921452201552323 -0.16333659004148679 0 -0.10927528180784191 -0.15374423405176871 0 -0.096699351895086438 -0.14817073757301091 0 -0.10927528180784191 -0.15374423405176871 0 -0.1063011376216373 -0.14133749493390441 0 -0.096699351895086438 -0.14817073757301091 0 -0.086640514521082901 -0.15577507360442211 0 -0.098921452201552323 -0.16333659004148679 0 -0.096699351895086438 -0.14817073757301091 0 -0.1063011376216373 -0.14133749493390441 0 -0.096699351895086438 -0.14817073757301091 0 -0.09482153853260411 -0.12945071588027141 0 -0.1063011376216373 -0.14133749493390441 0 -0.09482153853260411 -0.12945071588027141 0 -0.1142556035628462 -0.1281335200636762 0 -0.1147983919604338 -0.1457469820321485 0 -0.1063011376216373 -0.14133749493390441 0 -0.1142556035628462 -0.1281335200636762 0 -0.1142556035628462 -0.1281335200636762 0 -0.12557695673982089 -0.14928852482051791 0 -0.1142556035628462 -0.1281335200636762 0 -0.13510539055085111 -0.129598756104846 0 -0.12557695673982089 -0.14928852482051791 0 -0.13510539055085111 -0.129598756104846 0 -0.14462690267759989 -0.13891633434443451 0 -0.1360018502338233 -0.15002114284110271 0 -0.13510539055085111 -0.129598756104846 0 -0.1360018502338233 -0.15002114284110271 0 -0.13510539055085111 -0.129598756104846 0 -0.14462690267759989 -0.13891633434443451 0 -0.1501964179203614 -0.126809590938815 0 -0.14462690267759989 -0.13891633434443451 0 -0.15390166309840539 -0.1405287174606962 0 -0.1501964179203614 -0.126809590938815 0 -0.1479291915845582 -0.14762346437671231 0 -0.1475499932444006 -0.15831286411899459 0 -0.1591759188944194 -0.15129115794994619 0 -0.14462690267759989 -0.13891633434443451 0 -0.15390166309840539 -0.1405287174606962 0 -0.1479291915845582 -0.14762346437671231 0 -0.15390166309840539 -0.1405287174606962 0 -0.1479291915845582 -0.14762346437671231 0 -0.1591759188944194 -0.15129115794994619 0 -0.14462690267759989 -0.13891633434443451 0 -0.1479291915845582 -0.14762346437671231 0 -0.1360018502338233 -0.15002114284110271 0 -0.1479291915845582 -0.14762346437671231 0 -0.1360018502338233 -0.15002114284110271 0 -0.1475499932444006 -0.15831286411899459 0 -0.13510539055085111 -0.129598756104846 0 -0.1360018502338233 -0.15002114284110271 0 -0.12557695673982089 -0.14928852482051791 0 -0.1239219108219939 -0.16376758408332179 0 -0.12557695673982089 -0.14928852482051791 0 -0.1368983099167955 -0.17044352957735939 0 -0.1360018502338233 -0.15002114284110271 0 -0.1368983099167955 -0.17044352957735939 0 -0.14138965107058621 -0.16190304714549089 0 -0.1360018502338233 -0.15002114284110271 0 -0.12557695673982089 -0.14928852482051791 0 -0.1368983099167955 -0.17044352957735939 0 -0.1360018502338233 -0.15002114284110271 0 -0.1368983099167955 -0.17044352957735939 0 -0.12557695673982089 -0.14928852482051791 0 -0.1368983099167955 -0.17044352957735939 0 -0.1239219108219939 -0.16376758408332179 0 -0.12641116824588169 -0.1713304133016004 0 -0.1368983099167955 -0.17044352957735939 0 -0.1368983099167955 -0.17044352957735939 0 -0.13971524855975531 -0.17570724226788359 0 -0.14510845088732521 -0.1688346520445069 0 -0.1368983099167955 -0.17044352957735939 0 -0.13797259637154261 -0.19491701551442231 0 -0.1238617406140763 -0.18040468102819121 0 -0.1368983099167955 -0.17044352957735939 0 -0.13797259637154261 -0.19491701551442231 0 -0.1368983099167955 -0.17044352957735939 0 -0.13971524855975531 -0.17570724226788359 0 -0.13797259637154261 -0.19491701551442231 0 -0.1238617406140763 -0.18040468102819121 0 -0.12641116824588169 -0.1713304133016004 0 -0.1368983099167955 -0.17044352957735939 0 -0.1368983099167955 -0.17044352957735939 0 -0.13971524855975531 -0.17570724226788359 0 -0.13971524855975531 -0.17570724226788359 0 -0.148934470330507 -0.18621289783205719 0 -0.13797259637154261 -0.19491701551442231 0 -0.13971524855975531 -0.17570724226788359 0 -0.15186936287728789 -0.17354303518347411 0 -0.14510845088732521 -0.1688346520445069 0 -0.13971524855975531 -0.17570724226788359 0 -0.15186936287728789 -0.17354303518347411 0 -0.148934470330507 -0.18621289783205719 0 -0.15186936287728789 -0.17354303518347411 0 -0.148934470330507 -0.18621289783205719 0 -0.1638156093043126 -0.18695094947268931 0 -0.1360018502338233 -0.15002114284110271 0 -0.14138965107058621 -0.16190304714549089 0 -0.1475499932444006 -0.15831286411899459 0 -0.14138965107058621 -0.16190304714549089 0 -0.1475499932444006 -0.15831286411899459 0 -0.14510845088732521 -0.1688346520445069 0 -0.1368983099167955 -0.17044352957735939 0 -0.14138965107058621 -0.16190304714549089 0 -0.14510845088732521 -0.1688346520445069 0 -0.15186936287728789 -0.17354303518347411 0 -0.14510845088732521 -0.1688346520445069 0 -0.15674643569337329 -0.1640111837385064 0 -0.1475499932444006 -0.15831286411899459 0 -0.15674643569337329 -0.1640111837385064 0 -0.1591759188944194 -0.15129115794994619 0 -0.1475499932444006 -0.15831286411899459 0 -0.14510845088732521 -0.1688346520445069 0 -0.15674643569337329 -0.1640111837385064 0 -0.15186936287728789 -0.17354303518347411 0 -0.15674643569337329 -0.1640111837385064 0 -0.16896425164600909 -0.16626371612322649 0 -0.15674643569337329 -0.1640111837385064 0 -0.16896425164600909 -0.16626371612322649 0 -0.1591759188944194 -0.15129115794994619 0 -0.15186936287728789 -0.17354303518347411 0 -0.16896425164600909 -0.16626371612322649 0 -0.1638156093043126 -0.18695094947268931 0 -0.16896425164600909 -0.16626371612322649 0 -0.1638156093043126 -0.18695094947268931 0 -0.16896425164600909 -0.16626371612322649 0 -0.1638156093043126 -0.18695094947268931 0 -0.1824958402951552 -0.18171100414419289 0 -0.15186936287728789 -0.17354303518347411 0 -0.1638156093043126 -0.18695094947268931 0 -0.16896425164600909 -0.16626371612322649 0 -0.18471116270520471 -0.1649840488830524 0 -0.1741128939877081 -0.14557648277376431 0 -0.16896425164600909 -0.16626371612322649 0 -0.1824958402951552 -0.18171100414419289 0 -0.18471116270520471 -0.1649840488830524 0 -0.18471116270520471 -0.1649840488830524 0 -0.1741128939877081 -0.14557648277376431 0 -0.19646102832289 -0.1544226373240738 0 -0.1741128939877081 -0.14557648277376431 0 -0.17745000815055201 -0.1288643167121811 0 -0.19307936622421609 -0.13577029590327849 0 -0.1741128939877081 -0.14557648277376431 0 -0.17745000815055201 -0.1288643167121811 0 -0.16535705208718779 -0.13565353470340091 0 -0.17745000815055201 -0.1288643167121811 0 -0.19307936622421609 -0.13577029590327849 0 -0.18933670505582539 -0.1171870247594204 0 -0.17745000815055201 -0.1288643167121811 0 -0.16535705208718779 -0.13565353470340091 0 -0.1655105785307785 -0.12268689820229139 0 -0.1501964179203614 -0.126809590938815 0 -0.16535705208718779 -0.13565353470340091 0 -0.1655105785307785 -0.12268689820229139 0 -0.15390166309840539 -0.1405287174606962 0 -0.1501964179203614 -0.126809590938815 0 -0.16535705208718779 -0.13565353470340091 0 -0.16896425164600909 -0.16626371612322649 0 -0.1741128939877081 -0.14557648277376431 0 -0.1591759188944194 -0.15129115794994619 0 -0.1741128939877081 -0.14557648277376431 0 -0.16535705208718779 -0.13565353470340091 0 -0.1591759188944194 -0.15129115794994619 0 -0.16896425164600909 -0.16626371612322649 0 -0.1741128939877081 -0.14557648277376431 0 -0.15390166309840539 -0.1405287174606962 0 -0.16535705208718779 -0.13565353470340091 0 -0.1591759188944194 -0.15129115794994619 0 -0.1444932553453035 -0.26458812422329098 0 -0.15093403999830679 -0.2387090659730905 0 -0.14012116928103671 -0.24386398738854809 0 -0.1444932553453035 -0.26458812422329098 0 -0.15093403999830679 -0.2387090659730905 0 -0.16214774546827659 -0.2445163022413237 0 -0.1259634612710267 -0.24584659284409099 0 -0.1329124654857112 -0.23442251109401929 0 -0.12651834856449179 -0.2285889626919527 0 -0.14012116928103671 -0.24386398738854809 0 -0.1259634612710267 -0.24584659284409099 0 -0.1329124654857112 -0.23442251109401929 0 -0.1329124654857112 -0.23442251109401929 0 -0.12651834856449179 -0.2285889626919527 0 -0.13904688282628971 -0.2193905014514852 0 -0.1249210938478047 -0.20931913626051779 0 -0.12651834856449179 -0.2285889626919527 0 -0.13904688282628971 -0.2193905014514852 0 -0.14012116928103671 -0.24386398738854809 0 -0.1329124654857112 -0.23442251109401929 0 -0.13904688282628971 -0.2193905014514852 0 -0.14012116928103671 -0.24386398738854809 0 -0.13904688282628971 -0.2193905014514852 0 -0.15093403999830679 -0.2387090659730905 0 -0.15737482465130839 -0.21283000772288951 0 -0.15093403999830679 -0.2387090659730905 0 -0.13904688282628971 -0.2193905014514852 0 -0.15737482465130839 -0.21283000772288951 0 -0.15093403999830679 -0.2387090659730905 0 -0.14012116928103671 -0.24386398738854809 0 -0.13904688282628971 -0.2193905014514852 0 -0.13904688282628971 -0.2193905014514852 0 -0.13797259637154261 -0.19491701551442231 0 -0.1499633503661765 -0.20002769506245391 0 -0.13904688282628971 -0.2193905014514852 0 -0.1499633503661765 -0.20002769506245391 0 -0.15737482465130839 -0.21283000772288951 0 -0.1249210938478047 -0.20931913626051779 0 -0.13904688282628971 -0.2193905014514852 0 -0.13797259637154261 -0.19491701551442231 0 -0.13904688282628971 -0.2193905014514852 0 -0.13797259637154261 -0.19491701551442231 0 -0.1155844204163102 -0.19622376883967099 0 -0.1238617406140763 -0.18040468102819121 0 -0.13797259637154261 -0.19491701551442231 0 -0.1155844204163102 -0.19622376883967099 0 -0.1249210938478047 -0.20931913626051779 0 -0.13797259637154261 -0.19491701551442231 0 -0.148934470330507 -0.18621289783205719 0 -0.13797259637154261 -0.19491701551442231 0 -0.1499633503661765 -0.20002769506245391 0 -0.148934470330507 -0.18621289783205719 0 -0.1638156093043126 -0.18695094947268931 0 -0.1499633503661765 -0.20002769506245391 0 -0.1638156093043126 -0.18695094947268931 0 -0.15737482465130839 -0.21283000772288951 0 -0.1638156093043126 -0.18695094947268931 0 -0.17974510718426009 -0.20482948090505729 0 -0.15737482465130839 -0.21283000772288951 0 -0.1638156093043126 -0.18695094947268931 0 -0.17974510718426009 -0.20482948090505729 0 -0.1638156093043126 -0.18695094947268931 0 -0.1499633503661765 -0.20002769506245391 0 -0.15737482465130839 -0.21283000772288951 0 -0.1638156093043126 -0.18695094947268931 0 -0.1824958402951552 -0.18171100414419289 0 -0.17974510718426009 -0.20482948090505729 0 -0.1824958402951552 -0.18171100414419289 0 -0.17974510718426009 -0.20482948090505729 0 -0.19684812982871039 -0.19267487936308461 0 -0.17974510718426009 -0.20482948090505729 0 -0.17848952385142949 -0.22587245646638179 0 -0.19567460506420409 -0.2227080123374284 0 -0.17974510718426009 -0.20482948090505729 0 -0.15737482465130839 -0.21283000772288951 0 -0.17848952385142949 -0.22587245646638179 0 -0.15093403999830679 -0.2387090659730905 0 -0.15737482465130839 -0.21283000772288951 0 -0.16529901841995959 -0.23358135385648229 0 -0.15737482465130839 -0.21283000772288951 0 -0.16529901841995959 -0.23358135385648229 0 -0.17848952385142949 -0.22587245646638179 0 -0.16529901841995959 -0.23358135385648229 0 -0.17848952385142949 -0.22587245646638179 0 -0.17754895813047661 -0.24597893687872591 0 -0.17848952385142949 -0.22587245646638179 0 -0.17754895813047661 -0.24597893687872591 0 -0.19468567886065141 -0.2394307494009161 0 -0.16529901841995959 -0.23358135385648229 0 -0.17754895813047661 -0.24597893687872591 0 -0.16214774546827659 -0.2445163022413237 0 -0.15093403999830679 -0.2387090659730905 0 -0.16529901841995959 -0.23358135385648229 0 -0.16214774546827659 -0.2445163022413237 0 -0.19435815259376579 -0.25563918435242527 0 -0.21152547014113221 -0.25356184176667002 0 -0.21160410294414969 -0.24058654376979799 0 -0.22544467797638759 -0.25612056484321521 0 -0.21160410294414969 -0.24058654376979799 0 -0.21160410294414969 -0.24058654376979799 0 -0.2174405836024447 -0.2266330391475895 0 -0.2250296224535682 -0.23842368912404741 0 -0.19435815259376579 -0.25563918435242527 0 -0.17754895813047661 -0.24597893687872591 0 -0.19468567886065141 -0.2394307494009161 0 -0.19435815259376579 -0.25563918435242527 0 -0.21160410294414969 -0.24058654376979799 0 -0.19468567886065141 -0.2394307494009161 0 -0.19435815259376579 -0.25563918435242527 0 -0.21160410294414969 -0.24058654376979799 0 -0.17848952385142949 -0.22587245646638179 0 -0.19468567886065141 -0.2394307494009161 0 -0.19567460506420409 -0.2227080123374284 0 -0.21160410294414969 -0.24058654376979799 0 -0.19468567886065141 -0.2394307494009161 0 -0.19567460506420409 -0.2227080123374284 0 -0.21160410294414969 -0.24058654376979799 0 -0.19567460506420409 -0.2227080123374284 0 -0.2174405836024447 -0.2266330391475895 0 -0.21160410294414969 -0.24058654376979799 0 -0.19567460506420409 -0.2227080123374284 0 -0.19567460506420409 -0.2227080123374284 0 -0.2174405836024447 -0.2266330391475895 0 -0.2058209684864043 -0.20790696040762849 0 -0.2174405836024447 -0.2266330391475895 0 -0.2058209684864043 -0.20790696040762849 0 -0.2234216688226219 -0.21316285707808191 0 -0.2058209684864043 -0.20790696040762849 0 -0.2145486203074905 -0.19448003507473069 0 -0.2234216688226219 -0.21316285707808191 0 -0.17974510718426009 -0.20482948090505729 0 -0.19567460506420409 -0.2227080123374284 0 -0.17974510718426009 -0.20482948090505729 0 -0.19567460506420409 -0.2227080123374284 0 -0.2058209684864043 -0.20790696040762849 0 -0.17974510718426009 -0.20482948090505729 0 -0.2058209684864043 -0.20790696040762849 0 -0.19684812982871039 -0.19267487936308461 0 -0.2058209684864043 -0.20790696040762849 0 -0.19684812982871039 -0.19267487936308461 0 -0.2145486203074905 -0.19448003507473069 0 -0.2145486203074905 -0.19448003507473069 0 -0.22687279132106239 -0.2006812235399035 0 -0.23495775328799851 -0.19054645394102099 0 -0.2145486203074905 -0.19448003507473069 0 -0.22687279132106239 -0.2006812235399035 0 -0.2234216688226219 -0.21316285707808191 0 -0.22687279132106239 -0.2006812235399035 0 -0.23495775328799851 -0.19054645394102099 0 -0.2370722226700705 -0.2066887522335627 0 -0.23495775328799851 -0.19054645394102099 0 -0.24860904027258041 -0.2015223676150302 0 -0.2370722226700705 -0.2066887522335627 0 -0.23495775328799851 -0.19054645394102099 0 -0.24860904027258041 -0.2015223676150302 0 -0.2529783135327453 -0.1904053044960882 0 -0.24860904027258041 -0.2015223676150302 0 -0.2370722226700705 -0.2066887522335627 0 -0.25169861080034661 -0.21289327106964329 0 -0.2370722226700705 -0.2066887522335627 0 -0.23749670824542959 -0.22159254730739131 0 -0.25169861080034661 -0.21289327106964329 0 -0.2370722226700705 -0.2066887522335627 0 -0.2234216688226219 -0.21316285707808191 0 -0.23749670824542959 -0.22159254730739131 0 -0.22687279132106239 -0.2006812235399035 0 -0.2370722226700705 -0.2066887522335627 0 -0.2234216688226219 -0.21316285707808191 0 -0.2234216688226219 -0.21316285707808191 0 -0.2286408489230555 -0.23031380303903329 0 -0.23749670824542959 -0.22159254730739131 0 -0.2174405836024447 -0.2266330391475895 0 -0.2234216688226219 -0.21316285707808191 0 -0.2286408489230555 -0.23031380303903329 0 -0.2174405836024447 -0.2266330391475895 0 -0.2286408489230555 -0.23031380303903329 0 -0.2250296224535682 -0.23842368912404741 0 -0.2286408489230555 -0.23031380303903329 0 -0.23684217572959759 -0.235820657814405 0 -0.23031103902028349 -0.236670509107655 0 -0.2286408489230555 -0.23031380303903329 0 -0.23749670824542959 -0.22159254730739131 0 -0.23684217572959759 -0.235820657814405 0 -0.23749670824542959 -0.22159254730739131 0 -0.24658036277338871 -0.2285943752193379 0 -0.25169861080034661 -0.21289327106964329 0 -0.23749670824542959 -0.22159254730739131 0 -0.24658036277338871 -0.2285943752193379 0 -0.23684217572959759 -0.235820657814405 0 -0.24658036277338871 -0.2285943752193379 0 -0.23684217572959759 -0.235820657814405 0 -0.2488367560188369 -0.2422088265765695 0 -0.2493389891838439 -0.25321987494249693 0 -0.2488367560188369 -0.2422088265765695 0 -0.23778750584702241 -0.24968632295383231 0 -0.23684217572959759 -0.235820657814405 0 -0.23778750584702241 -0.24968632295383231 0 -0.23684217572959759 -0.235820657814405 0 -0.2488367560188369 -0.2422088265765695 0 -0.23778750584702241 -0.24968632295383231 0 -0.23684217572959759 -0.235820657814405 0 -0.23778750584702241 -0.24968632295383231 0 -0.23541043627776939 -0.24712775315970709 0 -0.23778750584702241 -0.24968632295383231 0 -0.23541043627776939 -0.24712775315970709 0 -0.23541043627776939 -0.24712775315970709 0 -0.2307315089749126 -0.24212388645313421 0 -0.22556858140930719 -0.24490690292043141 0 -0.23778750584702241 -0.24968632295383231 0 -0.23541043627776939 -0.24712775315970709 0 -0.22556858140930719 -0.24490690292043141 0 -0.2286408489230555 -0.23031380303903329 0 -0.23031103902028349 -0.236670509107655 0 -0.2250296224535682 -0.23842368912404741 0 -0.23684217572959759 -0.235820657814405 0 -0.23541043627776939 -0.24712775315970709 0 -0.2307315089749126 -0.24212388645313421 0 -0.23684217572959759 -0.235820657814405 0 -0.2307315089749126 -0.24212388645313421 0 -0.23031103902028349 -0.236670509107655 0 -0.2307315089749126 -0.24212388645313421 0 -0.23031103902028349 -0.236670509107655 0 -0.2250296224535682 -0.23842368912404741 0 -0.2307315089749126 -0.24212388645313421 0 -0.2250296224535682 -0.23842368912404741 0 -0.22556858140930719 -0.24490690292043141 0 -0.21160410294414969 -0.24058654376979799 0 -0.2250296224535682 -0.23842368912404741 0 -0.22556858140930719 -0.24490690292043141 0 -0.22544467797638759 -0.25612056484321521 0 -0.21160410294414969 -0.24058654376979799 0 -0.22556858140930719 -0.24490690292043141 0 -0.20337238886134179 -0.1445244413925485 0 -0.21559183299564669 -0.15491699521477381 0 -0.19646102832289 -0.1544226373240738 0 -0.20337238886134179 -0.1445244413925485 0 -0.21559183299564669 -0.15491699521477381 0 -0.21203266571757129 -0.13611368685060701 0 -0.21203266571757129 -0.13611368685060701 0 -0.18933670505582539 -0.1171870247594204 0 -0.20337238886134179 -0.1445244413925485 0 -0.21203266571757129 -0.13611368685060701 0 -0.19307936622421609 -0.13577029590327849 0 -0.21203266571757129 -0.13611368685060701 0 -0.19307936622421609 -0.13577029590327849 0 -0.18933670505582539 -0.1171870247594204 0 -0.20337238886134179 -0.1445244413925485 0 -0.19307936622421609 -0.13577029590327849 0 -0.19646102832289 -0.1544226373240738 0 -0.1741128939877081 -0.14557648277376431 0 -0.19307936622421609 -0.13577029590327849 0 -0.19646102832289 -0.1544226373240738 0 -0.18471116270520471 -0.1649840488830524 0 -0.19646102832289 -0.1544226373240738 0 -0.20163011287024171 -0.17444691628381359 0 -0.1824958402951552 -0.18171100414419289 0 -0.19684812982871039 -0.19267487936308461 0 -0.20163011287024171 -0.17444691628381359 0 -0.1824958402951552 -0.18171100414419289 0 -0.18471116270520471 -0.1649840488830524 0 -0.20163011287024171 -0.17444691628381359 0 -0.19684812982871039 -0.19267487936308461 0 -0.2145486203074905 -0.19448003507473069 0 -0.20163011287024171 -0.17444691628381359 0 -0.2145486203074905 -0.19448003507473069 0 -0.20163011287024171 -0.17444691628381359 0 -0.2240651920491365 -0.17464731464295169 0 -0.21559183299564669 -0.15491699521477381 0 -0.19646102832289 -0.1544226373240738 0 -0.20163011287024171 -0.17444691628381359 0 -0.21559183299564669 -0.15491699521477381 0 -0.20163011287024171 -0.17444691628381359 0 -0.2240651920491365 -0.17464731464295169 0 -0.21559183299564669 -0.15491699521477381 0 -0.2240651920491365 -0.17464731464295169 0 -0.23472862637931721 -0.1550403489417935 0 -0.2240651920491365 -0.17464731464295169 0 -0.2429342064541242 -0.178453138401578 0 -0.23472862637931721 -0.1550403489417935 0 -0.23495775328799851 -0.19054645394102099 0 -0.2240651920491365 -0.17464731464295169 0 -0.2429342064541242 -0.178453138401578 0 -0.2145486203074905 -0.19448003507473069 0 -0.23495775328799851 -0.19054645394102099 0 -0.2240651920491365 -0.17464731464295169 0 -0.23495775328799851 -0.19054645394102099 0 -0.2429342064541242 -0.178453138401578 0 -0.2529783135327453 -0.1904053044960882 0 -0.2429342064541242 -0.178453138401578 0 -0.2529783135327453 -0.1904053044960882 0 -0.25327748830317143 -0.18146197818130291 0 -0.23472862637931721 -0.1550403489417935 0 -0.25859805050656892 -0.1748090197577862 0 -0.25344884156127728 -0.16205232995191191 0 -0.2429342064541242 -0.178453138401578 0 -0.23472862637931721 -0.1550403489417935 0 -0.25859805050656892 -0.1748090197577862 0 -0.23472862637931721 -0.1550403489417935 0 -0.25859805050656892 -0.1748090197577862 0 -0.23472862637931721 -0.1550403489417935 0 -0.25344884156127728 -0.16205232995191191 0 -0.2567667207421338 -0.15260215302088331 0 -0.23472862637931721 -0.1550403489417935 0 -0.2387723529740701 -0.13229022724945799 0 -0.25342413201127573 -0.13876792672923441 0 -0.23472862637931721 -0.1550403489417935 0 -0.2567667207421338 -0.15260215302088331 0 -0.25342413201127573 -0.13876792672923441 0 -0.21203266571757129 -0.13611368685060701 0 -0.23472862637931721 -0.1550403489417935 0 -0.21203266571757129 -0.13611368685060701 0 -0.23472862637931721 -0.1550403489417935 0 -0.2387723529740701 -0.13229022724945799 0 -0.21559183299564669 -0.15491699521477381 0 -0.21203266571757129 -0.13611368685060701 0 -0.23472862637931721 -0.1550403489417935 0 -0.21203266571757129 -0.13611368685060701 0 -0.2240902777890722 -0.12550181859015469 0 -0.2387723529740701 -0.13229022724945799 0 -0.2387723529740701 -0.13229022724945799 0 -0.25305552029136519 -0.1195692895295553 0 -0.25342413201127573 -0.13876792672923441 0 -0.2372170490876423 -0.11592713670092269 0 -0.24933959518292609 -0.10425775743636979 0 -0.25305552029136519 -0.1195692895295553 0 -0.2387723529740701 -0.13229022724945799 0 -0.2372170490876423 -0.11592713670092269 0 -0.25305552029136519 -0.1195692895295553 0 -0.23420829232889409 -0.1025770153024514 0 -0.24751880957211411 -0.090420923223518218 0 -0.22743897650959369 -0.090501455307577208 0 -0.24933959518292609 -0.10425775743636979 0 -0.23420829232889409 -0.1025770153024514 0 -0.24751880957211411 -0.090420923223518218 0 -0.2372170490876423 -0.11592713670092269 0 -0.24933959518292609 -0.10425775743636979 0 -0.23420829232889409 -0.1025770153024514 0 -0.23420829232889409 -0.1025770153024514 0 -0.22205626171504539 -0.1012288866540788 0 -0.2267123306744131 -0.1110699263989942 0 -0.23420829232889409 -0.1025770153024514 0 -0.22205626171504539 -0.1012288866540788 0 -0.22743897650959369 -0.090501455307577208 0 -0.22205626171504539 -0.1012288866540788 0 -0.22743897650959369 -0.090501455307577208 0 -0.21606786839940681 -0.094225215587454766 0 -0.22205626171504539 -0.1012288866540788 0 -0.2267123306744131 -0.1110699263989942 0 -0.21598977245141171 -0.11011477474736341 0 -0.2240902777890722 -0.12550181859015469 0 -0.2267123306744131 -0.1110699263989942 0 -0.21598977245141171 -0.11011477474736341 0 -0.2240902777890722 -0.12550181859015469 0 -0.2387723529740701 -0.13229022724945799 0 -0.2372170490876423 -0.11592713670092269 0 -0.2240902777890722 -0.12550181859015469 0 -0.2372170490876423 -0.11592713670092269 0 -0.2267123306744131 -0.1110699263989942 0 -0.2372170490876423 -0.11592713670092269 0 -0.23420829232889409 -0.1025770153024514 0 -0.2267123306744131 -0.1110699263989942 0 -0.23808615924575241 -0.062708160972089894 0 -0.2408247350023231 -0.074392971478238062 0 -0.23375924716084279 -0.068685931982102794 0 -0.23808615924575241 -0.062708160972089894 0 -0.2408247350023231 -0.074392971478238062 0 -0.25029958917744832 -0.064943637054200615 0 -0.2408247350023231 -0.074392971478238062 0 -0.25029958917744832 -0.064943637054200615 0 -0.25513455772923188 -0.078029326455416603 0 -0.24751880957211411 -0.090420923223518218 0 -0.22743897650959369 -0.090501455307577208 0 -0.23222900022665291 -0.077830523515596772 0 -0.2408247350023231 -0.074392971478238062 0 -0.24751880957211411 -0.090420923223518218 0 -0.25513455772923188 -0.078029326455416603 0 -0.2408247350023231 -0.074392971478238062 0 -0.24751880957211411 -0.090420923223518218 0 -0.23222900022665291 -0.077830523515596772 0 -0.24751880957211411 -0.090420923223518218 0 -0.23222900022665291 -0.077830523515596772 0 -0.22743897650959369 -0.090501455307577208 0 -0.2153997050656952 -0.085315439710543797 0 -0.21606786839940681 -0.094225215587454766 0 -0.22743897650959369 -0.090501455307577208 0 -0.22099314059884689 -0.081326200434774204 0 -0.2153997050656952 -0.085315439710543797 0 -0.22743897650959369 -0.090501455307577208 0 -0.22099314059884689 -0.081326200434774204 0 -0.23222900022665291 -0.077830523515596772 0 -0.23222900022665291 -0.077830523515596772 0 -0.2270888270881137 -0.073597845859525113 0 -0.2093797870956044 -0.071080655695262493 0 -0.23222900022665291 -0.077830523515596772 0 -0.2093797870956044 -0.071080655695262493 0 -0.22099314059884689 -0.081326200434774204 0 -0.23222900022665291 -0.077830523515596772 0 -0.2093797870956044 -0.071080655695262493 0 -0.2408247350023231 -0.074392971478238062 0 -0.2270888270881137 -0.073597845859525113 0 -0.23375924716084279 -0.068685931982102794 0 -0.2408247350023231 -0.074392971478238062 0 -0.23222900022665291 -0.077830523515596772 0 -0.2270888270881137 -0.073597845859525113 0 -0.23222900022665291 -0.077830523515596772 0 -0.2270888270881137 -0.073597845859525113 0 -0.2270888270881137 -0.073597845859525113 0 -0.2290372673071818 -0.064044749618558106 0 -0.22146843230246049 -0.059606619044777862 0 -0.23808615924575241 -0.062708160972089894 0 -0.2290372673071818 -0.064044749618558106 0 -0.23375924716084279 -0.068685931982102794 0 -0.2270888270881137 -0.073597845859525113 0 -0.2290372673071818 -0.064044749618558106 0 -0.23375924716084279 -0.068685931982102794 0 -0.2270888270881137 -0.073597845859525113 0 -0.20665884460411321 -0.05677476849553198 0 -0.22146843230246049 -0.059606619044777862 0 -0.2270888270881137 -0.073597845859525113 0 -0.20665884460411321 -0.05677476849553198 0 -0.2270888270881137 -0.073597845859525113 0 -0.2093797870956044 -0.071080655695262493 0 -0.20665884460411321 -0.05677476849553198 0 -0.2093797870956044 -0.071080655695262493 0 -0.20500399590703641 -0.083122509377062503 0 -0.2153997050656952 -0.085315439710543797 0 -0.22099314059884689 -0.081326200434774204 0 -0.2093797870956044 -0.071080655695262493 0 -0.2153997050656952 -0.085315439710543797 0 -0.2153997050656952 -0.085315439710543797 0 -0.20864453167601749 -0.090788532111299225 0 -0.21606786839940681 -0.094225215587454766 0 -0.20500399590703641 -0.083122509377062503 0 -0.2153997050656952 -0.085315439710543797 0 -0.20864453167601749 -0.090788532111299225 0 -0.20500399590703641 -0.083122509377062503 0 -0.20864453167601749 -0.090788532111299225 0 -0.19849514210255281 -0.090714562714090077 0 -0.19849514210255281 -0.090714562714090077 0 -0.1900474425083428 -0.097743280003363409 0 -0.1844982186591369 -0.086834127069159078 0 -0.19849514210255281 -0.090714562714090077 0 -0.19394217385753021 -0.077590737998284573 0 -0.1844982186591369 -0.086834127069159078 0 -0.20500399590703641 -0.083122509377062503 0 -0.19849514210255281 -0.090714562714090077 0 -0.19394217385753021 -0.077590737998284573 0 -0.2093797870956044 -0.071080655695262493 0 -0.19394217385753021 -0.077590737998284573 0 -0.18700548046671431 -0.063754060364811641 0 -0.2093797870956044 -0.071080655695262493 0 -0.18700548046671431 -0.063754060364811641 0 -0.20665884460411321 -0.05677476849553198 0 -0.2093797870956044 -0.071080655695262493 0 -0.18700548046671431 -0.063754060364811641 0 -0.2093797870956044 -0.071080655695262493 0 -0.20500399590703641 -0.083122509377062503 0 -0.19394217385753021 -0.077590737998284573 0 -0.2240902777890722 -0.12550181859015469 0 -0.2007556795762685 -0.1120771691955614 0 -0.21203266571757129 -0.13611368685060701 0 -0.2240902777890722 -0.12550181859015469 0 -0.2007556795762685 -0.1120771691955614 0 -0.2240902777890722 -0.12550181859015469 0 -0.21598977245141171 -0.11011477474736341 0 -0.2007556795762685 -0.1120771691955614 0 -0.22205626171504539 -0.1012288866540788 0 -0.21598977245141171 -0.11011477474736341 0 -0.20825594690539651 -0.10056493316734499 0 -0.22205626171504539 -0.1012288866540788 0 -0.21606786839940681 -0.094225215587454766 0 -0.20825594690539651 -0.10056493316734499 0 -0.20864453167601749 -0.090788532111299225 0 -0.21606786839940681 -0.094225215587454766 0 -0.20825594690539651 -0.10056493316734499 0 -0.20864453167601749 -0.090788532111299225 0 -0.19849514210255281 -0.090714562714090077 0 -0.20825594690539651 -0.10056493316734499 0 -0.21598977245141171 -0.11011477474736341 0 -0.20825594690539651 -0.10056493316734499 0 -0.2007556795762685 -0.1120771691955614 0 -0.2007556795762685 -0.1120771691955614 0 -0.17742108136346471 -0.098652519800967994 0 -0.18933670505582539 -0.1171870247594204 0 -0.2007556795762685 -0.1120771691955614 0 -0.17742108136346471 -0.098652519800967994 0 -0.1900474425083428 -0.097743280003363409 0 -0.2007556795762685 -0.1120771691955614 0 -0.17742108136346471 -0.098652519800967994 0 -0.1993885527731401 -0.10027498627008991 0 -0.1900474425083428 -0.097743280003363409 0 -0.2007556795762685 -0.1120771691955614 0 -0.20825594690539651 -0.10056493316734499 0 -0.1993885527731401 -0.10027498627008991 0 -0.2007556795762685 -0.1120771691955614 0 -0.19849514210255281 -0.090714562714090077 0 -0.20825594690539651 -0.10056493316734499 0 -0.1993885527731401 -0.10027498627008991 0 -0.19849514210255281 -0.090714562714090077 0 -0.1993885527731401 -0.10027498627008991 0 -0.1900474425083428 -0.097743280003363409 0 -0.21203266571757129 -0.13611368685060701 0 -0.18933670505582539 -0.1171870247594204 0 -0.2007556795762685 -0.1120771691955614 0 -0.18933670505582539 -0.1171870247594204 0 -0.17401321579253429 -0.1157577487481561 0 -0.16664074439407961 -0.098260362668233986 0 -0.17745000815055201 -0.1288643167121811 0 -0.18933670505582539 -0.1171870247594204 0 -0.17401321579253429 -0.1157577487481561 0 -0.17745000815055201 -0.1288643167121811 0 -0.17401321579253429 -0.1157577487481561 0 -0.1655105785307785 -0.12268689820229139 0 -0.17401321579253429 -0.1157577487481561 0 -0.1655105785307785 -0.12268689820229139 0 -0.1628061966100188 -0.1092946539494638 0 -0.1655105785307785 -0.12268689820229139 0 -0.1628061966100188 -0.1092946539494638 0 -0.15358298262641931 -0.11216710443844791 0 -0.1501964179203614 -0.126809590938815 0 -0.1655105785307785 -0.12268689820229139 0 -0.15358298262641931 -0.11216710443844791 0 -0.16664074439407961 -0.098260362668233986 0 -0.17742108136346471 -0.098652519800967994 0 -0.15408648315066101 -0.085227870406374626 0 -0.17401321579253429 -0.1157577487481561 0 -0.1628061966100188 -0.1092946539494638 0 -0.16664074439407961 -0.098260362668233986 0 -0.16664074439407961 -0.098260362668233986 0 -0.15408648315066101 -0.085227870406374626 0 -0.15347330713144031 -0.098412937690023183 0 -0.1628061966100188 -0.1092946539494638 0 -0.16664074439407961 -0.098260362668233986 0 -0.15347330713144031 -0.098412937690023183 0 -0.1628061966100188 -0.1092946539494638 0 -0.15358298262641931 -0.11216710443844791 0 -0.15347330713144031 -0.098412937690023183 0 -0.18933670505582539 -0.1171870247594204 0 -0.16664074439407961 -0.098260362668233986 0 -0.17742108136346471 -0.098652519800967994 0 -0.18933670505582539 -0.1171870247594204 0 -0.16664074439407961 -0.098260362668233986 0 -0.1900474425083428 -0.097743280003363409 0 -0.17742108136346471 -0.098652519800967994 0 -0.1844982186591369 -0.086834127069159078 0 -0.19394217385753021 -0.077590737998284573 0 -0.1844982186591369 -0.086834127069159078 0 -0.17444035804860819 -0.075749920886082164 0 -0.1844982186591369 -0.086834127069159078 0 -0.17261153530546769 -0.086616109540645969 0 -0.17444035804860819 -0.075749920886082164 0 -0.17742108136346471 -0.098652519800967994 0 -0.1844982186591369 -0.086834127069159078 0 -0.17261153530546769 -0.086616109540645969 0 -0.19394217385753021 -0.077590737998284573 0 -0.18700548046671431 -0.063754060364811641 0 -0.17444035804860819 -0.075749920886082164 0 -0.18700548046671431 -0.063754060364811641 0 -0.17444035804860819 -0.075749920886082164 0 -0.16463117383782419 -0.056427465034360809 0 -0.17444035804860819 -0.075749920886082164 0 -0.1601865856925522 -0.071459066181967706 0 -0.16463117383782419 -0.056427465034360809 0 -0.17444035804860819 -0.075749920886082164 0 -0.1601865856925522 -0.071459066181967706 0 -0.15408648315066101 -0.085227870406374626 0 -0.1601865856925522 -0.071459066181967706 0 -0.1534986519484971 -0.061576578087433297 0 -0.16463117383782419 -0.056427465034360809 0 -0.17742108136346471 -0.098652519800967994 0 -0.15408648315066101 -0.085227870406374626 0 -0.17261153530546769 -0.086616109540645969 0 -0.17444035804860819 -0.075749920886082164 0 -0.15408648315066101 -0.085227870406374626 0 -0.17742108136346471 -0.098652519800967994 0 -0.17261153530546769 -0.086616109540645969 0 -0.15408648315066101 -0.085227870406374626 0 -0.15408648315066101 -0.085227870406374626 0 -0.13570169370036059 -0.09019182369339461 0 -0.15347330713144031 -0.098412937690023183 0 -0.15408648315066101 -0.085227870406374626 0 -0.13075188493785719 -0.071803221011781271 0 -0.1601865856925522 -0.071459066181967706 0 -0.15408648315066101 -0.085227870406374626 0 -0.14834178868302941 -0.06822093051602468 0 -0.15408648315066101 -0.085227870406374626 0 -0.14834178868302941 -0.06822093051602468 0 -0.13075188493785719 -0.071803221011781271 0 -0.14834178868302941 -0.06822093051602468 0 -0.14539545972623311 -0.059939615270565197 0 -0.1534986519484971 -0.061576578087433297 0 -0.1601865856925522 -0.071459066181967706 0 -0.14834178868302941 -0.06822093051602468 0 -0.1534986519484971 -0.061576578087433297 0 -0.14834178868302941 -0.06822093051602468 0 -0.1378891113472962 -0.061872246967991519 0 -0.14539545972623311 -0.059939615270565197 0 -0.13075188493785719 -0.071803221011781271 0 -0.12541429573023419 -0.054669457806775512 0 -0.1378891113472962 -0.061872246967991519 0 -0.14834178868302941 -0.06822093051602468 0 -0.13075188493785719 -0.071803221011781271 0 -0.1378891113472962 -0.061872246967991519 0 -0.15408648315066101 -0.085227870406374626 0 -0.13075188493785719 -0.071803221011781271 0 -0.13570169370036059 -0.09019182369339461 0 -0.11161136149055211 -0.078080783962452216 0 -0.13075188493785719 -0.071803221011781271 0 -0.13570169370036059 -0.09019182369339461 0 -0.1188864067751853 -0.098418370061462673 0 -0.13570169370036059 -0.09019182369339461 0 -0.13420893086787869 -0.10917636936858929 0 -0.13510539055085111 -0.129598756104846 0 -0.1501964179203614 -0.126809590938815 0 -0.13420893086787869 -0.10917636936858929 0 -0.1195898713899016 -0.1137685962941125 0 -0.13510539055085111 -0.129598756104846 0 -0.13420893086787869 -0.10917636936858929 0 -0.13510539055085111 -0.129598756104846 0 -0.13420893086787869 -0.10917636936858929 0 -0.1501964179203614 -0.126809590938815 0 -0.13420893086787869 -0.10917636936858929 0 -0.15358298262641931 -0.11216710443844791 0 -0.13420893086787869 -0.10917636936858929 0 -0.15358298262641931 -0.11216710443844791 0 -0.15347330713144031 -0.098412937690023183 0 -0.13570169370036059 -0.09019182369339461 0 -0.13420893086787869 -0.10917636936858929 0 -0.15347330713144031 -0.098412937690023183 0 -0.15160335565972369 -0.01512451271162101 0 -0.13402382468199339 -0.015556880960173431 0 -0.14058677514086651 -0.019367754757656581 0 -0.14357865970573719 -0.026646631561433029 0 -0.15160335565972369 -0.01512451271162101 0 -0.15329412193167519 -0.032959802975637512 0 -0.14357865970573719 -0.026646631561433029 0 -0.15160335565972369 -0.01512451271162101 0 -0.14058677514086651 -0.019367754757656581 0 -0.15160335565972369 -0.01512451271162101 0 -0.12713940856238881 -0.0076790342467774756 0 -0.14541023924915009 0.00042060974509095309 0 -0.15160335565972369 -0.01512451271162101 0 -0.16274453941380371 -0.002728002490621266 0 -0.14541023924915009 0.00042060974509095309 0 -0.12713940856238881 -0.0076790342467774756 0 -0.14541023924915009 0.00042060974509095309 0 -0.15160335565972369 -0.01512451271162101 0 -0.13402382468199339 -0.015556880960173431 0 -0.12713940856238881 -0.0076790342467774756 0 -0.1207610724454848 -0.0057378199361568828 0 -0.12713940856238881 -0.0076790342467774756 0 -0.12717484439133969 0.01175442995286285 0 -0.15160335565972369 -0.01512451271162101 0 -0.12713940856238881 -0.0076790342467774756 0 -0.13402382468199339 -0.015556880960173431 0 -0.12713940856238881 -0.0076790342467774756 0 -0.12694403342152311 -0.013481873708208761 0 -0.12721118461146169 -0.019307905818047141 0 -0.13382688358697589 -0.021597818450904929 0 -0.12894387693947121 -0.025556337537249691 0 -0.13402382468199339 -0.015556880960173431 0 -0.12694403342152311 -0.013481873708208761 0 -0.12721118461146169 -0.019307905818047141 0 -0.13402382468199339 -0.015556880960173431 0 -0.12721118461146169 -0.019307905818047141 0 -0.13382688358697589 -0.021597818450904929 0 -0.13402382468199339 -0.015556880960173431 0 -0.13382688358697589 -0.021597818450904929 0 -0.14058677514086651 -0.019367754757656581 0 -0.14357865970573719 -0.026646631561433029 0 -0.13382688358697589 -0.021597818450904929 0 -0.14058677514086651 -0.019367754757656581 0 -0.14357865970573719 -0.026646631561433029 0 -0.13382688358697589 -0.021597818450904929 0 -0.13419659266043571 -0.02854555286989402 0 -0.14357865970573719 -0.026646631561433029 0 -0.13419659266043571 -0.02854555286989402 0 -0.1361707226727564 -0.034980116936455842 0 -0.13419659266043571 -0.02854555286989402 0 -0.12894387693947121 -0.025556337537249691 0 -0.1287656820004725 -0.033813725329979172 0 -0.1225528045947059 -0.027303398981776229 0 -0.12721118461146169 -0.019307905818047141 0 -0.12894387693947121 -0.025556337537249691 0 -0.1225528045947059 -0.027303398981776229 0 -0.12894387693947121 -0.025556337537249691 0 -0.1287656820004725 -0.033813725329979172 0 -0.13382688358697589 -0.021597818450904929 0 -0.13419659266043571 -0.02854555286989402 0 -0.12894387693947121 -0.025556337537249691 0 -0.12119793105417929 -0.039973945387982247 0 -0.1287656820004725 -0.033813725329979172 0 -0.12963520463900369 -0.041543963407088803 0 -0.1287656820004725 -0.033813725329979172 0 -0.12963520463900369 -0.041543963407088803 0 -0.1361707226727564 -0.034980116936455842 0 -0.12963520463900369 -0.041543963407088803 0 -0.13722305040890001 -0.043110536687775917 0 -0.12541429573023419 -0.054669457806775512 0 -0.12119793105417929 -0.039973945387982247 0 -0.12963520463900369 -0.041543963407088803 0 -0.12541429573023419 -0.054669457806775512 0 -0.12963520463900369 -0.041543963407088803 0 -0.13722305040890001 -0.043110536687775917 0 -0.1361707226727564 -0.034980116936455842 0 -0.13722305040890001 -0.043110536687775917 0 -0.1361707226727564 -0.034980116936455842 0 -0.14362514662198941 -0.036220291762564097 0 -0.13419659266043571 -0.02854555286989402 0 -0.1287656820004725 -0.033813725329979172 0 -0.1361707226727564 -0.034980116936455842 0 -0.13722305040890001 -0.043110536687775917 0 -0.12541429573023419 -0.054669457806775512 0 -0.1422568672089343 -0.049100869703910019 0 -0.12541429573023419 -0.054669457806775512 0 -0.13889766445577101 -0.056794652026322973 0 -0.14341130473541491 -0.050960343996362997 0 -0.12541429573023419 -0.054669457806775512 0 -0.14341130473541491 -0.050960343996362997 0 -0.12541429573023419 -0.054669457806775512 0 -0.14341130473541491 -0.050960343996362997 0 -0.1422568672089343 -0.049100869703910019 0 -0.12541429573023419 -0.054669457806775512 0 -0.13889766445577101 -0.056794652026322973 0 -0.1378891113472962 -0.061872246967991519 0 -0.1422568672089343 -0.049100869703910019 0 -0.16463117383782419 -0.056427465034360809 0 -0.1422568672089343 -0.049100869703910019 0 -0.15521166561102059 -0.045410609866352543 0 -0.16463117383782419 -0.056427465034360809 0 -0.14341130473541491 -0.050960343996362997 0 -0.1422568672089343 -0.049100869703910019 0 -0.16463117383782419 -0.056427465034360809 0 -0.14341130473541491 -0.050960343996362997 0 -0.1534986519484971 -0.061576578087433297 0 -0.16463117383782419 -0.056427465034360809 0 -0.13889766445577101 -0.056794652026322973 0 -0.14539545972623311 -0.059939615270565197 0 -0.14341130473541491 -0.050960343996362997 0 -0.14539545972623311 -0.059939615270565197 0 -0.14341130473541491 -0.050960343996362997 0 -0.1534986519484971 -0.061576578087433297 0 -0.13889766445577101 -0.056794652026322973 0 -0.1378891113472962 -0.061872246967991519 0 -0.14539545972623311 -0.059939615270565197 0 -0.14357865970573719 -0.026646631561433029 0 -0.14362514662198941 -0.036220291762564097 0 -0.15329412193167519 -0.032959802975637512 0 -0.14362514662198941 -0.036220291762564097 0 -0.14711330696601779 -0.042147326166608032 0 -0.15329412193167519 -0.032959802975637512 0 -0.14357865970573719 -0.026646631561433029 0 -0.1361707226727564 -0.034980116936455842 0 -0.14362514662198941 -0.036220291762564097 0 -0.13722305040890001 -0.043110536687775917 0 -0.1422568672089343 -0.049100869703910019 0 -0.14711330696601779 -0.042147326166608032 0 -0.13722305040890001 -0.043110536687775917 0 -0.14362514662198941 -0.036220291762564097 0 -0.14711330696601779 -0.042147326166608032 0 -0.1422568672089343 -0.049100869703910019 0 -0.14711330696601779 -0.042147326166608032 0 -0.15521166561102059 -0.045410609866352543 0 -0.14711330696601779 -0.042147326166608032 0 -0.15521166561102059 -0.045410609866352543 0 -0.15329412193167519 -0.032959802975637512 0 -0.15521166561102059 -0.045410609866352543 0 -0.1657771825118296 -0.038226096020590968 0 -0.16463117383782419 -0.056427465034360809 0 -0.15521166561102059 -0.045410609866352543 0 -0.15329412193167519 -0.032959802975637512 0 -0.1657771825118296 -0.038226096020590968 0 -0.15329412193167519 -0.032959802975637512 0 -0.1657771825118296 -0.038226096020590968 0 -0.17140829661075449 -0.024062344001417359 0 -0.18700548046671431 -0.063754060364811641 0 -0.16463117383782419 -0.056427465034360809 0 -0.18700548046671431 -0.063754060364811641 0 -0.16463117383782419 -0.056427465034360809 0 -0.18622886212011289 -0.039951691131538992 0 -0.1657771825118296 -0.038226096020590968 0 -0.18622886212011289 -0.039951691131538992 0 -0.17140829661075449 -0.024062344001417359 0 -0.1657771825118296 -0.038226096020590968 0 -0.16463117383782419 -0.056427465034360809 0 -0.18622886212011289 -0.039951691131538992 0 -0.18622886212011289 -0.039951691131538992 0 -0.17140829661075449 -0.024062344001417359 0 -0.19438020261513969 -0.024631574320261619 0 -0.15160335565972369 -0.01512451271162101 0 -0.15329412193167519 -0.032959802975637512 0 -0.17140829661075449 -0.024062344001417359 0 -0.15160335565972369 -0.01512451271162101 0 -0.17140829661075449 -0.024062344001417359 0 -0.16274453941380371 -0.002728002490621266 0 -0.17140829661075449 -0.024062344001417359 0 -0.16274453941380371 -0.002728002490621266 0 -0.18352908179891519 0.002793999794870175 0 -0.17140829661075449 -0.024062344001417359 0 -0.19438020261513969 -0.024631574320261619 0 -0.18352908179891519 0.002793999794870175 0 -0.19438020261513969 -0.024631574320261619 0 -0.20849931452977519 -0.01043234022863607 0 -0.18352908179891519 0.002793999794870175 0 -0.20849931452977519 -0.01043234022863607 0 -0.18352908179891519 0.002793999794870175 0 -0.20849931452977519 -0.01043234022863607 0 -0.21355966996029829 -0.032554732941862813 0 -0.2334695472606354 -0.02365868025214236 0 -0.19438020261513969 -0.024631574320261619 0 -0.20849931452977519 -0.01043234022863607 0 -0.21355966996029829 -0.032554732941862813 0 -0.20849931452977519 -0.01043234022863607 0 -0.22677412226260951 -0.0050673254014672181 0 -0.20518993213912379 0.01189016829778876 0 -0.18700548046671431 -0.063754060364811641 0 -0.18622886212011289 -0.039951691131538992 0 -0.20665884460411321 -0.05677476849553198 0 -0.18622886212011289 -0.039951691131538992 0 -0.20665884460411321 -0.05677476849553198 0 -0.18622886212011289 -0.039951691131538992 0 -0.19438020261513969 -0.024631574320261619 0 -0.20312131250179799 -0.040453127763158597 0 -0.18622886212011289 -0.039951691131538992 0 -0.20312131250179799 -0.040453127763158597 0 -0.20665884460411321 -0.05677476849553198 0 -0.19438020261513969 -0.024631574320261619 0 -0.20312131250179799 -0.040453127763158597 0 -0.21355966996029829 -0.032554732941862813 0 -0.20312131250179799 -0.040453127763158597 0 -0.21355966996029829 -0.032554732941862813 0 -0.21477898320932581 -0.048352871926597617 0 -0.20312131250179799 -0.040453127763158597 0 -0.21477898320932581 -0.048352871926597617 0 -0.20665884460411321 -0.05677476849553198 0 -0.21477898320932581 -0.048352871926597617 0 -0.20665884460411321 -0.05677476849553198 0 -0.22146843230246049 -0.059606619044777862 0 -0.23808615924575241 -0.062708160972089894 0 -0.2290372673071818 -0.064044749618558106 0 -0.2291519785087747 -0.04924590173783075 0 -0.2290372673071818 -0.064044749618558106 0 -0.22146843230246049 -0.059606619044777862 0 -0.2291519785087747 -0.04924590173783075 0 -0.21477898320932581 -0.048352871926597617 0 -0.22146843230246049 -0.059606619044777862 0 -0.2291519785087747 -0.04924590173783075 0 -0.21355966996029829 -0.032554732941862813 0 -0.2291519785087747 -0.04924590173783075 0 -0.2334695472606354 -0.02365868025214236 0 -0.21355966996029829 -0.032554732941862813 0 -0.21477898320932581 -0.048352871926597617 0 -0.2291519785087747 -0.04924590173783075 0 -0.24683267677285639 -0.051815238679490602 0 -0.2334695472606354 -0.02365868025214236 0 -0.25843977999149548 -0.036885020275648613 0 -0.2291519785087747 -0.04924590173783075 0 -0.24683267677285639 -0.051815238679490602 0 -0.2334695472606354 -0.02365868025214236 0 -0.23808615924575241 -0.062708160972089894 0 -0.2291519785087747 -0.04924590173783075 0 -0.24683267677285639 -0.051815238679490602 0 -0.23808615924575241 -0.062708160972089894 0 -0.24683267677285639 -0.051815238679490602 0 -0.25029958917744832 -0.064943637054200615 0 -0.20849931452977519 -0.01043234022863607 0 -0.22677412226260951 -0.0050673254014672181 0 -0.2334695472606354 -0.02365868025214236 0 -0.20849931452977519 -0.01043234022863607 0 -0.2334695472606354 -0.02365868025214236 0 -0.2334695472606354 -0.02365868025214236 0 -0.25843977999149548 -0.036885020275648613 0 -0.2334695472606354 -0.02365868025214236 0 -0.24867965422185331 -0.020795533880710829 0 -0.24581926029132531 -0.0052536027080981318 0 -0.2334695472606354 -0.02365868025214236 0 -0.24867965422185331 -0.020795533880710829 0 -0.25843977999149548 -0.036885020275648613 0 -0.22677412226260951 -0.0050673254014672181 0 -0.2334695472606354 -0.02365868025214236 0 -0.24581926029132531 -0.0052536027080981318 0 -0.26121447794919622 -0.0060932689380633204 0 -0.2627005386575435 -0.024362609551685711 0 -0.27228091968950141 -0.012405458454863639 0 -0.24581926029132531 -0.0052536027080981318 0 -0.26121447794919622 -0.0060932689380633204 0 -0.25342021044930962 0.01019897024344749 0 -0.24581926029132531 -0.0052536027080981318 0 -0.2627005386575435 -0.024362609551685711 0 -0.24581926029132531 -0.0052536027080981318 0 -0.26121447794919622 -0.0060932689380633204 0 -0.2627005386575435 -0.024362609551685711 0 -0.24867965422185331 -0.020795533880710829 0 -0.2627005386575435 -0.024362609551685711 0 -0.25843977999149548 -0.036885020275648613 0 -0.24867965422185331 -0.020795533880710829 0 -0.24581926029132531 -0.0052536027080981318 0 -0.2627005386575435 -0.024362609551685711 0 -0.2627005386575435 -0.024362609551685711 0 -0.28091550144173411 -0.023382442747015689 0 -0.27958181702376178 -0.043471616395273291 0 -0.2627005386575435 -0.024362609551685711 0 -0.28091550144173411 -0.023382442747015689 0 -0.27228091968950141 -0.012405458454863639 0 -0.28091550144173411 -0.023382442747015689 0 -0.27228091968950141 -0.012405458454863639 0 -0.28538999741581611 -0.0058496864937137329 0 -0.26121447794919622 -0.0060932689380633204 0 -0.27228091968950141 -0.012405458454863639 0 -0.27185146065830079 0.0013563557808834021 0 -0.27228091968950141 -0.012405458454863639 0 -0.28538999741581611 -0.0058496864937137329 0 -0.27185146065830079 0.0013563557808834021 0 -0.28538999741581611 -0.0058496864937137329 0 -0.29442325978894279 -0.017887606509435779 0 -0.3069530086745581 0.0024109487627334059 0 -0.28091550144173411 -0.023382442747015689 0 -0.29442325978894279 -0.017887606509435779 0 -0.28838813835669241 -0.035147511264645562 0 -0.28091550144173411 -0.023382442747015689 0 -0.28538999741581611 -0.0058496864937137329 0 -0.29442325978894279 -0.017887606509435779 0 -0.29442325978894279 -0.017887606509435779 0 -0.30361010080666789 -0.040884530372348182 0 -0.29442325978894279 -0.017887606509435779 0 -0.30361010080666789 -0.040884530372348182 0 -0.32266189730137879 -0.02083099376849476 0 -0.29442325978894279 -0.017887606509435779 0 -0.32266189730137879 -0.02083099376849476 0 -0.3069530086745581 0.0024109487627334059 0 -0.29058661080829512 -0.061147067857940343 0 -0.30838024545321552 -0.063337700322661381 0 -0.30361010080666789 -0.040884530372348182 0 -0.30838024545321552 -0.063337700322661381 0 -0.31279694182439349 -0.063881454235260204 0 -0.30361010080666789 -0.040884530372348182 0 -0.31279694182439349 -0.063881454235260204 0 -0.30361010080666789 -0.040884530372348182 0 -0.2834100127223555 -0.050111360299154847 0 -0.30838024545321552 -0.063337700322661381 0 -0.28091550144173411 -0.023382442747015689 0 -0.28838813835669241 -0.035147511264645562 0 -0.27958181702376178 -0.043471616395273291 0 -0.30361010080666789 -0.040884530372348182 0 -0.28838813835669241 -0.035147511264645562 0 -0.2834100127223555 -0.050111360299154847 0 -0.29442325978894279 -0.017887606509435779 0 -0.30361010080666789 -0.040884530372348182 0 -0.28838813835669241 -0.035147511264645562 0 -0.28838813835669241 -0.035147511264645562 0 -0.2834100127223555 -0.050111360299154847 0 -0.27958181702376178 -0.043471616395273291 0 -0.29058661080829512 -0.061147067857940343 0 -0.2834100127223555 -0.050111360299154847 0 -0.27279297616337472 -0.058956435393219063 0 -0.29058661080829512 -0.061147067857940343 0 -0.27279297616337472 -0.058956435393219063 0 -0.29058661080829512 -0.061147067857940343 0 -0.2834100127223555 -0.050111360299154847 0 -0.30838024545321552 -0.063337700322661381 0 -0.2834100127223555 -0.050111360299154847 0 -0.30838024545321552 -0.063337700322661381 0 -0.2834100127223555 -0.050111360299154847 0 -0.27279297616337472 -0.058956435393219063 0 -0.25996299245253501 -0.054839940589292029 0 -0.2834100127223555 -0.050111360299154847 0 -0.25843977999149548 -0.036885020275648613 0 -0.25996299245253501 -0.054839940589292029 0 -0.2834100127223555 -0.050111360299154847 0 -0.27958181702376178 -0.043471616395273291 0 -0.25843977999149548 -0.036885020275648613 0 -0.2627005386575435 -0.024362609551685711 0 -0.27958181702376178 -0.043471616395273291 0 -0.2627005386575435 -0.024362609551685711 0 -0.27958181702376178 -0.043471616395273291 0 -0.25843977999149548 -0.036885020275648613 0 -0.2834100127223555 -0.050111360299154847 0 -0.25843977999149548 -0.036885020275648613 0 -0.24683267677285639 -0.051815238679490602 0 -0.25843977999149548 -0.036885020275648613 0 -0.25996299245253501 -0.054839940589292029 0 -0.27279297616337472 -0.058956435393219063 0 -0.25996299245253501 -0.054839940589292029 0 -0.26345923866423732 -0.067912986452314861 0 -0.24683267677285639 -0.051815238679490602 0 -0.25996299245253501 -0.054839940589292029 0 -0.25029958917744832 -0.064943637054200615 0 -0.25029958917744832 -0.064943637054200615 0 -0.26345923866423732 -0.067912986452314861 0 -0.25513455772923188 -0.078029326455416603 0 -0.25996299245253501 -0.054839940589292029 0 -0.25029958917744832 -0.064943637054200615 0 -0.26345923866423732 -0.067912986452314861 0 -0.26345923866423732 -0.067912986452314861 0 -0.25513455772923188 -0.078029326455416603 0 -0.26731403303857593 -0.080438527458986706 0 -0.24751880957211411 -0.090420923223518218 0 -0.25513455772923188 -0.078029326455416603 0 -0.26048165976658688 -0.091508133946716294 0 -0.25513455772923188 -0.078029326455416603 0 -0.26048165976658688 -0.091508133946716294 0 -0.26731403303857593 -0.080438527458986706 0 -0.26731403303857593 -0.080438527458986706 0 -0.27654792125182648 -0.091938274417657478 0 -0.28433427694126617 -0.077534966553616025 0 -0.26048165976658688 -0.091508133946716294 0 -0.26731403303857593 -0.080438527458986706 0 -0.27654792125182648 -0.091938274417657478 0 -0.29058661080829512 -0.061147067857940343 0 -0.27279297616337472 -0.058956435393219063 0 -0.27508717336918481 -0.070435178403785159 0 -0.26731403303857593 -0.080438527458986706 0 -0.27508717336918481 -0.070435178403785159 0 -0.28433427694126617 -0.077534966553616025 0 -0.27279297616337472 -0.058956435393219063 0 -0.26345923866423732 -0.067912986452314861 0 -0.27508717336918481 -0.070435178403785159 0 -0.26345923866423732 -0.067912986452314861 0 -0.26731403303857593 -0.080438527458986706 0 -0.27508717336918481 -0.070435178403785159 0 -0.25305552029136519 -0.1195692895295553 0 -0.26634949974157252 -0.117997074857264 0 -0.26428008539362557 -0.12982162789105961 0 -0.24933959518292609 -0.10425775743636979 0 -0.25305552029136519 -0.1195692895295553 0 -0.26355624005095379 -0.1055440459150553 0 -0.25305552029136519 -0.1195692895295553 0 -0.26355624005095379 -0.1055440459150553 0 -0.26634949974157252 -0.117997074857264 0 -0.24933959518292609 -0.10425775743636979 0 -0.24751880957211411 -0.090420923223518218 0 -0.26048165976658688 -0.091508133946716294 0 -0.24933959518292609 -0.10425775743636979 0 -0.26048165976658688 -0.091508133946716294 0 -0.26355624005095379 -0.1055440459150553 0 -0.26048165976658688 -0.091508133946716294 0 -0.27654792125182648 -0.091938274417657478 0 -0.26355624005095379 -0.1055440459150553 0 -0.27654792125182648 -0.091938274417657478 0 -0.26355624005095379 -0.1055440459150553 0 -0.27826787857076152 -0.10678577414295939 0 -0.27654792125182648 -0.091938274417657478 0 -0.27826787857076152 -0.10678577414295939 0 -0.28840255621349331 -0.096216779988951978 0 -0.26355624005095379 -0.1055440459150553 0 -0.27826787857076152 -0.10678577414295939 0 -0.26634949974157252 -0.117997074857264 0 -0.27826787857076152 -0.10678577414295939 0 -0.28099693799108372 -0.11964692383193121 0 -0.26634949974157252 -0.117997074857264 0 -0.28099693799108372 -0.11964692383193121 0 -0.26634949974157252 -0.117997074857264 0 -0.27566762067915829 -0.13065293366523281 0 -0.28099693799108372 -0.11964692383193121 0 -0.29262076364211781 -0.1121973553888027 0 -0.29207892732180862 -0.13060148110539729 0 -0.27826787857076152 -0.10678577414295939 0 -0.28099693799108372 -0.11964692383193121 0 -0.29262076364211781 -0.1121973553888027 0 -0.27826787857076152 -0.10678577414295939 0 -0.29262076364211781 -0.1121973553888027 0 -0.28840255621349331 -0.096216779988951978 0 -0.29262076364211781 -0.1121973553888027 0 -0.28840255621349331 -0.096216779988951978 0 -0.29934655530069848 -0.1013790672380091 0 -0.28840255621349331 -0.096216779988951978 0 -0.29934655530069848 -0.1013790672380091 0 -0.29921919400439551 -0.091943917132280797 0 -0.29934655530069848 -0.1013790672380091 0 -0.30949055022776178 -0.094617396489032363 0 -0.29921919400439551 -0.091943917132280797 0 -0.30949055022776178 -0.094617396489032363 0 -0.30797691903976893 -0.1098552534170677 0 -0.31833758164679771 -0.1045715699077709 0 -0.29934655530069848 -0.1013790672380091 0 -0.30949055022776178 -0.094617396489032363 0 -0.30797691903976893 -0.1098552534170677 0 -0.29262076364211781 -0.1121973553888027 0 -0.29934655530069848 -0.1013790672380091 0 -0.30797691903976893 -0.1098552534170677 0 -0.29262076364211781 -0.1121973553888027 0 -0.30625821365658262 -0.122333660871811 0 -0.29207892732180862 -0.13060148110539729 0 -0.29262076364211781 -0.1121973553888027 0 -0.30797691903976893 -0.1098552534170677 0 -0.30625821365658262 -0.122333660871811 0 -0.30797691903976893 -0.1098552534170677 0 -0.30625821365658262 -0.122333660871811 0 -0.31969192209455383 -0.11819178366248349 0 -0.29058661080829512 -0.061147067857940343 0 -0.27508717336918481 -0.070435178403785159 0 -0.28433427694126617 -0.077534966553616025 0 -0.29058661080829512 -0.061147067857940343 0 -0.28433427694126617 -0.077534966553616025 0 -0.29808553475452487 -0.072311936664148119 0 -0.27654792125182648 -0.091938274417657478 0 -0.28433427694126617 -0.077534966553616025 0 -0.29189529317216389 -0.085969828650958494 0 -0.27654792125182648 -0.091938274417657478 0 -0.28840255621349331 -0.096216779988951978 0 -0.29189529317216389 -0.085969828650958494 0 -0.28840255621349331 -0.096216779988951978 0 -0.29189529317216389 -0.085969828650958494 0 -0.29921919400439551 -0.091943917132280797 0 -0.28433427694126617 -0.077534966553616025 0 -0.29189529317216389 -0.085969828650958494 0 -0.29808553475452487 -0.072311936664148119 0 -0.29189529317216389 -0.085969828650958494 0 -0.30334544649438749 -0.083407256785864803 0 -0.29808553475452487 -0.072311936664148119 0 -0.30949055022776178 -0.094617396489032363 0 -0.30334544649438749 -0.083407256785864803 0 -0.29921919400439551 -0.091943917132280797 0 -0.29189529317216389 -0.085969828650958494 0 -0.30334544649438749 -0.083407256785864803 0 -0.29921919400439551 -0.091943917132280797 0 -0.30949055022776178 -0.094617396489032363 0 -0.30334544649438749 -0.083407256785864803 0 -0.31131396522327159 -0.081349949278962913 0 -0.30334544649438749 -0.083407256785864803 0 -0.31131396522327159 -0.081349949278962913 0 -0.3072818971276392 -0.073781816895036587 0 -0.29058661080829512 -0.061147067857940343 0 -0.29808553475452487 -0.072311936664148119 0 -0.30838024545321552 -0.063337700322661381 0 -0.31131396522327159 -0.081349949278962913 0 -0.3072818971276392 -0.073781816895036587 0 -0.31370681998195082 -0.066159103176096856 0 -0.30334544649438749 -0.083407256785864803 0 -0.3072818971276392 -0.073781816895036587 0 -0.29808553475452487 -0.072311936664148119 0 -0.3072818971276392 -0.073781816895036587 0 -0.29808553475452487 -0.072311936664148119 0 -0.30838024545321552 -0.063337700322661381 0 -0.3072818971276392 -0.073781816895036587 0 -0.30838024545321552 -0.063337700322661381 0 -0.31370681998195082 -0.066159103176096856 0 -0.30838024545321552 -0.063337700322661381 0 -0.31370681998195082 -0.066159103176096856 0 -0.30838024545321552 -0.063337700322661381 0 -0.31279694182439349 -0.063881454235260204 0 -0.31370681998195082 -0.066159103176096856 0 -0.30838024545321552 -0.063337700322661381 0 -0.31279694182439349 -0.063881454235260204 0 -0.31370681998195082 -0.066159103176096856 0 -0.32274511228461528 -0.088784173048790355 0 -0.32934455459113637 -0.074442165547502825 0 -0.31370681998195082 -0.066159103176096856 0 -0.32915525404814278 -0.065895379469788753 0 -0.32934455459113637 -0.074442165547502825 0 -0.31279694182439349 -0.063881454235260204 0 -0.31370681998195082 -0.066159103176096856 0 -0.32915525404814278 -0.065895379469788753 0 -0.31370681998195082 -0.066159103176096856 0 -0.32274511228461528 -0.088784173048790355 0 -0.31279694182439349 -0.063881454235260204 0 -0.32915525404814278 -0.065895379469788753 0 -0.31370681998195082 -0.066159103176096856 0 -0.32934455459113637 -0.074442165547502825 0 -0.31279694182439349 -0.063881454235260204 0 -0.31370681998195082 -0.066159103176096856 0 -0.31131396522327159 -0.081349949278962913 0 -0.31370681998195082 -0.066159103176096856 0 -0.32274511228461528 -0.088784173048790355 0 -0.30949055022776178 -0.094617396489032363 0 -0.31131396522327159 -0.081349949278962913 0 -0.32274511228461528 -0.088784173048790355 0 -0.32274511228461528 -0.088784173048790355 0 -0.33312967233898899 -0.085400007672941591 0 -0.32934455459113637 -0.074442165547502825 0 -0.32934455459113637 -0.074442165547502825 0 -0.34498228920032092 -0.082725227918911251 0 -0.33312967233898899 -0.085400007672941591 0 -0.32934455459113637 -0.074442165547502825 0 -0.34498228920032092 -0.082725227918911251 0 -0.32274511228461528 -0.088784173048790355 0 -0.33312967233898899 -0.085400007672941591 0 -0.33544673327988561 -0.095648464176558035 0 -0.33312967233898899 -0.085400007672941591 0 -0.33544673327988561 -0.095648464176558035 0 -0.34498228920032092 -0.082725227918911251 0 -0.32915525404814278 -0.065895379469788753 0 -0.32934455459113637 -0.074442165547502825 0 -0.34551356627189211 -0.067909304704317039 0 -0.32934455459113637 -0.074442165547502825 0 -0.34551356627189211 -0.067909304704317039 0 -0.34498228920032092 -0.082725227918911251 0 -0.32915525404814278 -0.065895379469788753 0 -0.34551356627189211 -0.067909304704317039 0 -0.31969192209455383 -0.11819178366248349 0 -0.33314929418071498 -0.1211975953897111 0 -0.32625132417543862 -0.13093619088423189 0 -0.30625821365658262 -0.122333660871811 0 -0.31969192209455383 -0.11819178366248349 0 -0.31583212026896562 -0.1290349716698283 0 -0.30797691903976893 -0.1098552534170677 0 -0.31969192209455383 -0.11819178366248349 0 -0.31833758164679771 -0.1045715699077709 0 -0.31969192209455383 -0.11819178366248349 0 -0.31833758164679771 -0.1045715699077709 0 -0.33178340458728861 -0.1114092429214804 0 -0.30949055022776178 -0.094617396489032363 0 -0.32274511228461528 -0.088784173048790355 0 -0.31833758164679771 -0.1045715699077709 0 -0.32274511228461528 -0.088784173048790355 0 -0.33178340458728861 -0.1114092429214804 0 -0.32274511228461528 -0.088784173048790355 0 -0.31833758164679771 -0.1045715699077709 0 -0.33178340458728861 -0.1114092429214804 0 -0.32274511228461528 -0.088784173048790355 0 -0.33544673327988561 -0.095648464176558035 0 -0.33178340458728861 -0.1114092429214804 0 -0.33544673327988561 -0.095648464176558035 0 -0.34400103985347541 -0.1100896969601131 0 -0.34498228920032092 -0.082725227918911251 0 -0.33544673327988561 -0.095648464176558035 0 -0.33178340458728861 -0.1114092429214804 0 -0.34400103985347541 -0.1100896969601131 0 -0.31969192209455383 -0.11819178366248349 0 -0.33178340458728861 -0.1114092429214804 0 -0.33314929418071498 -0.1211975953897111 0 -0.33178340458728861 -0.1114092429214804 0 -0.33314929418071498 -0.1211975953897111 0 -0.34400103985347541 -0.1100896969601131 0 -0.34305338825517212 -0.1228263658777578 0 -0.33314929418071498 -0.1211975953897111 0 -0.34400103985347541 -0.1100896969601131 0 -0.35094033843103323 -0.11897953066990451 0 -0.35547520914814051 -0.10625373194929109 0 -0.36086024645219011 -0.1234652823881919 0 -0.35094033843103323 -0.11897953066990451 0 -0.36086024645219011 -0.1234652823881919 0 -0.35131574840575891 -0.13039162185445169 0 -0.34305338825517212 -0.1228263658777578 0 -0.35094033843103323 -0.11897953066990451 0 -0.34400103985347541 -0.1100896969601131 0 -0.34305338825517212 -0.1228263658777578 0 -0.35094033843103323 -0.11897953066990451 0 -0.35131574840575891 -0.13039162185445169 0 -0.35094033843103323 -0.11897953066990451 0 -0.34400103985347541 -0.1100896969601131 0 -0.35547520914814051 -0.10625373194929109 0 -0.34400103985347541 -0.1100896969601131 0 -0.35547520914814051 -0.10625373194929109 0 -0.34498228920032092 -0.082725227918911251 0 -0.35547520914814051 -0.10625373194929109 0 -0.34498228920032092 -0.082725227918911251 0 -0.36372559495201201 -0.092653262539515863 0 -0.34400103985347541 -0.1100896969601131 0 -0.34498228920032092 -0.082725227918911251 0 -0.35547520914814051 -0.10625373194929109 0 -0.36834174599981351 -0.1096093912191058 0 -0.36372559495201201 -0.092653262539515863 0 -0.36372559495201201 -0.092653262539515863 0 -0.37814520584525169 -0.088087153882549285 0 -0.38246890070370509 -0.10258129716011651 0 -0.36372559495201201 -0.092653262539515863 0 -0.38246890070370509 -0.10258129716011651 0 -0.36834174599981351 -0.1096093912191058 0 -0.36372559495201201 -0.092653262539515863 0 -0.38246890070370509 -0.10258129716011651 0 -0.35547520914814051 -0.10625373194929109 0 -0.36834174599981351 -0.1096093912191058 0 -0.36086024645219011 -0.1234652823881919 0 -0.36834174599981351 -0.1096093912191058 0 -0.37191621759155641 -0.12025008356691411 0 -0.37992630581664449 -0.1135310654663228 0 -0.36834174599981351 -0.1096093912191058 0 -0.37191621759155641 -0.12025008356691411 0 -0.36086024645219011 -0.1234652823881919 0 -0.35860935995722287 -0.069521570628107793 0 -0.34498228920032092 -0.082725227918911251 0 -0.36536297392252132 -0.080159462591867847 0 -0.35860935995722287 -0.069521570628107793 0 -0.34551356627189211 -0.067909304704317039 0 -0.35810767038431041 -0.057026477903070451 0 -0.35860935995722287 -0.069521570628107793 0 -0.34551356627189211 -0.067909304704317039 0 -0.35860935995722287 -0.069521570628107793 0 -0.34551356627189211 -0.067909304704317039 0 -0.34498228920032092 -0.082725227918911251 0 -0.34551356627189211 -0.067909304704317039 0 -0.34498228920032092 -0.082725227918911251 0 -0.34498228920032092 -0.082725227918911251 0 -0.36372559495201201 -0.092653262539515863 0 -0.34498228920032092 -0.082725227918911251 0 -0.36536297392252132 -0.080159462591867847 0 -0.36372559495201201 -0.092653262539515863 0 -0.36536297392252132 -0.080159462591867847 0 -0.36372559495201201 -0.092653262539515863 0 -0.37814520584525169 -0.088087153882549285 0 -0.36536297392252132 -0.080159462591867847 0 -0.37582766283331948 -0.073140464584664638 0 -0.37814520584525169 -0.088087153882549285 0 -0.35860935995722287 -0.069521570628107793 0 -0.36536297392252132 -0.080159462591867847 0 -0.37582766283331948 -0.073140464584664638 0 -0.35860935995722287 -0.069521570628107793 0 -0.36984565003693792 -0.055793808735493423 0 -0.37582766283331948 -0.073140464584664638 0 -0.36984565003693792 -0.055793808735493423 0 -0.35810767038431041 -0.057026477903070451 0 -0.36366410079670941 -0.043795355332529949 0 -0.35860935995722287 -0.069521570628107793 0 -0.36984565003693792 -0.055793808735493423 0 -0.35810767038431041 -0.057026477903070451 0 -0.34551356627189211 -0.067909304704317039 0 -0.34657084058322007 -0.038424698927668713 0 -0.34551356627189211 -0.067909304704317039 0 -0.35810767038431041 -0.057026477903070451 0 -0.34657084058322007 -0.038424698927668713 0 -0.35810767038431041 -0.057026477903070451 0 -0.34657084058322007 -0.038424698927668713 0 -0.36366410079670941 -0.043795355332529949 0 -0.34657084058322007 -0.038424698927668713 0 -0.36366410079670941 -0.043795355332529949 0 -0.36717975399241631 -0.027888041745320061 0 -0.36984565003693792 -0.055793808735493423 0 -0.36366410079670941 -0.043795355332529949 0 -0.37661658898666239 -0.039843749351097128 0 -0.36366410079670941 -0.043795355332529949 0 -0.36717975399241631 -0.027888041745320061 0 -0.37661658898666239 -0.039843749351097128 0 -0.36717975399241631 -0.027888041745320061 0 -0.37488546340366991 -0.0088069969633318961 0 -0.34762811489454798 -0.0089400931510203799 0 -0.37488546340366991 -0.0088069969633318961 0 -0.34762811489454798 -0.0089400931510203799 0 -0.36242753985743598 0.004729677058193201 0 -0.34657084058322007 -0.038424698927668713 0 -0.36717975399241631 -0.027888041745320061 0 -0.34762811489454798 -0.0089400931510203799 0 -0.34657084058322007 -0.038424698927668713 0 -0.34762811489454798 -0.0089400931510203799 0 -0.34657084058322007 -0.038424698927668713 0 -0.34762811489454798 -0.0089400931510203799 0 -0.32266189730137879 -0.02083099376849476 0 -0.34762811489454798 -0.0089400931510203799 0 -0.32266189730137879 -0.02083099376849476 0 -0.33026971366793118 0.003143932628485481 0 -0.32266189730137879 -0.02083099376849476 0 -0.3069530086745581 0.0024109487627334059 0 -0.33026971366793118 0.003143932628485481 0 -0.30361010080666789 -0.040884530372348182 0 -0.32266189730137879 -0.02083099376849476 0 -0.32237028614496582 -0.046040444825519902 0 -0.31279694182439349 -0.063881454235260204 0 -0.32915525404814278 -0.065895379469788753 0 -0.32237028614496582 -0.046040444825519902 0 -0.30361010080666789 -0.040884530372348182 0 -0.31279694182439349 -0.063881454235260204 0 -0.32237028614496582 -0.046040444825519902 0 -0.32915525404814278 -0.065895379469788753 0 -0.34657084058322007 -0.038424698927668713 0 -0.32237028614496582 -0.046040444825519902 0 -0.32915525404814278 -0.065895379469788753 0 -0.34551356627189211 -0.067909304704317039 0 -0.34657084058322007 -0.038424698927668713 0 -0.34657084058322007 -0.038424698927668713 0 -0.32266189730137879 -0.02083099376849476 0 -0.32237028614496582 -0.046040444825519902 0 -0.29959962444809007 -0.25722121144157772 0 -0.30450559005062572 -0.2418241359191928 0 -0.28749792763866178 -0.24569003862083921 0 -0.30450559005062572 -0.2418241359191928 0 -0.2944510968822508 -0.22743280339005079 0 -0.32253678385299239 -0.22826550782017979 0 -0.2944510968822508 -0.22743280339005079 0 -0.30132866577790091 -0.21057959047217331 0 -0.32253678385299239 -0.22826550782017979 0 -0.30132866577790091 -0.21057959047217331 0 -0.32253678385299239 -0.22826550782017979 0 -0.2944510968822508 -0.22743280339005079 0 -0.27434819930736692 -0.23271651093015641 0 -0.28096458615677511 -0.21319806988520959 0 -0.2944510968822508 -0.22743280339005079 0 -0.28749792763866178 -0.24569003862083921 0 -0.27434819930736692 -0.23271651093015641 0 -0.30450559005062572 -0.2418241359191928 0 -0.2944510968822508 -0.22743280339005079 0 -0.28749792763866178 -0.24569003862083921 0 -0.28749792763866178 -0.24569003862083921 0 -0.27249203910370512 -0.24767478565995901 0 -0.27434819930736692 -0.23271651093015641 0 -0.27249203910370512 -0.24767478565995901 0 -0.26197939860413039 -0.2419265727722614 0 -0.27434819930736692 -0.23271651093015641 0 -0.26197939860413039 -0.2419265727722614 0 -0.25802756307273272 -0.2304565733286805 0 -0.27434819930736692 -0.23271651093015641 0 -0.25638015109543832 -0.25346924866811887 0 -0.27249203910370512 -0.24767478565995901 0 -0.26197939860413039 -0.2419265727722614 0 -0.2488367560188369 -0.2422088265765695 0 -0.26197939860413039 -0.2419265727722614 0 -0.25802756307273272 -0.2304565733286805 0 -0.25638015109543832 -0.25346924866811887 0 -0.2488367560188369 -0.2422088265765695 0 -0.26197939860413039 -0.2419265727722614 0 -0.25638015109543832 -0.25346924866811887 0 -0.2493389891838439 -0.25321987494249693 0 -0.2488367560188369 -0.2422088265765695 0 -0.24658036277338871 -0.2285943752193379 0 -0.25802756307273272 -0.2304565733286805 0 -0.25169861080034661 -0.21289327106964329 0 -0.25802756307273272 -0.2304565733286805 0 -0.26651406616359979 -0.2180910877789059 0 -0.25169861080034661 -0.21289327106964329 0 -0.24658036277338871 -0.2285943752193379 0 -0.2488367560188369 -0.2422088265765695 0 -0.25802756307273272 -0.2304565733286805 0 -0.27434819930736692 -0.23271651093015641 0 -0.28096458615677511 -0.21319806988520959 0 -0.26651406616359979 -0.2180910877789059 0 -0.25802756307273272 -0.2304565733286805 0 -0.27434819930736692 -0.23271651093015641 0 -0.26651406616359979 -0.2180910877789059 0 -0.28096458615677511 -0.21319806988520959 0 -0.26651406616359979 -0.2180910877789059 0 -0.26590957925157821 -0.20289347209690431 0 -0.26651406616359979 -0.2180910877789059 0 -0.25169861080034661 -0.21289327106964329 0 -0.26590957925157821 -0.20289347209690431 0 -0.24860904027258041 -0.2015223676150302 0 -0.25169861080034661 -0.21289327106964329 0 -0.26590957925157821 -0.20289347209690431 0 -0.25169861080034661 -0.21289327106964329 0 -0.26590957925157821 -0.20289347209690431 0 -0.2529783135327453 -0.1904053044960882 0 -0.26590957925157821 -0.20289347209690431 0 -0.26674389409451199 -0.18690429497026981 0 -0.24860904027258041 -0.2015223676150302 0 -0.2529783135327453 -0.1904053044960882 0 -0.26590957925157821 -0.20289347209690431 0 -0.28096458615677511 -0.21319806988520959 0 -0.26590957925157821 -0.20289347209690431 0 -0.28012054770280992 -0.1928936731241655 0 -0.26590957925157821 -0.20289347209690431 0 -0.28012054770280992 -0.1928936731241655 0 -0.26674389409451199 -0.18690429497026981 0 -0.26590957925157821 -0.20289347209690431 0 -0.28012054770280992 -0.1928936731241655 0 -0.28012054770280992 -0.1928936731241655 0 -0.30132866577790091 -0.21057959047217331 0 -0.28012054770280992 -0.1928936731241655 0 -0.29514388047233869 -0.1941489604013214 0 -0.29699463964026002 -0.18101992026903299 0 -0.28012054770280992 -0.1928936731241655 0 -0.29514388047233869 -0.1941489604013214 0 -0.30132866577790091 -0.21057959047217331 0 -0.28096458615677511 -0.21319806988520959 0 -0.28012054770280992 -0.1928936731241655 0 -0.30132866577790091 -0.21057959047217331 0 -0.2944510968822508 -0.22743280339005079 0 -0.28096458615677511 -0.21319806988520959 0 -0.30132866577790091 -0.21057959047217331 0 -0.30132866577790091 -0.21057959047217331 0 -0.30740144231018313 -0.19794541769382171 0 -0.31686506602413073 -0.20291558160170201 0 -0.29514388047233869 -0.1941489604013214 0 -0.31626815696636151 -0.18413753830009361 0 -0.29514388047233869 -0.1941489604013214 0 -0.30132866577790091 -0.21057959047217331 0 -0.30740144231018313 -0.19794541769382171 0 -0.29514388047233869 -0.1941489604013214 0 -0.30740144231018313 -0.19794541769382171 0 -0.31626815696636151 -0.18413753830009361 0 -0.29699463964026002 -0.18101992026903299 0 -0.31626815696636151 -0.18413753830009361 0 -0.29699463964026002 -0.18101992026903299 0 -0.31069380701556398 -0.17138025916380481 0 -0.31626815696636151 -0.18413753830009361 0 -0.29514388047233869 -0.1941489604013214 0 -0.29699463964026002 -0.18101992026903299 0 -0.31626815696636151 -0.18413753830009361 0 -0.29699463964026002 -0.18101992026903299 0 -0.31069380701556398 -0.17138025916380481 0 -0.29853576842996271 -0.16631094842966659 0 -0.29699463964026002 -0.18101992026903299 0 -0.31069380701556398 -0.17138025916380481 0 -0.31069380701556398 -0.17138025916380481 0 -0.30814136098244121 -0.16033101891170889 0 -0.29853576842996271 -0.16631094842966659 0 -0.30814136098244121 -0.16033101891170889 0 -0.29853576842996271 -0.16631094842966659 0 -0.29522520057524798 -0.15336317854768039 0 -0.29699463964026002 -0.18101992026903299 0 -0.29853576842996271 -0.16631094842966659 0 -0.28426306833712922 -0.1640431885978787 0 -0.29853576842996271 -0.16631094842966659 0 -0.28426306833712922 -0.1640431885978787 0 -0.29522520057524798 -0.15336317854768039 0 -0.28426306833712922 -0.1640431885978787 0 -0.2812924959865134 -0.15474887407997051 0 -0.29522520057524798 -0.15336317854768039 0 -0.28012054770280992 -0.1928936731241655 0 -0.29699463964026002 -0.18101992026903299 0 -0.29699463964026002 -0.18101992026903299 0 -0.27779634507341427 -0.17791447001341021 0 -0.28012054770280992 -0.1928936731241655 0 -0.29699463964026002 -0.18101992026903299 0 -0.27779634507341427 -0.17791447001341021 0 -0.29699463964026002 -0.18101992026903299 0 -0.28426306833712922 -0.1640431885978787 0 -0.27779634507341427 -0.17791447001341021 0 -0.28012054770280992 -0.1928936731241655 0 -0.26674389409451199 -0.18690429497026981 0 -0.25859805050656892 -0.1748090197577862 0 -0.27779634507341427 -0.17791447001341021 0 -0.25859805050656892 -0.1748090197577862 0 -0.26578682173118617 -0.1709363096654313 0 -0.28012054770280992 -0.1928936731241655 0 -0.27779634507341427 -0.17791447001341021 0 -0.25859805050656892 -0.1748090197577862 0 -0.28012054770280992 -0.1928936731241655 0 -0.25859805050656892 -0.1748090197577862 0 -0.27779634507341427 -0.17791447001341021 0 -0.25859805050656892 -0.1748090197577862 0 -0.27779634507341427 -0.17791447001341021 0 -0.26578682173118617 -0.1709363096654313 0 -0.27328215565085889 -0.16943300757321811 0 -0.2529783135327453 -0.1904053044960882 0 -0.26674389409451199 -0.18690429497026981 0 -0.25760607074287301 -0.1831846471701602 0 -0.26674389409451199 -0.18690429497026981 0 -0.25859805050656892 -0.1748090197577862 0 -0.25760607074287301 -0.1831846471701602 0 -0.2429342064541242 -0.178453138401578 0 -0.25859805050656892 -0.1748090197577862 0 -0.25327748830317143 -0.18146197818130291 0 -0.25859805050656892 -0.1748090197577862 0 -0.2601350118083342 -0.17142833562659529 0 -0.26578682173118617 -0.1709363096654313 0 -0.2529783135327453 -0.1904053044960882 0 -0.25327748830317143 -0.18146197818130291 0 -0.25760607074287301 -0.1831846471701602 0 -0.25859805050656892 -0.1748090197577862 0 -0.25327748830317143 -0.18146197818130291 0 -0.25760607074287301 -0.1831846471701602 0 -0.25344884156127728 -0.16205232995191191 0 -0.26095628658333919 -0.1602655900036403 0 -0.2567667207421338 -0.15260215302088331 0 -0.25859805050656892 -0.1748090197577862 0 -0.25344884156127728 -0.16205232995191191 0 -0.25918762263622969 -0.16746142093653479 0 -0.25859805050656892 -0.1748090197577862 0 -0.25918762263622969 -0.16746142093653479 0 -0.2601350118083342 -0.17142833562659529 0 -0.25918762263622969 -0.16746142093653479 0 -0.2601350118083342 -0.17142833562659529 0 -0.26578682173118617 -0.1709363096654313 0 -0.25918762263622969 -0.16746142093653479 0 -0.26578682173118617 -0.1709363096654313 0 -0.26572174471171128 -0.1645716040850432 0 -0.25918762263622969 -0.16746142093653479 0 -0.26095628658333919 -0.1602655900036403 0 -0.26572174471171128 -0.1645716040850432 0 -0.26095628658333919 -0.1602655900036403 0 -0.26572174471171128 -0.1645716040850432 0 -0.26965650326534368 -0.15464044202382821 0 -0.25344884156127728 -0.16205232995191191 0 -0.25918762263622969 -0.16746142093653479 0 -0.26095628658333919 -0.1602655900036403 0 -0.26572174471171128 -0.1645716040850432 0 -0.27484319359031117 -0.1614874232719877 0 -0.26965650326534368 -0.15464044202382821 0 -0.26572174471171128 -0.1645716040850432 0 -0.27328215565085889 -0.16943300757321811 0 -0.27484319359031117 -0.1614874232719877 0 -0.26578682173118617 -0.1709363096654313 0 -0.26572174471171128 -0.1645716040850432 0 -0.27328215565085889 -0.16943300757321811 0 -0.28426306833712922 -0.1640431885978787 0 -0.27328215565085889 -0.16943300757321811 0 -0.27484319359031117 -0.1614874232719877 0 -0.28426306833712922 -0.1640431885978787 0 -0.27779634507341427 -0.17791447001341021 0 -0.27328215565085889 -0.16943300757321811 0 -0.27484319359031117 -0.1614874232719877 0 -0.26965650326534368 -0.15464044202382821 0 -0.2812924959865134 -0.15474887407997051 0 -0.28426306833712922 -0.1640431885978787 0 -0.27484319359031117 -0.1614874232719877 0 -0.2812924959865134 -0.15474887407997051 0 -0.26965650326534368 -0.15464044202382821 0 -0.28246602476297228 -0.1440268215871133 0 -0.2812924959865134 -0.15474887407997051 0 -0.26711145970078859 -0.14175626170739891 0 -0.26965650326534368 -0.15464044202382821 0 -0.28246602476297228 -0.1440268215871133 0 -0.26095628658333919 -0.1602655900036403 0 -0.26965650326534368 -0.15464044202382821 0 -0.2567667207421338 -0.15260215302088331 0 -0.26711145970078859 -0.14175626170739891 0 -0.26965650326534368 -0.15464044202382821 0 -0.2567667207421338 -0.15260215302088331 0 -0.26711145970078859 -0.14175626170739891 0 -0.2567667207421338 -0.15260215302088331 0 -0.25342413201127573 -0.13876792672923441 0 -0.25305552029136519 -0.1195692895295553 0 -0.25342413201127573 -0.13876792672923441 0 -0.26428008539362557 -0.12982162789105961 0 -0.26711145970078859 -0.14175626170739891 0 -0.25342413201127573 -0.13876792672923441 0 -0.26428008539362557 -0.12982162789105961 0 -0.26634949974157252 -0.117997074857264 0 -0.26428008539362557 -0.12982162789105961 0 -0.27566762067915829 -0.13065293366523281 0 -0.26711145970078859 -0.14175626170739891 0 -0.26428008539362557 -0.12982162789105961 0 -0.27566762067915829 -0.13065293366523281 0 -0.26711145970078859 -0.14175626170739891 0 -0.27566762067915829 -0.13065293366523281 0 -0.28246602476297228 -0.1440268215871133 0 -0.27566762067915829 -0.13065293366523281 0 -0.29207892732180862 -0.13060148110539729 0 -0.28246602476297228 -0.1440268215871133 0 -0.29207892732180862 -0.13060148110539729 0 -0.28246602476297228 -0.1440268215871133 0 -0.29893858030903708 -0.1419216311324239 0 -0.28099693799108372 -0.11964692383193121 0 -0.27566762067915829 -0.13065293366523281 0 -0.29207892732180862 -0.13060148110539729 0 -0.28246602476297228 -0.1440268215871133 0 -0.29522520057524798 -0.15336317854768039 0 -0.29893858030903708 -0.1419216311324239 0 -0.28246602476297228 -0.1440268215871133 0 -0.2812924959865134 -0.15474887407997051 0 -0.29522520057524798 -0.15336317854768039 0 -0.29522520057524798 -0.15336317854768039 0 -0.29893858030903708 -0.1419216311324239 0 -0.31185905450056273 -0.14886011035881541 0 -0.30814136098244121 -0.16033101891170889 0 -0.29522520057524798 -0.15336317854768039 0 -0.31185905450056273 -0.14886011035881541 0 -0.29893858030903708 -0.1419216311324239 0 -0.31185905450056273 -0.14886011035881541 0 -0.30781028254568671 -0.13466348600424599 0 -0.30625821365658262 -0.122333660871811 0 -0.29207892732180862 -0.13060148110539729 0 -0.30781028254568671 -0.13466348600424599 0 -0.29207892732180862 -0.13060148110539729 0 -0.29893858030903708 -0.1419216311324239 0 -0.30781028254568671 -0.13466348600424599 0 -0.30625821365658262 -0.122333660871811 0 -0.30781028254568671 -0.13466348600424599 0 -0.31583212026896562 -0.1290349716698283 0 -0.32625132417543862 -0.13093619088423189 0 -0.31914885887256611 -0.13904973692636921 0 -0.32868276906736138 -0.14638569481690381 0 -0.32625132417543862 -0.13093619088423189 0 -0.31583212026896562 -0.1290349716698283 0 -0.31914885887256611 -0.13904973692636921 0 -0.31969192209455383 -0.11819178366248349 0 -0.32625132417543862 -0.13093619088423189 0 -0.31583212026896562 -0.1290349716698283 0 -0.30781028254568671 -0.13466348600424599 0 -0.31583212026896562 -0.1290349716698283 0 -0.31914885887256611 -0.13904973692636921 0 -0.31185905450056273 -0.14886011035881541 0 -0.32868276906736138 -0.14638569481690381 0 -0.32439297439086862 -0.16174059805857741 0 -0.31185905450056273 -0.14886011035881541 0 -0.30781028254568671 -0.13466348600424599 0 -0.31914885887256611 -0.13904973692636921 0 -0.31185905450056273 -0.14886011035881541 0 -0.31914885887256611 -0.13904973692636921 0 -0.32868276906736138 -0.14638569481690381 0 -0.32868276906736138 -0.14638569481690381 0 -0.34027075470715268 -0.14846566242318349 0 -0.33795773669345958 -0.13402017756764989 0 -0.32868276906736138 -0.14638569481690381 0 -0.34027075470715268 -0.14846566242318349 0 -0.33603362070228421 -0.16197352133914661 0 -0.34027075470715268 -0.14846566242318349 0 -0.34711585010045087 -0.1579826645607797 0 -0.33603362070228421 -0.16197352133914661 0 -0.34027075470715268 -0.14846566242318349 0 -0.33795773669345958 -0.13402017756764989 0 -0.34646267266851699 -0.13978687961886219 0 -0.32625132417543862 -0.13093619088423189 0 -0.32868276906736138 -0.14638569481690381 0 -0.33795773669345958 -0.13402017756764989 0 -0.33314929418071498 -0.1211975953897111 0 -0.32625132417543862 -0.13093619088423189 0 -0.33795773669345958 -0.13402017756764989 0 -0.34305338825517212 -0.1228263658777578 0 -0.33314929418071498 -0.1211975953897111 0 -0.33795773669345958 -0.13402017756764989 0 -0.34305338825517212 -0.1228263658777578 0 -0.33795773669345958 -0.13402017756764989 0 -0.35131574840575891 -0.13039162185445169 0 -0.35131574840575891 -0.13039162185445169 0 -0.34646267266851699 -0.13978687961886219 0 -0.35506968086915208 -0.1456136823918919 0 -0.33795773669345958 -0.13402017756764989 0 -0.35131574840575891 -0.13039162185445169 0 -0.34646267266851699 -0.13978687961886219 0 -0.35131574840575891 -0.13039162185445169 0 -0.36599273078876898 -0.13169618633298491 0 -0.35506968086915208 -0.1456136823918919 0 -0.37191621759155641 -0.12025008356691411 0 -0.36086024645219011 -0.1234652823881919 0 -0.36599273078876898 -0.13169618633298491 0 -0.37191621759155641 -0.12025008356691411 0 -0.36599273078876898 -0.13169618633298491 0 -0.3833618164319228 -0.12662877624363031 0 -0.36086024645219011 -0.1234652823881919 0 -0.35131574840575891 -0.13039162185445169 0 -0.36599273078876898 -0.13169618633298491 0 -0.36599273078876898 -0.13169618633298491 0 -0.37330672974482759 -0.1442497224491214 0 -0.3833618164319228 -0.12662877624363031 0 -0.36599273078876898 -0.13169618633298491 0 -0.37330672974482759 -0.1442497224491214 0 -0.35506968086915208 -0.1456136823918919 0 -0.37330672974482759 -0.1442497224491214 0 -0.35506968086915208 -0.1456136823918919 0 -0.36325164305773139 -0.16187066865461189 0 -0.37330672974482759 -0.1442497224491214 0 -0.36325164305773139 -0.16187066865461189 0 -0.3751311897919794 -0.15624059858989531 0 -0.37330672974482759 -0.1442497224491214 0 -0.36325164305773139 -0.16187066865461189 0 -0.35506968086915208 -0.1456136823918919 0 -0.34711585010045087 -0.1579826645607797 0 -0.36325164305773139 -0.16187066865461189 0 -0.34027075470715268 -0.14846566242318349 0 -0.34646267266851699 -0.13978687961886219 0 -0.35506968086915208 -0.1456136823918919 0 -0.34027075470715268 -0.14846566242318349 0 -0.35506968086915208 -0.1456136823918919 0 -0.34711585010045087 -0.1579826645607797 0 -0.36325164305773139 -0.16187066865461189 0 -0.3523846563586881 -0.1809144217318886 0 -0.36325164305773139 -0.16187066865461189 0 -0.33975990001204698 -0.17300410347735409 0 -0.34711585010045087 -0.1579826645607797 0 -0.36325164305773139 -0.16187066865461189 0 -0.33975990001204698 -0.17300410347735409 0 -0.36325164305773139 -0.16187066865461189 0 -0.37671863465607092 -0.17493819631307911 0 -0.3751311897919794 -0.15624059858989531 0 -0.36325164305773139 -0.16187066865461189 0 -0.36678561370931401 -0.17783167912377029 0 -0.37671863465607092 -0.17493819631307911 0 -0.36325164305773139 -0.16187066865461189 0 -0.3751311897919794 -0.15624059858989531 0 -0.36678561370931401 -0.17783167912377029 0 -0.37478752076476551 -0.19360342979550149 0 -0.37671863465607092 -0.17493819631307911 0 -0.36678561370931401 -0.17783167912377029 0 -0.3523846563586881 -0.1809144217318886 0 -0.37478752076476551 -0.19360342979550149 0 -0.36325164305773139 -0.16187066865461189 0 -0.36678561370931401 -0.17783167912377029 0 -0.3523846563586881 -0.1809144217318886 0 -0.36325164305773139 -0.16187066865461189 0 -0.3523846563586881 -0.1809144217318886 0 -0.33975990001204698 -0.17300410347735409 0 -0.3523846563586881 -0.1809144217318886 0 -0.33975990001204698 -0.17300410347735409 0 -0.34552783886556382 -0.1888704840477958 0 -0.31626815696636151 -0.18413753830009361 0 -0.34552783886556382 -0.1888704840477958 0 -0.33975990001204698 -0.17300410347735409 0 -0.31626815696636151 -0.18413753830009361 0 -0.34552783886556382 -0.1888704840477958 0 -0.34711585010045087 -0.1579826645607797 0 -0.33975990001204698 -0.17300410347735409 0 -0.33603362070228421 -0.16197352133914661 0 -0.32868276906736138 -0.14638569481690381 0 -0.33603362070228421 -0.16197352133914661 0 -0.32439297439086862 -0.16174059805857741 0 -0.33975990001204698 -0.17300410347735409 0 -0.33603362070228421 -0.16197352133914661 0 -0.3246254829918771 -0.17139593603259329 0 -0.33603362070228421 -0.16197352133914661 0 -0.3246254829918771 -0.17139593603259329 0 -0.32439297439086862 -0.16174059805857741 0 -0.30814136098244121 -0.16033101891170889 0 -0.31185905450056273 -0.14886011035881541 0 -0.32439297439086862 -0.16174059805857741 0 -0.31069380701556398 -0.17138025916380481 0 -0.30814136098244121 -0.16033101891170889 0 -0.32439297439086862 -0.16174059805857741 0 -0.31069380701556398 -0.17138025916380481 0 -0.32439297439086862 -0.16174059805857741 0 -0.31069380701556398 -0.17138025916380481 0 -0.3246254829918771 -0.17139593603259329 0 -0.32439297439086862 -0.16174059805857741 0 -0.33975990001204698 -0.17300410347735409 0 -0.3246254829918771 -0.17139593603259329 0 -0.31626815696636151 -0.18413753830009361 0 -0.31069380701556398 -0.17138025916380481 0 -0.3246254829918771 -0.17139593603259329 0 -0.31626815696636151 -0.18413753830009361 0 -0.33975990001204698 -0.17300410347735409 0 -0.31626815696636151 -0.18413753830009361 0 -0.31626815696636151 -0.18413753830009361 0 -0.31686506602413073 -0.20291558160170201 0 -0.33371656544816369 -0.20349854519772831 0 -0.30740144231018313 -0.19794541769382171 0 -0.31626815696636151 -0.18413753830009361 0 -0.31686506602413073 -0.20291558160170201 0 -0.30132866577790091 -0.21057959047217331 0 -0.31686506602413073 -0.20291558160170201 0 -0.32253678385299239 -0.22826550782017979 0 -0.31686506602413073 -0.20291558160170201 0 -0.33371656544816369 -0.20349854519772831 0 -0.32253678385299239 -0.22826550782017979 0 -0.33371656544816369 -0.20349854519772831 0 -0.34816902210816258 -0.22118709201746281 0 -0.32253678385299239 -0.22826550782017979 0 -0.31626815696636151 -0.18413753830009361 0 -0.33371656544816369 -0.20349854519772831 0 -0.34552783886556382 -0.1888704840477958 0 -0.33371656544816369 -0.20349854519772831 0 -0.34552783886556382 -0.1888704840477958 0 -0.35259314228824118 -0.19642275886673921 0 -0.3523846563586881 -0.1809144217318886 0 -0.34552783886556382 -0.1888704840477958 0 -0.37478752076476551 -0.19360342979550149 0 -0.34552783886556382 -0.1888704840477958 0 -0.35259314228824118 -0.19642275886673921 0 -0.37478752076476551 -0.19360342979550149 0 -0.35259314228824118 -0.19642275886673921 0 -0.37478752076476551 -0.19360342979550149 0 -0.36716521918425538 -0.21326669226410799 0 -0.34552783886556382 -0.1888704840477958 0 -0.37478752076476551 -0.19360342979550149 0 -0.35259314228824118 -0.19642275886673921 0 -0.34816902210816258 -0.22118709201746281 0 -0.35259314228824118 -0.19642275886673921 0 -0.36716521918425538 -0.21326669226410799 0 -0.34816902210816258 -0.22118709201746281 0 -0.33371656544816369 -0.20349854519772831 0 -0.35259314228824118 -0.19642275886673921 0 -0.34816902210816258 -0.22118709201746281 0 -0.34816902210816258 -0.22118709201746281 0 -0.34374490192808399 -0.24595142516818649 0 -0.36716521918425538 -0.21326669226410799 0 -0.36959445160708371 -0.2399718803367539 0 -0.38253567532342808 -0.22596023475922869 0 -0.36716521918425538 -0.21326669226410799 0 -0.34816902210816258 -0.22118709201746281 0 -0.36959445160708371 -0.2399718803367539 0 -0.34816902210816258 -0.22118709201746281 0 -0.36959445160708371 -0.2399718803367539 0 -0.34374490192808399 -0.24595142516818649 0 -0.32072650774881262 -0.25147522666376648 0 -0.34374490192808399 -0.24595142516818649 0 -0.32253678385299239 -0.22826550782017979 0 -0.34374490192808399 -0.24595142516818649 0 -0.32253678385299239 -0.22826550782017979 0 -0.34816902210816258 -0.22118709201746281 0 -0.34374490192808399 -0.24595142516818649 0 -0.32253678385299239 -0.22826550782017979 0 -0.32072650774881262 -0.25147522666376648 0 -0.30450559005062572 -0.2418241359191928 0 -0.32253678385299239 -0.22826550782017979 0 -0.41153618198503888 -0.2523194842721081 0 -0.42242153327410542 -0.22769440278151179 0 -0.40283508852795069 -0.22037157986635139 0 -0.41153618198503888 -0.2523194842721081 0 -0.43363988072749859 -0.25378542656053571 0 -0.42242153327410542 -0.22769440278151179 0 -0.43363988072749859 -0.25378542656053571 0 -0.42242153327410542 -0.22769440278151179 0 -0.44489334816381049 -0.2264925879573155 0 -0.42242153327410542 -0.22769440278151179 0 -0.4333068845631689 -0.2030693212909139 0 -0.44489334816381049 -0.2264925879573155 0 -0.41153618198503888 -0.2523194842721081 0 -0.42242153327410542 -0.22769440278151179 0 -0.41153618198503888 -0.2523194842721081 0 -0.39134949549471232 -0.2418610061304188 0 -0.40283508852795069 -0.22037157986635139 0 -0.36959445160708371 -0.2399718803367539 0 -0.39134949549471232 -0.2418610061304188 0 -0.38253567532342808 -0.22596023475922869 0 -0.38601349680082547 -0.26333884455390483 0 -0.36959445160708371 -0.2399718803367539 0 -0.39134949549471232 -0.2418610061304188 0 -0.38253567532342808 -0.22596023475922869 0 -0.40283508852795069 -0.22037157986635139 0 -0.38627414129287341 -0.21030766244567939 0 -0.39134949549471232 -0.2418610061304188 0 -0.38253567532342808 -0.22596023475922869 0 -0.40283508852795069 -0.22037157986635139 0 -0.40283508852795069 -0.22037157986635139 0 -0.38627414129287341 -0.21030766244567939 0 -0.40404720266396732 -0.19833637554320729 0 -0.36716521918425538 -0.21326669226410799 0 -0.38253567532342808 -0.22596023475922869 0 -0.38627414129287341 -0.21030766244567939 0 -0.37478752076476551 -0.19360342979550149 0 -0.36716521918425538 -0.21326669226410799 0 -0.38627414129287341 -0.21030766244567939 0 -0.37478752076476551 -0.19360342979550149 0 -0.40404720266396732 -0.19833637554320729 0 -0.38963646541447589 -0.18255719721315539 0 -0.37478752076476551 -0.19360342979550149 0 -0.40404720266396732 -0.19833637554320729 0 -0.37478752076476551 -0.19360342979550149 0 -0.38627414129287341 -0.21030766244567939 0 -0.40404720266396732 -0.19833637554320729 0 -0.40404720266396732 -0.19833637554320729 0 -0.4333068845631689 -0.2030693212909139 0 -0.40404720266396732 -0.19833637554320729 0 -0.41571551315484551 -0.1887507550695004 0 -0.4333068845631689 -0.2030693212909139 0 -0.40283508852795069 -0.22037157986635139 0 -0.40404720266396732 -0.19833637554320729 0 -0.4333068845631689 -0.2030693212909139 0 -0.42242153327410542 -0.22769440278151179 0 -0.40283508852795069 -0.22037157986635139 0 -0.4333068845631689 -0.2030693212909139 0 -0.42242153327410542 -0.22769440278151179 0 -0.4333068845631689 -0.2030693212909139 0 -0.4333068845631689 -0.2030693212909139 0 -0.42860856531078628 -0.19096624876612631 0 -0.44389454318550392 -0.17911768670918249 0 -0.41571551315484551 -0.1887507550695004 0 -0.4333068845631689 -0.2030693212909139 0 -0.42860856531078628 -0.19096624876612631 0 -0.42860856531078628 -0.19096624876612631 0 -0.43304777289810709 -0.17021822885819149 0 -0.41929190927127008 -0.17490547360055211 0 -0.42860856531078628 -0.19096624876612631 0 -0.43304777289810709 -0.17021822885819149 0 -0.44389454318550392 -0.17911768670918249 0 -0.42860856531078628 -0.19096624876612631 0 -0.44389454318550392 -0.17911768670918249 0 -0.43304777289810709 -0.17021822885819149 0 -0.42437049038610059 -0.1591929150796218 0 -0.44000899001571359 -0.1521379951786557 0 -0.43304777289810709 -0.17021822885819149 0 -0.42437049038610059 -0.1591929150796218 0 -0.41929190927127008 -0.17490547360055211 0 -0.41228994584590972 -0.16440060610636029 0 -0.41929190927127008 -0.17490547360055211 0 -0.40301613973247441 -0.17512184909534789 0 -0.42437049038610059 -0.1591929150796218 0 -0.41228994584590972 -0.16440060610636029 0 -0.41415489294759672 -0.14810980238034999 0 -0.42437049038610059 -0.1591929150796218 0 -0.41228994584590972 -0.16440060610636029 0 -0.41929190927127008 -0.17490547360055211 0 -0.40404720266396732 -0.19833637554320729 0 -0.41571551315484551 -0.1887507550695004 0 -0.40301613973247441 -0.17512184909534789 0 -0.41571551315484551 -0.1887507550695004 0 -0.42860856531078628 -0.19096624876612631 0 -0.41929190927127008 -0.17490547360055211 0 -0.41571551315484551 -0.1887507550695004 0 -0.41929190927127008 -0.17490547360055211 0 -0.40301613973247441 -0.17512184909534789 0 -0.40404720266396732 -0.19833637554320729 0 -0.40301613973247441 -0.17512184909534789 0 -0.38963646541447589 -0.18255719721315539 0 -0.40301613973247441 -0.17512184909534789 0 -0.38963646541447589 -0.18255719721315539 0 -0.38930034291581461 -0.1644538099246268 0 -0.37478752076476551 -0.19360342979550149 0 -0.38963646541447589 -0.18255719721315539 0 -0.37671863465607092 -0.17493819631307911 0 -0.38963646541447589 -0.18255719721315539 0 -0.37671863465607092 -0.17493819631307911 0 -0.38930034291581461 -0.1644538099246268 0 -0.37671863465607092 -0.17493819631307911 0 -0.38930034291581461 -0.1644538099246268 0 -0.3751311897919794 -0.15624059858989531 0 -0.38930034291581461 -0.1644538099246268 0 -0.38825264041218682 -0.1481098795485043 0 -0.3751311897919794 -0.15624059858989531 0 -0.40301613973247441 -0.17512184909534789 0 -0.38930034291581461 -0.1644538099246268 0 -0.40241482864011757 -0.1542510099904702 0 -0.41228994584590972 -0.16440060610636029 0 -0.40301613973247441 -0.17512184909534789 0 -0.40241482864011757 -0.1542510099904702 0 -0.40301613973247441 -0.17512184909534789 0 -0.40241482864011757 -0.1542510099904702 0 -0.38930034291581461 -0.1644538099246268 0 -0.40241482864011757 -0.1542510099904702 0 -0.38825264041218682 -0.1481098795485043 0 -0.40241482864011757 -0.1542510099904702 0 -0.38825264041218682 -0.1481098795485043 0 -0.40181351754776079 -0.13338017088559259 0 -0.40241482864011757 -0.1542510099904702 0 -0.40181351754776079 -0.13338017088559259 0 -0.40241482864011757 -0.1542510099904702 0 -0.40181351754776079 -0.13338017088559259 0 -0.41415489294759672 -0.14810980238034999 0 -0.37330672974482759 -0.1442497224491214 0 -0.38825264041218682 -0.1481098795485043 0 -0.3751311897919794 -0.15624059858989531 0 -0.37330672974482759 -0.1442497224491214 0 -0.3833618164319228 -0.12662877624363031 0 -0.37330672974482759 -0.1442497224491214 0 -0.38825264041218682 -0.1481098795485043 0 -0.3833618164319228 -0.12662877624363031 0 -0.38825264041218682 -0.1481098795485043 0 -0.3833618164319228 -0.12662877624363031 0 -0.40181351754776079 -0.13338017088559259 0 -0.3833618164319228 -0.12662877624363031 0 -0.40181351754776079 -0.13338017088559259 0 -0.39510321824194988 -0.12312941999316369 0 -0.40181351754776079 -0.13338017088559259 0 -0.41725820299667649 -0.13417216324057121 0 -0.41520323030366679 -0.1199201573300315 0 -0.41725820299667649 -0.13417216324057121 0 -0.42919425415193468 -0.12733098287934741 0 -0.41520323030366679 -0.1199201573300315 0 -0.40181351754776079 -0.13338017088559259 0 -0.41725820299667649 -0.13417216324057121 0 -0.41415489294759672 -0.14810980238034999 0 -0.42437049038610059 -0.1591929150796218 0 -0.41415489294759672 -0.14810980238034999 0 -0.42678237226901539 -0.14326194897948419 0 -0.41228994584590972 -0.16440060610636029 0 -0.40241482864011757 -0.1542510099904702 0 -0.41415489294759672 -0.14810980238034999 0 -0.41725820299667649 -0.13417216324057121 0 -0.41415489294759672 -0.14810980238034999 0 -0.42678237226901539 -0.14326194897948419 0 -0.42678237226901539 -0.14326194897948419 0 -0.44442435354405491 -0.13539812727976699 0 -0.44000899001571359 -0.1521379951786557 0 -0.42437049038610059 -0.1591929150796218 0 -0.42678237226901539 -0.14326194897948419 0 -0.42437049038610059 -0.1591929150796218 0 -0.42678237226901539 -0.14326194897948419 0 -0.44000899001571359 -0.1521379951786557 0 -0.41725820299667649 -0.13417216324057121 0 -0.42678237226901539 -0.14326194897948419 0 -0.42919425415193468 -0.12733098287934741 0 -0.42678237226901539 -0.14326194897948419 0 -0.42919425415193468 -0.12733098287934741 0 -0.42678237226901539 -0.14326194897948419 0 -0.42919425415193468 -0.12733098287934741 0 -0.44442435354405491 -0.13539812727976699 0 -0.42919425415193468 -0.12733098287934741 0 -0.44442435354405491 -0.13539812727976699 0 -0.44442435354405491 -0.13539812727976699 0 -0.45965445293617369 -0.1434652716801893 0 -0.45118603485136571 -0.1162082646776138 0 -0.42919425415193468 -0.12733098287934741 0 -0.44442435354405491 -0.13539812727976699 0 -0.45118603485136571 -0.1162082646776138 0 -0.44442435354405491 -0.13539812727976699 0 -0.45965445293617369 -0.1434652716801893 0 -0.44000899001571359 -0.1521379951786557 0 -0.45965445293617369 -0.1434652716801893 0 -0.45177449806082959 -0.16129147919468181 0 -0.44442435354405491 -0.13539812727976699 0 -0.44000899001571359 -0.1521379951786557 0 -0.45965445293617369 -0.1434652716801893 0 -0.45965445293617369 -0.1434652716801893 0 -0.45177449806082959 -0.16129147919468181 0 -0.45965445293617369 -0.1434652716801893 0 -0.47761606190559081 -0.15297925379478569 0 -0.46075530254554709 -0.1660484702519838 0 -0.45965445293617369 -0.1434652716801893 0 -0.47761606190559081 -0.15297925379478569 0 -0.45965445293617369 -0.1434652716801893 0 -0.45118603485136571 -0.1162082646776138 0 -0.47152847504223733 -0.1166035972868997 0 -0.45965445293617369 -0.1434652716801893 0 -0.47152847504223733 -0.1166035972868997 0 -0.45965445293617369 -0.1434652716801893 0 -0.48064657579041942 -0.13377487004813551 0 -0.47152847504223733 -0.1166035972868997 0 -0.48064657579041942 -0.13377487004813551 0 -0.49999999999999828 -0.13562887675223981 0 -0.5 -0.1122051162233467 0 -0.49999999999999828 -0.13562887675223981 0 -0.47761606190559081 -0.15297925379478569 0 -0.48064657579041942 -0.13377487004813551 0 -0.49999999999999828 -0.13562887675223981 0 -0.47761606190559081 -0.15297925379478569 0 -0.49999999999999828 -0.13562887675223981 0 -0.47761606190559081 -0.15297925379478569 0 -0.49999999999999539 -0.16483567417711481 0 -0.45965445293617369 -0.1434652716801893 0 -0.48064657579041942 -0.13377487004813551 0 -0.47761606190559081 -0.15297925379478569 0 -0.47761606190559081 -0.15297925379478569 0 -0.46075530254554709 -0.1660484702519838 0 -0.47761606190559081 -0.15297925379478569 0 -0.48307213022557471 -0.16973636871887041 0 -0.46075530254554709 -0.1660484702519838 0 -0.47761606190559081 -0.15297925379478569 0 -0.49999999999999539 -0.16483567417711481 0 -0.47761606190559081 -0.15297925379478569 0 -0.48307213022557471 -0.16973636871887041 0 -0.49999999999999539 -0.16483567417711481 0 -0.48307213022557471 -0.16973636871887041 0 -0.49999999999999539 -0.16483567417711481 0 -0.5 -0.1893465224912797 0 -0.48307213022557471 -0.16973636871887041 0 -0.47598709071345963 -0.18492793524971801 0 -0.5 -0.1893465224912797 0 -0.48307213022557471 -0.16973636871887041 0 -0.47598709071345963 -0.18492793524971801 0 -0.46075530254554709 -0.1660484702519838 0 -0.46075530254554709 -0.1660484702519838 0 -0.44389454318550392 -0.17911768670918249 0 -0.45833905927511792 -0.1892469604858556 0 -0.47598709071345963 -0.18492793524971801 0 -0.46075530254554709 -0.1660484702519838 0 -0.45833905927511792 -0.1892469604858556 0 -0.45965445293617369 -0.1434652716801893 0 -0.46075530254554709 -0.1660484702519838 0 -0.45177449806082959 -0.16129147919468181 0 -0.45177449806082959 -0.16129147919468181 0 -0.44389454318550392 -0.17911768670918249 0 -0.43304777289810709 -0.17021822885819149 0 -0.45177449806082959 -0.16129147919468181 0 -0.44389454318550392 -0.17911768670918249 0 -0.46075530254554709 -0.1660484702519838 0 -0.45177449806082959 -0.16129147919468181 0 -0.44389454318550392 -0.17911768670918249 0 -0.43304777289810709 -0.17021822885819149 0 -0.44000899001571359 -0.1521379951786557 0 -0.45177449806082959 -0.16129147919468181 0 -0.46075530254554709 -0.1660484702519838 0 -0.44389454318550392 -0.17911768670918249 0 -0.4333068845631689 -0.2030693212909139 0 -0.45553792304211382 -0.20666533779575669 0 -0.45833905927511792 -0.1892469604858556 0 -0.4333068845631689 -0.2030693212909139 0 -0.44389454318550392 -0.17911768670918249 0 -0.45833905927511792 -0.1892469604858556 0 -0.4333068845631689 -0.2030693212909139 0 -0.44389454318550392 -0.17911768670918249 0 -0.4333068845631689 -0.2030693212909139 0 -0.45553792304211382 -0.20666533779575669 0 -0.44489334816381049 -0.2264925879573155 0 -0.4333068845631689 -0.2030693212909139 0 -0.45553792304211382 -0.20666533779575669 0 -0.45553792304211382 -0.20666533779575669 0 -0.47776896152105841 -0.21026135430060031 0 -0.45553792304211382 -0.20666533779575669 0 -0.47776896152105841 -0.21026135430060031 0 -0.46370970781630172 -0.22386770990989621 0 -0.45553792304211382 -0.20666533779575669 0 -0.45833905927511792 -0.1892469604858556 0 -0.47776896152105841 -0.21026135430060031 0 -0.47598709071345963 -0.18492793524971801 0 -0.45833905927511792 -0.1892469604858556 0 -0.47776896152105841 -0.21026135430060031 0 -0.47598709071345963 -0.18492793524971801 0 -0.5 -0.1893465224912797 0 -0.47776896152105841 -0.21026135430060031 0 -0.5 -0.1893465224912797 0 -0.50000000000000311 -0.21385737080544451 0 -0.47776896152105841 -0.21026135430060031 0 -0.50000000000000311 -0.21385737080544451 0 -0.47776896152105841 -0.21026135430060031 0 -0.48002650275543901 -0.23190416221832491 0 -0.50000000000000311 -0.21385737080544451 0 -0.47776896152105841 -0.21026135430060031 0 -0.47776896152105841 -0.21026135430060031 0 -0.48002650275543901 -0.23190416221832491 0 -0.46370970781630172 -0.22386770990989621 0 -0.50000000000000311 -0.21385737080544451 0 -0.48002650275543901 -0.23190416221832491 0 -0.5 -0.24092380854046111 0 -0.4777322503447019 -0.25957726544333509 0 -0.48002650275543901 -0.23190416221832491 0 -0.5 -0.24092380854046111 0 -0.4777322503447019 -0.25957726544333509 0 -0.48002650275543901 -0.23190416221832491 0 -0.4603218035990862 -0.2440151072774833 0 -0.45553792304211382 -0.20666533779575669 0 -0.46370970781630172 -0.22386770990989621 0 -0.44489334816381049 -0.2264925879573155 0 -0.4603218035990862 -0.2440151072774833 0 -0.46370970781630172 -0.22386770990989621 0 -0.44489334816381049 -0.2264925879573155 0 -0.48002650275543901 -0.23190416221832491 0 -0.4603218035990862 -0.2440151072774833 0 -0.46370970781630172 -0.22386770990989621 0 -0.43363988072749859 -0.25378542656053571 0 -0.4603218035990862 -0.2440151072774833 0 -0.44489334816381049 -0.2264925879573155 0 -0.42007631709774379 -0.032471322172747639 0 -0.42002531347000288 -0.05368350522372705 0 -0.39949000914848859 -0.05273377906539263 0 -0.42002531347000288 -0.05368350522372705 0 -0.39949000914848859 -0.05273377906539263 0 -0.41799389226560629 -0.074140143052151802 0 -0.42002531347000288 -0.05368350522372705 0 -0.4374987562662862 -0.072478072129652085 0 -0.44054129435716433 -0.052381494628277618 0 -0.42007631709774379 -0.032471322172747639 0 -0.44358383244804239 -0.032284917126903137 0 -0.44054129435716433 -0.052381494628277618 0 -0.42007631709774379 -0.032471322172747639 0 -0.42002531347000288 -0.05368350522372705 0 -0.44054129435716433 -0.052381494628277618 0 -0.42007631709774379 -0.032471322172747639 0 -0.43643492576472009 -0.018537919585231391 0 -0.42313841905677851 -0.01592436742724021 0 -0.42007631709774379 -0.032471322172747639 0 -0.43643492576472009 -0.018537919585231391 0 -0.44358383244804239 -0.032284917126903137 0 -0.43134001404796851 -0.0074822419885046511 0 -0.44442771240763401 -0.0067767933053145 0 -0.43565319870952551 0.0034030816246998258 0 -0.43643492576472009 -0.018537919585231391 0 -0.42313841905677851 -0.01592436742724021 0 -0.43134001404796851 -0.0074822419885046511 0 -0.43643492576472009 -0.018537919585231391 0 -0.43134001404796851 -0.0074822419885046511 0 -0.44442771240763401 -0.0067767933053145 0 -0.42313841905677851 -0.01592436742724021 0 -0.43134001404796851 -0.0074822419885046511 0 -0.42198349262488799 -0.0060149723581376588 0 -0.43134001404796851 -0.0074822419885046511 0 -0.42198349262488799 -0.0060149723581376588 0 -0.42336464972106191 0.0042529223428712237 0 -0.41560062773005479 -0.009393059034686374 0 -0.40778354791666022 -0.0026529163630637891 0 -0.41203988377519729 -0.018789978154168729 0 -0.42198349262488799 -0.0060149723581376588 0 -0.4150428732161876 -0.0026969889430635938 0 -0.42336464972106191 0.0042529223428712237 0 -0.42198349262488799 -0.0060149723581376588 0 -0.4150428732161876 -0.0026969889430635938 0 -0.41560062773005479 -0.009393059034686374 0 -0.42313841905677851 -0.01592436742724021 0 -0.41560062773005479 -0.009393059034686374 0 -0.41203988377519729 -0.018789978154168729 0 -0.42313841905677851 -0.01592436742724021 0 -0.42198349262488799 -0.0060149723581376588 0 -0.41560062773005479 -0.009393059034686374 0 -0.41560062773005479 -0.009393059034686374 0 -0.40778354791666022 -0.0026529163630637891 0 -0.4150428732161876 -0.0026969889430635938 0 -0.41560062773005479 -0.009393059034686374 0 -0.40778354791666022 -0.0026529163630637891 0 -0.40778354791666022 -0.0026529163630637891 0 -0.40855341118313082 -0.00095476987211270264 0 -0.4150428732161876 -0.0026969889430635938 0 -0.40778354791666022 -0.0026529163630637891 0 -0.40855341118313082 -0.00095476987211270264 0 -0.4150428732161876 -0.0026969889430635938 0 -0.40855341118313082 -0.00095476987211270264 0 -0.41063257703544581 0.0031266722396682328 0 -0.42007631709774379 -0.032471322172747639 0 -0.42313841905677851 -0.01592436742724021 0 -0.41203988377519729 -0.018789978154168729 0 -0.42007631709774379 -0.032471322172747639 0 -0.41203988377519729 -0.018789978154168729 0 -0.39862891049503169 -0.02284600270773135 0 -0.36717975399241631 -0.027888041745320061 0 -0.37488546340366991 -0.0088069969633318961 0 -0.39862891049503169 -0.02284600270773135 0 -0.36717975399241631 -0.027888041745320061 0 -0.39862891049503169 -0.02284600270773135 0 -0.37661658898666239 -0.039843749351097128 0 -0.39862891049503169 -0.02284600270773135 0 -0.4039952539186647 -0.003560363920430742 0 -0.39779909392211921 0.0059560074330258436 0 -0.40778354791666022 -0.0026529163630637891 0 -0.41203988377519729 -0.018789978154168729 0 -0.39862891049503169 -0.02284600270773135 0 -0.39862891049503169 -0.02284600270773135 0 -0.39779909392211921 0.0059560074330258436 0 -0.40778354791666022 -0.0026529163630637891 0 -0.39862891049503169 -0.02284600270773135 0 -0.4039952539186647 -0.003560363920430742 0 -0.40778354791666022 -0.0026529163630637891 0 -0.39862891049503169 -0.02284600270773135 0 -0.40778354791666022 -0.0026529163630637891 0 -0.4039952539186647 -0.003560363920430742 0 -0.40034598581225989 0.0037599936889494991 0 -0.37488546340366991 -0.0088069969633318961 0 -0.39862891049503169 -0.02284600270773135 0 -0.39779909392211921 0.0059560074330258436 0 -0.39862891049503169 -0.02284600270773135 0 -0.37661658898666239 -0.039843749351097128 0 -0.38722828666417591 -0.047993233646198147 0 -0.39862891049503169 -0.02284600270773135 0 -0.39949000914848859 -0.05273377906539263 0 -0.39862891049503169 -0.02284600270773135 0 -0.39949000914848859 -0.05273377906539263 0 -0.38722828666417591 -0.047993233646198147 0 -0.39862891049503169 -0.02284600270773135 0 -0.38722828666417591 -0.047993233646198147 0 -0.42007631709774379 -0.032471322172747639 0 -0.39862891049503169 -0.02284600270773135 0 -0.39949000914848859 -0.05273377906539263 0 -0.39949000914848859 -0.05273377906539263 0 -0.38722828666417591 -0.047993233646198147 0 -0.38888539233614888 -0.063742600467654925 0 -0.36984565003693792 -0.055793808735493423 0 -0.38722828666417591 -0.047993233646198147 0 -0.37582766283331948 -0.073140464584664638 0 -0.38722828666417591 -0.047993233646198147 0 -0.37582766283331948 -0.073140464584664638 0 -0.38722828666417591 -0.047993233646198147 0 -0.38888539233614888 -0.063742600467654925 0 -0.37582766283331948 -0.073140464584664638 0 -0.36984565003693792 -0.055793808735493423 0 -0.37661658898666239 -0.039843749351097128 0 -0.38722828666417591 -0.047993233646198147 0 -0.38888539233614888 -0.063742600467654925 0 -0.37582766283331948 -0.073140464584664638 0 -0.40035110780194633 -0.082621555423053786 0 -0.37582766283331948 -0.073140464584664638 0 -0.37814520584525169 -0.088087153882549285 0 -0.40035110780194633 -0.082621555423053786 0 -0.37814520584525169 -0.088087153882549285 0 -0.40035110780194633 -0.082621555423053786 0 -0.38246890070370509 -0.10258129716011651 0 -0.39949000914848859 -0.05273377906539263 0 -0.38888539233614888 -0.063742600467654925 0 -0.40035110780194633 -0.082621555423053786 0 -0.39949000914848859 -0.05273377906539263 0 -0.40035110780194633 -0.082621555423053786 0 -0.39949000914848859 -0.05273377906539263 0 -0.40035110780194633 -0.082621555423053786 0 -0.41799389226560629 -0.074140143052151802 0 -0.3833618164319228 -0.12662877624363031 0 -0.39367647775226527 -0.1085177746644156 0 -0.3833618164319228 -0.12662877624363031 0 -0.37992630581664449 -0.1135310654663228 0 -0.39367647775226527 -0.1085177746644156 0 -0.37191621759155641 -0.12025008356691411 0 -0.3833618164319228 -0.12662877624363031 0 -0.37992630581664449 -0.1135310654663228 0 -0.38246890070370509 -0.10258129716011651 0 -0.39367647775226527 -0.1085177746644156 0 -0.37992630581664449 -0.1135310654663228 0 -0.38246890070370509 -0.10258129716011651 0 -0.39367647775226527 -0.1085177746644156 0 -0.36834174599981351 -0.1096093912191058 0 -0.37992630581664449 -0.1135310654663228 0 -0.38246890070370509 -0.10258129716011651 0 -0.40035110780194633 -0.082621555423053786 0 -0.40121220645539929 -0.11250933178071509 0 -0.40035110780194633 -0.082621555423053786 0 -0.40121220645539929 -0.11250933178071509 0 -0.41325552019211642 -0.10668491348982941 0 -0.40035110780194633 -0.082621555423053786 0 -0.38246890070370509 -0.10258129716011651 0 -0.39367647775226527 -0.1085177746644156 0 -0.40035110780194633 -0.082621555423053786 0 -0.39367647775226527 -0.1085177746644156 0 -0.40121220645539929 -0.11250933178071509 0 -0.3833618164319228 -0.12662877624363031 0 -0.39367647775226527 -0.1085177746644156 0 -0.39510321824194988 -0.12312941999316369 0 -0.40181351754776079 -0.13338017088559259 0 -0.40121220645539929 -0.11250933178071509 0 -0.39510321824194988 -0.12312941999316369 0 -0.40181351754776079 -0.13338017088559259 0 -0.40121220645539929 -0.11250933178071509 0 -0.40181351754776079 -0.13338017088559259 0 -0.40121220645539929 -0.11250933178071509 0 -0.41520323030366679 -0.1199201573300315 0 -0.39367647775226527 -0.1085177746644156 0 -0.40121220645539929 -0.11250933178071509 0 -0.39510321824194988 -0.12312941999316369 0 -0.39367647775226527 -0.1085177746644156 0 -0.40121220645539929 -0.11250933178071509 0 -0.41520323030366679 -0.1199201573300315 0 -0.41325552019211642 -0.10668491348982941 0 -0.43182523616366908 -0.1099528162551866 0 -0.40121220645539929 -0.11250933178071509 0 -0.41520323030366679 -0.1199201573300315 0 -0.40121220645539929 -0.11250933178071509 0 -0.41520323030366679 -0.1199201573300315 0 -0.41325552019211642 -0.10668491348982941 0 -0.41325552019211642 -0.10668491348982941 0 -0.43182523616366908 -0.1099528162551866 0 -0.416185947829745 -0.093632026910652269 0 -0.40035110780194633 -0.082621555423053786 0 -0.41325552019211642 -0.10668491348982941 0 -0.416185947829745 -0.093632026910652269 0 -0.43182523616366908 -0.1099528162551866 0 -0.43445621817540869 -0.092574649631026684 0 -0.43182523616366908 -0.1099528162551866 0 -0.416185947829745 -0.093632026910652269 0 -0.43445621817540869 -0.092574649631026684 0 -0.43182523616366908 -0.1099528162551866 0 -0.43445621817540869 -0.092574649631026684 0 -0.44428671844301021 -0.1026302626961741 0 -0.42919425415193468 -0.12733098287934741 0 -0.41520323030366679 -0.1199201573300315 0 -0.43182523616366908 -0.1099528162551866 0 -0.42919425415193468 -0.12733098287934741 0 -0.43182523616366908 -0.1099528162551866 0 -0.42919425415193468 -0.12733098287934741 0 -0.43182523616366908 -0.1099528162551866 0 -0.45118603485136571 -0.1162082646776138 0 -0.42919425415193468 -0.12733098287934741 0 -0.41520323030366679 -0.1199201573300315 0 -0.40035110780194633 -0.082621555423053786 0 -0.41799389226560629 -0.074140143052151802 0 -0.416185947829745 -0.093632026910652269 0 -0.43445621817540869 -0.092574649631026684 0 -0.4374987562662862 -0.072478072129652085 0 -0.416185947829745 -0.093632026910652269 0 -0.43445621817540869 -0.092574649631026684 0 -0.41799389226560629 -0.074140143052151802 0 -0.416185947829745 -0.093632026910652269 0 -0.43445621817540869 -0.092574649631026684 0 -0.41799389226560629 -0.074140143052151802 0 -0.43445621817540869 -0.092574649631026684 0 -0.4374987562662862 -0.072478072129652085 0 -0.42002531347000288 -0.05368350522372705 0 -0.41799389226560629 -0.074140143052151802 0 -0.4374987562662862 -0.072478072129652085 0 -0.4374987562662862 -0.072478072129652085 0 -0.45627950065733952 -0.066024348827704735 0 -0.44054129435716433 -0.052381494628277618 0 -0.4374987562662862 -0.072478072129652085 0 -0.45892935766186299 -0.091158286262321905 0 -0.45627950065733952 -0.066024348827704735 0 -0.43445621817540869 -0.092574649631026684 0 -0.4374987562662862 -0.072478072129652085 0 -0.45892935766186299 -0.091158286262321905 0 -0.43445621817540869 -0.092574649631026684 0 -0.45892935766186299 -0.091158286262321905 0 -0.45892935766186299 -0.091158286262321905 0 -0.45627950065733952 -0.066024348827704735 0 -0.47448023218276852 -0.072357998543834082 0 -0.45627950065733952 -0.066024348827704735 0 -0.47448023218276852 -0.072357998543834082 0 -0.4700839281369727 -0.053488382888113292 0 -0.43182523616366908 -0.1099528162551866 0 -0.45118603485136571 -0.1162082646776138 0 -0.44428671844301021 -0.1026302626961741 0 -0.43445621817540869 -0.092574649631026684 0 -0.45892935766186299 -0.091158286262321905 0 -0.44428671844301021 -0.1026302626961741 0 -0.45892935766186299 -0.091158286262321905 0 -0.45118603485136571 -0.1162082646776138 0 -0.44428671844301021 -0.1026302626961741 0 -0.45892935766186299 -0.091158286262321905 0 -0.45118603485136571 -0.1162082646776138 0 -0.47152847504223733 -0.1166035972868997 0 -0.48064657579041942 -0.13377487004813551 0 -0.47152847504223733 -0.1166035972868997 0 -0.5 -0.1122051162233467 0 -0.47152847504223733 -0.1166035972868997 0 -0.48340249714831718 -0.08974192289361714 0 -0.45892935766186299 -0.091158286262321905 0 -0.47152847504223733 -0.1166035972868997 0 -0.48340249714831718 -0.08974192289361714 0 -0.47152847504223733 -0.1166035972868997 0 -0.5 -0.1122051162233467 0 -0.48340249714831718 -0.08974192289361714 0 -0.5 -0.1122051162233467 0 -0.48340249714831718 -0.08974192289361714 0 -0.49999999999999828 -0.088781355694453681 0 -0.47448023218276852 -0.072357998543834082 0 -0.48340249714831718 -0.08974192289361714 0 -0.49170124857415909 -0.070968304596449483 0 -0.47448023218276852 -0.072357998543834082 0 -0.49170124857415909 -0.070968304596449483 0 -0.48477932911979532 -0.056687504044553451 0 -0.45892935766186299 -0.091158286262321905 0 -0.47448023218276852 -0.072357998543834082 0 -0.48340249714831718 -0.08974192289361714 0 -0.45892935766186299 -0.091158286262321905 0 -0.48340249714831718 -0.08974192289361714 0 -0.48340249714831718 -0.08974192289361714 0 -0.49999999999999828 -0.088781355694453681 0 -0.48340249714831718 -0.08974192289361714 0 -0.49999999999999828 -0.088781355694453681 0 -0.49170124857415909 -0.070968304596449483 0 -0.48340249714831718 -0.08974192289361714 0 -0.49170124857415909 -0.070968304596449483 0 -0.49999999999999828 -0.088781355694453681 0 -0.5 -0.070488020996867462 0 -0.49170124857415909 -0.070968304596449483 0 -0.5 -0.070488020996867462 0 -0.49170124857415909 -0.070968304596449483 0 -0.49999999999999978 -0.052194686299281257 0 -0.49170124857415909 -0.070968304596449483 0 -0.48477932911979532 -0.056687504044553451 0 -0.49999999999999978 -0.052194686299281257 0 -0.48477932911979532 -0.056687504044553451 0 -0.49999999999999978 -0.052194686299281257 0 -0.48194708666418712 -0.040563537571228513 0 -0.49170124857415909 -0.070968304596449483 0 -0.49999999999999978 -0.052194686299281257 0 -0.49999999999999978 -0.052194686299281257 0 -0.48194708666418712 -0.040563537571228513 0 -0.5 -0.022372810806699731 0 -0.48194708666418712 -0.040563537571228513 0 -0.4700839281369727 -0.053488382888113292 0 -0.464063888490508 -0.035932366018957732 0 -0.48194708666418712 -0.040563537571228513 0 -0.464063888490508 -0.035932366018957732 0 -0.47729242707394481 -0.021220641918728741 0 -0.48477932911979532 -0.056687504044553451 0 -0.48194708666418712 -0.040563537571228513 0 -0.4700839281369727 -0.053488382888113292 0 -0.47448023218276852 -0.072357998543834082 0 -0.48477932911979532 -0.056687504044553451 0 -0.4700839281369727 -0.053488382888113292 0 -0.45627950065733952 -0.066024348827704735 0 -0.4700839281369727 -0.053488382888113292 0 -0.45491048881800539 -0.048022301897991303 0 -0.45491048881800539 -0.048022301897991303 0 -0.464063888490508 -0.035932366018957732 0 -0.44358383244804239 -0.032284917126903137 0 -0.4700839281369727 -0.053488382888113292 0 -0.45491048881800539 -0.048022301897991303 0 -0.464063888490508 -0.035932366018957732 0 -0.44358383244804239 -0.032284917126903137 0 -0.44054129435716433 -0.052381494628277618 0 -0.45491048881800539 -0.048022301897991303 0 -0.44358383244804239 -0.032284917126903137 0 -0.44054129435716433 -0.052381494628277618 0 -0.45627950065733952 -0.066024348827704735 0 -0.45491048881800539 -0.048022301897991303 0 -0.44054129435716433 -0.052381494628277618 0 -0.4374987562662862 -0.072478072129652085 0 -0.44054129435716433 -0.052381494628277618 0 -0.44442771240763401 -0.0067767933053145 0 -0.45604325953015368 -0.0162878754906782 0 -0.4553650202881292 0.00056700661825822445 0 -0.43643492576472009 -0.018537919585231391 0 -0.44442771240763401 -0.0067767933053145 0 -0.45604325953015368 -0.0162878754906782 0 -0.43643492576472009 -0.018537919585231391 0 -0.44358383244804239 -0.032284917126903137 0 -0.45604325953015368 -0.0162878754906782 0 -0.464063888490508 -0.035932366018957732 0 -0.45604325953015368 -0.0162878754906782 0 -0.47729242707394481 -0.021220641918728741 0 -0.464063888490508 -0.035932366018957732 0 -0.44358383244804239 -0.032284917126903137 0 -0.45604325953015368 -0.0162878754906782 0 -0.45604325953015368 -0.0162878754906782 0 -0.47181531448565539 0.0037414832300115691 0 -0.4553650202881292 0.00056700661825822445 0 -0.45604325953015368 -0.0162878754906782 0 -0.47729242707394481 -0.021220641918728741 0 -0.47181531448565539 0.0037414832300115691 0 -0.47729242707394481 -0.021220641918728741 0 -0.47181531448565539 0.0037414832300115691 0 -0.47729242707394481 -0.021220641918728741 0 -0.48727693538990002 -0.0081007262023837755 0 -0.47181531448565539 0.0037414832300115691 0 -0.48194708666418712 -0.040563537571228513 0 -0.47729242707394481 -0.021220641918728741 0 -0.5 -0.022372810806699731 0 -0.47729242707394481 -0.021220641918728741 0 -0.5 -0.022372810806699731 0 -0.48727693538990002 -0.0081007262023837755 0 -0.5 -0.022372810806699731 0 -0.48727693538990002 -0.0081007262023837755 0 -0.5 0.007449064685881801 0 -0.48727693538990002 -0.0081007262023837755 0 -0.5 0.007449064685881801 0 -0.47181531448565539 0.0037414832300115691 0 -0.5 0.007449064685881801 0 -0.49082470263579148 0.02236000243217267 0 -0.47181531448565539 0.0037414832300115691 0 -0.49082470263579148 0.02236000243217267 0 -0.47913705109134319 0.027277641123757111 0 -0.49085529654560472 0.039867749580452708 0 -0.5 0.007449064685881801 0 -0.49082470263579148 0.02236000243217267 0 -0.5 0.037270940178463552 0 -0.47181531448565539 0.0037414832300115691 0 -0.46633820189736608 0.028703608378751921 0 -0.47913705109134319 0.027277641123757111 0 -0.47181531448565539 0.0037414832300115691 0 -0.46633820189736608 0.028703608378751921 0 -0.49082470263579148 0.02236000243217267 0 -0.47913705109134319 0.027277641123757111 0 -0.47181531448565539 0.0037414832300115691 0 -0.49085529654560472 0.039867749580452708 0 -0.47815581028999138 0.055212226892313448 0 -0.5 0.067092815671045358 0 -0.5 0.037270940178463552 0 -0.49085529654560472 0.039867749580452708 0 -0.5 0.067092815671045358 0 -0.49085529654560472 0.039867749580452708 0 -0.47815581028999138 0.055212226892313448 0 -0.49082470263579148 0.02236000243217267 0 -0.5 0.037270940178463552 0 -0.49085529654560472 0.039867749580452708 0 -0.47913705109134319 0.027277641123757111 0 -0.49085529654560472 0.039867749580452708 0 -0.47585173989229862 0.041715361997396672 0 -0.47913705109134319 0.027277641123757111 0 -0.47585173989229862 0.041715361997396672 0 -0.46633820189736608 0.028703608378751921 0 -0.49085529654560472 0.039867749580452708 0 -0.47585173989229862 0.041715361997396672 0 -0.47815581028999138 0.055212226892313448 0 -0.47585173989229862 0.041715361997396672 0 -0.47815581028999138 0.055212226892313448 0 -0.46086108930907671 0.053665733527492272 0 -0.47815581028999138 0.055212226892313448 0 -0.46086108930907671 0.053665733527492272 0 -0.46545632403437809 0.070556704204174397 0 -0.46086108930907671 0.053665733527492272 0 -0.4499082407608746 0.045270189226219663 0 -0.46545632403437809 0.070556704204174397 0 -0.4499082407608746 0.045270189226219663 0 -0.46545632403437809 0.070556704204174397 0 -0.4499082407608746 0.045270189226219663 0 -0.44738523142164499 0.064244861154302266 0 -0.46545632403437809 0.070556704204174397 0 -0.46086108930907671 0.053665733527492272 0 -0.45495310251311483 0.034989758559059482 0 -0.46633820189736608 0.028703608378751921 0 -0.46086108930907671 0.053665733527492272 0 -0.45495310251311483 0.034989758559059482 0 -0.4499082407608746 0.045270189226219663 0 -0.46086108930907671 0.053665733527492272 0 -0.46633820189736608 0.028703608378751921 0 -0.47585173989229862 0.041715361997396672 0 -0.46086108930907671 0.053665733527492272 0 -0.46633820189736608 0.028703608378751921 0 -0.45495310251311483 0.034989758559059482 0 -0.4499082407608746 0.045270189226219663 0 -0.44346549249224598 0.030042058548616319 0 -0.43956038266407088 0.04070608893656695 0 -0.4499082407608746 0.045270189226219663 0 -0.44346549249224598 0.030042058548616319 0 -0.43956038266407088 0.04070608893656695 0 -0.4499082407608746 0.045270189226219663 0 -0.43565960153661759 0.050958769353994827 0 -0.4499082407608746 0.045270189226219663 0 -0.43565960153661759 0.050958769353994827 0 -0.44738523142164499 0.064244861154302266 0 -0.47181531448565539 0.0037414832300115691 0 -0.4553650202881292 0.00056700661825822445 0 -0.45419248810601048 0.0172672031142172 0 -0.47181531448565539 0.0037414832300115691 0 -0.46633820189736608 0.028703608378751921 0 -0.45419248810601048 0.0172672031142172 0 -0.45495310251311483 0.034989758559059482 0 -0.46633820189736608 0.028703608378751921 0 -0.45419248810601048 0.0172672031142172 0 -0.45419248810601048 0.0172672031142172 0 -0.44346549249224598 0.030042058548616319 0 -0.43905560886679301 0.01573731458593489 0 -0.45495310251311483 0.034989758559059482 0 -0.45419248810601048 0.0172672031142172 0 -0.44346549249224598 0.030042058548616319 0 -0.43905560886679301 0.01573731458593489 0 -0.44600762507370639 0.0066236064407855719 0 -0.43565319870952551 0.0034030816246998258 0 -0.4553650202881292 0.00056700661825822445 0 -0.45419248810601048 0.0172672031142172 0 -0.44600762507370639 0.0066236064407855719 0 -0.45419248810601048 0.0172672031142172 0 -0.43905560886679301 0.01573731458593489 0 -0.44600762507370639 0.0066236064407855719 0 -0.44442771240763401 -0.0067767933053145 0 -0.4553650202881292 0.00056700661825822445 0 -0.44600762507370639 0.0066236064407855719 0 -0.44442771240763401 -0.0067767933053145 0 -0.44600762507370639 0.0066236064407855719 0 -0.43565319870952551 0.0034030816246998258 0 -0.43134001404796851 -0.0074822419885046511 0 -0.43565319870952551 0.0034030816246998258 0 -0.42336464972106191 0.0042529223428712237 0 -0.43905560886679301 0.01573731458593489 0 -0.43565319870952551 0.0034030816246998258 0 -0.42838178637172453 0.0131839439612486 0 -0.42838178637172453 0.0131839439612486 0 -0.42336464972106191 0.0042529223428712237 0 -0.41621658076617579 0.01823140421500849 0 -0.43565319870952551 0.0034030816246998258 0 -0.42838178637172453 0.0131839439612486 0 -0.42336464972106191 0.0042529223428712237 0 -0.4150428732161876 -0.0026969889430635938 0 -0.42336464972106191 0.0042529223428712237 0 -0.41469527530861983 0.0067650291234140044 0 -0.42336464972106191 0.0042529223428712237 0 -0.41469527530861983 0.0067650291234140044 0 -0.41621658076617579 0.01823140421500849 0 -0.41469527530861983 0.0067650291234140044 0 -0.40821969580422768 0.010911135762585671 0 -0.41621658076617579 0.01823140421500849 0 -0.40821969580422768 0.010911135762585671 0 -0.41063257703544581 0.0031266722396682328 0 -0.40599233014865382 0.0047796083952667259 0 -0.4150428732161876 -0.0026969889430635938 0 -0.41469527530861983 0.0067650291234140044 0 -0.41063257703544581 0.0031266722396682328 0 -0.40855341118313082 -0.00095476987211270264 0 -0.41063257703544581 0.0031266722396682328 0 -0.40599233014865382 0.0047796083952667259 0 -0.41469527530861983 0.0067650291234140044 0 -0.40821969580422768 0.010911135762585671 0 -0.41063257703544581 0.0031266722396682328 0 -0.41621658076617579 0.01823140421500849 0 -0.41390866861330122 0.035868551314985009 0 -0.39703662816327667 0.032420345739844772 0 -0.41621658076617579 0.01823140421500849 0 -0.42761889379506662 0.024294997037728552 0 -0.41390866861330122 0.035868551314985009 0 -0.40821969580422768 0.010911135762585671 0 -0.41621658076617579 0.01823140421500849 0 -0.39703662816327667 0.032420345739844772 0 -0.44346549249224598 0.030042058548616319 0 -0.42761889379506662 0.024294997037728552 0 -0.42920819586654568 0.036553338617437002 0 -0.44346549249224598 0.030042058548616319 0 -0.43905560886679301 0.01573731458593489 0 -0.42761889379506662 0.024294997037728552 0 -0.42838178637172453 0.0131839439612486 0 -0.41621658076617579 0.01823140421500849 0 -0.42761889379506662 0.024294997037728552 0 -0.43905560886679301 0.01573731458593489 0 -0.42838178637172453 0.0131839439612486 0 -0.42761889379506662 0.024294997037728552 0 -0.43956038266407088 0.04070608893656695 0 -0.44346549249224598 0.030042058548616319 0 -0.42920819586654568 0.036553338617437002 0 -0.42920819586654568 0.036553338617437002 0 -0.43565960153661759 0.050958769353994827 0 -0.41895721829422922 0.052278969410062021 0 -0.43956038266407088 0.04070608893656695 0 -0.42920819586654568 0.036553338617437002 0 -0.43565960153661759 0.050958769353994827 0 -0.42761889379506662 0.024294997037728552 0 -0.42920819586654568 0.036553338617437002 0 -0.41390866861330122 0.035868551314985009 0 -0.43565960153661759 0.050958769353994827 0 -0.41895721829422922 0.052278969410062021 0 -0.4286806420750624 0.067110593409783592 0 -0.43565960153661759 0.050958769353994827 0 -0.4286806420750624 0.067110593409783592 0 -0.44738523142164499 0.064244861154302266 0 -0.41895721829422922 0.052278969410062021 0 -0.41390866861330122 0.035868551314985009 0 -0.39636323703966542 0.055793002546256909 0 -0.41895721829422922 0.052278969410062021 0 -0.39636323703966542 0.055793002546256909 0 -0.41211996482045021 0.069807194112342527 0 -0.42920819586654568 0.036553338617437002 0 -0.41895721829422922 0.052278969410062021 0 -0.41390866861330122 0.035868551314985009 0 -0.39703662816327667 0.032420345739844772 0 -0.39636323703966542 0.055793002546256909 0 -0.38970342172085393 0.043905097216547451 0 -0.41390866861330122 0.035868551314985009 0 -0.39703662816327667 0.032420345739844772 0 -0.39636323703966542 0.055793002546256909 0 -0.39703662816327667 0.032420345739844772 0 -0.39636323703966542 0.055793002546256909 0 -0.39703662816327667 0.032420345739844772 0 -0.38970342172085393 0.043905097216547451 0 -0.38699006273058051 0.030551703782715659 0 -0.39636323703966542 0.055793002546256909 0 -0.37627010617427542 0.052055718631999273 0 -0.38970342172085393 0.043905097216547451 0 -0.39636323703966542 0.055793002546256909 0 -0.37627010617427542 0.052055718631999273 0 -0.38222370855355048 0.067690342228948472 0 -0.37627010617427542 0.052055718631999273 0 -0.38699006273058051 0.030551703782715659 0 -0.36570031849846291 0.033632624674302732 0 -0.37627010617427542 0.052055718631999273 0 -0.38970342172085393 0.043905097216547451 0 -0.38699006273058051 0.030551703782715659 0 -0.37627010617427542 0.052055718631999273 0 -0.38699006273058051 0.030551703782715659 0 -0.38699006273058051 0.030551703782715659 0 -0.38174970621029108 0.019794316053664381 0 -0.39771001928688671 0.0090476889334325707 0 -0.38699006273058051 0.030551703782715659 0 -0.38174970621029108 0.019794316053664381 0 -0.36570031849846291 0.033632624674302732 0 -0.38174970621029108 0.019794316053664381 0 -0.37844720008996963 0.0071051536847907158 0 -0.37354211765260181 0.01841755417228812 0 -0.38174970621029108 0.019794316053664381 0 -0.37844720008996963 0.0071051536847907158 0 -0.39779909392211921 0.0059560074330258436 0 -0.37488546340366991 -0.0088069969633318961 0 -0.37844720008996963 0.0071051536847907158 0 -0.39779909392211921 0.0059560074330258436 0 -0.38174970621029108 0.019794316053664381 0 -0.39779909392211921 0.0059560074330258436 0 -0.38174970621029108 0.019794316053664381 0 -0.39771001928688671 0.0090476889334325707 0 -0.39779909392211921 0.0059560074330258436 0 -0.39771001928688671 0.0090476889334325707 0 -0.39779909392211921 0.0059560074330258436 0 -0.4039952539186647 -0.003560363920430742 0 -0.39779909392211921 0.0059560074330258436 0 -0.40034598581225989 0.0037599936889494991 0 -0.40855341118313082 -0.00095476987211270264 0 -0.40034598581225989 0.0037599936889494991 0 -0.40599233014865382 0.0047796083952667259 0 -0.40778354791666022 -0.0026529163630637891 0 -0.40855341118313082 -0.00095476987211270264 0 -0.40034598581225989 0.0037599936889494991 0 -0.39771001928688671 0.0090476889334325707 0 -0.40034598581225989 0.0037599936889494991 0 -0.40599233014865382 0.0047796083952667259 0 -0.4039952539186647 -0.003560363920430742 0 -0.40034598581225989 0.0037599936889494991 0 -0.39771001928688671 0.0090476889334325707 0 -0.40034598581225989 0.0037599936889494991 0 -0.39771001928688671 0.0090476889334325707 0 -0.39779909392211921 0.0059560074330258436 0 -0.40034598581225989 0.0037599936889494991 0 -0.39779909392211921 0.0059560074330258436 0 -0.40034598581225989 0.0037599936889494991 0 -0.40778354791666022 -0.0026529163630637891 0 -0.40034598581225989 0.0037599936889494991 0 -0.40821969580422768 0.010911135762585671 0 -0.39771001928688671 0.0090476889334325707 0 -0.40599233014865382 0.0047796083952667259 0 -0.40821969580422768 0.010911135762585671 0 -0.39703662816327667 0.032420345739844772 0 -0.39771001928688671 0.0090476889334325707 0 -0.38699006273058051 0.030551703782715659 0 -0.39771001928688671 0.0090476889334325707 0 -0.39703662816327667 0.032420345739844772 0 -0.39771001928688671 0.0090476889334325707 0 -0.39703662816327667 0.032420345739844772 0 -0.38699006273058051 0.030551703782715659 0 -0.39771001928688671 0.0090476889334325707 0 -0.39501645479244102 0.1025383161590812 0 -0.39568984591605411 0.079165659352669074 0 -0.40720104192039452 0.1000378404874975 0 -0.39501645479244102 0.1025383161590812 0 -0.40720104192039452 0.1000378404874975 0 -0.39501645479244102 0.1025383161590812 0 -0.40452480123840823 0.1149040888991609 0 -0.40720104192039452 0.1000378404874975 0 -0.40452480123840823 0.1149040888991609 0 -0.41038829956905493 0.1261567166047716 0 -0.39427706921374378 0.12820156708799471 0 -0.39501645479244102 0.1025383161590812 0 -0.39427706921374378 0.12820156708799471 0 -0.39501645479244102 0.1025383161590812 0 -0.38445278176154379 0.1152670383167608 0 -0.39427706921374378 0.12820156708799471 0 -0.39501645479244102 0.1025383161590812 0 -0.40452480123840823 0.1149040888991609 0 -0.39427706921374378 0.12820156708799471 0 -0.38445278176154379 0.1152670383167608 0 -0.37347949534550801 0.1069580509085155 0 -0.37195640052570478 0.1235867056326671 0 -0.38445278176154379 0.1152670383167608 0 -0.39427706921374378 0.12820156708799471 0 -0.37195640052570478 0.1235867056326671 0 -0.39501645479244102 0.1025383161590812 0 -0.38445278176154379 0.1152670383167608 0 -0.37347949534550801 0.1069580509085155 0 -0.39501645479244102 0.1025383161590812 0 -0.37944896416051771 0.090803590563051567 0 -0.37347949534550801 0.1069580509085155 0 -0.39501645479244102 0.1025383161590812 0 -0.37347949534550801 0.1069580509085155 0 -0.39501645479244102 0.1025383161590812 0 -0.37944896416051771 0.090803590563051567 0 -0.39568984591605411 0.079165659352669074 0 -0.37944896416051771 0.090803590563051567 0 -0.37753635478995029 0.078334889417154024 0 -0.39568984591605411 0.079165659352669074 0 -0.37944896416051771 0.090803590563051567 0 -0.37753635478995029 0.078334889417154024 0 -0.36851835518698861 0.083533740989749666 0 -0.37753635478995029 0.078334889417154024 0 -0.38222370855355048 0.067690342228948472 0 -0.39568984591605411 0.079165659352669074 0 -0.37753635478995029 0.078334889417154024 0 -0.38222370855355048 0.067690342228948472 0 -0.36555014961796861 0.073559733481281975 0 -0.39636323703966542 0.055793002546256909 0 -0.39568984591605411 0.079165659352669074 0 -0.41211996482045021 0.069807194112342527 0 -0.39568984591605411 0.079165659352669074 0 -0.40981642111810951 0.084985080551736855 0 -0.41211996482045021 0.069807194112342527 0 -0.39636323703966542 0.055793002546256909 0 -0.39568984591605411 0.079165659352669074 0 -0.39636323703966542 0.055793002546256909 0 -0.38222370855355048 0.067690342228948472 0 -0.39568984591605411 0.079165659352669074 0 -0.39568984591605411 0.079165659352669074 0 -0.40981642111810951 0.084985080551736855 0 -0.40720104192039452 0.1000378404874975 0 -0.39501645479244102 0.1025383161590812 0 -0.39568984591605411 0.079165659352669074 0 -0.40981642111810951 0.084985080551736855 0 -0.42481460963315282 0.083797929733371246 0 -0.42155298542005742 0.1022929682741804 0 -0.40981642111810951 0.084985080551736855 0 -0.41211996482045021 0.069807194112342527 0 -0.42481460963315282 0.083797929733371246 0 -0.41211996482045021 0.069807194112342527 0 -0.4286806420750624 0.067110593409783592 0 -0.42481460963315282 0.083797929733371246 0 -0.41895721829422922 0.052278969410062021 0 -0.41211996482045021 0.069807194112342527 0 -0.4286806420750624 0.067110593409783592 0 -0.4286806420750624 0.067110593409783592 0 -0.42481460963315282 0.083797929733371246 0 -0.43724003464320832 0.079018649268208285 0 -0.42481460963315282 0.083797929733371246 0 -0.43458102637095702 0.09160017037792062 0 -0.42155298542005742 0.1022929682741804 0 -0.42481460963315282 0.083797929733371246 0 -0.43724003464320832 0.079018649268208285 0 -0.43458102637095702 0.09160017037792062 0 -0.43458102637095702 0.09160017037792062 0 -0.43602100339607019 0.1061226791271532 0 -0.42155298542005742 0.1022929682741804 0 -0.43602100339607019 0.1061226791271532 0 -0.42155298542005742 0.1022929682741804 0 -0.42811729853344432 0.11431450840083759 0 -0.40981642111810951 0.084985080551736855 0 -0.42155298542005742 0.1022929682741804 0 -0.40720104192039452 0.1000378404874975 0 -0.42155298542005742 0.1022929682741804 0 -0.40720104192039452 0.1000378404874975 0 -0.41643765381901549 0.1151696931753033 0 -0.40452480123840823 0.1149040888991609 0 -0.41643765381901549 0.1151696931753033 0 -0.41038829956905493 0.1261567166047716 0 -0.40452480123840823 0.1149040888991609 0 -0.40720104192039452 0.1000378404874975 0 -0.41643765381901549 0.1151696931753033 0 -0.41643765381901549 0.1151696931753033 0 -0.41038829956905493 0.1261567166047716 0 -0.42563440272516762 0.128935718642787 0 -0.41643765381901549 0.1151696931753033 0 -0.42811729853344432 0.11431450840083759 0 -0.42563440272516762 0.128935718642787 0 -0.42155298542005742 0.1022929682741804 0 -0.41643765381901549 0.1151696931753033 0 -0.42811729853344432 0.11431450840083759 0 -0.43602100339607019 0.1061226791271532 0 -0.42811729853344432 0.11431450840083759 0 -0.43877484329563959 0.11902984352183919 0 -0.42811729853344432 0.11431450840083759 0 -0.43877484329563959 0.11902984352183919 0 -0.42563440272516762 0.128935718642787 0 -0.43877484329563959 0.11902984352183919 0 -0.45064971917383873 0.1101369393728696 0 -0.45918322886376001 0.13677167016414349 0 -0.43602100339607019 0.1061226791271532 0 -0.43877484329563959 0.11902984352183919 0 -0.45064971917383873 0.1101369393728696 0 -0.43602100339607019 0.1061226791271532 0 -0.45073866371522409 0.088339691665663717 0 -0.43458102637095702 0.09160017037792062 0 -0.43602100339607019 0.1061226791271532 0 -0.45073866371522409 0.088339691665663717 0 -0.43602100339607019 0.1061226791271532 0 -0.45064971917383873 0.1101369393728696 0 -0.45073866371522409 0.088339691665663717 0 -0.45064971917383873 0.1101369393728696 0 -0.46380173503466787 0.096524047421973916 0 -0.46472844298233018 0.1145781564218453 0 -0.46380173503466787 0.096524047421973916 0 -0.46472844298233018 0.1145781564218453 0 -0.47426637761265161 0.1062494678457714 0 -0.45064971917383873 0.1101369393728696 0 -0.46380173503466787 0.096524047421973916 0 -0.45073866371522409 0.088339691665663717 0 -0.45064971917383873 0.1101369393728696 0 -0.46472844298233018 0.1145781564218453 0 -0.45918322886376001 0.13677167016414349 0 -0.46472844298233018 0.1145781564218453 0 -0.47863541177734192 0.1228807330393127 0 -0.45918322886376001 0.13677167016414349 0 -0.43724003464320832 0.079018649268208285 0 -0.44738523142164499 0.064244861154302266 0 -0.45073866371522409 0.088339691665663717 0 -0.4286806420750624 0.067110593409783592 0 -0.43724003464320832 0.079018649268208285 0 -0.44738523142164499 0.064244861154302266 0 -0.43724003464320832 0.079018649268208285 0 -0.43458102637095702 0.09160017037792062 0 -0.45073866371522409 0.088339691665663717 0 -0.46380173503466787 0.096524047421973916 0 -0.46545632403437809 0.070556704204174397 0 -0.4769708826895851 0.089283325021519172 0 -0.46380173503466787 0.096524047421973916 0 -0.45073866371522409 0.088339691665663717 0 -0.46545632403437809 0.070556704204174397 0 -0.45073866371522409 0.088339691665663717 0 -0.46545632403437809 0.070556704204174397 0 -0.44738523142164499 0.064244861154302266 0 -0.45073866371522409 0.088339691665663717 0 -0.46545632403437809 0.070556704204174397 0 -0.47815581028999138 0.055212226892313448 0 -0.46545632403437809 0.070556704204174397 0 -0.48288477801302532 0.072510281660644715 0 -0.46545632403437809 0.070556704204174397 0 -0.48288477801302532 0.072510281660644715 0 -0.4769708826895851 0.089283325021519172 0 -0.47815581028999138 0.055212226892313448 0 -0.46545632403437809 0.070556704204174397 0 -0.48288477801302532 0.072510281660644715 0 -0.4769708826895851 0.089283325021519172 0 -0.48966822040948038 0.08676221187114011 0 -0.46545632403437809 0.070556704204174397 0 -0.4769708826895851 0.089283325021519172 0 -0.48966822040948038 0.08676221187114011 0 -0.5 0.067092815671045358 0 -0.5 0.096914691163627054 0 -0.48288477801302532 0.072510281660644715 0 -0.48966822040948038 0.08676221187114011 0 -0.5 0.067092815671045358 0 -0.47815581028999138 0.055212226892313448 0 -0.48288477801302532 0.072510281660644715 0 -0.5 0.067092815671045358 0 -0.47863541177734192 0.1228807330393127 0 -0.47426637761265161 0.1062494678457714 0 -0.48848544134479172 0.10800994583886429 0 -0.46472844298233018 0.1145781564218453 0 -0.47863541177734192 0.1228807330393127 0 -0.47426637761265161 0.1062494678457714 0 -0.46380173503466787 0.096524047421973916 0 -0.4769708826895851 0.089283325021519172 0 -0.47426637761265161 0.1062494678457714 0 -0.4769708826895851 0.089283325021519172 0 -0.48848544134479172 0.10800994583886429 0 -0.4769708826895851 0.089283325021519172 0 -0.47426637761265161 0.1062494678457714 0 -0.48848544134479172 0.10800994583886429 0 -0.4769708826895851 0.089283325021519172 0 -0.48966822040948038 0.08676221187114011 0 -0.48848544134479172 0.10800994583886429 0 -0.48966822040948038 0.08676221187114011 0 -0.5 0.096914691163627054 0 -0.48848544134479172 0.10800994583886429 0 -0.48848544134479172 0.10800994583886429 0 -0.49999999999999889 0.1267365666562088 0 -0.47863541177734192 0.1228807330393127 0 -0.48848544134479172 0.10800994583886429 0 -0.49999999999999889 0.1267365666562088 0 -0.5 0.096914691163627054 0 -0.48848544134479172 0.10800994583886429 0 -0.49999999999999889 0.1267365666562088 0 -0.47863541177734192 0.1228807330393127 0 -0.49999999999999889 0.1267365666562088 0 -0.48348205101459629 0.13807968234371859 0 -0.49999999999999889 0.1267365666562088 0 -0.48348205101459629 0.13807968234371859 0 -0.5 0.14949594505248059 0 -0.47863541177734192 0.1228807330393127 0 -0.48348205101459629 0.13807968234371859 0 -0.45918322886376001 0.13677167016414349 0 -0.47959161443188031 0.15451349680644769 0 -0.45918322886376001 0.13677167016414349 0 -0.48348205101459629 0.13807968234371859 0 -0.47959161443188031 0.15451349680644769 0 -0.45918322886376001 0.13677167016414349 0 -0.48348205101459629 0.13807968234371859 0 -0.47959161443188031 0.15451349680644769 0 -0.5 0.14949594505248059 0 -0.47959161443188031 0.15451349680644769 0 -0.50000000000000056 0.17225532344875241 0 -0.48131188547021098 0.17139747857739049 0 -0.47959161443188031 0.15451349680644769 0 -0.50000000000000056 0.17225532344875241 0 -0.47959161443188031 0.15451349680644769 0 -0.5 0.14949594505248059 0 -0.50000000000000056 0.17225532344875241 0 -0.50000000000000056 0.17225532344875241 0 -0.48812957245013011 0.1829880331503029 0 -0.48131188547021098 0.17139747857739049 0 -0.50000000000000056 0.17225532344875241 0 -0.48812957245013011 0.1829880331503029 0 -0.5 0.19042634530897609 0 -0.47430294684130508 0.18249077378781939 0 -0.48131188547021098 0.17139747857739049 0 -0.46453529362773988 0.16473976569363019 0 -0.48812957245013011 0.1829880331503029 0 -0.47430294684130508 0.18249077378781939 0 -0.48395677740400672 0.1959220845609807 0 -0.48812957245013011 0.1829880331503029 0 -0.47430294684130508 0.18249077378781939 0 -0.48131188547021098 0.17139747857739049 0 -0.47959161443188031 0.15451349680644769 0 -0.48131188547021098 0.17139747857739049 0 -0.46453529362773988 0.16473976569363019 0 -0.46453529362773988 0.16473976569363019 0 -0.45949081312855888 0.18305672687872859 0 -0.44640947139048648 0.17510588097721941 0 -0.47430294684130508 0.18249077378781939 0 -0.46453529362773988 0.16473976569363019 0 -0.45949081312855888 0.18305672687872859 0 -0.44640947139048648 0.17510588097721941 0 -0.44803941177935158 0.1952683775260228 0 -0.435642882851275 0.19001854685613839 0 -0.45949081312855888 0.18305672687872859 0 -0.44640947139048648 0.17510588097721941 0 -0.44803941177935158 0.1952683775260228 0 -0.44640947139048648 0.17510588097721941 0 -0.44811810718351808 0.15264544855263501 0 -0.43522230196166301 0.16211742606064741 0 -0.46453529362773988 0.16473976569363019 0 -0.44640947139048648 0.17510588097721941 0 -0.44811810718351808 0.15264544855263501 0 -0.44811810718351808 0.15264544855263501 0 -0.43126412107028278 0.14710664952573099 0 -0.43522230196166301 0.16211742606064741 0 -0.44811810718351808 0.15264544855263501 0 -0.44059494062767368 0.13689786608142709 0 -0.43126412107028278 0.14710664952573099 0 -0.44811810718351808 0.15264544855263501 0 -0.44059494062767368 0.13689786608142709 0 -0.45918322886376001 0.13677167016414349 0 -0.43877484329563959 0.11902984352183919 0 -0.45918322886376001 0.13677167016414349 0 -0.43877484329563959 0.11902984352183919 0 -0.44059494062767368 0.13689786608142709 0 -0.45918322886376001 0.13677167016414349 0 -0.46453529362773988 0.16473976569363019 0 -0.44811810718351808 0.15264544855263501 0 -0.45918322886376001 0.13677167016414349 0 -0.47959161443188031 0.15451349680644769 0 -0.46453529362773988 0.16473976569363019 0 -0.45918322886376001 0.13677167016414349 0 -0.47349512380142778 0.24042932447509011 0 -0.499999999999998 0.22853457598478871 0 -0.47349512380142778 0.24042932447509011 0 -0.5 0.2437488711627179 0 -0.499999999999998 0.22853457598478871 0 -0.47349512380142778 0.24042932447509011 0 -0.5 0.2437488711627179 0 -0.48801335003240048 0.254761250631661 0 -0.47349512380142778 0.24042932447509011 0 -0.499999999999998 0.22853457598478871 0 -0.47598007284631461 0.21434813449743839 0 -0.47598007284631461 0.21434813449743839 0 -0.49999999999999978 0.20859736716919991 0 -0.499999999999998 0.22853457598478871 0 -0.47598007284631461 0.21434813449743839 0 -0.49999999999999978 0.20859736716919991 0 -0.47598007284631461 0.21434813449743839 0 -0.49999999999999978 0.20859736716919991 0 -0.48395677740400672 0.1959220845609807 0 -0.48812957245013011 0.1829880331503029 0 -0.5 0.19042634530897609 0 -0.48395677740400672 0.1959220845609807 0 -0.49999999999999978 0.20859736716919991 0 -0.5 0.19042634530897609 0 -0.48395677740400672 0.1959220845609807 0 -0.47430294684130508 0.18249077378781939 0 -0.48395677740400672 0.1959220845609807 0 -0.46550979056832642 0.19846529496632959 0 -0.47598007284631461 0.21434813449743839 0 -0.48395677740400672 0.1959220845609807 0 -0.46550979056832642 0.19846529496632959 0 -0.45949081312855888 0.18305672687872859 0 -0.46550979056832642 0.19846529496632959 0 -0.44803941177935158 0.1952683775260228 0 -0.47430294684130508 0.18249077378781939 0 -0.45949081312855888 0.18305672687872859 0 -0.46550979056832642 0.19846529496632959 0 -0.44803941177935158 0.1952683775260228 0 -0.43484738063324302 0.2059791227047541 0 -0.435642882851275 0.19001854685613839 0 -0.44803941177935158 0.1952683775260228 0 -0.45196014569262938 0.22009890182567701 0 -0.43484738063324302 0.2059791227047541 0 -0.45196014569262938 0.22009890182567701 0 -0.42794021853894432 0.22584966915391561 0 -0.43484738063324302 0.2059791227047541 0 -0.46550979056832642 0.19846529496632959 0 -0.44803941177935158 0.1952683775260228 0 -0.45196014569262938 0.22009890182567701 0 -0.47598007284631461 0.21434813449743839 0 -0.45196014569262938 0.22009890182567701 0 -0.47598007284631461 0.21434813449743839 0 -0.46550979056832642 0.19846529496632959 0 -0.45196014569262938 0.22009890182567701 0 -0.47349512380142778 0.24042932447509011 0 -0.47598007284631461 0.21434813449743839 0 -0.45196014569262938 0.22009890182567701 0 -0.47349512380142778 0.24042932447509011 0 -0.45196014569262938 0.22009890182567701 0 -0.44529845410365199 0.2367082589251315 0 -0.45196014569262938 0.22009890182567701 0 -0.42794021853894432 0.22584966915391561 0 -0.45196014569262938 0.22009890182567701 0 -0.44529845410365199 0.2367082589251315 0 -0.42794021853894432 0.22584966915391561 0 -0.44529845410365199 0.2367082589251315 0 -0.42610653488240019 0.2448393262055826 0 -0.44699024760285883 0.25232407296539422 0 -0.47349512380142778 0.24042932447509011 0 -0.44699024760285883 0.25232407296539422 0 -0.47349512380142778 0.24042932447509011 0 -0.44529845410365199 0.2367082589251315 0 -0.44699024760285883 0.25232407296539422 0 -0.40522282216194261 0.2373545794457681 0 -0.41574429676497898 0.25016045351065752 0 -0.40712694248926129 0.25604012913553381 0 -0.42610653488240019 0.2448393262055826 0 -0.41440847707064221 0.22514406402520329 0 -0.40522282216194261 0.2373545794457681 0 -0.42610653488240019 0.2448393262055826 0 -0.40522282216194261 0.2373545794457681 0 -0.42610653488240019 0.2448393262055826 0 -0.40522282216194261 0.2373545794457681 0 -0.41574429676497898 0.25016045351065752 0 -0.44529845410365199 0.2367082589251315 0 -0.42610653488240019 0.2448393262055826 0 -0.42794021853894432 0.22584966915391561 0 -0.42610653488240019 0.2448393262055826 0 -0.44699024760285883 0.25232407296539422 0 -0.42610653488240019 0.2448393262055826 0 -0.42794021853894432 0.22584966915391561 0 -0.41440847707064221 0.22514406402520329 0 -0.42794021853894432 0.22584966915391561 0 -0.41440847707064221 0.22514406402520329 0 -0.4211064688411939 0.21047395229198329 0 -0.41440847707064221 0.22514406402520329 0 -0.40403837438022822 0.22786164916077581 0 -0.40522282216194261 0.2373545794457681 0 -0.41440847707064221 0.22514406402520329 0 -0.4049715409199286 0.21795981266426681 0 -0.40403837438022822 0.22786164916077581 0 -0.41147337976985793 0.21166945925413089 0 -0.40438328449118111 0.20643362353172509 0 -0.4049715409199286 0.21795981266426681 0 -0.41440847707064221 0.22514406402520329 0 -0.41147337976985793 0.21166945925413089 0 -0.4049715409199286 0.21795981266426681 0 -0.41147337976985793 0.21166945925413089 0 -0.41281307264595368 0.19971780426395719 0 -0.40438328449118111 0.20643362353172509 0 -0.41147337976985793 0.21166945925413089 0 -0.4211064688411939 0.21047395229198329 0 -0.41281307264595368 0.19971780426395719 0 -0.41440847707064221 0.22514406402520329 0 -0.41147337976985793 0.21166945925413089 0 -0.4211064688411939 0.21047395229198329 0 -0.42794021853894432 0.22584966915391561 0 -0.4211064688411939 0.21047395229198329 0 -0.43484738063324302 0.2059791227047541 0 -0.4211064688411939 0.21047395229198329 0 -0.43484738063324302 0.2059791227047541 0 -0.42439515609606449 0.19416528857478771 0 -0.43484738063324302 0.2059791227047541 0 -0.435642882851275 0.19001854685613839 0 -0.42439515609606449 0.19416528857478771 0 -0.4211064688411939 0.21047395229198329 0 -0.42439515609606449 0.19416528857478771 0 -0.41281307264595368 0.19971780426395719 0 -0.42439515609606449 0.19416528857478771 0 -0.41281307264595368 0.19971780426395719 0 -0.41408822178300242 0.18559788486990819 0 -0.41281307264595368 0.19971780426395719 0 -0.40510918286125369 0.19915037084751511 0 -0.40438328449118111 0.20643362353172509 0 -0.41281307264595368 0.19971780426395719 0 -0.4066590665868467 0.1921097733528507 0 -0.40510918286125369 0.19915037084751511 0 -0.41281307264595368 0.19971780426395719 0 -0.4066590665868467 0.1921097733528507 0 -0.41408822178300242 0.18559788486990819 0 -0.4066590665868467 0.1921097733528507 0 -0.41408822178300242 0.18559788486990819 0 -0.40663607869676438 0.18660076279392571 0 -0.39666215280555878 0.1931197950304569 0 -0.39205891247764701 0.20519131987473541 0 -0.39279829805634592 0.17952806894582179 0 -0.39205891247764701 0.20519131987473541 0 -0.39279829805634592 0.17952806894582179 0 -0.39205891247764701 0.20519131987473541 0 -0.39279829805634592 0.17952806894582179 0 -0.39103911594122298 0.181703839424149 0 -0.40099672200356351 0.1882495379783502 0 -0.39666215280555878 0.1931197950304569 0 -0.39880098416221332 0.18383293111760499 0 -0.40171671412030008 0.19438234191772771 0 -0.40099672200356351 0.1882495379783502 0 -0.39666215280555878 0.1931197950304569 0 -0.4066590665868467 0.1921097733528507 0 -0.40099672200356351 0.1882495379783502 0 -0.40663607869676438 0.18660076279392571 0 -0.4066590665868467 0.1921097733528507 0 -0.40171671412030008 0.19438234191772771 0 -0.40510918286125369 0.19915037084751511 0 -0.4066590665868467 0.1921097733528507 0 -0.40171671412030008 0.19438234191772771 0 -0.40099672200356351 0.1882495379783502 0 -0.40510918286125369 0.19915037084751511 0 -0.39915644634427799 0.19928223237946541 0 -0.40438328449118111 0.20643362353172509 0 -0.40171671412030008 0.19438234191772771 0 -0.39915644634427799 0.19928223237946541 0 -0.39666215280555878 0.1931197950304569 0 -0.40171671412030008 0.19438234191772771 0 -0.40510918286125369 0.19915037084751511 0 -0.39915644634427799 0.19928223237946541 0 -0.39915644634427799 0.19928223237946541 0 -0.39658958027799368 0.20079268903507519 0 -0.39666215280555878 0.1931197950304569 0 -0.39658958027799368 0.20079268903507519 0 -0.39666215280555878 0.1931197950304569 0 -0.39205891247764701 0.20519131987473541 0 -0.39915644634427799 0.19928223237946541 0 -0.39658958027799368 0.20079268903507519 0 -0.39848080948449122 0.2055774088556431 0 -0.38711350576752113 0.1880450724570307 0 -0.38458231506439861 0.18935575638989779 0 -0.3866425344850779 0.1982196868522787 0 -0.38768911269135409 0.2057868360550513 0 -0.39103911594122298 0.181703839424149 0 -0.38711350576752113 0.1880450724570307 0 -0.3866425344850779 0.1982196868522787 0 -0.39103911594122298 0.181703839424149 0 -0.38458231506439861 0.18935575638989779 0 -0.38271162901839739 0.19539184972792811 0 -0.3866425344850779 0.1982196868522787 0 -0.3866425344850779 0.1982196868522787 0 -0.38768911269135409 0.2057868360550513 0 -0.39103911594122298 0.181703839424149 0 -0.38768911269135409 0.2057868360550513 0 -0.39205891247764701 0.20519131987473541 0 -0.39103911594122298 0.181703839424149 0 -0.37959935087154889 0.19072650858389259 0 -0.38158138903432948 0.18298747135803919 0 -0.37222026946234188 0.18902103016777211 0 -0.38458231506439861 0.18935575638989779 0 -0.37959935087154889 0.19072650858389259 0 -0.38158138903432948 0.18298747135803919 0 -0.37959935087154889 0.19072650858389259 0 -0.37596953625693991 0.19686990994058409 0 -0.37222026946234188 0.18902103016777211 0 -0.38458231506439861 0.18935575638989779 0 -0.37959935087154889 0.19072650858389259 0 -0.38271162901839739 0.19539184972792811 0 -0.37959935087154889 0.19072650858389259 0 -0.37596953625693991 0.19686990994058409 0 -0.38271162901839739 0.19539184972792811 0 -0.37596953625693991 0.19686990994058409 0 -0.38136675235357148 0.20210211614883211 0 -0.37454521346572789 0.20475089100330379 0 -0.37596953625693991 0.19686990994058409 0 -0.38271162901839739 0.19539184972792811 0 -0.38136675235357148 0.20210211614883211 0 -0.38136675235357148 0.20210211614883211 0 -0.3866425344850779 0.1982196868522787 0 -0.38768911269135409 0.2057868360550513 0 -0.38271162901839739 0.19539184972792811 0 -0.38136675235357148 0.20210211614883211 0 -0.3866425344850779 0.1982196868522787 0 -0.38768911269135409 0.2057868360550513 0 -0.37888685072325179 0.21720020644342791 0 -0.38433910944148503 0.22986983268595351 0 -0.38768911269135409 0.2057868360550513 0 -0.39205891247764701 0.20519131987473541 0 -0.39131952689894811 0.23085457080364891 0 -0.38768911269135409 0.2057868360550513 0 -0.38433910944148503 0.22986983268595351 0 -0.38136675235357148 0.20210211614883211 0 -0.37888685072325179 0.21720020644342791 0 -0.37454521346572789 0.20475089100330379 0 -0.38136675235357148 0.20210211614883211 0 -0.38768911269135409 0.2057868360550513 0 -0.37888685072325179 0.21720020644342791 0 -0.39667932019251723 0.21129250914885411 0 -0.39984551897255938 0.21220808439629121 0 -0.3963320398353713 0.22219322346874659 0 -0.39667932019251723 0.21129250914885411 0 -0.39205891247764701 0.20519131987473541 0 -0.3963320398353713 0.22219322346874659 0 -0.39205891247764701 0.20519131987473541 0 -0.39131952689894811 0.23085457080364891 0 -0.39658958027799368 0.20079268903507519 0 -0.39205891247764701 0.20519131987473541 0 -0.39848080948449122 0.2055774088556431 0 -0.39667932019251723 0.21129250914885411 0 -0.39848080948449122 0.2055774088556431 0 -0.39984551897255938 0.21220808439629121 0 -0.39667932019251723 0.21129250914885411 0 -0.39205891247764701 0.20519131987473541 0 -0.39848080948449122 0.2055774088556431 0 -0.39848080948449122 0.2055774088556431 0 -0.40438328449118111 0.20643362353172509 0 -0.39984551897255938 0.21220808439629121 0 -0.39915644634427799 0.19928223237946541 0 -0.39848080948449122 0.2055774088556431 0 -0.40438328449118111 0.20643362353172509 0 -0.4049715409199286 0.21795981266426681 0 -0.39984551897255938 0.21220808439629121 0 -0.3963320398353713 0.22219322346874659 0 -0.40438328449118111 0.20643362353172509 0 -0.4049715409199286 0.21795981266426681 0 -0.39984551897255938 0.21220808439629121 0 -0.39205891247764701 0.20519131987473541 0 -0.39131952689894811 0.23085457080364891 0 -0.3963320398353713 0.22219322346874659 0 -0.38433910944148503 0.22986983268595351 0 -0.40522282216194261 0.2373545794457681 0 -0.39131952689894811 0.23085457080364891 0 -0.38433910944148503 0.22986983268595351 0 -0.40522282216194261 0.2373545794457681 0 -0.4049715409199286 0.21795981266426681 0 -0.40403837438022822 0.22786164916077581 0 -0.3963320398353713 0.22219322346874659 0 -0.40403837438022822 0.22786164916077581 0 -0.39922819081912247 0.22956600571973479 0 -0.3963320398353713 0.22219322346874659 0 -0.40403837438022822 0.22786164916077581 0 -0.39922819081912247 0.22956600571973479 0 -0.40522282216194261 0.2373545794457681 0 -0.39922819081912247 0.22956600571973479 0 -0.39131952689894811 0.23085457080364891 0 -0.40522282216194261 0.2373545794457681 0 -0.39922819081912247 0.22956600571973479 0 -0.39131952689894811 0.23085457080364891 0 -0.3963320398353713 0.22219322346874659 0 -0.38768911269135409 0.2057868360550513 0 -0.39131952689894811 0.23085457080364891 0 -0.38433910944148503 0.22986983268595351 0 -0.38433910944148503 0.22986983268595351 0 -0.38120194793217088 0.25242272127266302 0 -0.38433910944148503 0.22986983268595351 0 -0.37361009014553898 0.24442780643331369 0 -0.38120194793217088 0.25242272127266302 0 -0.38433910944148503 0.22986983268595351 0 -0.39453124147210011 0.24699110497353011 0 -0.38120194793217088 0.25242272127266302 0 -0.38433910944148503 0.22986983268595351 0 -0.37361009014553898 0.24442780643331369 0 -0.36776217167663261 0.23378558721898349 0 -0.38433910944148503 0.22986983268595351 0 -0.39453124147210011 0.24699110497353011 0 -0.40522282216194261 0.2373545794457681 0 -0.39453124147210011 0.24699110497353011 0 -0.40522282216194261 0.2373545794457681 0 -0.40712694248926129 0.25604012913553381 0 -0.41106757084893941 0.14357251521861211 0 -0.43126412107028278 0.14710664952573099 0 -0.42148348623202719 0.15946593334554399 0 -0.41106757084893941 0.14357251521861211 0 -0.42148348623202719 0.15946593334554399 0 -0.4080900494386358 0.15788537168690839 0 -0.41106757084893941 0.14357251521861211 0 -0.41038829956905493 0.1261567166047716 0 -0.42563440272516762 0.128935718642787 0 -0.43877484329563959 0.11902984352183919 0 -0.44059494062767368 0.13689786608142709 0 -0.42563440272516762 0.128935718642787 0 -0.44059494062767368 0.13689786608142709 0 -0.42563440272516762 0.128935718642787 0 -0.43126412107028278 0.14710664952573099 0 -0.41106757084893941 0.14357251521861211 0 -0.42563440272516762 0.128935718642787 0 -0.43126412107028278 0.14710664952573099 0 -0.43126412107028278 0.14710664952573099 0 -0.43522230196166301 0.16211742606064741 0 -0.42148348623202719 0.15946593334554399 0 -0.44640947139048648 0.17510588097721941 0 -0.43522230196166301 0.16211742606064741 0 -0.42877154732136558 0.17695873630148651 0 -0.43522230196166301 0.16211742606064741 0 -0.42877154732136558 0.17695873630148651 0 -0.42148348623202719 0.15946593334554399 0 -0.42439515609606449 0.19416528857478771 0 -0.42877154732136558 0.17695873630148651 0 -0.41408822178300242 0.18559788486990819 0 -0.44640947139048648 0.17510588097721941 0 -0.435642882851275 0.19001854685613839 0 -0.42877154732136558 0.17695873630148651 0 -0.435642882851275 0.19001854685613839 0 -0.42439515609606449 0.19416528857478771 0 -0.42877154732136558 0.17695873630148651 0 -0.42877154732136558 0.17695873630148651 0 -0.41408822178300242 0.18559788486990819 0 -0.41448682977485268 0.17176264489250689 0 -0.41408822178300242 0.18559788486990819 0 -0.41448682977485268 0.17176264489250689 0 -0.40480030441364517 0.18044585497459351 0 -0.41448682977485268 0.17176264489250689 0 -0.40124342797525092 0.16894466220088419 0 -0.40480030441364517 0.18044585497459351 0 -0.41408822178300242 0.18559788486990819 0 -0.40663607869676438 0.18660076279392571 0 -0.40480030441364517 0.18044585497459351 0 -0.42877154732136558 0.17695873630148651 0 -0.42148348623202719 0.15946593334554399 0 -0.41448682977485268 0.17176264489250689 0 -0.42148348623202719 0.15946593334554399 0 -0.41448682977485268 0.17176264489250689 0 -0.4080900494386358 0.15788537168690839 0 -0.41448682977485268 0.17176264489250689 0 -0.4080900494386358 0.15788537168690839 0 -0.40124342797525092 0.16894466220088419 0 -0.40124342797525092 0.16894466220088419 0 -0.39279829805634592 0.17952806894582179 0 -0.39353768363504488 0.15386481801690821 0 -0.39279829805634592 0.17952806894582179 0 -0.39353768363504488 0.15386481801690821 0 -0.4080900494386358 0.15788537168690839 0 -0.40124342797525092 0.16894466220088419 0 -0.39353768363504488 0.15386481801690821 0 -0.40099672200356351 0.1882495379783502 0 -0.39880098416221332 0.18383293111760499 0 -0.40480030441364517 0.18044585497459351 0 -0.40099672200356351 0.1882495379783502 0 -0.40663607869676438 0.18660076279392571 0 -0.40480030441364517 0.18044585497459351 0 -0.39880098416221332 0.18383293111760499 0 -0.40480030441364517 0.18044585497459351 0 -0.39941075365186379 0.1781878793097261 0 -0.40124342797525092 0.16894466220088419 0 -0.40480030441364517 0.18044585497459351 0 -0.39941075365186379 0.1781878793097261 0 -0.40124342797525092 0.16894466220088419 0 -0.39941075365186379 0.1781878793097261 0 -0.39279829805634592 0.17952806894582179 0 -0.39666215280555878 0.1931197950304569 0 -0.39880098416221332 0.18383293111760499 0 -0.39279829805634592 0.17952806894582179 0 -0.39880098416221332 0.18383293111760499 0 -0.39941075365186379 0.1781878793097261 0 -0.39279829805634592 0.17952806894582179 0 -0.39279829805634592 0.17952806894582179 0 -0.39103911594122298 0.181703839424149 0 -0.38948404628856881 0.18002353974813881 0 -0.38711350576752113 0.1880450724570307 0 -0.38458231506439861 0.18935575638989779 0 -0.38619005757938479 0.1829010071617973 0 -0.38458231506439861 0.18935575638989779 0 -0.38619005757938479 0.1829010071617973 0 -0.38158138903432948 0.18298747135803919 0 -0.38711350576752113 0.1880450724570307 0 -0.39103911594122298 0.181703839424149 0 -0.38619005757938479 0.1829010071617973 0 -0.38948404628856881 0.18002353974813881 0 -0.38619005757938479 0.1829010071617973 0 -0.3872559731542361 0.1776352236597393 0 -0.39103911594122298 0.181703839424149 0 -0.38948404628856881 0.18002353974813881 0 -0.38619005757938479 0.1829010071617973 0 -0.38619005757938479 0.1829010071617973 0 -0.3872559731542361 0.1776352236597393 0 -0.38158138903432948 0.18298747135803919 0 -0.38414717414536459 0.1729302593919172 0 -0.3872559731542361 0.1776352236597393 0 -0.38158138903432948 0.18298747135803919 0 -0.39279829805634592 0.17952806894582179 0 -0.38414717414536459 0.1729302593919172 0 -0.3872559731542361 0.1776352236597393 0 -0.39279829805634592 0.17952806894582179 0 -0.38948404628856881 0.18002353974813881 0 -0.3872559731542361 0.1776352236597393 0 -0.38414717414536459 0.1729302593919172 0 -0.37587336169100161 0.17712655279417169 0 -0.38158138903432948 0.18298747135803919 0 -0.37587336169100161 0.17712655279417169 0 -0.38158138903432948 0.18298747135803919 0 -0.37222026946234188 0.18902103016777211 0 -0.39279829805634592 0.17952806894582179 0 -0.38414717414536459 0.1729302593919172 0 -0.39353768363504488 0.15386481801690821 0 -0.38414717414536459 0.1729302593919172 0 -0.39353768363504488 0.15386481801690821 0 -0.37467577706350708 0.16519281463177901 0 -0.38414717414536459 0.1729302593919172 0 -0.37587336169100161 0.17712655279417169 0 -0.37467577706350708 0.16519281463177901 0 -0.39353768363504488 0.15386481801690821 0 -0.39427706921374378 0.12820156708799471 0 -0.37285194311525038 0.14432354186085261 0 -0.39353768363504488 0.15386481801690821 0 -0.37285194311525038 0.14432354186085261 0 -0.37467577706350708 0.16519281463177901 0 -0.41106757084893941 0.14357251521861211 0 -0.4080900494386358 0.15788537168690839 0 -0.39353768363504488 0.15386481801690821 0 -0.41106757084893941 0.14357251521861211 0 -0.39353768363504488 0.15386481801690821 0 -0.39427706921374378 0.12820156708799471 0 -0.39353768363504488 0.15386481801690821 0 -0.39427706921374378 0.12820156708799471 0 -0.41106757084893941 0.14357251521861211 0 -0.41038829956905493 0.1261567166047716 0 -0.39427706921374378 0.12820156708799471 0 -0.39427706921374378 0.12820156708799471 0 -0.37285194311525038 0.14432354186085261 0 -0.37195640052570478 0.1235867056326671 0 -0.35280851083912212 0.1355275540396883 0 -0.37285194311525038 0.14432354186085261 0 -0.37195640052570478 0.1235867056326671 0 -0.35280851083912212 0.1355275540396883 0 -0.33667502366817609 0.1314826489276236 0 -0.34690352540491048 0.12374520315100319 0 -0.35280851083912212 0.1355275540396883 0 -0.35367448577967081 0.1596773224214304 0 -0.33539189660148322 0.1464855465192462 0 -0.35280851083912212 0.1355275540396883 0 -0.35367448577967081 0.1596773224214304 0 -0.35280851083912212 0.1355275540396883 0 -0.37285194311525038 0.14432354186085261 0 -0.35367448577967081 0.1596773224214304 0 -0.37467577706350708 0.16519281463177901 0 -0.36635683256538731 0.17517068678475309 0 -0.35367448577967081 0.1596773224214304 0 -0.37285194311525038 0.14432354186085261 0 -0.37467577706350708 0.16519281463177901 0 -0.35367448577967081 0.1596773224214304 0 -0.36635683256538731 0.17517068678475309 0 -0.35514758573837579 0.18467046309031351 0 -0.37222026946234188 0.18902103016777211 0 -0.37587336169100161 0.17712655279417169 0 -0.36635683256538731 0.17517068678475309 0 -0.37222026946234188 0.18902103016777211 0 -0.37587336169100161 0.17712655279417169 0 -0.37467577706350708 0.16519281463177901 0 -0.36635683256538731 0.17517068678475309 0 -0.36635683256538731 0.17517068678475309 0 -0.35514758573837579 0.18467046309031351 0 -0.35367448577967081 0.1596773224214304 0 -0.35514758573837579 0.18467046309031351 0 -0.35367448577967081 0.1596773224214304 0 -0.34314855707634029 0.17421755117898191 0 -0.35367448577967081 0.1596773224214304 0 -0.33225619540992901 0.16459255223496799 0 -0.33539189660148322 0.1464855465192462 0 -0.35367448577967081 0.1596773224214304 0 -0.33225619540992901 0.16459255223496799 0 -0.34314855707634029 0.17421755117898191 0 -0.35514758573837579 0.18467046309031351 0 -0.34314855707634029 0.17421755117898191 0 -0.33151596137738548 0.18792986696921549 0 -0.33225619540992901 0.16459255223496799 0 -0.34314855707634029 0.17421755117898191 0 -0.33151596137738548 0.18792986696921549 0 -0.33225619540992901 0.16459255223496799 0 -0.31904499925806828 0.16730541781803721 0 -0.33151596137738548 0.18792986696921549 0 -0.3140466262969891 0.18352885622216919 0 -0.33151596137738548 0.18792986696921549 0 -0.30783051670445222 0.17329469723210919 0 -0.33151596137738548 0.18792986696921549 0 -0.30783051670445222 0.17329469723210919 0 -0.31904499925806828 0.16730541781803721 0 -0.33151596137738548 0.18792986696921549 0 -0.30783051670445222 0.17329469723210919 0 -0.33225619540992901 0.16459255223496799 0 -0.31904499925806828 0.16730541781803721 0 -0.3175335668799622 0.15023387521104359 0 -0.31904499925806828 0.16730541781803721 0 -0.3175335668799622 0.15023387521104359 0 -0.30608875591861268 0.16047609744284941 0 -0.3175335668799622 0.15023387521104359 0 -0.32261704442130978 0.13155494968569439 0 -0.33539189660148322 0.1464855465192462 0 -0.3175335668799622 0.15023387521104359 0 -0.32261704442130978 0.13155494968569439 0 -0.30862209610259012 0.13557013750345639 0 -0.31303946675460181 0.1281608340210551 0 -0.32261704442130978 0.13155494968569439 0 -0.31764485361264883 0.12444588494388199 0 -0.31303946675460181 0.1281608340210551 0 -0.32261704442130978 0.13155494968569439 0 -0.30862209610259012 0.13557013750345639 0 -0.32261704442130978 0.13155494968569439 0 -0.32959374243542389 0.121351349086111 0 -0.32185977770662788 0.12394525226671491 0 -0.32261704442130978 0.13155494968569439 0 -0.32185977770662788 0.12394525226671491 0 -0.31764485361264883 0.12444588494388199 0 -0.35280851083912212 0.1355275540396883 0 -0.33667502366817609 0.1314826489276236 0 -0.33539189660148322 0.1464855465192462 0 -0.32261704442130978 0.13155494968569439 0 -0.33667502366817609 0.1314826489276236 0 -0.33539189660148322 0.1464855465192462 0 -0.32261704442130978 0.13155494968569439 0 -0.33667502366817609 0.1314826489276236 0 -0.32959374243542389 0.121351349086111 0 -0.33225619540992901 0.16459255223496799 0 -0.3175335668799622 0.15023387521104359 0 -0.33539189660148322 0.1464855465192462 0 -0.35267373800535767 0.23954545303209221 0 -0.33844596238662827 0.24665373456534839 0 -0.34733676193895419 0.25083056087000632 0 -0.35267373800535767 0.23954545303209221 0 -0.34733676193895419 0.25083056087000632 0 -0.35813718115862953 0.2529113956206307 0 -0.35267373800535767 0.23954545303209221 0 -0.37361009014553898 0.24442780643331369 0 -0.35813718115862953 0.2529113956206307 0 -0.35267373800535767 0.23954545303209221 0 -0.37361009014553898 0.24442780643331369 0 -0.35267373800535767 0.23954545303209221 0 -0.37361009014553898 0.24442780643331369 0 -0.36776217167663261 0.23378558721898349 0 -0.38433910944148503 0.22986983268595351 0 -0.36042574911414871 0.22129925672457429 0 -0.35267373800535767 0.23954545303209221 0 -0.36776217167663261 0.23378558721898349 0 -0.36042574911414871 0.22129925672457429 0 -0.37888685072325179 0.21720020644342791 0 -0.38433910944148503 0.22986983268595351 0 -0.36042574911414871 0.22129925672457429 0 -0.38433910944148503 0.22986983268595351 0 -0.36776217167663261 0.23378558721898349 0 -0.36042574911414871 0.22129925672457429 0 -0.36042574911414871 0.22129925672457429 0 -0.34479091982430982 0.22601782708758669 0 -0.33651238878681228 0.2127286807631949 0 -0.35267373800535767 0.23954545303209221 0 -0.36042574911414871 0.22129925672457429 0 -0.34479091982430982 0.22601782708758669 0 -0.36042574911414871 0.22129925672457429 0 -0.33651238878681228 0.2127286807631949 0 -0.36042574911414871 0.22129925672457429 0 -0.35520140605031869 0.20256503670632181 0 -0.33651238878681228 0.2127286807631949 0 -0.37888685072325179 0.21720020644342791 0 -0.35520140605031869 0.20256503670632181 0 -0.37888685072325179 0.21720020644342791 0 -0.37454521346572789 0.20475089100330379 0 -0.35520140605031869 0.20256503670632181 0 -0.37888685072325179 0.21720020644342791 0 -0.36042574911414871 0.22129925672457429 0 -0.35520140605031869 0.20256503670632181 0 -0.35514758573837579 0.18467046309031351 0 -0.36626171653054401 0.19661877984740669 0 -0.37222026946234188 0.18902103016777211 0 -0.37454521346572789 0.20475089100330379 0 -0.36626171653054401 0.19661877984740669 0 -0.35520140605031869 0.20256503670632181 0 -0.37596953625693991 0.19686990994058409 0 -0.37454521346572789 0.20475089100330379 0 -0.36626171653054401 0.19661877984740669 0 -0.37596953625693991 0.19686990994058409 0 -0.36626171653054401 0.19661877984740669 0 -0.37222026946234188 0.18902103016777211 0 -0.35514758573837579 0.18467046309031351 0 -0.35520140605031869 0.20256503670632181 0 -0.33151596137738548 0.18792986696921549 0 -0.35514758573837579 0.18467046309031351 0 -0.36626171653054401 0.19661877984740669 0 -0.35520140605031869 0.20256503670632181 0 -0.35520140605031869 0.20256503670632181 0 -0.33151596137738548 0.18792986696921549 0 -0.33151596137738548 0.18792986696921549 0 -0.32060832663623662 0.19435471934506829 0 -0.33651238878681228 0.2127286807631949 0 -0.35520140605031869 0.20256503670632181 0 -0.33151596137738548 0.18792986696921549 0 -0.33651238878681228 0.2127286807631949 0 -0.3140466262969891 0.18352885622216919 0 -0.32060832663623662 0.19435471934506829 0 -0.31259902845947468 0.20415810480181909 0 -0.3140466262969891 0.18352885622216919 0 -0.31259902845947468 0.20415810480181909 0 -0.3140466262969891 0.18352885622216919 0 -0.33151596137738548 0.18792986696921549 0 -0.32060832663623662 0.19435471934506829 0 -0.32060832663623662 0.19435471934506829 0 -0.31259902845947468 0.20415810480181909 0 -0.33651238878681228 0.2127286807631949 0 -0.31259902845947468 0.20415810480181909 0 -0.33651238878681228 0.2127286807631949 0 -0.32300061725202123 0.21396146018492479 0 -0.31080103372499529 0.2297807462296485 0 -0.31232230992669741 0.20810153111215871 0 -0.31259902845947468 0.20415810480181909 0 -0.32300061725202123 0.21396146018492479 0 -0.33651238878681228 0.2127286807631949 0 -0.31259902845947468 0.20415810480181909 0 -0.32300061725202123 0.21396146018492479 0 -0.31232230992669741 0.20810153111215871 0 -0.32300061725202123 0.21396146018492479 0 -0.31232230992669741 0.20810153111215871 0 -0.32300061725202123 0.21396146018492479 0 -0.33651238878681228 0.2127286807631949 0 -0.33355125840317618 0.22357101432049761 0 -0.35267373800535767 0.23954545303209221 0 -0.34479091982430982 0.22601782708758669 0 -0.33173738586517643 0.2346630996308707 0 -0.34479091982430982 0.22601782708758669 0 -0.33651238878681228 0.2127286807631949 0 -0.33355125840317618 0.22357101432049761 0 -0.34479091982430982 0.22601782708758669 0 -0.33355125840317618 0.22357101432049761 0 -0.33173738586517643 0.2346630996308707 0 -0.33355125840317618 0.22357101432049761 0 -0.3247725738113435 0.2254940800914855 0 -0.33173738586517643 0.2346630996308707 0 -0.3247725738113435 0.2254940800914855 0 -0.33173738586517643 0.2346630996308707 0 -0.31080103372499529 0.2297807462296485 0 -0.33173738586517643 0.2346630996308707 0 -0.31080103372499529 0.2297807462296485 0 -0.32300061725202123 0.21396146018492479 0 -0.3247725738113435 0.2254940800914855 0 -0.31080103372499529 0.2297807462296485 0 -0.32300061725202123 0.21396146018492479 0 -0.33355125840317618 0.22357101432049761 0 -0.3247725738113435 0.2254940800914855 0 -0.32659622933310301 0.24259377669689811 0 -0.33173738586517643 0.2346630996308707 0 -0.31080103372499529 0.2297807462296485 0 -0.31782284468591271 0.24437411872428491 0 -0.32659622933310301 0.24259377669689811 0 -0.31080103372499529 0.2297807462296485 0 -0.31768344034846591 0.24878784549684169 0 -0.31003266154216391 0.24073056968934561 0 -0.31766126469584771 0.258271240690712 0 -0.31782284468591271 0.24437411872428491 0 -0.31003266154216391 0.24073056968934561 0 -0.31080103372499529 0.2297807462296485 0 -0.31782284468591271 0.24437411872428491 0 -0.31768344034846591 0.24878784549684169 0 -0.31003266154216391 0.24073056968934561 0 -0.31782284468591271 0.24437411872428491 0 -0.31003266154216391 0.24073056968934561 0 -0.31782284468591271 0.24437411872428491 0 -0.31768344034846591 0.24878784549684169 0 -0.32521699046994051 0.25177545288302461 0 -0.31782284468591271 0.24437411872428491 0 -0.32659622933310301 0.24259377669689811 0 -0.32521699046994051 0.25177545288302461 0 -0.32659622933310301 0.24259377669689811 0 -0.33231744366608168 0.25192066439924732 0 -0.32521699046994051 0.25177545288302461 0 -0.32659622933310301 0.24259377669689811 0 -0.33844596238662827 0.24665373456534839 0 -0.33231744366608168 0.25192066439924732 0 -0.35267373800535767 0.23954545303209221 0 -0.33173738586517643 0.2346630996308707 0 -0.33844596238662827 0.24665373456534839 0 -0.35267373800535767 0.23954545303209221 0 -0.33173738586517643 0.2346630996308707 0 -0.32659622933310301 0.24259377669689811 0 -0.33173738586517643 0.2346630996308707 0 -0.33844596238662827 0.24665373456534839 0 -0.29632416184923382 0.24557160016239379 0 -0.2866074610694429 0.22977436172854279 0 -0.28603408770704081 0.25496832399132863 0 -0.2866074610694429 0.22977436172854279 0 -0.27227448706591961 0.2298988148581248 0 -0.28603408770704081 0.25496832399132863 0 -0.31003266154216391 0.24073056968934561 0 -0.2866074610694429 0.22977436172854279 0 -0.29632416184923382 0.24557160016239379 0 -0.31003266154216391 0.24073056968934561 0 -0.2866074610694429 0.22977436172854279 0 -0.31003266154216391 0.24073056968934561 0 -0.31080103372499529 0.2297807462296485 0 -0.31080103372499529 0.2297807462296485 0 -0.31232230992669741 0.20810153111215871 0 -0.29870396270340288 0.23085637916295859 0 -0.31080103372499529 0.2297807462296485 0 -0.28833055925374929 0.22454063578790739 0 -0.31080103372499529 0.2297807462296485 0 -0.30063614555191331 0.22094207147769271 0 -0.28833055925374929 0.22454063578790739 0 -0.31003266154216391 0.24073056968934561 0 -0.29870396270340288 0.23085637916295859 0 -0.2866074610694429 0.22977436172854279 0 -0.31080103372499529 0.2297807462296485 0 -0.28833055925374929 0.22454063578790739 0 -0.31080103372499529 0.2297807462296485 0 -0.30063614555191331 0.22094207147769271 0 -0.31232230992669741 0.20810153111215871 0 -0.31003266154216391 0.24073056968934561 0 -0.29870396270340288 0.23085637916295859 0 -0.31080103372499529 0.2297807462296485 0 -0.30063614555191331 0.22094207147769271 0 -0.28833055925374929 0.22454063578790739 0 -0.2932529904970203 0.2180940136362233 0 -0.28833055925374929 0.22454063578790739 0 -0.2888268202978157 0.21531828049518331 0 -0.2932529904970203 0.2180940136362233 0 -0.29870396270340288 0.23085637916295859 0 -0.2866074610694429 0.22977436172854279 0 -0.28833055925374929 0.22454063578790739 0 -0.28833055925374929 0.22454063578790739 0 -0.2888268202978157 0.21531828049518331 0 -0.28061086205429459 0.2133572771514225 0 -0.2888268202978157 0.21531828049518331 0 -0.28507063396534399 0.20767082839369649 0 -0.28061086205429459 0.2133572771514225 0 -0.28507063396534399 0.20767082839369649 0 -0.29521843688460297 0.21157506678410959 0 -0.29108661999715441 0.19644803276197201 0 -0.30063614555191331 0.22094207147769271 0 -0.29521843688460297 0.21157506678410959 0 -0.2932529904970203 0.2180940136362233 0 -0.2888268202978157 0.21531828049518331 0 -0.28507063396534399 0.20767082839369649 0 -0.29521843688460297 0.21157506678410959 0 -0.2888268202978157 0.21531828049518331 0 -0.29521843688460297 0.21157506678410959 0 -0.2932529904970203 0.2180940136362233 0 -0.30063614555191331 0.22094207147769271 0 -0.29521843688460297 0.21157506678410959 0 -0.31232230992669741 0.20810153111215871 0 -0.29521843688460297 0.21157506678410959 0 -0.31232230992669741 0.20810153111215871 0 -0.29108661999715441 0.19644803276197201 0 -0.31259902845947468 0.20415810480181909 0 -0.31232230992669741 0.20810153111215871 0 -0.31259902845947468 0.20415810480181909 0 -0.29108661999715441 0.19644803276197201 0 -0.30027761507457651 0.1849591763042629 0 -0.3140466262969891 0.18352885622216919 0 -0.31259902845947468 0.20415810480181909 0 -0.30027761507457651 0.1849591763042629 0 -0.31259902845947468 0.20415810480181909 0 -0.29108661999715441 0.19644803276197201 0 -0.31232230992669741 0.20810153111215871 0 -0.29108661999715441 0.19644803276197201 0 -0.31259902845947468 0.20415810480181909 0 -0.31232230992669741 0.20810153111215871 0 -0.29108661999715441 0.19644803276197201 0 -0.29108661999715441 0.19644803276197201 0 -0.27196276285181592 0.18595344377373069 0 -0.28507063396534399 0.20767082839369649 0 -0.29108661999715441 0.19644803276197201 0 -0.27678431058651298 0.20236306403661311 0 -0.29108661999715441 0.19644803276197201 0 -0.27046089092793602 0.1955801938626843 0 -0.26515490541715508 0.18715407630522601 0 -0.29108661999715441 0.19644803276197201 0 -0.27196276285181592 0.18595344377373069 0 -0.26515490541715508 0.18715407630522601 0 -0.29108661999715441 0.19644803276197201 0 -0.27678431058651298 0.20236306403661311 0 -0.27046089092793602 0.1955801938626843 0 -0.29108661999715441 0.19644803276197201 0 -0.26515490541715508 0.18715407630522601 0 -0.27678431058651298 0.20236306403661311 0 -0.27046089092793602 0.1955801938626843 0 -0.26795624429503673 0.2031029552511279 0 -0.27046089092793602 0.1955801938626843 0 -0.26795624429503673 0.2031029552511279 0 -0.26270842510906128 0.20100857625699711 0 -0.27046089092793602 0.1955801938626843 0 -0.2600870335749273 0.1953036505640196 0 -0.26515490541715508 0.18715407630522601 0 -0.2600870335749273 0.1953036505640196 0 -0.25444209780087801 0.1885998892592935 0 -0.26515490541715508 0.18715407630522601 0 -0.2600870335749273 0.1953036505640196 0 -0.25444209780087801 0.1885998892592935 0 -0.25214797609838902 0.1971302461774268 0 -0.2600870335749273 0.1953036505640196 0 -0.25214797609838902 0.1971302461774268 0 -0.25630018096862062 0.20245133998327891 0 -0.25214797609838902 0.1971302461774268 0 -0.25630018096862062 0.20245133998327891 0 -0.24856445565437221 0.20304572264506471 0 -0.27046089092793602 0.1955801938626843 0 -0.2600870335749273 0.1953036505640196 0 -0.26270842510906128 0.20100857625699711 0 -0.2600870335749273 0.1953036505640196 0 -0.25630018096862062 0.20245133998327891 0 -0.26270842510906128 0.20100857625699711 0 -0.26318226059672178 0.21881815376774019 0 -0.23975706012400069 0.20786194580693759 0 -0.26176078609309672 0.2078260787390164 0 -0.25274517746278302 0.2103389609785189 0 -0.25919631124021347 0.21306135311906571 0 -0.25274517746278302 0.2103389609785189 0 -0.26318226059672178 0.21881815376774019 0 -0.23975706012400069 0.20786194580693759 0 -0.26795624429503673 0.2031029552511279 0 -0.26270842510906128 0.20100857625699711 0 -0.26176078609309672 0.2078260787390164 0 -0.26318226059672178 0.21881815376774019 0 -0.24878719285058179 0.21761097064462859 0 -0.23975706012400069 0.20786194580693759 0 -0.26176078609309672 0.2078260787390164 0 -0.2631580933838954 0.2126229682286167 0 -0.26594065840483472 0.2111792459743235 0 -0.26176078609309672 0.2078260787390164 0 -0.26594065840483472 0.2111792459743235 0 -0.26782255080342737 0.20795459136747141 0 -0.25630018096862062 0.20245133998327891 0 -0.26270842510906128 0.20100857625699711 0 -0.26176078609309672 0.2078260787390164 0 -0.25630018096862062 0.20245133998327891 0 -0.26176078609309672 0.2078260787390164 0 -0.25274517746278302 0.2103389609785189 0 -0.25630018096862062 0.20245133998327891 0 -0.25274517746278302 0.2103389609785189 0 -0.24856445565437221 0.20304572264506471 0 -0.25274517746278302 0.2103389609785189 0 -0.25919631124021347 0.21306135311906571 0 -0.26318226059672178 0.21881815376774019 0 -0.26176078609309672 0.2078260787390164 0 -0.25919631124021347 0.21306135311906571 0 -0.2631580933838954 0.2126229682286167 0 -0.25919631124021347 0.21306135311906571 0 -0.2631580933838954 0.2126229682286167 0 -0.26319504886033118 0.21529598324329591 0 -0.2631580933838954 0.2126229682286167 0 -0.26560426789509761 0.21444735696941741 0 -0.26319504886033118 0.21529598324329591 0 -0.2631580933838954 0.2126229682286167 0 -0.26560426789509761 0.21444735696941741 0 -0.26594065840483472 0.2111792459743235 0 -0.25919631124021347 0.21306135311906571 0 -0.26319504886033118 0.21529598324329591 0 -0.26318226059672178 0.21881815376774019 0 -0.26560426789509761 0.21444735696941741 0 -0.26319504886033118 0.21529598324329591 0 -0.26517603008301421 0.21679561612004211 0 -0.26319504886033118 0.21529598324329591 0 -0.26517603008301421 0.21679561612004211 0 -0.26318226059672178 0.21881815376774019 0 -0.26517603008301421 0.21679561612004211 0 -0.2658600847825035 0.21930052534616559 0 -0.26318226059672178 0.21881815376774019 0 -0.26517603008301421 0.21679561612004211 0 -0.26803848828041688 0.21611606127359129 0 -0.2658600847825035 0.21930052534616559 0 -0.26803848828041688 0.21611606127359129 0 -0.27462764391698058 0.21645660278305229 0 -0.2658600847825035 0.21930052534616559 0 -0.26560426789509761 0.21444735696941741 0 -0.26517603008301421 0.21679561612004211 0 -0.26803848828041688 0.21611606127359129 0 -0.26803848828041688 0.21611606127359129 0 -0.26974679013067943 0.21240063004043311 0 -0.27462764391698058 0.21645660278305229 0 -0.26974679013067943 0.21240063004043311 0 -0.27462764391698058 0.21645660278305229 0 -0.27502787365839132 0.21137613330602101 0 -0.26560426789509761 0.21444735696941741 0 -0.26803848828041688 0.21611606127359129 0 -0.26974679013067943 0.21240063004043311 0 -0.26560426789509761 0.21444735696941741 0 -0.26974679013067943 0.21240063004043311 0 -0.26594065840483472 0.2111792459743235 0 -0.27678431058651298 0.20236306403661311 0 -0.26795624429503673 0.2031029552511279 0 -0.27225731821831972 0.20770290742231731 0 -0.26974679013067943 0.21240063004043311 0 -0.26594065840483472 0.2111792459743235 0 -0.26782255080342737 0.20795459136747141 0 -0.26795624429503673 0.2031029552511279 0 -0.26782255080342737 0.20795459136747141 0 -0.27225731821831972 0.20770290742231731 0 -0.26795624429503673 0.2031029552511279 0 -0.26176078609309672 0.2078260787390164 0 -0.26782255080342737 0.20795459136747141 0 -0.26974679013067943 0.21240063004043311 0 -0.27225731821831972 0.20770290742231731 0 -0.27502787365839132 0.21137613330602101 0 -0.26974679013067943 0.21240063004043311 0 -0.26782255080342737 0.20795459136747141 0 -0.27225731821831972 0.20770290742231731 0 -0.28507063396534399 0.20767082839369649 0 -0.27678431058651298 0.20236306403661311 0 -0.27795019969657248 0.20849404206201411 0 -0.27225731821831972 0.20770290742231731 0 -0.27795019969657248 0.20849404206201411 0 -0.27502787365839132 0.21137613330602101 0 -0.27678431058651298 0.20236306403661311 0 -0.27225731821831972 0.20770290742231731 0 -0.27795019969657248 0.20849404206201411 0 -0.28507063396534399 0.20767082839369649 0 -0.27795019969657248 0.20849404206201411 0 -0.28061086205429459 0.2133572771514225 0 -0.28833055925374929 0.22454063578790739 0 -0.28061086205429459 0.2133572771514225 0 -0.27462764391698058 0.21645660278305229 0 -0.27795019969657248 0.20849404206201411 0 -0.28061086205429459 0.2133572771514225 0 -0.27502787365839132 0.21137613330602101 0 -0.28061086205429459 0.2133572771514225 0 -0.27462764391698058 0.21645660278305229 0 -0.27502787365839132 0.21137613330602101 0 -0.2866074610694429 0.22977436172854279 0 -0.26318226059672178 0.21881815376774019 0 -0.28833055925374929 0.22454063578790739 0 -0.2658600847825035 0.21930052534616559 0 -0.2866074610694429 0.22977436172854279 0 -0.27227448706591961 0.2298988148581248 0 -0.26318226059672178 0.21881815376774019 0 -0.2866074610694429 0.22977436172854279 0 -0.2658600847825035 0.21930052534616559 0 -0.26318226059672178 0.21881815376774019 0 -0.2866074610694429 0.22977436172854279 0 -0.28833055925374929 0.22454063578790739 0 -0.2658600847825035 0.21930052534616559 0 -0.28833055925374929 0.22454063578790739 0 -0.27462764391698058 0.21645660278305229 0 -0.2658600847825035 0.21930052534616559 0 -0.27227448706591961 0.2298988148581248 0 -0.26421560302223113 0.22561718065318809 0 -0.26039443389702349 0.22989154018129901 0 -0.27227448706591961 0.2298988148581248 0 -0.26318226059672178 0.21881815376774019 0 -0.26421560302223113 0.22561718065318809 0 -0.26039443389702349 0.22989154018129901 0 -0.26397379930224091 0.24158419953373819 0 -0.24191351089744101 0.2282000750761477 0 -0.25557578109004953 0.22309103868061869 0 -0.26039443389702349 0.22989154018129901 0 -0.24191351089744101 0.2282000750761477 0 -0.26318226059672178 0.21881815376774019 0 -0.26421560302223113 0.22561718065318809 0 -0.26101123052925962 0.2238602138055884 0 -0.26421560302223113 0.22561718065318809 0 -0.26101123052925962 0.2238602138055884 0 -0.26039443389702349 0.22989154018129901 0 -0.26101123052925962 0.2238602138055884 0 -0.25557578109004953 0.22309103868061869 0 -0.26039443389702349 0.22989154018129901 0 -0.26318226059672178 0.21881815376774019 0 -0.26101123052925962 0.2238602138055884 0 -0.25557578109004953 0.22309103868061869 0 -0.26318226059672178 0.21881815376774019 0 -0.25557578109004953 0.22309103868061869 0 -0.24878719285058179 0.21761097064462859 0 -0.27227448706591961 0.2298988148581248 0 -0.26039443389702349 0.22989154018129901 0 -0.26397379930224091 0.24158419953373819 0 -0.26397379930224091 0.24158419953373819 0 -0.25297570869820257 0.25688664002330702 0 -0.24506904401784521 0.24759623977448059 0 -0.26397379930224091 0.24158419953373819 0 -0.24191351089744101 0.2282000750761477 0 -0.26397379930224091 0.24158419953373819 0 -0.24506904401784521 0.24759623977448059 0 -0.24191351089744101 0.2282000750761477 0 -0.27227448706591961 0.2298988148581248 0 -0.26397379930224091 0.24158419953373819 0 -0.28603408770704081 0.25496832399132863 0 -0.26397379930224091 0.24158419953373819 0 -0.28603408770704081 0.25496832399132863 0 -0.29135638892960619 0.1426669061657031 0 -0.2920184044305863 0.16113670453901491 0 -0.27844630282530569 0.1502363728130566 0 -0.29135638892960619 0.1426669061657031 0 -0.27844630282530569 0.1502363728130566 0 -0.2750269607160688 0.13595762823044341 0 -0.29135638892960619 0.1426669061657031 0 -0.3037240321943474 0.1482760956239686 0 -0.2920184044305863 0.16113670453901491 0 -0.29135638892960619 0.1426669061657031 0 -0.28320290675036702 0.1187228527171468 0 -0.29135638892960619 0.1426669061657031 0 -0.29717930306309892 0.1256887311247078 0 -0.28320290675036702 0.1187228527171468 0 -0.29135638892960619 0.1426669061657031 0 -0.2750269607160688 0.13595762823044341 0 -0.28320290675036702 0.1187228527171468 0 -0.29135638892960619 0.1426669061657031 0 -0.29717930306309892 0.1256887311247078 0 -0.30862209610259012 0.13557013750345639 0 -0.29717930306309892 0.1256887311247078 0 -0.30519145100540079 0.12557231113802561 0 -0.30862209610259012 0.13557013750345639 0 -0.31303946675460181 0.1281608340210551 0 -0.30519145100540079 0.12557231113802561 0 -0.30862209610259012 0.13557013750345639 0 -0.31303946675460181 0.1281608340210551 0 -0.30519145100540079 0.12557231113802561 0 -0.31234344210059861 0.12195885135039081 0 -0.29135638892960619 0.1426669061657031 0 -0.30862209610259012 0.13557013750345639 0 -0.3037240321943474 0.1482760956239686 0 -0.3175335668799622 0.15023387521104359 0 -0.30862209610259012 0.13557013750345639 0 -0.3037240321943474 0.1482760956239686 0 -0.3175335668799622 0.15023387521104359 0 -0.3037240321943474 0.1482760956239686 0 -0.30608875591861268 0.16047609744284941 0 -0.31904499925806828 0.16730541781803721 0 -0.30608875591861268 0.16047609744284941 0 -0.30783051670445222 0.17329469723210919 0 -0.30608875591861268 0.16047609744284941 0 -0.29762718895432422 0.17151370893484871 0 -0.30783051670445222 0.17329469723210919 0 -0.30608875591861268 0.16047609744284941 0 -0.29762718895432422 0.17151370893484871 0 -0.2920184044305863 0.16113670453901491 0 -0.3037240321943474 0.1482760956239686 0 -0.30608875591861268 0.16047609744284941 0 -0.2920184044305863 0.16113670453901491 0 -0.3140466262969891 0.18352885622216919 0 -0.30783051670445222 0.17329469723210919 0 -0.30027761507457651 0.1849591763042629 0 -0.29762718895432422 0.17151370893484871 0 -0.30783051670445222 0.17329469723210919 0 -0.30027761507457651 0.1849591763042629 0 -0.29108661999715441 0.19644803276197201 0 -0.30027761507457651 0.1849591763042629 0 -0.28690128716817809 0.1775136579781699 0 -0.29108661999715441 0.19644803276197201 0 -0.28690128716817809 0.1775136579781699 0 -0.27196276285181592 0.18595344377373069 0 -0.29762718895432422 0.17151370893484871 0 -0.30027761507457651 0.1849591763042629 0 -0.28690128716817809 0.1775136579781699 0 -0.2920184044305863 0.16113670453901491 0 -0.27242865506853209 0.16829777966225279 0 -0.28690128716817809 0.1775136579781699 0 -0.2920184044305863 0.16113670453901491 0 -0.27242865506853209 0.16829777966225279 0 -0.29762718895432422 0.17151370893484871 0 -0.28690128716817809 0.1775136579781699 0 -0.2920184044305863 0.16113670453901491 0 -0.2920184044305863 0.16113670453901491 0 -0.27242865506853209 0.16829777966225279 0 -0.27844630282530569 0.1502363728130566 0 -0.27242865506853209 0.16829777966225279 0 -0.27196276285181592 0.18595344377373069 0 -0.25283890570647738 0.1754588547854895 0 -0.28690128716817809 0.1775136579781699 0 -0.27242865506853209 0.16829777966225279 0 -0.27196276285181592 0.18595344377373069 0 -0.27196276285181592 0.18595344377373069 0 -0.26515490541715508 0.18715407630522601 0 -0.25283890570647738 0.1754588547854895 0 -0.27196276285181592 0.18595344377373069 0 -0.25283890570647738 0.1754588547854895 0 -0.27242865506853209 0.16829777966225279 0 -0.25283890570647738 0.1754588547854895 0 -0.25444209780087801 0.1885998892592935 0 -0.25283890570647738 0.1754588547854895 0 -0.2430350512544816 0.18888195189032761 0 -0.25444209780087801 0.1885998892592935 0 -0.26515490541715508 0.18715407630522601 0 -0.25283890570647738 0.1754588547854895 0 -0.27242865506853209 0.16829777966225279 0 -0.25283890570647738 0.1754588547854895 0 -0.24961469133083611 0.15789641310683419 0 -0.27242865506853209 0.16829777966225279 0 -0.26072046999829041 0.1439144033712568 0 -0.24961469133083611 0.15789641310683419 0 -0.27242865506853209 0.16829777966225279 0 -0.26072046999829041 0.1439144033712568 0 -0.27844630282530569 0.1502363728130566 0 -0.26072046999829041 0.1439144033712568 0 -0.27844630282530569 0.1502363728130566 0 -0.2750269607160688 0.13595762823044341 0 -0.2750269607160688 0.13595762823044341 0 -0.26043283717982968 0.1272098808909656 0 -0.28320290675036702 0.1187228527171468 0 -0.26072046999829041 0.1439144033712568 0 -0.2750269607160688 0.13595762823044341 0 -0.26043283717982968 0.1272098808909656 0 -0.26072046999829041 0.1439144033712568 0 -0.26043283717982968 0.1272098808909656 0 -0.2386921187703254 0.13334398323248731 0 -0.26043283717982968 0.1272098808909656 0 -0.26022777467995778 0.1141465973351581 0 -0.24472679216396881 0.1171738204593013 0 -0.26022777467995778 0.1141465973351581 0 -0.24919113606741741 0.1031845297010493 0 -0.24472679216396881 0.1171738204593013 0 -0.26592418974946969 0.10348041868589079 0 -0.26140993846559257 0.090842750157876975 0 -0.24919113606741741 0.1031845297010493 0 -0.26022777467995778 0.1141465973351581 0 -0.26592418974946969 0.10348041868589079 0 -0.24919113606741741 0.1031845297010493 0 -0.26140993846559257 0.090842750157876975 0 -0.24659779519383199 0.089377054445430995 0 -0.24919113606741741 0.1031845297010493 0 -0.26592418974946969 0.10348041868589079 0 -0.2750494245711278 0.094778799268590397 0 -0.28320290675036702 0.1187228527171468 0 -0.2750494245711278 0.094778799268590397 0 -0.28320290675036702 0.1187228527171468 0 -0.26592418974946969 0.10348041868589079 0 -0.2750494245711278 0.094778799268590397 0 -0.26140993846559257 0.090842750157876975 0 -0.26043283717982968 0.1272098808909656 0 -0.26022777467995778 0.1141465973351581 0 -0.28320290675036702 0.1187228527171468 0 -0.26022777467995778 0.1141465973351581 0 -0.26592418974946969 0.10348041868589079 0 -0.28320290675036702 0.1187228527171468 0 -0.29717930306309892 0.1256887311247078 0 -0.28320290675036702 0.1187228527171468 0 -0.29950576516609062 0.1032719263877049 0 -0.29950576516609062 0.1032719263877049 0 -0.28666808823158269 0.084585001425018957 0 -0.2750494245711278 0.094778799268590397 0 -0.29950576516609062 0.1032719263877049 0 -0.28666808823158269 0.084585001425018957 0 -0.2750494245711278 0.094778799268590397 0 -0.28320290675036702 0.1187228527171468 0 -0.29950576516609062 0.1032719263877049 0 -0.29950576516609062 0.1032719263877049 0 -0.31758347035712908 0.118428825351172 0 -0.31971020263565492 0.1060816474803359 0 -0.29950576516609062 0.1032719263877049 0 -0.30602619193800268 0.085085614335838639 0 -0.31538156633259828 0.093945561055903098 0 -0.29950576516609062 0.1032719263877049 0 -0.31971020263565492 0.1060816474803359 0 -0.31538156633259828 0.093945561055903098 0 -0.29950576516609062 0.1032719263877049 0 -0.31234344210059861 0.12195885135039081 0 -0.31758347035712908 0.118428825351172 0 -0.29717930306309892 0.1256887311247078 0 -0.30519145100540079 0.12557231113802561 0 -0.29950576516609062 0.1032719263877049 0 -0.29950576516609062 0.1032719263877049 0 -0.31234344210059861 0.12195885135039081 0 -0.30519145100540079 0.12557231113802561 0 -0.29950576516609062 0.1032719263877049 0 -0.31234344210059861 0.12195885135039081 0 -0.30596068631040912 0.072676427020924375 0 -0.30602619193800268 0.085085614335838639 0 -0.29629643223665558 0.075788925685350519 0 -0.30596068631040912 0.072676427020924375 0 -0.29629643223665558 0.075788925685350519 0 -0.29676668711284138 0.067034622033670416 0 -0.30457020839947407 0.063346187745238591 0 -0.30596068631040912 0.072676427020924375 0 -0.29676668711284138 0.067034622033670416 0 -0.30457020839947407 0.063346187745238591 0 -0.29676668711284138 0.067034622033670416 0 -0.29750112147001623 0.060409599918257118 0 -0.30457020839947407 0.063346187745238591 0 -0.30596068631040912 0.072676427020924375 0 -0.31608621838585221 0.063620627211399591 0 -0.30596068631040912 0.072676427020924375 0 -0.30602619193800268 0.085085614335838639 0 -0.31971434689396189 0.073283238062749875 0 -0.29950576516609062 0.1032719263877049 0 -0.30602619193800268 0.085085614335838639 0 -0.28666808823158269 0.084585001425018957 0 -0.30602619193800268 0.085085614335838639 0 -0.28666808823158269 0.084585001425018957 0 -0.29629643223665558 0.075788925685350519 0 -0.28666808823158269 0.084585001425018957 0 -0.28606050759044199 0.069562963611300294 0 -0.2738304112970748 0.065898076462333074 0 -0.28666808823158269 0.084585001425018957 0 -0.29629643223665558 0.075788925685350519 0 -0.28606050759044199 0.069562963611300294 0 -0.29629643223665558 0.075788925685350519 0 -0.29676668711284138 0.067034622033670416 0 -0.28606050759044199 0.069562963611300294 0 -0.29676668711284138 0.067034622033670416 0 -0.28606050759044199 0.069562963611300294 0 -0.29052361734115062 0.062391557540667171 0 -0.29676668711284138 0.067034622033670416 0 -0.29052361734115062 0.062391557540667171 0 -0.29750112147001623 0.060409599918257118 0 -0.28606050759044199 0.069562963611300294 0 -0.28316754115325021 0.062920981469275203 0 -0.29052361734115062 0.062391557540667171 0 -0.28606050759044199 0.069562963611300294 0 -0.28316754115325021 0.062920981469275203 0 -0.2738304112970748 0.065898076462333074 0 -0.28666808823158269 0.084585001425018957 0 -0.2738304112970748 0.065898076462333074 0 -0.26689594239188857 0.070834745820034073 0 -0.28316754115325021 0.062920981469275203 0 -0.2738304112970748 0.065898076462333074 0 -0.27866453653403461 0.058958842510997873 0 -0.28666808823158269 0.084585001425018957 0 -0.2738304112970748 0.065898076462333074 0 -0.2750494245711278 0.094778799268590397 0 -0.28666808823158269 0.084585001425018957 0 -0.26689594239188857 0.070834745820034073 0 -0.2750494245711278 0.094778799268590397 0 -0.26689594239188857 0.070834745820034073 0 -0.26140993846559257 0.090842750157876975 0 -0.2750494245711278 0.094778799268590397 0 -0.26689594239188857 0.070834745820034073 0 -0.26689594239188857 0.070834745820034073 0 -0.26140993846559257 0.090842750157876975 0 -0.25666564669603592 0.079307487809267857 0 -0.26140993846559257 0.090842750157876975 0 -0.25666564669603592 0.079307487809267857 0 -0.24659779519383199 0.089377054445430995 0 -0.26689594239188857 0.070834745820034073 0 -0.25815385803732122 0.06767404152605544 0 -0.25822066235859542 0.072366313513411828 0 -0.26689594239188857 0.070834745820034073 0 -0.25840385027242507 0.062644677299305881 0 -0.25900279651964891 0.05766449878683047 0 -0.26689594239188857 0.070834745820034073 0 -0.25815385803732122 0.06767404152605544 0 -0.25840385027242507 0.062644677299305881 0 -0.26689594239188857 0.070834745820034073 0 -0.25666564669603592 0.079307487809267857 0 -0.25822066235859542 0.072366313513411828 0 -0.25815385803732122 0.06767404152605544 0 -0.25822066235859542 0.072366313513411828 0 -0.25116720230913592 0.071648978898289917 0 -0.25666564669603592 0.079307487809267857 0 -0.25822066235859542 0.072366313513411828 0 -0.25116720230913592 0.071648978898289917 0 -0.25815385803732122 0.06767404152605544 0 -0.25116720230913592 0.071648978898289917 0 -0.25321289003786929 0.062372847780701131 0 -0.25815385803732122 0.06767404152605544 0 -0.25840385027242507 0.062644677299305881 0 -0.25321289003786929 0.062372847780701131 0 -0.25321289003786929 0.062372847780701131 0 -0.25472605249922059 0.056341012509842421 0 -0.24806090250642079 0.057240026914091011 0 -0.26689594239188857 0.070834745820034073 0 -0.25874246021264941 0.046890692371477777 0 -0.26689594239188857 0.070834745820034073 0 -0.26099273436256692 0.047211151499647233 0 -0.25874246021264941 0.046890692371477777 0 -0.26689594239188857 0.070834745820034073 0 -0.25900279651964891 0.05766449878683047 0 -0.25874246021264941 0.046890692371477777 0 -0.25472605249922059 0.056341012509842421 0 -0.25900279651964891 0.05766449878683047 0 -0.25624567722206071 0.051611365933492227 0 -0.25840385027242507 0.062644677299305881 0 -0.25321289003786929 0.062372847780701131 0 -0.25472605249922059 0.056341012509842421 0 -0.25840385027242507 0.062644677299305881 0 -0.25472605249922059 0.056341012509842421 0 -0.25900279651964891 0.05766449878683047 0 -0.25900279651964891 0.05766449878683047 0 -0.25874246021264941 0.046890692371477777 0 -0.25624567722206071 0.051611365933492227 0 -0.25578451448115708 0.048413643917607427 0 -0.25273612023309838 0.049916635427057397 0 -0.25528284335420481 0.045484025848771877 0 -0.25874246021264941 0.046890692371477777 0 -0.25578451448115708 0.048413643917607427 0 -0.25528284335420481 0.045484025848771877 0 -0.25874246021264941 0.046890692371477777 0 -0.25578451448115708 0.048413643917607427 0 -0.25624567722206071 0.051611365933492227 0 -0.25578451448115708 0.048413643917607427 0 -0.25624567722206071 0.051611365933492227 0 -0.25273612023309838 0.049916635427057397 0 -0.25472605249922059 0.056341012509842421 0 -0.25624567722206071 0.051611365933492227 0 -0.25273612023309838 0.049916635427057397 0 -0.25472605249922059 0.056341012509842421 0 -0.25273612023309838 0.049916635427057397 0 -0.24806090250642079 0.057240026914091011 0 -0.25417838368821882 0.041620775343314001 0 -0.24762104927762729 0.036412932694412203 0 -0.2493751262155684 0.045138526110561232 0 -0.25273612023309838 0.049916635427057397 0 -0.25528284335420481 0.045484025848771877 0 -0.2493751262155684 0.045138526110561232 0 -0.25417838368821882 0.041620775343314001 0 -0.25528284335420481 0.045484025848771877 0 -0.2493751262155684 0.045138526110561232 0 -0.25417838368821882 0.041620775343314001 0 -0.25628097045675391 0.037485885816112348 0 -0.26092040621740498 0.039658064278301361 0 -0.25417838368821882 0.041620775343314001 0 -0.25528284335420481 0.045484025848771877 0 -0.25917954987256542 0.044080820097363513 0 -0.25874246021264941 0.046890692371477777 0 -0.25528284335420481 0.045484025848771877 0 -0.25917954987256542 0.044080820097363513 0 -0.25628097045675391 0.037485885816112348 0 -0.26240404264376449 0.032251770948421861 0 -0.24762104927762729 0.036412932694412203 0 -0.25417838368821882 0.041620775343314001 0 -0.25628097045675391 0.037485885816112348 0 -0.24762104927762729 0.036412932694412203 0 -0.26240404264376449 0.032251770948421861 0 -0.26092040621740498 0.039658064278301361 0 -0.27044064372440441 0.040556229144592948 0 -0.25628097045675391 0.037485885816112348 0 -0.26240404264376449 0.032251770948421861 0 -0.26092040621740498 0.039658064278301361 0 -0.26092040621740498 0.039658064278301361 0 -0.26482951449773279 0.043868355153038482 0 -0.27044064372440441 0.040556229144592948 0 -0.26099273436256692 0.047211151499647233 0 -0.25917954987256542 0.044080820097363513 0 -0.26482951449773279 0.043868355153038482 0 -0.26099273436256692 0.047211151499647233 0 -0.25874246021264941 0.046890692371477777 0 -0.25917954987256542 0.044080820097363513 0 -0.25417838368821882 0.041620775343314001 0 -0.25917954987256542 0.044080820097363513 0 -0.26092040621740498 0.039658064278301361 0 -0.25917954987256542 0.044080820097363513 0 -0.26092040621740498 0.039658064278301361 0 -0.26482951449773279 0.043868355153038482 0 -0.26099273436256692 0.047211151499647233 0 -0.26482951449773279 0.043868355153038482 0 -0.2669776876917182 0.048755458867785498 0 -0.26482951449773279 0.043868355153038482 0 -0.27044064372440441 0.040556229144592948 0 -0.26893455478434231 0.047849726564263187 0 -0.26482951449773279 0.043868355153038482 0 -0.26893455478434231 0.047849726564263187 0 -0.2669776876917182 0.048755458867785498 0 -0.26240404264376449 0.032251770948421861 0 -0.28913210927650779 0.043495230827315837 0 -0.26240404264376449 0.032251770948421861 0 -0.28585542857378238 0.0329701950468336 0 -0.28913210927650779 0.043495230827315837 0 -0.26240404264376449 0.032251770948421861 0 -0.27044064372440441 0.040556229144592948 0 -0.28913210927650779 0.043495230827315837 0 -0.27044064372440441 0.040556229144592948 0 -0.2792175365582622 0.045001025854336928 0 -0.28913210927650779 0.043495230827315837 0 -0.27044064372440441 0.040556229144592948 0 -0.27431007193231077 0.047055275688292812 0 -0.26893455478434231 0.047849726564263187 0 -0.27044064372440441 0.040556229144592948 0 -0.2792175365582622 0.045001025854336928 0 -0.27431007193231077 0.047055275688292812 0 -0.2792175365582622 0.045001025854336928 0 -0.27954577551779081 0.048776302868248952 0 -0.28359028193051322 0.046527335592215197 0 -0.2738304112970748 0.065898076462333074 0 -0.26099273436256692 0.047211151499647233 0 -0.27294455302589582 0.055270253158971813 0 -0.2792175365582622 0.045001025854336928 0 -0.27954577551779081 0.048776302868248952 0 -0.27431007193231077 0.047055275688292812 0 -0.2738304112970748 0.065898076462333074 0 -0.26689594239188857 0.070834745820034073 0 -0.26099273436256692 0.047211151499647233 0 -0.2738304112970748 0.065898076462333074 0 -0.26099273436256692 0.047211151499647233 0 -0.27954577551779081 0.048776302868248952 0 -0.27431007193231077 0.047055275688292812 0 -0.27578223388217721 0.050804077574759902 0 -0.27431007193231077 0.047055275688292812 0 -0.27578223388217721 0.050804077574759902 0 -0.27304520193026532 0.050450420520377251 0 -0.27578223388217721 0.050804077574759902 0 -0.28056894961182322 0.053539973759763458 0 -0.27294455302589582 0.055270253158971813 0 -0.27578223388217721 0.050804077574759902 0 -0.27294455302589582 0.055270253158971813 0 -0.27304520193026532 0.050450420520377251 0 -0.27954577551779081 0.048776302868248952 0 -0.27578223388217721 0.050804077574759902 0 -0.28056894961182322 0.053539973759763458 0 -0.28056894961182322 0.053539973759763458 0 -0.27866453653403461 0.058958842510997873 0 -0.27294455302589582 0.055270253158971813 0 -0.2738304112970748 0.065898076462333074 0 -0.27866453653403461 0.058958842510997873 0 -0.27294455302589582 0.055270253158971813 0 -0.26099273436256692 0.047211151499647233 0 -0.27294455302589582 0.055270253158971813 0 -0.2669776876917182 0.048755458867785498 0 -0.27431007193231077 0.047055275688292812 0 -0.26893455478434231 0.047849726564263187 0 -0.27304520193026532 0.050450420520377251 0 -0.27294455302589582 0.055270253158971813 0 -0.26893455478434231 0.047849726564263187 0 -0.2669776876917182 0.048755458867785498 0 -0.27294455302589582 0.055270253158971813 0 -0.26893455478434231 0.047849726564263187 0 -0.27304520193026532 0.050450420520377251 0 -0.26121447794919622 -0.0060932689380633204 0 -0.25342021044930962 0.01019897024344749 0 -0.27185146065830079 0.0013563557808834021 0 -0.25342021044930962 0.01019897024344749 0 -0.27025113805613521 0.015951016685170769 0 -0.27185146065830079 0.0013563557808834021 0 -0.26240404264376449 0.032251770948421861 0 -0.25342021044930962 0.01019897024344749 0 -0.2356759760110213 0.021008311069527871 0 -0.26240404264376449 0.032251770948421861 0 -0.25342021044930962 0.01019897024344749 0 -0.27025113805613521 0.015951016685170769 0 -0.26240404264376449 0.032251770948421861 0 -0.27888969637813449 0.02651684076948763 0 -0.28585542857378238 0.0329701950468336 0 -0.26240404264376449 0.032251770948421861 0 -0.27888969637813449 0.02651684076948763 0 -0.27025113805613521 0.015951016685170769 0 -0.27888969637813449 0.02651684076948763 0 -0.27025113805613521 0.015951016685170769 0 -0.28659858512076969 0.01076236490837019 0 -0.27025113805613521 0.015951016685170769 0 -0.27185146065830079 0.0013563557808834021 0 -0.28659858512076969 0.01076236490837019 0 -0.28538999741581611 -0.0058496864937137329 0 -0.28659858512076969 0.01076236490837019 0 -0.3069530086745581 0.0024109487627334059 0 -0.28538999741581611 -0.0058496864937137329 0 -0.27185146065830079 0.0013563557808834021 0 -0.28659858512076969 0.01076236490837019 0 -0.27888969637813449 0.02651684076948763 0 -0.30215492732071503 0.02452606472153435 0 -0.27888969637813449 0.02651684076948763 0 -0.30215492732071503 0.02452606472153435 0 -0.28585542857378238 0.0329701950468336 0 -0.27888969637813449 0.02651684076948763 0 -0.28659858512076969 0.01076236490837019 0 -0.30215492732071503 0.02452606472153435 0 -0.30215492732071503 0.02452606472153435 0 -0.3069530086745581 0.0024109487627334059 0 -0.3254201582632954 0.02253528867358107 0 -0.28659858512076969 0.01076236490837019 0 -0.30215492732071503 0.02452606472153435 0 -0.3069530086745581 0.0024109487627334059 0 -0.29461892959936181 0.052317802900354038 0 -0.29247196289305238 0.046101984557470617 0 -0.30075888664917733 0.052973483817727797 0 -0.29015829540001742 0.052213074918142068 0 -0.29461892959936181 0.052317802900354038 0 -0.29283429575690739 0.056780159896148048 0 -0.29015829540001742 0.052213074918142068 0 -0.28829294884180429 0.048013327980596612 0 -0.29247196289305238 0.046101984557470617 0 -0.29015829540001742 0.052213074918142068 0 -0.29461892959936181 0.052317802900354038 0 -0.29247196289305238 0.046101984557470617 0 -0.29283429575690739 0.056780159896148048 0 -0.29750112147001623 0.060409599918257118 0 -0.29744517772734957 0.055555456878390259 0 -0.29461892959936181 0.052317802900354038 0 -0.29283429575690739 0.056780159896148048 0 -0.29744517772734957 0.055555456878390259 0 -0.29052361734115062 0.062391557540667171 0 -0.29283429575690739 0.056780159896148048 0 -0.29750112147001623 0.060409599918257118 0 -0.29052361734115062 0.062391557540667171 0 -0.29283429575690739 0.056780159896148048 0 -0.28675863300354909 0.057793467221077623 0 -0.29015829540001742 0.052213074918142068 0 -0.29283429575690739 0.056780159896148048 0 -0.28675863300354909 0.057793467221077623 0 -0.28316754115325021 0.062920981469275203 0 -0.27866453653403461 0.058958842510997873 0 -0.28675863300354909 0.057793467221077623 0 -0.28056894961182322 0.053539973759763458 0 -0.27866453653403461 0.058958842510997873 0 -0.28675863300354909 0.057793467221077623 0 -0.28316754115325021 0.062920981469275203 0 -0.29052361734115062 0.062391557540667171 0 -0.28675863300354909 0.057793467221077623 0 -0.28056894961182322 0.053539973759763458 0 -0.28675863300354909 0.057793467221077623 0 -0.28599142620579521 0.052645381182599801 0 -0.28056894961182322 0.053539973759763458 0 -0.28599142620579521 0.052645381182599801 0 -0.28380557919165822 0.049730128740125487 0 -0.29015829540001742 0.052213074918142068 0 -0.28599142620579521 0.052645381182599801 0 -0.28829294884180429 0.048013327980596612 0 -0.29015829540001742 0.052213074918142068 0 -0.28675863300354909 0.057793467221077623 0 -0.28599142620579521 0.052645381182599801 0 -0.28829294884180429 0.048013327980596612 0 -0.28380557919165822 0.049730128740125487 0 -0.28359028193051322 0.046527335592215197 0 -0.28599142620579521 0.052645381182599801 0 -0.28829294884180429 0.048013327980596612 0 -0.28380557919165822 0.049730128740125487 0 -0.27954577551779081 0.048776302868248952 0 -0.28380557919165822 0.049730128740125487 0 -0.28359028193051322 0.046527335592215197 0 -0.27954577551779081 0.048776302868248952 0 -0.28056894961182322 0.053539973759763458 0 -0.28380557919165822 0.049730128740125487 0 -0.30215492732071503 0.02452606472153435 0 -0.28585542857378238 0.0329701950468336 0 -0.29605015058847761 0.036604687815554433 0 -0.2792175365582622 0.045001025854336928 0 -0.28359028193051322 0.046527335592215197 0 -0.28913210927650779 0.043495230827315837 0 -0.28829294884180429 0.048013327980596612 0 -0.28359028193051322 0.046527335592215197 0 -0.28913210927650779 0.043495230827315837 0 -0.28585542857378238 0.0329701950468336 0 -0.29605015058847761 0.036604687815554433 0 -0.28913210927650779 0.043495230827315837 0 -0.29605015058847761 0.036604687815554433 0 -0.28913210927650779 0.043495230827315837 0 -0.30339282924368671 0.043632628711302537 0 -0.28829294884180429 0.048013327980596612 0 -0.29247196289305238 0.046101984557470617 0 -0.28913210927650779 0.043495230827315837 0 -0.29605015058847761 0.036604687815554433 0 -0.30339282924368671 0.043632628711302537 0 -0.30517861366708282 0.038383983250009378 0 -0.30215492732071503 0.02452606472153435 0 -0.29605015058847761 0.036604687815554433 0 -0.30517861366708282 0.038383983250009378 0 -0.30215492732071503 0.02452606472153435 0 -0.30517861366708282 0.038383983250009378 0 -0.31747745749945189 0.039950236014536393 0 -0.30517861366708282 0.038383983250009378 0 -0.31074309677711393 0.044940550957423109 0 -0.31747745749945189 0.039950236014536393 0 -0.30339282924368671 0.043632628711302537 0 -0.30517861366708282 0.038383983250009378 0 -0.31074309677711393 0.044940550957423109 0 -0.29247196289305238 0.046101984557470617 0 -0.28913210927650779 0.043495230827315837 0 -0.31303813098210581 0.053551565975088249 0 -0.29247196289305238 0.046101984557470617 0 -0.31303813098210581 0.053551565975088249 0 -0.28913210927650779 0.043495230827315837 0 -0.31303813098210581 0.053551565975088249 0 -0.28913210927650779 0.043495230827315837 0 -0.30339282924368671 0.043632628711302537 0 -0.31303813098210581 0.053551565975088249 0 -0.29247196289305238 0.046101984557470617 0 -0.30075888664917733 0.052973483817727797 0 -0.31303813098210581 0.053551565975088249 0 -0.30339282924368671 0.043632628711302537 0 -0.31589003179238673 0.054662013496660333 0 -0.31303813098210581 0.053551565975088249 0 -0.30339282924368671 0.043632628711302537 0 -0.31074309677711393 0.044940550957423109 0 -0.31589003179238673 0.054662013496660333 0 -0.30075888664917733 0.052973483817727797 0 -0.30605971401837301 0.055214861446505788 0 -0.31303813098210581 0.053551565975088249 0 -0.29461892959936181 0.052317802900354038 0 -0.30075888664917733 0.052973483817727797 0 -0.29744517772734957 0.055555456878390259 0 -0.29750112147001623 0.060409599918257118 0 -0.29744517772734957 0.055555456878390259 0 -0.30253112418769668 0.057624058765342732 0 -0.30075888664917733 0.052973483817727797 0 -0.29744517772734957 0.055555456878390259 0 -0.30253112418769668 0.057624058765342732 0 -0.30075888664917733 0.052973483817727797 0 -0.30253112418769668 0.057624058765342732 0 -0.30605971401837301 0.055214861446505788 0 -0.30457020839947407 0.063346187745238591 0 -0.29750112147001623 0.060409599918257118 0 -0.30253112418769668 0.057624058765342732 0 -0.30457020839947407 0.063346187745238591 0 -0.30253112418769668 0.057624058765342732 0 -0.30863872006335968 0.058083931563454032 0 -0.30457020839947407 0.063346187745238591 0 -0.30863872006335968 0.058083931563454032 0 -0.31608621838585221 0.063620627211399591 0 -0.30253112418769668 0.057624058765342732 0 -0.30605971401837301 0.055214861446505788 0 -0.30863872006335968 0.058083931563454032 0 -0.30605971401837301 0.055214861446505788 0 -0.30863872006335968 0.058083931563454032 0 -0.31303813098210581 0.053551565975088249 0 -0.31589003179238673 0.054662013496660333 0 -0.33340250184992248 0.061480861789662583 0 -0.31608621838585221 0.063620627211399591 0 -0.31589003179238673 0.054662013496660333 0 -0.31303813098210581 0.053551565975088249 0 -0.31608621838585221 0.063620627211399591 0 -0.31589003179238673 0.054662013496660333 0 -0.33340250184992248 0.061480861789662583 0 -0.30863872006335968 0.058083931563454032 0 -0.31303813098210581 0.053551565975088249 0 -0.31608621838585221 0.063620627211399591 0 -0.3248345469791617 0.050158055252166628 0 -0.31589003179238673 0.054662013496660333 0 -0.33340250184992248 0.061480861789662583 0 -0.3248345469791617 0.050158055252166628 0 -0.31733277693264339 0.047807793640476527 0 -0.31589003179238673 0.054662013496660333 0 -0.31074309677711393 0.044940550957423109 0 -0.31733277693264339 0.047807793640476527 0 -0.31589003179238673 0.054662013496660333 0 -0.31589003179238673 0.054662013496660333 0 -0.31303813098210581 0.053551565975088249 0 -0.3248345469791617 0.050158055252166628 0 -0.31733277693264339 0.047807793640476527 0 -0.31747745749945189 0.039950236014536393 0 -0.31747745749945189 0.039950236014536393 0 -0.3333841712627722 0.040778070274810188 0 -0.3254201582632954 0.02253528867358107 0 -0.31074309677711393 0.044940550957423109 0 -0.31733277693264339 0.047807793640476527 0 -0.31747745749945189 0.039950236014536393 0 -0.3248345469791617 0.050158055252166628 0 -0.31747745749945189 0.039950236014536393 0 -0.3333841712627722 0.040778070274810188 0 -0.33340250184992248 0.061480861789662583 0 -0.34965093078663501 0.047470933294941522 0 -0.3333841712627722 0.040778070274810188 0 -0.33340250184992248 0.061480861789662583 0 -0.34965093078663501 0.047470933294941522 0 -0.3248345469791617 0.050158055252166628 0 -0.3333841712627722 0.040778070274810188 0 -0.33340250184992248 0.061480861789662583 0 -0.3069530086745581 0.0024109487627334059 0 -0.3254201582632954 0.02253528867358107 0 -0.33026971366793118 0.003143932628485481 0 -0.30215492732071503 0.02452606472153435 0 -0.31747745749945189 0.039950236014536393 0 -0.3254201582632954 0.02253528867358107 0 -0.30215492732071503 0.02452606472153435 0 -0.3254201582632954 0.02253528867358107 0 -0.3254201582632954 0.02253528867358107 0 -0.34868538920587588 0.020544512625628081 0 -0.3333841712627722 0.040778070274810188 0 -0.3254201582632954 0.02253528867358107 0 -0.34868538920587588 0.020544512625628081 0 -0.3254201582632954 0.02253528867358107 0 -0.33026971366793118 0.003143932628485481 0 -0.34868538920587588 0.020544512625628081 0 -0.34762811489454798 -0.0089400931510203799 0 -0.33026971366793118 0.003143932628485481 0 -0.34868538920587588 0.020544512625628081 0 -0.34762811489454798 -0.0089400931510203799 0 -0.34868538920587588 0.020544512625628081 0 -0.34762811489454798 -0.0089400931510203799 0 -0.34868538920587588 0.020544512625628081 0 -0.36242753985743598 0.004729677058193201 0 -0.38174970621029108 0.019794316053664381 0 -0.36570031849846291 0.033632624674302732 0 -0.34868538920587588 0.020544512625628081 0 -0.37354211765260181 0.01841755417228812 0 -0.38174970621029108 0.019794316053664381 0 -0.37354211765260181 0.01841755417228812 0 -0.36570031849846291 0.033632624674302732 0 -0.34868538920587588 0.020544512625628081 0 -0.37354211765260181 0.01841755417228812 0 -0.36570031849846291 0.033632624674302732 0 -0.37844720008996963 0.0071051536847907158 0 -0.37354211765260181 0.01841755417228812 0 -0.36242753985743598 0.004729677058193201 0 -0.37488546340366991 -0.0088069969633318961 0 -0.37844720008996963 0.0071051536847907158 0 -0.36242753985743598 0.004729677058193201 0 -0.34868538920587588 0.020544512625628081 0 -0.37354211765260181 0.01841755417228812 0 -0.36242753985743598 0.004729677058193201 0 -0.33340250184992248 0.061480861789662583 0 -0.34965093078663501 0.047470933294941522 0 -0.35038207460995002 0.067860615674828054 0 -0.34965093078663501 0.047470933294941522 0 -0.35038207460995002 0.067860615674828054 0 -0.34965093078663501 0.047470933294941522 0 -0.36179591247594678 0.055974128167020402 0 -0.35038207460995002 0.067860615674828054 0 -0.34868538920587588 0.020544512625628081 0 -0.34965093078663501 0.047470933294941522 0 -0.36570031849846291 0.033632624674302732 0 -0.3333841712627722 0.040778070274810188 0 -0.34868538920587588 0.020544512625628081 0 -0.34965093078663501 0.047470933294941522 0 -0.34868538920587588 0.020544512625628081 0 -0.34965093078663501 0.047470933294941522 0 -0.34965093078663501 0.047470933294941522 0 -0.36570031849846291 0.033632624674302732 0 -0.34965093078663501 0.047470933294941522 0 -0.36570031849846291 0.033632624674302732 0 -0.36179591247594678 0.055974128167020402 0 -0.37627010617427542 0.052055718631999273 0 -0.36179591247594678 0.055974128167020402 0 -0.36555014961796861 0.073559733481281975 0 -0.37627010617427542 0.052055718631999273 0 -0.36570031849846291 0.033632624674302732 0 -0.36179591247594678 0.055974128167020402 0 -0.37627010617427542 0.052055718631999273 0 -0.36555014961796861 0.073559733481281975 0 -0.37627010617427542 0.052055718631999273 0 -0.38222370855355048 0.067690342228948472 0 -0.36555014961796861 0.073559733481281975 0 -0.36179591247594678 0.055974128167020402 0 -0.36555014961796861 0.073559733481281975 0 -0.35038207460995002 0.067860615674828054 0 -0.35038207460995002 0.067860615674828054 0 -0.35098632206823682 0.08471149146770432 0 -0.35038207460995002 0.067860615674828054 0 -0.35098632206823682 0.08471149146770432 0 -0.35769163817005012 0.078382594960469842 0 -0.35038207460995002 0.067860615674828054 0 -0.35098632206823682 0.08471149146770432 0 -0.33555891417586209 0.07851632349507888 0 -0.36555014961796861 0.073559733481281975 0 -0.35038207460995002 0.067860615674828054 0 -0.36555014961796861 0.073559733481281975 0 -0.35038207460995002 0.067860615674828054 0 -0.35769163817005012 0.078382594960469842 0 -0.35098632206823682 0.08471149146770432 0 -0.35857035957224781 0.087561050370931676 0 -0.35159056952652551 0.1015623672605805 0 -0.35098632206823682 0.08471149146770432 0 -0.35159056952652551 0.1015623672605805 0 -0.35098632206823682 0.08471149146770432 0 -0.35159056952652551 0.1015623672605805 0 -0.33777167538575792 0.091634602676660806 0 -0.35098632206823682 0.08471149146770432 0 -0.35769163817005012 0.078382594960469842 0 -0.35857035957224781 0.087561050370931676 0 -0.35857035957224781 0.087561050370931676 0 -0.36851835518698861 0.083533740989749666 0 -0.36683179666928778 0.094523082218663998 0 -0.36555014961796861 0.073559733481281975 0 -0.35857035957224781 0.087561050370931676 0 -0.36851835518698861 0.083533740989749666 0 -0.36555014961796861 0.073559733481281975 0 -0.35857035957224781 0.087561050370931676 0 -0.36555014961796861 0.073559733481281975 0 -0.35769163817005012 0.078382594960469842 0 -0.35857035957224781 0.087561050370931676 0 -0.37753635478995029 0.078334889417154024 0 -0.36555014961796861 0.073559733481281975 0 -0.36851835518698861 0.083533740989749666 0 -0.37944896416051771 0.090803590563051567 0 -0.36851835518698861 0.083533740989749666 0 -0.36683179666928778 0.094523082218663998 0 -0.37347949534550801 0.1069580509085155 0 -0.35194253589857422 0.11137778565794609 0 -0.37347949534550801 0.1069580509085155 0 -0.36683179666928778 0.094523082218663998 0 -0.35159056952652551 0.1015623672605805 0 -0.37944896416051771 0.090803590563051567 0 -0.37347949534550801 0.1069580509085155 0 -0.36683179666928778 0.094523082218663998 0 -0.37347949534550801 0.1069580509085155 0 -0.37195640052570478 0.1235867056326671 0 -0.35194253589857422 0.11137778565794609 0 -0.35280851083912212 0.1355275540396883 0 -0.35194253589857422 0.11137778565794609 0 -0.34690352540491048 0.12374520315100319 0 -0.35280851083912212 0.1355275540396883 0 -0.35194253589857422 0.11137778565794609 0 -0.35280851083912212 0.1355275540396883 0 -0.37195640052570478 0.1235867056326671 0 -0.35194253589857422 0.11137778565794609 0 -0.35194253589857422 0.11137778565794609 0 -0.34609976061238829 0.1125768182804123 0 -0.34690352540491048 0.12374520315100319 0 -0.35194253589857422 0.11137778565794609 0 -0.34609976061238829 0.1125768182804123 0 -0.37347949534550801 0.1069580509085155 0 -0.35194253589857422 0.11137778565794609 0 -0.35159056952652551 0.1015623672605805 0 -0.35857035957224781 0.087561050370931676 0 -0.36683179666928778 0.094523082218663998 0 -0.35159056952652551 0.1015623672605805 0 -0.35857035957224781 0.087561050370931676 0 -0.35159056952652551 0.1015623672605805 0 -0.35194253589857422 0.11137778565794609 0 -0.35159056952652551 0.1015623672605805 0 -0.34609976061238829 0.1125768182804123 0 -0.35159056952652551 0.1015623672605805 0 -0.33677250243308843 0.1026140355262085 0 -0.34609976061238829 0.1125768182804123 0 -0.35159056952652551 0.1015623672605805 0 -0.35194253589857422 0.11137778565794609 0 -0.34609976061238829 0.1125768182804123 0 -0.35159056952652551 0.1015623672605805 0 -0.34609976061238829 0.1125768182804123 0 -0.33677250243308843 0.1026140355262085 0 -0.33001308271153601 0.1087767013796329 0 -0.35159056952652551 0.1015623672605805 0 -0.33677250243308843 0.1026140355262085 0 -0.33777167538575792 0.091634602676660806 0 -0.33677250243308843 0.1026140355262085 0 -0.32861795154520862 0.1035346271112733 0 -0.33001308271153601 0.1087767013796329 0 -0.33677250243308843 0.1026140355262085 0 -0.32861795154520862 0.1035346271112733 0 -0.32797601840055529 0.096666124058915739 0 -0.33677250243308843 0.1026140355262085 0 -0.32797601840055529 0.096666124058915739 0 -0.33777167538575792 0.091634602676660806 0 -0.34609976061238829 0.1125768182804123 0 -0.33001308271153601 0.1087767013796329 0 -0.31758347035712908 0.118428825351172 0 -0.33667502366817609 0.1314826489276236 0 -0.34609976061238829 0.1125768182804123 0 -0.32959374243542389 0.121351349086111 0 -0.34609976061238829 0.1125768182804123 0 -0.32959374243542389 0.121351349086111 0 -0.31758347035712908 0.118428825351172 0 -0.33667502366817609 0.1314826489276236 0 -0.34609976061238829 0.1125768182804123 0 -0.34609976061238829 0.1125768182804123 0 -0.31758347035712908 0.118428825351172 0 -0.33667502366817609 0.1314826489276236 0 -0.34609976061238829 0.1125768182804123 0 -0.34690352540491048 0.12374520315100319 0 -0.32959374243542389 0.121351349086111 0 -0.32185977770662788 0.12394525226671491 0 -0.31758347035712908 0.118428825351172 0 -0.33001308271153601 0.1087767013796329 0 -0.31758347035712908 0.118428825351172 0 -0.31971020263565492 0.1060816474803359 0 -0.31234344210059861 0.12195885135039081 0 -0.31758347035712908 0.118428825351172 0 -0.31764485361264883 0.12444588494388199 0 -0.31303946675460181 0.1281608340210551 0 -0.31234344210059861 0.12195885135039081 0 -0.31764485361264883 0.12444588494388199 0 -0.32185977770662788 0.12394525226671491 0 -0.31758347035712908 0.118428825351172 0 -0.31764485361264883 0.12444588494388199 0 -0.32797601840055529 0.096666124058915739 0 -0.31971020263565492 0.1060816474803359 0 -0.31538156633259828 0.093945561055903098 0 -0.32861795154520862 0.1035346271112733 0 -0.32797601840055529 0.096666124058915739 0 -0.31971020263565492 0.1060816474803359 0 -0.32861795154520862 0.1035346271112733 0 -0.33001308271153601 0.1087767013796329 0 -0.31971020263565492 0.1060816474803359 0 -0.30602619193800268 0.085085614335838639 0 -0.32374572571027938 0.085737274251476939 0 -0.31971434689396189 0.073283238062749875 0 -0.32374572571027938 0.085737274251476939 0 -0.31971434689396189 0.073283238062749875 0 -0.33555891417586209 0.07851632349507888 0 -0.30602619193800268 0.085085614335838639 0 -0.31538156633259828 0.093945561055903098 0 -0.32374572571027938 0.085737274251476939 0 -0.32797601840055529 0.096666124058915739 0 -0.31538156633259828 0.093945561055903098 0 -0.32374572571027938 0.085737274251476939 0 -0.30602619193800268 0.085085614335838639 0 -0.31971434689396189 0.073283238062749875 0 -0.33340250184992248 0.061480861789662583 0 -0.31971434689396189 0.073283238062749875 0 -0.31608621838585221 0.063620627211399591 0 -0.30596068631040912 0.072676427020924375 0 -0.31971434689396189 0.073283238062749875 0 -0.31608621838585221 0.063620627211399591 0 -0.33340250184992248 0.061480861789662583 0 -0.31971434689396189 0.073283238062749875 0 -0.33340250184992248 0.061480861789662583 0 -0.35038207460995002 0.067860615674828054 0 -0.33340250184992248 0.061480861789662583 0 -0.31971434689396189 0.073283238062749875 0 -0.33555891417586209 0.07851632349507888 0 -0.33340250184992248 0.061480861789662583 0 -0.35038207460995002 0.067860615674828054 0 -0.33555891417586209 0.07851632349507888 0 -0.35098632206823682 0.08471149146770432 0 -0.33777167538575792 0.091634602676660806 0 -0.33555891417586209 0.07851632349507888 0 -0.32797601840055529 0.096666124058915739 0 -0.32374572571027938 0.085737274251476939 0 -0.33777167538575792 0.091634602676660806 0 -0.32374572571027938 0.085737274251476939 0 -0.33777167538575792 0.091634602676660806 0 -0.33555891417586209 0.07851632349507888 0 -0.3894696989682318 0.48210945178843201 0 -0.39163456166606891 0.46128570087222981 0 -0.40639475857802998 0.47533379102392359 0 -0.40015415905264068 0.49939655164463509 0 -0.3894696989682318 0.48210945178843201 0 -0.40639475857802998 0.47533379102392359 0 -0.40396586058892198 0.50000000000000033 0 -0.40015415905264068 0.49939655164463509 0 -0.40639475857802998 0.47533379102392359 0 -0.40015415905264068 0.49939655164463509 0 -0.40639475857802998 0.47533379102392359 0 -0.40015415905264068 0.49939655164463509 0 -0.37121941741343789 0.49481575692897889 0 -0.40015415905264068 0.49939655164463509 0 -0.3894696989682318 0.48210945178843201 0 -0.37121941741343789 0.49481575692897889 0 -0.40015415905264068 0.49939655164463509 0 -0.37896490409964911 0.5 0 -0.37121941741343789 0.49481575692897889 0 -0.37534854268504708 0.47231357073020408 0 -0.3894696989682318 0.48210945178843201 0 -0.39163456166606891 0.46128570087222981 0 -0.37534854268504708 0.47231357073020408 0 -0.3894696989682318 0.48210945178843201 0 -0.37121941741343789 0.49481575692897889 0 -0.37770275616186028 0.45719433904947882 0 -0.38268766265869791 0.44161949324775368 0 -0.39163456166606891 0.46128570087222981 0 -0.37534854268504708 0.47231357073020408 0 -0.37770275616186028 0.45719433904947882 0 -0.39163456166606891 0.46128570087222981 0 -0.38268766265869791 0.44161949324775368 0 -0.39163456166606891 0.46128570087222981 0 -0.41263535810341923 0.4512710304032122 0 -0.38268766265869791 0.44161949324775368 0 -0.41263535810341923 0.4512710304032122 0 -0.40270493869742752 0.42996911335853488 0 -0.39163456166606891 0.46128570087222981 0 -0.41263535810341923 0.4512710304032122 0 -0.40639475857802998 0.47533379102392359 0 -0.41263535810341923 0.4512710304032122 0 -0.40639475857802998 0.47533379102392359 0 -0.41263535810341923 0.4512710304032122 0 -0.42783671761294911 0.46558338957412859 0 -0.40639475857802998 0.47533379102392359 0 -0.41263535810341923 0.4512710304032122 0 -0.42030358042613108 0.43658090155771262 0 -0.40270493869742752 0.42996911335853488 0 -0.41263535810341923 0.4512710304032122 0 -0.4287681790948954 0.45035776201471872 0 -0.42030358042613108 0.43658090155771262 0 -0.4287681790948954 0.45035776201471872 0 -0.43526628214190982 0.43888842774284748 0 -0.4477989571900674 0.4594650607956926 0 -0.4287681790948954 0.45035776201471872 0 -0.43526628214190982 0.43888842774284748 0 -0.42030358042613108 0.43658090155771262 0 -0.41263535810341923 0.4512710304032122 0 -0.4287681790948954 0.45035776201471872 0 -0.42783671761294911 0.46558338957412859 0 -0.4287681790948954 0.45035776201471872 0 -0.42783671761294911 0.46558338957412859 0 -0.4477989571900674 0.4594650607956926 0 -0.42783671761294911 0.46558338957412859 0 -0.42517057574707168 0.49999999999999911 0 -0.44142743141831392 0.48143323040096292 0 -0.42783671761294911 0.46558338957412859 0 -0.40639475857802998 0.47533379102392359 0 -0.42517057574707168 0.49999999999999911 0 -0.40396586058892198 0.50000000000000033 0 -0.40639475857802998 0.47533379102392359 0 -0.42517057574707168 0.49999999999999911 0 -0.42517057574707168 0.49999999999999911 0 -0.44142743141831392 0.48143323040096292 0 -0.42517057574707168 0.49999999999999911 0 -0.44142743141831392 0.48143323040096292 0 -0.5 0.5 0 -0.5 0.5 0 -0.45768428708955661 0.46286646080192712 0 -0.5 0.41320948588298628 0 -0.44142743141831392 0.48143323040096292 0 -0.5 0.5 0 -0.45768428708955661 0.46286646080192712 0 -0.44142743141831392 0.48143323040096292 0 -0.45768428708955661 0.46286646080192712 0 -0.42783671761294911 0.46558338957412859 0 -0.44142743141831392 0.48143323040096292 0 -0.4477989571900674 0.4594650607956926 0 -0.45768428708955661 0.46286646080192712 0 -0.4609325859691446 0.43736074536418929 0 -0.5 0.41320948588298628 0 -0.45768428708955661 0.46286646080192712 0 -0.45220339002018578 0.4496826608874564 0 -0.4609325859691446 0.43736074536418929 0 -0.44142743141831392 0.48143323040096292 0 -0.45768428708955661 0.46286646080192712 0 -0.4477989571900674 0.4594650607956926 0 -0.45768428708955661 0.46286646080192712 0 -0.4477989571900674 0.4594650607956926 0 -0.45220339002018578 0.4496826608874564 0 -0.43526628214190982 0.43888842774284748 0 -0.4477989571900674 0.4594650607956926 0 -0.45220339002018578 0.4496826608874564 0 -0.43526628214190982 0.43888842774284748 0 -0.4477989571900674 0.4594650607956926 0 -0.43526628214190982 0.43888842774284748 0 -0.45220339002018578 0.4496826608874564 0 -0.4609325859691446 0.43736074536418929 0 -0.5 0.41320948588298628 0 -0.47345213201890213 0.38367207807771719 0 -0.5 0.35021867603124318 0 -0.43526628214190982 0.43888842774284748 0 -0.44403347968492118 0.42214985485178319 0 -0.4609325859691446 0.43736074536418929 0 -0.44403347968492118 0.42214985485178319 0 -0.46453767038320659 0.41422859965388731 0 -0.43670864519418823 0.40195276802867608 0 -0.44403347968492118 0.42214985485178319 0 -0.46453767038320659 0.41422859965388731 0 -0.4609325859691446 0.43736074536418929 0 -0.46453767038320659 0.41422859965388731 0 -0.4609325859691446 0.43736074536418929 0 -0.5 0.41320948588298628 0 -0.46453767038320659 0.41422859965388731 0 -0.5 0.41320948588298628 0 -0.4732675477521634 0.40098064666694683 0 -0.5 0.41320948588298628 0 -0.4732675477521634 0.40098064666694683 0 -0.47345213201890213 0.38367207807771719 0 -0.47345213201890213 0.38367207807771719 0 -0.45508038860654509 0.39281242305319669 0 -0.47345213201890213 0.38367207807771719 0 -0.45508038860654509 0.39281242305319669 0 -0.45260116023930991 0.37473800892262449 0 -0.4732675477521634 0.40098064666694683 0 -0.47345213201890213 0.38367207807771719 0 -0.45508038860654509 0.39281242305319669 0 -0.46453767038320659 0.41422859965388731 0 -0.4732675477521634 0.40098064666694683 0 -0.45508038860654509 0.39281242305319669 0 -0.46453767038320659 0.41422859965388731 0 -0.45508038860654509 0.39281242305319669 0 -0.43670864519418823 0.40195276802867608 0 -0.45508038860654509 0.39281242305319669 0 -0.44055593173898111 0.3868784228133138 0 -0.43670864519418823 0.40195276802867608 0 -0.45508038860654509 0.39281242305319669 0 -0.43670864519418823 0.40195276802867608 0 -0.45508038860654509 0.39281242305319669 0 -0.44055593173898111 0.3868784228133138 0 -0.45260116023930991 0.37473800892262449 0 -0.44055593173898111 0.3868784228133138 0 -0.43367164602432218 0.37470180212750692 0 -0.45260116023930991 0.37473800892262449 0 -0.42471781863053981 0.39018711193456501 0 -0.41637560081099251 0.3740732628664879 0 -0.43367164602432218 0.37470180212750692 0 -0.44055593173898111 0.3868784228133138 0 -0.42471781863053981 0.39018711193456501 0 -0.43367164602432218 0.37470180212750692 0 -0.42471781863053981 0.39018711193456501 0 -0.40449957607598369 0.38837445378831059 0 -0.41637560081099251 0.3740732628664879 0 -0.40449957607598369 0.38837445378831059 0 -0.40166925818897931 0.37286403727956768 0 -0.41637560081099251 0.3740732628664879 0 -0.41833690178183103 0.41109311300415541 0 -0.40449957607598369 0.38837445378831059 0 -0.41833690178183103 0.41109311300415541 0 -0.40449957607598369 0.38837445378831059 0 -0.40170115578608567 0.40565219799458402 0 -0.42471781863053981 0.39018711193456501 0 -0.41833690178183103 0.41109311300415541 0 -0.40449957607598369 0.38837445378831059 0 -0.42471781863053981 0.39018711193456501 0 -0.43670864519418823 0.40195276802867608 0 -0.41833690178183103 0.41109311300415541 0 -0.44055593173898111 0.3868784228133138 0 -0.42471781863053981 0.39018711193456501 0 -0.43670864519418823 0.40195276802867608 0 -0.43670864519418823 0.40195276802867608 0 -0.42272221473615712 0.41831873346931597 0 -0.41833690178183103 0.41109311300415541 0 -0.44403347968492118 0.42214985485178319 0 -0.43670864519418823 0.40195276802867608 0 -0.42272221473615712 0.41831873346931597 0 -0.43670864519418823 0.40195276802867608 0 -0.41833690178183103 0.41109311300415541 0 -0.43526628214190982 0.43888842774284748 0 -0.42272221473615712 0.41831873346931597 0 -0.43526628214190982 0.43888842774284748 0 -0.42272221473615712 0.41831873346931597 0 -0.42030358042613108 0.43658090155771262 0 -0.43526628214190982 0.43888842774284748 0 -0.44403347968492118 0.42214985485178319 0 -0.42272221473615712 0.41831873346931597 0 -0.42272221473615712 0.41831873346931597 0 -0.40270493869742752 0.42996911335853488 0 -0.42272221473615712 0.41831873346931597 0 -0.42030358042613108 0.43658090155771262 0 -0.40270493869742752 0.42996911335853488 0 -0.41833690178183103 0.41109311300415541 0 -0.39600670814021982 0.42220287372051207 0 -0.42272221473615712 0.41831873346931597 0 -0.41833690178183103 0.41109311300415541 0 -0.40270493869742752 0.42996911335853488 0 -0.42272221473615712 0.41831873346931597 0 -0.41833690178183103 0.41109311300415541 0 -0.41833690178183103 0.41109311300415541 0 -0.40270493869742752 0.42996911335853488 0 -0.39600670814021982 0.42220287372051207 0 -0.41833690178183103 0.41109311300415541 0 -0.39600670814021982 0.42220287372051207 0 -0.40170115578608567 0.40565219799458402 0 -0.39600670814021982 0.42220287372051207 0 -0.38648716543465378 0.40537603214501999 0 -0.40170115578608567 0.40565219799458402 0 -0.38268766265869791 0.44161949324775368 0 -0.40270493869742752 0.42996911335853488 0 -0.39600670814021982 0.42220287372051207 0 -0.38268766265869791 0.44161949324775368 0 -0.40270493869742752 0.42996911335853488 0 -0.38274530908594551 0.4168683317450082 0 -0.37367651449860861 0.43331263443686868 0 -0.39600670814021982 0.42220287372051207 0 -0.38274530908594551 0.4168683317450082 0 -0.37367651449860861 0.43331263443686868 0 -0.38268766265869791 0.44161949324775368 0 -0.39600670814021982 0.42220287372051207 0 -0.37367651449860861 0.43331263443686868 0 -0.39600670814021982 0.42220287372051207 0 -0.37367651449860861 0.43331263443686868 0 -0.38274530908594551 0.4168683317450082 0 -0.37088157402289978 0.41371671899688728 0 -0.37367651449860861 0.43331263443686868 0 -0.39600670814021982 0.42220287372051207 0 -0.38274530908594551 0.4168683317450082 0 -0.38648716543465378 0.40537603214501999 0 -0.38648716543465378 0.40537603214501999 0 -0.36813133250083913 0.40205361584719701 0 -0.37088157402289978 0.41371671899688728 0 -0.38274530908594551 0.4168683317450082 0 -0.38648716543465378 0.40537603214501999 0 -0.37088157402289978 0.41371671899688728 0 -0.38648716543465378 0.40537603214501999 0 -0.36813133250083913 0.40205361584719701 0 -0.37489298450561032 0.39252602712004381 0 -0.38648716543465378 0.40537603214501999 0 -0.38692840244874183 0.39165252840042059 0 -0.37489298450561032 0.39252602712004381 0 -0.38692840244874183 0.39165252840042059 0 -0.37667331319536629 0.38021901971335831 0 -0.39244263747726787 0.38327750979541447 0 -0.37667331319536629 0.38021901971335831 0 -0.39244263747726787 0.38327750979541447 0 -0.40166925818897931 0.37286403727956768 0 -0.37667331319536629 0.38021901971335831 0 -0.40166925818897931 0.37286403727956768 0 -0.38692840244874183 0.39165252840042059 0 -0.37667331319536629 0.38021901971335831 0 -0.38692840244874183 0.39165252840042059 0 -0.37667331319536629 0.38021901971335831 0 -0.37489298450561032 0.39252602712004381 0 -0.38692840244874183 0.39165252840042059 0 -0.39244263747726787 0.38327750979541447 0 -0.40449957607598369 0.38837445378831059 0 -0.39244263747726787 0.38327750979541447 0 -0.40449957607598369 0.38837445378831059 0 -0.40166925818897931 0.37286403727956768 0 -0.38692840244874183 0.39165252840042059 0 -0.40449957607598369 0.38837445378831059 0 -0.40170115578608567 0.40565219799458402 0 -0.38648716543465378 0.40537603214501999 0 -0.38692840244874183 0.39165252840042059 0 -0.40170115578608567 0.40565219799458402 0 -0.39745110242006798 0.34782846930895711 0 -0.40174100783916089 0.33701274845442691 0 -0.40889142234719172 0.3563085985209668 0 -0.39204543730681179 0.35617347122884307 0 -0.39745110242006798 0.34782846930895711 0 -0.40889142234719172 0.3563085985209668 0 -0.39204543730681179 0.35617347122884307 0 -0.39745110242006798 0.34782846930895711 0 -0.38712654218710763 0.3418190590315916 0 -0.39204543730681179 0.35617347122884307 0 -0.40166925818897931 0.37286403727956768 0 -0.40889142234719172 0.3563085985209668 0 -0.39204543730681179 0.35617347122884307 0 -0.40166925818897931 0.37286403727956768 0 -0.38701937792818197 0.36711527035678698 0 -0.39204543730681179 0.35617347122884307 0 -0.38701937792818197 0.36711527035678698 0 -0.37768950302157023 0.35920455320537792 0 -0.37667331319536629 0.38021901971335831 0 -0.38701937792818197 0.36711527035678698 0 -0.37768950302157023 0.35920455320537792 0 -0.37667331319536629 0.38021901971335831 0 -0.40166925818897931 0.37286403727956768 0 -0.38701937792818197 0.36711527035678698 0 -0.37768950302157023 0.35920455320537792 0 -0.38712654218710763 0.3418190590315916 0 -0.371608007901714 0.34673587386232091 0 -0.39204543730681179 0.35617347122884307 0 -0.37768950302157023 0.35920455320537792 0 -0.38712654218710763 0.3418190590315916 0 -0.38712654218710763 0.3418190590315916 0 -0.37964825255290308 0.32786424580902462 0 -0.40174100783916089 0.33701274845442691 0 -0.37964825255290308 0.32786424580902462 0 -0.371608007901714 0.34673587386232091 0 -0.38712654218710763 0.3418190590315916 0 -0.37964825255290308 0.32786424580902462 0 -0.371608007901714 0.34673587386232091 0 -0.38405805137413151 0.31751380415526093 0 -0.36609604326191819 0.31188555244830329 0 -0.37964825255290308 0.32786424580902462 0 -0.38405805137413151 0.31751380415526093 0 -0.37964825255290308 0.32786424580902462 0 -0.38405805137413151 0.31751380415526093 0 -0.37337376198236849 0.3252660097429787 0 -0.37964825255290308 0.32786424580902462 0 -0.37337376198236849 0.3252660097429787 0 -0.37964825255290308 0.32786424580902462 0 -0.38405805137413151 0.31751380415526093 0 -0.39213677433677713 0.32646779445613389 0 -0.38405805137413151 0.31751380415526093 0 -0.40309978558091258 0.32348037940582358 0 -0.38405805137413151 0.31751380415526093 0 -0.40309978558091258 0.32348037940582358 0 -0.40059395650551988 0.30945384339942622 0 -0.38405805137413151 0.31751380415526093 0 -0.39213677433677713 0.32646779445613389 0 -0.40309978558091258 0.32348037940582358 0 -0.37964825255290308 0.32786424580902462 0 -0.39213677433677713 0.32646779445613389 0 -0.40174100783916089 0.33701274845442691 0 -0.37964825255290308 0.32786424580902462 0 -0.40174100783916089 0.33701274845442691 0 -0.39745110242006798 0.34782846930895711 0 -0.38712654218710763 0.3418190590315916 0 -0.40174100783916089 0.33701274845442691 0 -0.39213677433677713 0.32646779445613389 0 -0.40309978558091258 0.32348037940582358 0 -0.40174100783916089 0.33701274845442691 0 -0.40309978558091258 0.32348037940582358 0 -0.40174100783916089 0.33701274845442691 0 -0.42214151978769371 0.32944695465638663 0 -0.40174100783916089 0.33701274845442691 0 -0.42383376312541882 0.34616125109982893 0 -0.40174100783916089 0.33701274845442691 0 -0.42214151978769371 0.32944695465638663 0 -0.42383376312541882 0.34616125109982893 0 -0.40309978558091258 0.32348037940582358 0 -0.42214151978769371 0.32944695465638663 0 -0.40309978558091258 0.32348037940582358 0 -0.42214151978769371 0.32944695465638663 0 -0.41592281442231033 0.31142885041822338 0 -0.40309978558091258 0.32348037940582358 0 -0.41592281442231033 0.31142885041822338 0 -0.40059395650551988 0.30945384339942622 0 -0.43274791161923593 0.31745716288027731 0 -0.42214151978769371 0.32944695465638663 0 -0.41592281442231033 0.31142885041822338 0 -0.43274791161923593 0.31745716288027731 0 -0.42214151978769371 0.32944695465638663 0 -0.43710169517879172 0.33615283149382752 0 -0.42214151978769371 0.32944695465638663 0 -0.43710169517879172 0.33615283149382752 0 -0.42383376312541882 0.34616125109982893 0 -0.42383376312541882 0.34616125109982893 0 -0.42480388359893861 0.36200357354801088 0 -0.44592651841167652 0.35530975374523099 0 -0.42383376312541882 0.34616125109982893 0 -0.44592651841167652 0.35530975374523099 0 -0.43710169517879172 0.33615283149382752 0 -0.42383376312541882 0.34616125109982893 0 -0.44592651841167652 0.35530975374523099 0 -0.42383376312541882 0.34616125109982893 0 -0.40889142234719172 0.3563085985209668 0 -0.42480388359893861 0.36200357354801088 0 -0.40174100783916089 0.33701274845442691 0 -0.42383376312541882 0.34616125109982893 0 -0.40889142234719172 0.3563085985209668 0 -0.40889142234719172 0.3563085985209668 0 -0.41637560081099251 0.3740732628664879 0 -0.42480388359893861 0.36200357354801088 0 -0.40166925818897931 0.37286403727956768 0 -0.40889142234719172 0.3563085985209668 0 -0.41637560081099251 0.3740732628664879 0 -0.41637560081099251 0.3740732628664879 0 -0.42480388359893861 0.36200357354801088 0 -0.43367164602432218 0.37470180212750692 0 -0.42480388359893861 0.36200357354801088 0 -0.43367164602432218 0.37470180212750692 0 -0.44592651841167652 0.35530975374523099 0 -0.43367164602432218 0.37470180212750692 0 -0.45260116023930991 0.37473800892262449 0 -0.44592651841167652 0.35530975374523099 0 -0.43710169517879172 0.33615283149382752 0 -0.44592651841167652 0.35530975374523099 0 -0.45493335654533029 0.34091614611105492 0 -0.44592651841167652 0.35530975374523099 0 -0.46700318073504699 0.35544625013685083 0 -0.45493335654533029 0.34091614611105492 0 -0.45260116023930991 0.37473800892262449 0 -0.44592651841167652 0.35530975374523099 0 -0.46700318073504699 0.35544625013685083 0 -0.47345213201890213 0.38367207807771719 0 -0.45260116023930991 0.37473800892262449 0 -0.46700318073504699 0.35544625013685083 0 -0.46700318073504699 0.35544625013685083 0 -0.5 0.35021867603124318 0 -0.46957513994531458 0.32952946714549669 0 -0.47345213201890213 0.38367207807771719 0 -0.46700318073504699 0.35544625013685083 0 -0.5 0.35021867603124318 0 -0.5 0.35021867603124318 0 -0.46957513994531458 0.32952946714549669 0 -0.47817820497668662 0.30957583469636479 0 -0.5 0.35021867603124318 0 -0.47817820497668662 0.30957583469636479 0 -0.5 0.30450476561805678 0 -0.46957513994531458 0.32952946714549669 0 -0.46005345543036302 0.31276122827724651 0 -0.47817820497668662 0.30957583469636479 0 -0.46957513994531458 0.32952946714549669 0 -0.47817820497668662 0.30957583469636479 0 -0.46957513994531458 0.32952946714549669 0 -0.46005345543036302 0.31276122827724651 0 -0.4471525259209953 0.32607756948534589 0 -0.46700318073504699 0.35544625013685083 0 -0.46957513994531458 0.32952946714549669 0 -0.45493335654533029 0.34091614611105492 0 -0.46957513994531458 0.32952946714549669 0 -0.45493335654533029 0.34091614611105492 0 -0.4471525259209953 0.32607756948534589 0 -0.43710169517879172 0.33615283149382752 0 -0.45493335654533029 0.34091614611105492 0 -0.4471525259209953 0.32607756948534589 0 -0.46005345543036302 0.31276122827724651 0 -0.4471525259209953 0.32607756948534589 0 -0.44356933987278518 0.3037373043477965 0 -0.43274791161923593 0.31745716288027731 0 -0.43710169517879172 0.33615283149382752 0 -0.4471525259209953 0.32607756948534589 0 -0.43274791161923593 0.31745716288027731 0 -0.4471525259209953 0.32607756948534589 0 -0.44356933987278518 0.3037373043477965 0 -0.44356933987278518 0.3037373043477965 0 -0.44504167470699207 0.28640086184055102 0 -0.43035050093232458 0.29029537211076017 0 -0.44356933987278518 0.3037373043477965 0 -0.44504167470699207 0.28640086184055102 0 -0.46179206643603349 0.29488596571122822 0 -0.44504167470699207 0.28640086184055102 0 -0.46179206643603349 0.29488596571122822 0 -0.45825131979408901 0.27366111678721178 0 -0.46179206643603349 0.29488596571122822 0 -0.47372998658074061 0.28534501477970908 0 -0.45825131979408901 0.27366111678721178 0 -0.46005345543036302 0.31276122827724651 0 -0.44356933987278518 0.3037373043477965 0 -0.46179206643603349 0.29488596571122822 0 -0.46005345543036302 0.31276122827724651 0 -0.46179206643603349 0.29488596571122822 0 -0.47817820497668662 0.30957583469636479 0 -0.47817820497668662 0.30957583469636479 0 -0.48678127000805849 0.28962220224723301 0 -0.47817820497668662 0.30957583469636479 0 -0.47512038200037982 0.29485725435863369 0 -0.48678127000805849 0.28962220224723301 0 -0.46179206643603349 0.29488596571122822 0 -0.47817820497668662 0.30957583469636479 0 -0.47512038200037982 0.29485725435863369 0 -0.48678127000805849 0.28962220224723301 0 -0.5 0.30450476561805678 0 -0.49999999999999878 0.2713228294510861 0 -0.46179206643603349 0.29488596571122822 0 -0.47512038200037982 0.29485725435863369 0 -0.47372998658074061 0.28534501477970908 0 -0.47372998658074061 0.28534501477970908 0 -0.48678127000805849 0.28962220224723301 0 -0.48635121596625108 0.27424593240776912 0 -0.47512038200037982 0.29485725435863369 0 -0.47372998658074061 0.28534501477970908 0 -0.48678127000805849 0.28962220224723301 0 -0.47817820497668662 0.30957583469636479 0 -0.48678127000805849 0.28962220224723301 0 -0.5 0.30450476561805678 0 -0.48801335003240048 0.254761250631661 0 -0.49538433503943052 0.26966856979810111 0 -0.47118729132114412 0.26099632138174877 0 -0.5 0.2437488711627179 0 -0.48801335003240048 0.254761250631661 0 -0.50000000000000022 0.25896316634064709 0 -0.50000000000000022 0.25896316634064709 0 -0.49538433503943052 0.26966856979810111 0 -0.48801335003240048 0.254761250631661 0 -0.50000000000000022 0.25896316634064709 0 -0.49538433503943052 0.26966856979810111 0 -0.48678127000805849 0.28962220224723301 0 -0.49538433503943052 0.26966856979810111 0 -0.48635121596625108 0.27424593240776912 0 -0.48678127000805849 0.28962220224723301 0 -0.49999999999999878 0.2713228294510861 0 -0.49538433503943052 0.26966856979810111 0 -0.48678127000805849 0.28962220224723301 0 -0.49538433503943052 0.26966856979810111 0 -0.50000000000000022 0.25896316634064709 0 -0.49999999999999878 0.2713228294510861 0 -0.49538433503943052 0.26966856979810111 0 -0.49999999999999878 0.2713228294510861 0 -0.49538433503943052 0.26966856979810111 0 -0.48635121596625108 0.27424593240776912 0 -0.45825131979408901 0.27366111678721178 0 -0.49538433503943052 0.26966856979810111 0 -0.48635121596625108 0.27424593240776912 0 -0.47118729132114412 0.26099632138174877 0 -0.48635121596625108 0.27424593240776912 0 -0.47118729132114412 0.26099632138174877 0 -0.45825131979408901 0.27366111678721178 0 -0.47372998658074061 0.28534501477970908 0 -0.48635121596625108 0.27424593240776912 0 -0.45825131979408901 0.27366111678721178 0 -0.49538433503943052 0.26966856979810111 0 -0.47118729132114412 0.26099632138174877 0 -0.47349512380142778 0.24042932447509011 0 -0.48801335003240048 0.254761250631661 0 -0.47118729132114412 0.26099632138174877 0 -0.47349512380142778 0.24042932447509011 0 -0.47118729132114412 0.26099632138174877 0 -0.44699024760285883 0.25232407296539422 0 -0.47118729132114412 0.26099632138174877 0 -0.44699024760285883 0.25232407296539422 0 -0.47118729132114412 0.26099632138174877 0 -0.45825131979408901 0.27366111678721178 0 -0.44699024760285883 0.25232407296539422 0 -0.45825131979408901 0.27366111678721178 0 -0.44699024760285883 0.25232407296539422 0 -0.43015142362192688 0.27307630116665449 0 -0.44504167470699207 0.28640086184055102 0 -0.45825131979408901 0.27366111678721178 0 -0.43015142362192688 0.27307630116665449 0 -0.45825131979408901 0.27366111678721178 0 -0.43015142362192688 0.27307630116665449 0 -0.44699024760285883 0.25232407296539422 0 -0.42452088752631151 0.26240777925574549 0 -0.43015142362192688 0.27307630116665449 0 -0.42610653488240019 0.2448393262055826 0 -0.42452088752631151 0.26240777925574549 0 -0.41574429676497898 0.25016045351065752 0 -0.42610653488240019 0.2448393262055826 0 -0.44699024760285883 0.25232407296539422 0 -0.42452088752631151 0.26240777925574549 0 -0.44699024760285883 0.25232407296539422 0 -0.42452088752631151 0.26240777925574549 0 -0.42452088752631151 0.26240777925574549 0 -0.41574429676497898 0.25016045351065752 0 -0.40712694248926129 0.25604012913553381 0 -0.42452088752631151 0.26240777925574549 0 -0.40712694248926129 0.25604012913553381 0 -0.40205152744976491 0.27249148554609798 0 -0.43015142362192688 0.27307630116665449 0 -0.40205152744976491 0.27249148554609798 0 -0.42452088752631151 0.26240777925574549 0 -0.43015142362192688 0.27307630116665449 0 -0.40205152744976491 0.27249148554609798 0 -0.43015142362192688 0.27307630116665449 0 -0.41416347901475981 0.28546364247122702 0 -0.40205152744976491 0.27249148554609798 0 -0.42452088752631151 0.26240777925574549 0 -0.40205152744976491 0.27249148554609798 0 -0.43015142362192688 0.27307630116665449 0 -0.43035050093232458 0.29029537211076017 0 -0.41416347901475981 0.28546364247122702 0 -0.44504167470699207 0.28640086184055102 0 -0.43015142362192688 0.27307630116665449 0 -0.43035050093232458 0.29029537211076017 0 -0.43274791161923593 0.31745716288027731 0 -0.42956396206147451 0.30383854522792891 0 -0.41592281442231033 0.31142885041822338 0 -0.43274791161923593 0.31745716288027731 0 -0.44356933987278518 0.3037373043477965 0 -0.42956396206147451 0.30383854522792891 0 -0.44356933987278518 0.3037373043477965 0 -0.43035050093232458 0.29029537211076017 0 -0.42956396206147451 0.30383854522792891 0 -0.43035050093232458 0.29029537211076017 0 -0.42956396206147451 0.30383854522792891 0 -0.4198292989602358 0.29687988408811811 0 -0.41592281442231033 0.31142885041822338 0 -0.4198292989602358 0.29687988408811811 0 -0.40681639186243318 0.29691540982620668 0 -0.42956396206147451 0.30383854522792891 0 -0.41592281442231033 0.31142885041822338 0 -0.4198292989602358 0.29687988408811811 0 -0.41592281442231033 0.31142885041822338 0 -0.40681639186243318 0.29691540982620668 0 -0.40059395650551988 0.30945384339942622 0 -0.43035050093232458 0.29029537211076017 0 -0.4198292989602358 0.29687988408811811 0 -0.41416347901475981 0.28546364247122702 0 -0.4198292989602358 0.29687988408811811 0 -0.40681639186243318 0.29691540982620668 0 -0.41416347901475981 0.28546364247122702 0 -0.40681639186243318 0.29691540982620668 0 -0.41416347901475981 0.28546364247122702 0 -0.39698892627979282 0.28462749131250958 0 -0.40681639186243318 0.29691540982620668 0 -0.39366585674580429 0.29496288223078693 0 -0.39698892627979282 0.28462749131250958 0 -0.39366585674580429 0.29496288223078693 0 -0.39698892627979282 0.28462749131250958 0 -0.38291604247034899 0.2916899172463685 0 -0.38405805137413151 0.31751380415526093 0 -0.39366585674580429 0.29496288223078693 0 -0.40059395650551988 0.30945384339942622 0 -0.40681639186243318 0.29691540982620668 0 -0.39366585674580429 0.29496288223078693 0 -0.40059395650551988 0.30945384339942622 0 -0.38405805137413151 0.31751380415526093 0 -0.39366585674580429 0.29496288223078693 0 -0.37854344781417631 0.30363700430035617 0 -0.38405805137413151 0.31751380415526093 0 -0.37854344781417631 0.30363700430035617 0 -0.36609604326191819 0.31188555244830329 0 -0.38405805137413151 0.31751380415526093 0 -0.39366585674580429 0.29496288223078693 0 -0.37854344781417631 0.30363700430035617 0 -0.38291604247034899 0.2916899172463685 0 -0.37062655232581271 0.29619136593483658 0 -0.39698892627979282 0.28462749131250958 0 -0.38291604247034899 0.2916899172463685 0 -0.38510348274365508 0.28009735880773101 0 -0.39366585674580429 0.29496288223078693 0 -0.37854344781417631 0.30363700430035617 0 -0.38291604247034899 0.2916899172463685 0 -0.38291604247034899 0.2916899172463685 0 -0.37330360728586659 0.28795063003421101 0 -0.37062655232581271 0.29619136593483658 0 -0.38291604247034899 0.2916899172463685 0 -0.3780486429993144 0.28288708145737612 0 -0.37330360728586659 0.28795063003421101 0 -0.38291604247034899 0.2916899172463685 0 -0.3780486429993144 0.28288708145737612 0 -0.38510348274365508 0.28009735880773101 0 -0.37806478642285668 0.27497560985937242 0 -0.38301770335155472 0.27209535320513151 0 -0.38120194793217088 0.25242272127266302 0 -0.3780486429993144 0.28288708145737612 0 -0.37806478642285668 0.27497560985937242 0 -0.37111265791162862 0.27951234170021749 0 -0.37806478642285668 0.27497560985937242 0 -0.38510348274365508 0.28009735880773101 0 -0.38301770335155472 0.27209535320513151 0 -0.3780486429993144 0.28288708145737612 0 -0.37806478642285668 0.27497560985937242 0 -0.38510348274365508 0.28009735880773101 0 -0.38510348274365508 0.28009735880773101 0 -0.38301770335155472 0.27209535320513151 0 -0.40205152744976491 0.27249148554609798 0 -0.37806478642285668 0.27497560985937242 0 -0.38120194793217088 0.25242272127266302 0 -0.38120194793217088 0.25242272127266302 0 -0.37354813760634642 0.26006006035294799 0 -0.37377927106761838 0.26651100370055791 0 -0.38301770335155472 0.27209535320513151 0 -0.38120194793217088 0.25242272127266302 0 -0.39358988435054909 0.26057182060066408 0 -0.37806478642285668 0.27497560985937242 0 -0.38120194793217088 0.25242272127266302 0 -0.37377927106761838 0.26651100370055791 0 -0.39453124147210011 0.24699110497353011 0 -0.38120194793217088 0.25242272127266302 0 -0.39358988435054909 0.26057182060066408 0 -0.40712694248926129 0.25604012913553381 0 -0.39358988435054909 0.26057182060066408 0 -0.40205152744976491 0.27249148554609798 0 -0.39453124147210011 0.24699110497353011 0 -0.40712694248926129 0.25604012913553381 0 -0.39358988435054909 0.26057182060066408 0 -0.38510348274365508 0.28009735880773101 0 -0.40205152744976491 0.27249148554609798 0 -0.38301770335155472 0.27209535320513151 0 -0.40205152744976491 0.27249148554609798 0 -0.39698892627979282 0.28462749131250958 0 -0.38510348274365508 0.28009735880773101 0 -0.40205152744976491 0.27249148554609798 0 -0.41416347901475981 0.28546364247122702 0 -0.39698892627979282 0.28462749131250958 0 -0.40205152744976491 0.27249148554609798 0 -0.38301770335155472 0.27209535320513151 0 -0.39358988435054909 0.26057182060066408 0 -0.40205152744976491 0.27249148554609798 0 -0.35606900821957171 0.26976041767274628 0 -0.35285692651528011 0.27773750275003312 0 -0.35039683725418053 0.27020317753371598 0 -0.35606900821957171 0.26976041767274628 0 -0.35039683725418053 0.27020317753371598 0 -0.35378748665180909 0.26256857023324232 0 -0.35285692651528011 0.27773750275003312 0 -0.36215830199227589 0.27782477468769518 0 -0.35768277127335463 0.28496983254588948 0 -0.35606900821957171 0.26976041767274628 0 -0.35285692651528011 0.27773750275003312 0 -0.36215830199227589 0.27782477468769518 0 -0.35285692651528011 0.27773750275003312 0 -0.34632964525695092 0.27457091342536111 0 -0.35039683725418053 0.27020317753371598 0 -0.35285692651528011 0.27773750275003312 0 -0.34632964525695092 0.27457091342536111 0 -0.34364186120046092 0.28083788012624161 0 -0.34632964525695092 0.27457091342536111 0 -0.34527271581631158 0.26667962708514209 0 -0.34173279989705008 0.27192855033966562 0 -0.35039683725418053 0.27020317753371598 0 -0.34527271581631158 0.26667962708514209 0 -0.35378748665180909 0.26256857023324232 0 -0.34632964525695092 0.27457091342536111 0 -0.35039683725418053 0.27020317753371598 0 -0.34527271581631158 0.26667962708514209 0 -0.34527271581631158 0.26667962708514209 0 -0.34777474200809438 0.25852105444149792 0 -0.33988573177983561 0.25850938029249171 0 -0.34527271581631158 0.26667962708514209 0 -0.34777474200809438 0.25852105444149792 0 -0.35378748665180909 0.26256857023324232 0 -0.34777474200809438 0.25852105444149792 0 -0.34733676193895419 0.25083056087000632 0 -0.35813718115862953 0.2529113956206307 0 -0.34777474200809438 0.25852105444149792 0 -0.34733676193895419 0.25083056087000632 0 -0.33988573177983561 0.25850938029249171 0 -0.35606900821957171 0.26976041767274628 0 -0.35378748665180909 0.26256857023324232 0 -0.36188841844450931 0.2617938132063079 0 -0.35813718115862953 0.2529113956206307 0 -0.35378748665180909 0.26256857023324232 0 -0.36188841844450931 0.2617938132063079 0 -0.34777474200809438 0.25852105444149792 0 -0.35813718115862953 0.2529113956206307 0 -0.35378748665180909 0.26256857023324232 0 -0.36188841844450931 0.2617938132063079 0 -0.36840654562449232 0.26414484640828118 0 -0.36311019547046369 0.26973697880207798 0 -0.36188841844450931 0.2617938132063079 0 -0.36936834432559879 0.25444969534769302 0 -0.36840654562449232 0.26414484640828118 0 -0.35813718115862953 0.2529113956206307 0 -0.36188841844450931 0.2617938132063079 0 -0.36936834432559879 0.25444969534769302 0 -0.37361009014553898 0.24442780643331369 0 -0.35813718115862953 0.2529113956206307 0 -0.36936834432559879 0.25444969534769302 0 -0.37361009014553898 0.24442780643331369 0 -0.38120194793217088 0.25242272127266302 0 -0.36936834432559879 0.25444969534769302 0 -0.38120194793217088 0.25242272127266302 0 -0.36936834432559879 0.25444969534769302 0 -0.37354813760634642 0.26006006035294799 0 -0.36936834432559879 0.25444969534769302 0 -0.36840654562449232 0.26414484640828118 0 -0.37354813760634642 0.26006006035294799 0 -0.36840654562449232 0.26414484640828118 0 -0.37354813760634642 0.26006006035294799 0 -0.37377927106761838 0.26651100370055791 0 -0.37806478642285668 0.27497560985937242 0 -0.37377927106761838 0.26651100370055791 0 -0.3728932898613404 0.2737467580938121 0 -0.36840654562449232 0.26414484640828118 0 -0.37377927106761838 0.26651100370055791 0 -0.36874490683241717 0.27231752704010248 0 -0.37377927106761838 0.26651100370055791 0 -0.36874490683241717 0.27231752704010248 0 -0.3728932898613404 0.2737467580938121 0 -0.35606900821957171 0.26976041767274628 0 -0.36188841844450931 0.2617938132063079 0 -0.36311019547046369 0.26973697880207798 0 -0.35606900821957171 0.26976041767274628 0 -0.36311019547046369 0.26973697880207798 0 -0.36215830199227589 0.27782477468769518 0 -0.36874490683241717 0.27231752704010248 0 -0.36311019547046369 0.26973697880207798 0 -0.36215830199227589 0.27782477468769518 0 -0.36840654562449232 0.26414484640828118 0 -0.36874490683241717 0.27231752704010248 0 -0.36311019547046369 0.26973697880207798 0 -0.36215830199227589 0.27782477468769518 0 -0.37111265791162862 0.27951234170021749 0 -0.3650851228365678 0.2864103467869622 0 -0.36874490683241717 0.27231752704010248 0 -0.36215830199227589 0.27782477468769518 0 -0.37111265791162862 0.27951234170021749 0 -0.36874490683241717 0.27231752704010248 0 -0.3728932898613404 0.2737467580938121 0 -0.37111265791162862 0.27951234170021749 0 -0.37806478642285668 0.27497560985937242 0 -0.3728932898613404 0.2737467580938121 0 -0.37111265791162862 0.27951234170021749 0 -0.3780486429993144 0.28288708145737612 0 -0.37111265791162862 0.27951234170021749 0 -0.37330360728586659 0.28795063003421101 0 -0.37111265791162862 0.27951234170021749 0 -0.37330360728586659 0.28795063003421101 0 -0.3650851228365678 0.2864103467869622 0 -0.37330360728586659 0.28795063003421101 0 -0.37062655232581271 0.29619136593483658 0 -0.3650851228365678 0.2864103467869622 0 -0.37062655232581271 0.29619136593483658 0 -0.3650851228365678 0.2864103467869622 0 -0.35781505028599842 0.29557474479281898 0 -0.36215830199227589 0.27782477468769518 0 -0.3650851228365678 0.2864103467869622 0 -0.35768277127335463 0.28496983254588948 0 -0.3650851228365678 0.2864103467869622 0 -0.35768277127335463 0.28496983254588948 0 -0.35781505028599842 0.29557474479281898 0 -0.37854344781417631 0.30363700430035617 0 -0.37062655232581271 0.29619136593483658 0 -0.36609604326191819 0.31188555244830329 0 -0.37062655232581271 0.29619136593483658 0 -0.36609604326191819 0.31188555244830329 0 -0.35781505028599842 0.29557474479281898 0 -0.36609604326191819 0.31188555244830329 0 -0.34813403514970492 0.30625730074134588 0 -0.36609604326191819 0.31188555244830329 0 -0.34813403514970492 0.30625730074134588 0 -0.35781505028599842 0.29557474479281898 0 -0.34813403514970492 0.30625730074134588 0 -0.35781505028599842 0.29557474479281898 0 -0.34670350490495361 0.29513975844983831 0 -0.35285692651528011 0.27773750275003312 0 -0.35768277127335463 0.28496983254588948 0 -0.35049845473665059 0.28730179371193809 0 -0.35768277127335463 0.28496983254588948 0 -0.35781505028599842 0.29557474479281898 0 -0.35049845473665059 0.28730179371193809 0 -0.35781505028599842 0.29557474479281898 0 -0.34670350490495361 0.29513975844983831 0 -0.35049845473665059 0.28730179371193809 0 -0.34670350490495361 0.29513975844983831 0 -0.35049845473665059 0.28730179371193809 0 -0.33952886602823362 0.28780687616769551 0 -0.35049845473665059 0.28730179371193809 0 -0.33952886602823362 0.28780687616769551 0 -0.34364186120046092 0.28083788012624161 0 -0.35285692651528011 0.27773750275003312 0 -0.35049845473665059 0.28730179371193809 0 -0.34364186120046092 0.28083788012624161 0 -0.33952886602823362 0.28780687616769551 0 -0.33431926341703061 0.28122090369423802 0 -0.34364186120046092 0.28083788012624161 0 -0.34670350490495361 0.29513975844983831 0 -0.33952886602823362 0.28780687616769551 0 -0.33551308075353009 0.29705040163600122 0 -0.33952886602823362 0.28780687616769551 0 -0.32884306439112793 0.28634575130431222 0 -0.33551308075353009 0.29705040163600122 0 -0.32884306439112793 0.28634575130431222 0 -0.33551308075353009 0.29705040163600122 0 -0.32588721185809888 0.29393017671638599 0 -0.33952886602823362 0.28780687616769551 0 -0.32884306439112793 0.28634575130431222 0 -0.33431926341703061 0.28122090369423802 0 -0.32884306439112793 0.28634575130431222 0 -0.3268631026010384 0.28021265892032288 0 -0.33431926341703061 0.28122090369423802 0 -0.34813403514970492 0.30625730074134588 0 -0.33715418778841599 0.30984734048550222 0 -0.33551308075353009 0.29705040163600122 0 -0.34813403514970492 0.30625730074134588 0 -0.34670350490495361 0.29513975844983831 0 -0.33551308075353009 0.29705040163600122 0 -0.33715418778841599 0.30984734048550222 0 -0.33551308075353009 0.29705040163600122 0 -0.32693186992097051 0.30544467178503648 0 -0.33551308075353009 0.29705040163600122 0 -0.32693186992097051 0.30544467178503648 0 -0.32588721185809888 0.29393017671638599 0 -0.33715418778841599 0.30984734048550222 0 -0.32693186992097051 0.30544467178503648 0 -0.3309925791204148 0.31686281461264421 0 -0.32693186992097051 0.30544467178503648 0 -0.31764370208682002 0.30700884977935278 0 -0.32093082567920428 0.31356437835587692 0 -0.32693186992097051 0.30544467178503648 0 -0.32093082567920428 0.31356437835587692 0 -0.3309925791204148 0.31686281461264421 0 -0.32693186992097051 0.30544467178503648 0 -0.31804228684474473 0.29839931865188918 0 -0.31764370208682002 0.30700884977935278 0 -0.32693186992097051 0.30544467178503648 0 -0.31804228684474473 0.29839931865188918 0 -0.32588721185809888 0.29393017671638599 0 -0.31804228684474473 0.29839931865188918 0 -0.31764370208682002 0.30700884977935278 0 -0.31061409352038821 0.30218950207445822 0 -0.31804228684474473 0.29839931865188918 0 -0.31139184741598508 0.29226475356277182 0 -0.31061409352038821 0.30218950207445822 0 -0.31764370208682002 0.30700884977935278 0 -0.31061409352038821 0.30218950207445822 0 -0.30936768023415778 0.31256324077535552 0 -0.31764370208682002 0.30700884977935278 0 -0.30936768023415778 0.31256324077535552 0 -0.32093082567920428 0.31356437835587692 0 -0.32884306439112793 0.28634575130431222 0 -0.32041166240288022 0.28283446133269502 0 -0.3268631026010384 0.28021265892032288 0 -0.32884306439112793 0.28634575130431222 0 -0.32041166240288022 0.28283446133269502 0 -0.31890136363407962 0.2902890826021976 0 -0.31804228684474473 0.29839931865188918 0 -0.32588721185809888 0.29393017671638599 0 -0.31890136363407962 0.2902890826021976 0 -0.32884306439112793 0.28634575130431222 0 -0.32588721185809888 0.29393017671638599 0 -0.31890136363407962 0.2902890826021976 0 -0.31804228684474473 0.29839931865188918 0 -0.31890136363407962 0.2902890826021976 0 -0.31139184741598508 0.29226475356277182 0 -0.31890136363407962 0.2902890826021976 0 -0.31267381441357972 0.28434127707654411 0 -0.31139184741598508 0.29226475356277182 0 -0.32041166240288022 0.28283446133269502 0 -0.31890136363407962 0.2902890826021976 0 -0.31267381441357972 0.28434127707654411 0 -0.32041166240288022 0.28283446133269502 0 -0.31267381441357972 0.28434127707654411 0 -0.31560185158933463 0.27857780481275207 0 -0.31560185158933463 0.27857780481275207 0 -0.31467028126619101 0.27234209406878263 0 -0.32285165773789332 0.27514966529571039 0 -0.31560185158933463 0.27857780481275207 0 -0.31467028126619101 0.27234209406878263 0 -0.30740184212612898 0.27822152629002828 0 -0.32041166240288022 0.28283446133269502 0 -0.31560185158933463 0.27857780481275207 0 -0.32285165773789332 0.27514966529571039 0 -0.31467028126619101 0.27234209406878263 0 -0.32391049592377208 0.26749600704708709 0 -0.31774187777397578 0.26540042413982728 0 -0.31467028126619101 0.27234209406878263 0 -0.31774187777397578 0.26540042413982728 0 -0.30809437611184032 0.26835244844891981 0 -0.31467028126619101 0.27234209406878263 0 -0.32391049592377208 0.26749600704708709 0 -0.32285165773789332 0.27514966529571039 0 -0.32391049592377208 0.26749600704708709 0 -0.32285165773789332 0.27514966529571039 0 -0.33079673324888631 0.26924102122166937 0 -0.32285165773789332 0.27514966529571039 0 -0.33031218508664578 0.27612380721064528 0 -0.33079673324888631 0.26924102122166937 0 -0.32041166240288022 0.28283446133269502 0 -0.32285165773789332 0.27514966529571039 0 -0.3268631026010384 0.28021265892032288 0 -0.32285165773789332 0.27514966529571039 0 -0.3268631026010384 0.28021265892032288 0 -0.33031218508664578 0.27612380721064528 0 -0.33031218508664578 0.27612380721064528 0 -0.33766435427445701 0.26857520492514642 0 -0.33858968984772719 0.27645014490388342 0 -0.33431926341703061 0.28122090369423802 0 -0.33031218508664578 0.27612380721064528 0 -0.33858968984772719 0.27645014490388342 0 -0.3268631026010384 0.28021265892032288 0 -0.33431926341703061 0.28122090369423802 0 -0.33031218508664578 0.27612380721064528 0 -0.33079673324888631 0.26924102122166937 0 -0.33766435427445701 0.26857520492514642 0 -0.33144230436090089 0.26007097755847319 0 -0.33031218508664578 0.27612380721064528 0 -0.33079673324888631 0.26924102122166937 0 -0.33766435427445701 0.26857520492514642 0 -0.33766435427445701 0.26857520492514642 0 -0.34173279989705008 0.27192855033966562 0 -0.33858968984772719 0.27645014490388342 0 -0.34527271581631158 0.26667962708514209 0 -0.33766435427445701 0.26857520492514642 0 -0.34173279989705008 0.27192855033966562 0 -0.34632964525695092 0.27457091342536111 0 -0.34173279989705008 0.27192855033966562 0 -0.33858968984772719 0.27645014490388342 0 -0.34632964525695092 0.27457091342536111 0 -0.34364186120046092 0.28083788012624161 0 -0.33858968984772719 0.27645014490388342 0 -0.33431926341703061 0.28122090369423802 0 -0.34364186120046092 0.28083788012624161 0 -0.33858968984772719 0.27645014490388342 0 -0.33844596238662827 0.24665373456534839 0 -0.33988573177983561 0.25850938029249171 0 -0.33231744366608168 0.25192066439924732 0 -0.33844596238662827 0.24665373456534839 0 -0.34733676193895419 0.25083056087000632 0 -0.33988573177983561 0.25850938029249171 0 -0.33766435427445701 0.26857520492514642 0 -0.33988573177983561 0.25850938029249171 0 -0.33144230436090089 0.26007097755847319 0 -0.34527271581631158 0.26667962708514209 0 -0.33766435427445701 0.26857520492514642 0 -0.33988573177983561 0.25850938029249171 0 -0.32391049592377208 0.26749600704708709 0 -0.33079673324888631 0.26924102122166937 0 -0.33144230436090089 0.26007097755847319 0 -0.33988573177983561 0.25850938029249171 0 -0.33144230436090089 0.26007097755847319 0 -0.33231744366608168 0.25192066439924732 0 -0.33144230436090089 0.26007097755847319 0 -0.33231744366608168 0.25192066439924732 0 -0.32521699046994051 0.25177545288302461 0 -0.32521699046994051 0.25177545288302461 0 -0.3239435305561415 0.26056310377460862 0 -0.31766126469584771 0.258271240690712 0 -0.33144230436090089 0.26007097755847319 0 -0.32521699046994051 0.25177545288302461 0 -0.3239435305561415 0.26056310377460862 0 -0.32391049592377208 0.26749600704708709 0 -0.33144230436090089 0.26007097755847319 0 -0.3239435305561415 0.26056310377460862 0 -0.32391049592377208 0.26749600704708709 0 -0.3239435305561415 0.26056310377460862 0 -0.31774187777397578 0.26540042413982728 0 -0.31774187777397578 0.26540042413982728 0 -0.31766126469584771 0.258271240690712 0 -0.30809437611184032 0.26835244844891981 0 -0.3239435305561415 0.26056310377460862 0 -0.31774187777397578 0.26540042413982728 0 -0.31766126469584771 0.258271240690712 0 -0.31768344034846591 0.24878784549684169 0 -0.32521699046994051 0.25177545288302461 0 -0.31766126469584771 0.258271240690712 0 -0.30809437611184032 0.26835244844891981 0 -0.28603408770704081 0.25496832399132863 0 -0.31003266154216391 0.24073056968934561 0 -0.30809437611184032 0.26835244844891981 0 -0.31003266154216391 0.24073056968934561 0 -0.31766126469584771 0.258271240690712 0 -0.30809437611184032 0.26835244844891981 0 -0.29632416184923382 0.24557160016239379 0 -0.31003266154216391 0.24073056968934561 0 -0.30809437611184032 0.26835244844891981 0 -0.30740184212612898 0.27822152629002828 0 -0.30809437611184032 0.26835244844891981 0 -0.2995315682084384 0.27861288135976331 0 -0.31267381441357972 0.28434127707654411 0 -0.31560185158933463 0.27857780481275207 0 -0.30740184212612898 0.27822152629002828 0 -0.30740184212612898 0.27822152629002828 0 -0.30809437611184032 0.26835244844891981 0 -0.31467028126619101 0.27234209406878263 0 -0.30740184212612898 0.27822152629002828 0 -0.30809437611184032 0.26835244844891981 0 -0.31467028126619101 0.27234209406878263 0 -0.30809437611184032 0.26835244844891981 0 -0.30809437611184032 0.26835244844891981 0 -0.2995315682084384 0.27861288135976331 0 -0.2928075126231896 0.27223857423435338 0 -0.2995315682084384 0.27861288135976331 0 -0.2928075126231896 0.27223857423435338 0 -0.29199086176879702 0.28451799241986658 0 -0.2928075126231896 0.27223857423435338 0 -0.28349777105748608 0.26745171220437702 0 -0.28004027254660291 0.27802471088183678 0 -0.2928075126231896 0.27223857423435338 0 -0.28004027254660291 0.27802471088183678 0 -0.29199086176879702 0.28451799241986658 0 -0.29632416184923382 0.24557160016239379 0 -0.30809437611184032 0.26835244844891981 0 -0.28603408770704081 0.25496832399132863 0 -0.2928075126231896 0.27223857423435338 0 -0.28349777105748608 0.26745171220437702 0 -0.28603408770704081 0.25496832399132863 0 -0.30809437611184032 0.26835244844891981 0 -0.2928075126231896 0.27223857423435338 0 -0.28603408770704081 0.25496832399132863 0 -0.28349777105748608 0.26745171220437702 0 -0.28603408770704081 0.25496832399132863 0 -0.27510921135311112 0.26457523970998909 0 -0.26397379930224091 0.24158419953373819 0 -0.27510921135311112 0.26457523970998909 0 -0.26276191883870298 0.2589390314529314 0 -0.26397379930224091 0.24158419953373819 0 -0.28603408770704081 0.25496832399132863 0 -0.27510921135311112 0.26457523970998909 0 -0.27510921135311112 0.26457523970998909 0 -0.26741874114526371 0.27326749646048137 0 -0.25590029968018951 0.27184476470434132 0 -0.28349777105748608 0.26745171220437702 0 -0.27510921135311112 0.26457523970998909 0 -0.28004027254660291 0.27802471088183678 0 -0.27510921135311112 0.26457523970998909 0 -0.28004027254660291 0.27802471088183678 0 -0.26741874114526371 0.27326749646048137 0 -0.28004027254660291 0.27802471088183678 0 -0.26741874114526371 0.27326749646048137 0 -0.27055857763405528 0.28134440272925287 0 -0.26741874114526371 0.27326749646048137 0 -0.26280749854056501 0.27822111418057788 0 -0.27055857763405528 0.28134440272925287 0 -0.27510921135311112 0.26457523970998909 0 -0.25590029968018951 0.27184476470434132 0 -0.27510921135311112 0.26457523970998909 0 -0.25590029968018951 0.27184476470434132 0 -0.25854625197454778 0.26439440838568462 0 -0.26741874114526371 0.27326749646048137 0 -0.26280749854056501 0.27822111418057788 0 -0.25590029968018951 0.27184476470434132 0 -0.26280749854056501 0.27822111418057788 0 -0.25678099488122869 0.28015777711799028 0 -0.25590029968018951 0.27184476470434132 0 -0.26280749854056501 0.27822111418057788 0 -0.25678099488122869 0.28015777711799028 0 -0.26293282125457751 0.28425575355552718 0 -0.25678099488122869 0.28015777711799028 0 -0.25590029968018951 0.27184476470434132 0 -0.24867971912098599 0.28164339044666581 0 -0.25590029968018951 0.27184476470434132 0 -0.25340016125707843 0.26958579834261998 0 -0.25854625197454778 0.26439440838568462 0 -0.25340016125707843 0.26958579834261998 0 -0.25113021202000241 0.26453497608091903 0 -0.25854625197454778 0.26439440838568462 0 -0.26397379930224091 0.24158419953373819 0 -0.25297570869820257 0.25688664002330702 0 -0.26276191883870298 0.2589390314529314 0 -0.27510921135311112 0.26457523970998909 0 -0.26276191883870298 0.2589390314529314 0 -0.25854625197454778 0.26439440838568462 0 -0.25113021202000241 0.26453497608091903 0 -0.25297570869820257 0.25688664002330702 0 -0.25854625197454778 0.26439440838568462 0 -0.25297570869820257 0.25688664002330702 0 -0.26276191883870298 0.2589390314529314 0 -0.25854625197454778 0.26439440838568462 0 -0.26333382912473091 0.30300954206937641 0 -0.25622451129709362 0.29854398206488603 0 -0.2631436119217796 0.29354819547606259 0 -0.26333382912473091 0.30300954206937641 0 -0.25323472167806632 0.30673312143518638 0 -0.26509158646277992 0.31257584587671039 0 -0.25323472167806632 0.30673312143518638 0 -0.25622451129709362 0.29854398206488603 0 -0.24862952526577309 0.29496429682237169 0 -0.26333382912473091 0.30300954206937641 0 -0.25323472167806632 0.30673312143518638 0 -0.25622451129709362 0.29854398206488603 0 -0.25622451129709362 0.29854398206488603 0 -0.2546459357637289 0.28879412782921993 0 -0.24862952526577309 0.29496429682237169 0 -0.25678099488122869 0.28015777711799028 0 -0.2546459357637289 0.28879412782921993 0 -0.24867971912098599 0.28164339044666581 0 -0.25678099488122869 0.28015777711799028 0 -0.2546459357637289 0.28879412782921993 0 -0.26293282125457751 0.28425575355552718 0 -0.2546459357637289 0.28879412782921993 0 -0.26293282125457751 0.28425575355552718 0 -0.2631436119217796 0.29354819547606259 0 -0.26280749854056501 0.27822111418057788 0 -0.26293282125457751 0.28425575355552718 0 -0.27055857763405528 0.28134440272925287 0 -0.25622451129709362 0.29854398206488603 0 -0.2546459357637289 0.28879412782921993 0 -0.2631436119217796 0.29354819547606259 0 -0.2631436119217796 0.29354819547606259 0 -0.27325596109175748 0.28960871159594442 0 -0.27111916084647808 0.2974933975231055 0 -0.26293282125457751 0.28425575355552718 0 -0.2631436119217796 0.29354819547606259 0 -0.27325596109175748 0.28960871159594442 0 -0.26293282125457751 0.28425575355552718 0 -0.27325596109175748 0.28960871159594442 0 -0.27055857763405528 0.28134440272925287 0 -0.28004027254660291 0.27802471088183678 0 -0.27325596109175748 0.28960871159594442 0 -0.28276078966381268 0.29351446166259099 0 -0.28004027254660291 0.27802471088183678 0 -0.27325596109175748 0.28960871159594442 0 -0.27055857763405528 0.28134440272925287 0 -0.27325596109175748 0.28960871159594442 0 -0.27111916084647808 0.2974933975231055 0 -0.28276078966381268 0.29351446166259099 0 -0.27111916084647808 0.2974933975231055 0 -0.27503797152248077 0.30677735597150507 0 -0.28276078966381268 0.29351446166259099 0 -0.26333382912473091 0.30300954206937641 0 -0.2631436119217796 0.29354819547606259 0 -0.27111916084647808 0.2974933975231055 0 -0.26333382912473091 0.30300954206937641 0 -0.27111916084647808 0.2974933975231055 0 -0.27503797152248077 0.30677735597150507 0 -0.27503797152248077 0.30677735597150507 0 -0.27266590995319812 0.31477013953473942 0 -0.26509158646277992 0.31257584587671039 0 -0.26333382912473091 0.30300954206937641 0 -0.27503797152248077 0.30677735597150507 0 -0.26509158646277992 0.31257584587671039 0 -0.27503797152248077 0.30677735597150507 0 -0.28620031980035199 0.30410163587094752 0 -0.28137129287151941 0.31737219888405688 0 -0.28620031980035199 0.30410163587094752 0 -0.29470030433081468 0.31265061629957253 0 -0.28137129287151941 0.31737219888405688 0 -0.28620031980035199 0.30410163587094752 0 -0.29498061855146518 0.29730920326320198 0 -0.28276078966381268 0.29351446166259099 0 -0.27503797152248077 0.30677735597150507 0 -0.28620031980035199 0.30410163587094752 0 -0.28276078966381268 0.29351446166259099 0 -0.28620031980035199 0.30410163587094752 0 -0.29498061855146518 0.29730920326320198 0 -0.29470030433081468 0.31265061629957253 0 -0.28004027254660291 0.27802471088183678 0 -0.28276078966381268 0.29351446166259099 0 -0.29199086176879702 0.28451799241986658 0 -0.29498061855146518 0.29730920326320198 0 -0.28276078966381268 0.29351446166259099 0 -0.29199086176879702 0.28451799241986658 0 -0.29498061855146518 0.29730920326320198 0 -0.29199086176879702 0.28451799241986658 0 -0.30229323325775592 0.28723526666860372 0 -0.30740184212612898 0.27822152629002828 0 -0.2995315682084384 0.27861288135976331 0 -0.30229323325775592 0.28723526666860372 0 -0.2995315682084384 0.27861288135976331 0 -0.29199086176879702 0.28451799241986658 0 -0.30229323325775592 0.28723526666860372 0 -0.29498061855146518 0.29730920326320198 0 -0.30229323325775592 0.28723526666860372 0 -0.30430862020916999 0.29666079634093878 0 -0.30229323325775592 0.28723526666860372 0 -0.30430862020916999 0.29666079634093878 0 -0.31139184741598508 0.29226475356277182 0 -0.31267381441357972 0.28434127707654411 0 -0.30229323325775592 0.28723526666860372 0 -0.31139184741598508 0.29226475356277182 0 -0.31267381441357972 0.28434127707654411 0 -0.30740184212612898 0.27822152629002828 0 -0.30229323325775592 0.28723526666860372 0 -0.30226330830025622 0.30430525613565862 0 -0.30936768023415778 0.31256324077535552 0 -0.29470030433081468 0.31265061629957253 0 -0.29498061855146518 0.29730920326320198 0 -0.30226330830025622 0.30430525613565862 0 -0.29470030433081468 0.31265061629957253 0 -0.29498061855146518 0.29730920326320198 0 -0.30430862020916999 0.29666079634093878 0 -0.30226330830025622 0.30430525613565862 0 -0.30430862020916999 0.29666079634093878 0 -0.31139184741598508 0.29226475356277182 0 -0.31061409352038821 0.30218950207445822 0 -0.30430862020916999 0.29666079634093878 0 -0.30226330830025622 0.30430525613565862 0 -0.31061409352038821 0.30218950207445822 0 -0.30226330830025622 0.30430525613565862 0 -0.31061409352038821 0.30218950207445822 0 -0.30936768023415778 0.31256324077535552 0 -0.30936768023415778 0.31256324077535552 0 -0.30084526919720378 0.32338536009759428 0 -0.3171049212181678 0.32253708896048772 0 -0.30084526919720378 0.32338536009759428 0 -0.30576849795561578 0.33298515665464262 0 -0.3171049212181678 0.32253708896048772 0 -0.30936768023415778 0.31256324077535552 0 -0.30084526919720378 0.32338536009759428 0 -0.29470030433081468 0.31265061629957253 0 -0.30576849795561578 0.33298515665464262 0 -0.30117875045535708 0.34274878780438572 0 -0.31558441815209448 0.33746198433065699 0 -0.30084526919720378 0.32338536009759428 0 -0.30576849795561578 0.33298515665464262 0 -0.29457740512095543 0.33640632450058677 0 -0.30576849795561578 0.33298515665464262 0 -0.30117875045535708 0.34274878780438572 0 -0.29457740512095543 0.33640632450058677 0 -0.29457740512095543 0.33640632450058677 0 -0.28537818295225859 0.33922301884287909 0 -0.29202020592570332 0.34836784798857878 0 -0.30117875045535708 0.34274878780438572 0 -0.29457740512095543 0.33640632450058677 0 -0.29202020592570332 0.34836784798857878 0 -0.29457740512095543 0.33640632450058677 0 -0.28537818295225859 0.33922301884287909 0 -0.28913840999783158 0.32670711262925078 0 -0.30084526919720378 0.32338536009759428 0 -0.29457740512095543 0.33640632450058677 0 -0.28913840999783158 0.32670711262925078 0 -0.28537818295225859 0.33922301884287909 0 -0.28913840999783158 0.32670711262925078 0 -0.27795800551423783 0.3312051571508155 0 -0.28537818295225859 0.33922301884287909 0 -0.27487323066623498 0.34449113869434972 0 -0.28401238169630189 0.34669297914444869 0 -0.30084526919720378 0.32338536009759428 0 -0.29470030433081468 0.31265061629957253 0 -0.28913840999783158 0.32670711262925078 0 -0.28913840999783158 0.32670711262925078 0 -0.28137129287151941 0.31737219888405688 0 -0.27795800551423783 0.3312051571508155 0 -0.29470030433081468 0.31265061629957253 0 -0.28913840999783158 0.32670711262925078 0 -0.28137129287151941 0.31737219888405688 0 -0.27503797152248077 0.30677735597150507 0 -0.28137129287151941 0.31737219888405688 0 -0.27266590995319812 0.31477013953473942 0 -0.28137129287151941 0.31737219888405688 0 -0.27266590995319812 0.31477013953473942 0 -0.26916278895601248 0.32235515740668541 0 -0.27266590995319812 0.31477013953473942 0 -0.26916278895601248 0.32235515740668541 0 -0.26509158646277992 0.31257584587671039 0 -0.28137129287151941 0.31737219888405688 0 -0.26916278895601248 0.32235515740668541 0 -0.27795800551423783 0.3312051571508155 0 -0.28537818295225859 0.33922301884287909 0 -0.27795800551423783 0.3312051571508155 0 -0.27487323066623498 0.34449113869434972 0 -0.26699292428836258 0.33529340520204842 0 -0.26385757099001023 0.34427152526962562 0 -0.27487323066623498 0.34449113869434972 0 -0.27795800551423783 0.3312051571508155 0 -0.26699292428836258 0.33529340520204842 0 -0.27487323066623498 0.34449113869434972 0 -0.26916278895601248 0.32235515740668541 0 -0.27795800551423783 0.3312051571508155 0 -0.26699292428836258 0.33529340520204842 0 -0.26916278895601248 0.32235515740668541 0 -0.26699292428836258 0.33529340520204842 0 -0.25665424022231148 0.33004383179775421 0 -0.26699292428836258 0.33529340520204842 0 -0.2586148754302518 0.33789133902891189 0 -0.25665424022231148 0.33004383179775421 0 -0.2586148754302518 0.33789133902891189 0 -0.26385757099001023 0.34427152526962562 0 -0.24695476622032311 0.34195659384621929 0 -0.26699292428836258 0.33529340520204842 0 -0.2586148754302518 0.33789133902891189 0 -0.26385757099001023 0.34427152526962562 0 -0.2586148754302518 0.33789133902891189 0 -0.25665424022231148 0.33004383179775421 0 -0.24695476622032311 0.34195659384621929 0 -0.25665424022231148 0.33004383179775421 0 -0.25654615838012312 0.31852135036867257 0 -0.24589370043552139 0.32592193375619072 0 -0.25323472167806632 0.30673312143518638 0 -0.25654615838012312 0.31852135036867257 0 -0.248328419840156 0.31477952892191419 0 -0.25654615838012312 0.31852135036867257 0 -0.248328419840156 0.31477952892191419 0 -0.24589370043552139 0.32592193375619072 0 -0.26916278895601248 0.32235515740668541 0 -0.25654615838012312 0.31852135036867257 0 -0.26509158646277992 0.31257584587671039 0 -0.25323472167806632 0.30673312143518638 0 -0.25654615838012312 0.31852135036867257 0 -0.26509158646277992 0.31257584587671039 0 -0.26916278895601248 0.32235515740668541 0 -0.25665424022231148 0.33004383179775421 0 -0.25654615838012312 0.31852135036867257 0 -0.26497421281925082 0.36213166607516001 0 -0.2602569581555062 0.37149823246706037 0 -0.26763893001705152 0.37788626981255469 0 -0.26497421281925082 0.36213166607516001 0 -0.2602569581555062 0.37149823246706037 0 -0.25647229080970763 0.36547801036158889 0 -0.2602569581555062 0.37149823246706037 0 -0.25029156604607528 0.37123808027508559 0 -0.25647229080970763 0.36547801036158889 0 -0.25029156604607528 0.37123808027508559 0 -0.25647229080970763 0.36547801036158889 0 -0.25036642621799782 0.35704406262904959 0 -0.26497421281925082 0.36213166607516001 0 -0.25647229080970763 0.36547801036158889 0 -0.25036642621799782 0.35704406262904959 0 -0.26878378490788568 0.35499788245286718 0 -0.24695476622032311 0.34195659384621929 0 -0.26497421281925082 0.36213166607516001 0 -0.24695476622032311 0.34195659384621929 0 -0.26497421281925082 0.36213166607516001 0 -0.26878378490788568 0.35499788245286718 0 -0.24695476622032311 0.34195659384621929 0 -0.26385757099001023 0.34427152526962562 0 -0.26878378490788568 0.35499788245286718 0 -0.24695476622032311 0.34195659384621929 0 -0.26497421281925082 0.36213166607516001 0 -0.25036642621799782 0.35704406262904959 0 -0.24695476622032311 0.34195659384621929 0 -0.26878378490788568 0.35499788245286718 0 -0.29061280359544822 0.36803917105951528 0 -0.28377790724101098 0.35468991105198733 0 -0.26385757099001023 0.34427152526962562 0 -0.26878378490788568 0.35499788245286718 0 -0.27487323066623498 0.34449113869434972 0 -0.27487323066623498 0.34449113869434972 0 -0.28401238169630189 0.34669297914444869 0 -0.28377790724101098 0.35468991105198733 0 -0.26878378490788568 0.35499788245286718 0 -0.27487323066623498 0.34449113869434972 0 -0.28377790724101098 0.35468991105198733 0 -0.26878378490788568 0.35499788245286718 0 -0.27842651139124353 0.36922715633166509 0 -0.29061280359544822 0.36803917105951528 0 -0.26878378490788568 0.35499788245286718 0 -0.29061280359544822 0.36803917105951528 0 -0.26497421281925082 0.36213166607516001 0 -0.28299365941817872 0.38230673830410039 0 -0.26763893001705152 0.37788626981255469 0 -0.26497421281925082 0.36213166607516001 0 -0.27842651139124353 0.36922715633166509 0 -0.28299365941817872 0.38230673830410039 0 -0.26497421281925082 0.36213166607516001 0 -0.28299365941817872 0.38230673830410039 0 -0.26497421281925082 0.36213166607516001 0 -0.26878378490788568 0.35499788245286718 0 -0.27842651139124353 0.36922715633166509 0 -0.27842651139124353 0.36922715633166509 0 -0.29061280359544822 0.36803917105951528 0 -0.28476809621545413 0.37866032376668263 0 -0.29061280359544822 0.36803917105951528 0 -0.30017625718377428 0.35806115404866989 0 -0.28476809621545413 0.37866032376668263 0 -0.29584685883413742 0.37191349204864388 0 -0.30017625718377428 0.35806115404866989 0 -0.28476809621545413 0.37866032376668263 0 -0.30017625718377428 0.35806115404866989 0 -0.28476809621545413 0.37866032376668263 0 -0.29061280359544822 0.36803917105951528 0 -0.28377790724101098 0.35468991105198733 0 -0.2916467934864842 0.35728952103718792 0 -0.29061280359544822 0.36803917105951528 0 -0.2916467934864842 0.35728952103718792 0 -0.30017625718377428 0.35806115404866989 0 -0.28537818295225859 0.33922301884287909 0 -0.28401238169630189 0.34669297914444869 0 -0.29202020592570332 0.34836784798857878 0 -0.28401238169630189 0.34669297914444869 0 -0.28377790724101098 0.35468991105198733 0 -0.29202020592570332 0.34836784798857878 0 -0.28377790724101098 0.35468991105198733 0 -0.2916467934864842 0.35728952103718792 0 -0.29202020592570332 0.34836784798857878 0 -0.2916467934864842 0.35728952103718792 0 -0.29202020592570332 0.34836784798857878 0 -0.30017625718377428 0.35806115404866989 0 -0.30017625718377428 0.35806115404866989 0 -0.31558441815209448 0.33746198433065699 0 -0.30017625718377428 0.35806115404866989 0 -0.3122769570397475 0.35205588464125032 0 -0.31558441815209448 0.33746198433065699 0 -0.30117875045535708 0.34274878780438572 0 -0.30017625718377428 0.35806115404866989 0 -0.31558441815209448 0.33746198433065699 0 -0.30117875045535708 0.34274878780438572 0 -0.29202020592570332 0.34836784798857878 0 -0.30017625718377428 0.35806115404866989 0 -0.3122769570397475 0.35205588464125032 0 -0.30781076962339948 0.37692583262159468 0 -0.30017625718377428 0.35806115404866989 0 -0.3122769570397475 0.35205588464125032 0 -0.30781076962339948 0.37692583262159468 0 -0.29584685883413742 0.37191349204864388 0 -0.30017625718377428 0.35806115404866989 0 -0.30781076962339948 0.37692583262159468 0 -0.32072296671700312 0.3646248827938795 0 -0.33370492721368789 0.36570600490239707 0 -0.32694309566000651 0.34902298462499459 0 -0.3122769570397475 0.35205588464125032 0 -0.32072296671700312 0.3646248827938795 0 -0.30781076962339948 0.37692583262159468 0 -0.32072296671700312 0.3646248827938795 0 -0.324013569622701 0.37864285224477451 0 -0.30781076962339948 0.37692583262159468 0 -0.32072296671700312 0.3646248827938795 0 -0.33370492721368789 0.36570600490239707 0 -0.324013569622701 0.37864285224477451 0 -0.33370492721368789 0.36570600490239707 0 -0.34840338426518802 0.37162049856241708 0 -0.34673079742577367 0.34683578864576081 0 -0.33370492721368789 0.36570600490239707 0 -0.33793037690350158 0.37939014573858149 0 -0.324013569622701 0.37864285224477451 0 -0.33370492721368789 0.36570600490239707 0 -0.34840338426518802 0.37162049856241708 0 -0.33793037690350158 0.37939014573858149 0 -0.33370492721368789 0.36570600490239707 0 -0.32694309566000651 0.34902298462499459 0 -0.34673079742577367 0.34683578864576081 0 -0.3122769570397475 0.35205588464125032 0 -0.32072296671700312 0.3646248827938795 0 -0.32694309566000651 0.34902298462499459 0 -0.3122769570397475 0.35205588464125032 0 -0.32694309566000651 0.34902298462499459 0 -0.31558441815209448 0.33746198433065699 0 -0.32694309566000651 0.34902298462499459 0 -0.31558441815209448 0.33746198433065699 0 -0.32989383160102048 0.32806407537590532 0 -0.30576849795561578 0.33298515665464262 0 -0.31558441815209448 0.33746198433065699 0 -0.3171049212181678 0.32253708896048772 0 -0.31558441815209448 0.33746198433065699 0 -0.3309925791204148 0.31686281461264421 0 -0.32989383160102048 0.32806407537590532 0 -0.31558441815209448 0.33746198433065699 0 -0.3171049212181678 0.32253708896048772 0 -0.3309925791204148 0.31686281461264421 0 -0.31558441815209448 0.33746198433065699 0 -0.3309925791204148 0.31686281461264421 0 -0.30936768023415778 0.31256324077535552 0 -0.3171049212181678 0.32253708896048772 0 -0.32093082567920428 0.31356437835587692 0 -0.3171049212181678 0.32253708896048772 0 -0.32093082567920428 0.31356437835587692 0 -0.3309925791204148 0.31686281461264421 0 -0.34813403514970492 0.30625730074134588 0 -0.33715418778841599 0.30984734048550222 0 -0.34145209317163272 0.32354332237854172 0 -0.3309925791204148 0.31686281461264421 0 -0.32989383160102048 0.32806407537590532 0 -0.34145209317163272 0.32354332237854172 0 -0.33715418778841599 0.30984734048550222 0 -0.3309925791204148 0.31686281461264421 0 -0.34145209317163272 0.32354332237854172 0 -0.32694309566000651 0.34902298462499459 0 -0.32989383160102048 0.32806407537590532 0 -0.34673079742577367 0.34683578864576081 0 -0.32989383160102048 0.32806407537590532 0 -0.34673079742577367 0.34683578864576081 0 -0.32989383160102048 0.32806407537590532 0 -0.34145209317163272 0.32354332237854172 0 -0.34673079742577367 0.34683578864576081 0 -0.34145209317163272 0.32354332237854172 0 -0.3528303978452994 0.32706465114480698 0 -0.34673079742577367 0.34683578864576081 0 -0.3528303978452994 0.32706465114480698 0 -0.36444380869522758 0.3334394892988885 0 -0.34673079742577367 0.34683578864576081 0 -0.36609604326191819 0.31188555244830329 0 -0.34813403514970492 0.30625730074134588 0 -0.36281512237241642 0.32233949508207438 0 -0.34813403514970492 0.30625730074134588 0 -0.3528303978452994 0.32706465114480698 0 -0.36281512237241642 0.32233949508207438 0 -0.34813403514970492 0.30625730074134588 0 -0.34145209317163272 0.32354332237854172 0 -0.3528303978452994 0.32706465114480698 0 -0.38405805137413151 0.31751380415526093 0 -0.36609604326191819 0.31188555244830329 0 -0.37337376198236849 0.3252660097429787 0 -0.36281512237241642 0.32233949508207438 0 -0.37337376198236849 0.3252660097429787 0 -0.36444380869522758 0.3334394892988885 0 -0.3528303978452994 0.32706465114480698 0 -0.36281512237241642 0.32233949508207438 0 -0.36444380869522758 0.3334394892988885 0 -0.36609604326191819 0.31188555244830329 0 -0.36281512237241642 0.32233949508207438 0 -0.37337376198236849 0.3252660097429787 0 -0.36444380869522758 0.3334394892988885 0 -0.371608007901714 0.34673587386232091 0 -0.34673079742577367 0.34683578864576081 0 -0.37964825255290308 0.32786424580902462 0 -0.36444380869522758 0.3334394892988885 0 -0.371608007901714 0.34673587386232091 0 -0.37964825255290308 0.32786424580902462 0 -0.37337376198236849 0.3252660097429787 0 -0.36444380869522758 0.3334394892988885 0 -0.371608007901714 0.34673587386232091 0 -0.36356776325052548 0.36560750191561758 0 -0.37768950302157023 0.35920455320537792 0 -0.371608007901714 0.34673587386232091 0 -0.36356776325052548 0.36560750191561758 0 -0.371608007901714 0.34673587386232091 0 -0.36356776325052548 0.36560750191561758 0 -0.34673079742577367 0.34683578864576081 0 -0.37667331319536629 0.38021901971335831 0 -0.37768950302157023 0.35920455320537792 0 -0.36356776325052548 0.36560750191561758 0 -0.37667331319536629 0.38021901971335831 0 -0.36356776325052548 0.36560750191561758 0 -0.36356776325052548 0.36560750191561758 0 -0.34840338426518802 0.37162049856241708 0 -0.35457180820827122 0.38672232178823229 0 -0.36356776325052548 0.36560750191561758 0 -0.34840338426518802 0.37162049856241708 0 -0.34673079742577367 0.34683578864576081 0 -0.36356776325052548 0.36560750191561758 0 -0.34673079742577367 0.34683578864576081 0 -0.347386443752498 0.4035874212123699 0 -0.35457180820827122 0.38672232178823229 0 -0.36813133250083913 0.40205361584719701 0 -0.347386443752498 0.4035874212123699 0 -0.35457180820827122 0.38672232178823229 0 -0.36356776325052548 0.36560750191561758 0 -0.35457180820827122 0.38672232178823229 0 -0.34840338426518802 0.37162049856241708 0 -0.35457180820827122 0.38672232178823229 0 -0.33793037690350158 0.37939014573858149 0 -0.37667331319536629 0.38021901971335831 0 -0.36356776325052548 0.36560750191561758 0 -0.35457180820827122 0.38672232178823229 0 -0.37667331319536629 0.38021901971335831 0 -0.35457180820827122 0.38672232178823229 0 -0.37489298450561032 0.39252602712004381 0 -0.37667331319536629 0.38021901971335831 0 -0.35457180820827122 0.38672232178823229 0 -0.35457180820827122 0.38672232178823229 0 -0.36813133250083913 0.40205361584719701 0 -0.37489298450561032 0.39252602712004381 0 -0.36813133250083913 0.40205361584719701 0 -0.37088157402289978 0.41371671899688728 0 -0.35977267816873842 0.41866733467516792 0 -0.37088157402289978 0.41371671899688728 0 -0.35977267816873842 0.41866733467516792 0 -0.37367651449860861 0.43331263443686868 0 -0.35977267816873842 0.41866733467516792 0 -0.37367651449860861 0.43331263443686868 0 -0.35528112186225419 0.42992247460265198 0 -0.37367651449860861 0.43331263443686868 0 -0.35528112186225419 0.42992247460265198 0 -0.35772362925113982 0.44124954446458142 0 -0.37367651449860861 0.43331263443686868 0 -0.35772362925113982 0.44124954446458142 0 -0.35977267816873842 0.41866733467516792 0 -0.35528112186225419 0.42992247460265198 0 -0.34020107929672622 0.42045252063650812 0 -0.35528112186225419 0.42992247460265198 0 -0.34503170809605821 0.43593033880013399 0 -0.35772362925113982 0.44124954446458142 0 -0.35528112186225419 0.42992247460265198 0 -0.34503170809605821 0.43593033880013399 0 -0.34020107929672622 0.42045252063650812 0 -0.347386443752498 0.4035874212123699 0 -0.34020107929672622 0.42045252063650812 0 -0.347386443752498 0.4035874212123699 0 -0.36813133250083913 0.40205361584719701 0 -0.35977267816873842 0.41866733467516792 0 -0.347386443752498 0.4035874212123699 0 -0.35977267816873842 0.41866733467516792 0 -0.34020107929672622 0.42045252063650812 0 -0.347386443752498 0.4035874212123699 0 -0.34020107929672622 0.42045252063650812 0 -0.33158623879421423 0.409755532108595 0 -0.34020107929672622 0.42045252063650812 0 -0.33158623879421423 0.409755532108595 0 -0.31966834454034321 0.42336873303580008 0 -0.34020107929672622 0.42045252063650812 0 -0.33286265097483869 0.43168148688967278 0 -0.31966834454034321 0.42336873303580008 0 -0.34503170809605821 0.43593033880013399 0 -0.33286265097483869 0.43168148688967278 0 -0.33452785611021602 0.44378999919995021 0 -0.34503170809605821 0.43593033880013399 0 -0.34020107929672622 0.42045252063650812 0 -0.33286265097483869 0.43168148688967278 0 -0.33286265097483869 0.43168148688967278 0 -0.31966834454034321 0.42336873303580008 0 -0.31735922977814429 0.44271565074917307 0 -0.31966834454034321 0.42336873303580008 0 -0.32171713117384221 0.40710993446320998 0 -0.31239592385728188 0.40514901845636397 0 -0.33158623879421423 0.409755532108595 0 -0.31966834454034321 0.42336873303580008 0 -0.32171713117384221 0.40710993446320998 0 -0.32895819520766162 0.39425905119508692 0 -0.31574815777157161 0.38809859289944532 0 -0.30334458220705141 0.4017957806019391 0 -0.32895819520766162 0.39425905119508692 0 -0.30334458220705141 0.4017957806019391 0 -0.32895819520766162 0.39425905119508692 0 -0.31239592385728188 0.40514901845636397 0 -0.30334458220705141 0.4017957806019391 0 -0.32171713117384221 0.40710993446320998 0 -0.32895819520766162 0.39425905119508692 0 -0.31239592385728188 0.40514901845636397 0 -0.33158623879421423 0.409755532108595 0 -0.32171713117384221 0.40710993446320998 0 -0.32895819520766162 0.39425905119508692 0 -0.347386443752498 0.4035874212123699 0 -0.33158623879421423 0.409755532108595 0 -0.32895819520766162 0.39425905119508692 0 -0.347386443752498 0.4035874212123699 0 -0.35457180820827122 0.38672232178823229 0 -0.32895819520766162 0.39425905119508692 0 -0.35457180820827122 0.38672232178823229 0 -0.32895819520766162 0.39425905119508692 0 -0.35457180820827122 0.38672232178823229 0 -0.32895819520766162 0.39425905119508692 0 -0.33793037690350158 0.37939014573858149 0 -0.32895819520766162 0.39425905119508692 0 -0.33793037690350158 0.37939014573858149 0 -0.324013569622701 0.37864285224477451 0 -0.324013569622701 0.37864285224477451 0 -0.31574815777157161 0.38809859289944532 0 -0.30781076962339948 0.37692583262159468 0 -0.32895819520766162 0.39425905119508692 0 -0.324013569622701 0.37864285224477451 0 -0.31574815777157161 0.38809859289944532 0 -0.31574815777157161 0.38809859289944532 0 -0.30781076962339948 0.37692583262159468 0 -0.30334458220705141 0.4017957806019391 0 -0.30781076962339948 0.37692583262159468 0 -0.30334458220705141 0.4017957806019391 0 -0.30781076962339948 0.37692583262159468 0 -0.29855724521029248 0.38607766464599858 0 -0.29914209157182919 0.39286009397487298 0 -0.30781076962339948 0.37692583262159468 0 -0.29914209157182919 0.39286009397487298 0 -0.30334458220705141 0.4017957806019391 0 -0.29584685883413742 0.37191349204864388 0 -0.30781076962339948 0.37692583262159468 0 -0.29688396582069959 0.37967157951264552 0 -0.30781076962339948 0.37692583262159468 0 -0.29855724521029248 0.38607766464599858 0 -0.29688396582069959 0.37967157951264552 0 -0.31239592385728188 0.40514901845636397 0 -0.30334458220705141 0.4017957806019391 0 -0.30285170627682051 0.40454035838223118 0 -0.29861952140306641 0.40318611568312068 0 -0.30101310601710579 0.40248181053304127 0 -0.2919657363958893 0.40073549028479982 0 -0.29914209157182919 0.39286009397487298 0 -0.30334458220705141 0.4017957806019391 0 -0.30101310601710579 0.40248181053304127 0 -0.30334458220705141 0.4017957806019391 0 -0.30101310601710579 0.40248181053304127 0 -0.29861952140306641 0.40318611568312068 0 -0.30101310601710579 0.40248181053304127 0 -0.29861952140306641 0.40318611568312068 0 -0.30101310601710579 0.40248181053304127 0 -0.30285170627682051 0.40454035838223118 0 -0.30101310601710579 0.40248181053304127 0 -0.30285170627682051 0.40454035838223118 0 -0.30334458220705141 0.4017957806019391 0 -0.30101310601710579 0.40248181053304127 0 -0.30285170627682051 0.40454035838223118 0 -0.30334458220705141 0.4017957806019391 0 -0.30285170627682051 0.40454035838223118 0 -0.30101310601710579 0.40248181053304127 0 -0.28299365941817872 0.38230673830410039 0 -0.29914209157182919 0.39286009397487298 0 -0.30101310601710579 0.40248181053304127 0 -0.28299365941817872 0.38230673830410039 0 -0.30101310601710579 0.40248181053304127 0 -0.28771716119435781 0.39505851674940651 0 -0.28299365941817872 0.38230673830410039 0 -0.30101310601710579 0.40248181053304127 0 -0.2919657363958893 0.40073549028479982 0 -0.28771716119435781 0.39505851674940651 0 -0.2932436510348489 0.406180228527111 0 -0.2919657363958893 0.40073549028479982 0 -0.28746410409219808 0.40837616695303058 0 -0.29861952140306641 0.40318611568312068 0 -0.2932436510348489 0.406180228527111 0 -0.2919657363958893 0.40073549028479982 0 -0.28154285657897887 0.3962467461851209 0 -0.28771716119435781 0.39505851674940651 0 -0.28139063670539538 0.39034755839739388 0 -0.28154285657897887 0.3962467461851209 0 -0.28771716119435781 0.39505851674940651 0 -0.28579143128259948 0.4007391422420522 0 -0.28154285657897887 0.3962467461851209 0 -0.28579143128259948 0.4007391422420522 0 -0.27682993598238609 0.40320637841560719 0 -0.28579143128259948 0.4007391422420522 0 -0.27682993598238609 0.40320637841560719 0 -0.28746410409219808 0.40837616695303058 0 -0.2919657363958893 0.40073549028479982 0 -0.28771716119435781 0.39505851674940651 0 -0.28579143128259948 0.4007391422420522 0 -0.2919657363958893 0.40073549028479982 0 -0.28579143128259948 0.4007391422420522 0 -0.28746410409219808 0.40837616695303058 0 -0.29914209157182919 0.39286009397487298 0 -0.29096988026039522 0.38393321747745113 0 -0.28299365941817872 0.38230673830410039 0 -0.29584685883413742 0.37191349204864388 0 -0.29123507517527358 0.37950769076953939 0 -0.28476809621545413 0.37866032376668263 0 -0.29123507517527358 0.37950769076953939 0 -0.29096988026039522 0.38393321747745113 0 -0.28749167776732532 0.38110199257944333 0 -0.29584685883413742 0.37191349204864388 0 -0.29688396582069959 0.37967157951264552 0 -0.29123507517527358 0.37950769076953939 0 -0.29688396582069959 0.37967157951264552 0 -0.29123507517527358 0.37950769076953939 0 -0.29096988026039522 0.38393321747745113 0 -0.29855724521029248 0.38607766464599858 0 -0.29914209157182919 0.39286009397487298 0 -0.29096988026039522 0.38393321747745113 0 -0.29855724521029248 0.38607766464599858 0 -0.29688396582069959 0.37967157951264552 0 -0.29096988026039522 0.38393321747745113 0 -0.28771716119435781 0.39505851674940651 0 -0.28139063670539538 0.39034755839739388 0 -0.28299365941817872 0.38230673830410039 0 -0.27842651139124353 0.36922715633166509 0 -0.28299365941817872 0.38230673830410039 0 -0.28476809621545413 0.37866032376668263 0 -0.28299365941817872 0.38230673830410039 0 -0.28749167776732532 0.38110199257944333 0 -0.28476809621545413 0.37866032376668263 0 -0.29096988026039522 0.38393321747745113 0 -0.28299365941817872 0.38230673830410039 0 -0.28749167776732532 0.38110199257944333 0 -0.29123507517527358 0.37950769076953939 0 -0.28749167776732532 0.38110199257944333 0 -0.28476809621545413 0.37866032376668263 0 -0.28299365941817872 0.38230673830410039 0 -0.26763893001705152 0.37788626981255469 0 -0.27420380011734558 0.38466408049100748 0 -0.26763893001705152 0.37788626981255469 0 -0.26705517985566252 0.38753739382625441 0 -0.27420380011734558 0.38466408049100748 0 -0.26705517985566252 0.38753739382625441 0 -0.27420380011734558 0.38466408049100748 0 -0.27558435318218039 0.39192855524504622 0 -0.28299365941817872 0.38230673830410039 0 -0.27420380011734558 0.38466408049100748 0 -0.27882329560353308 0.38676585673089298 0 -0.28139063670539538 0.39034755839739388 0 -0.28299365941817872 0.38230673830410039 0 -0.27882329560353308 0.38676585673089298 0 -0.27420380011734558 0.38466408049100748 0 -0.27882329560353308 0.38676585673089298 0 -0.27558435318218039 0.39192855524504622 0 -0.28139063670539538 0.39034755839739388 0 -0.27882329560353308 0.38676585673089298 0 -0.27558435318218039 0.39192855524504622 0 -0.28154285657897887 0.3962467461851209 0 -0.28139063670539538 0.39034755839739388 0 -0.27558435318218039 0.39192855524504622 0 -0.28154285657897887 0.3962467461851209 0 -0.27558435318218039 0.39192855524504622 0 -0.27682993598238609 0.40320637841560719 0 -0.27682993598238609 0.40320637841560719 0 -0.26428556677140252 0.39778309304012649 0 -0.25938476562093032 0.41626212329834822 0 -0.27558435318218039 0.39192855524504622 0 -0.27682993598238609 0.40320637841560719 0 -0.26428556677140252 0.39778309304012649 0 -0.26705517985566252 0.38753739382625441 0 -0.27558435318218039 0.39192855524504622 0 -0.26428556677140252 0.39778309304012649 0 -0.25164769229376149 0.40218230189174659 0 -0.26428556677140252 0.39778309304012649 0 -0.25938476562093032 0.41626212329834822 0 -0.25164769229376149 0.40218230189174659 0 -0.26428556677140252 0.39778309304012649 0 -0.25685969819665661 0.38573864058497581 0 -0.2602569581555062 0.37149823246706037 0 -0.25029156604607528 0.37123808027508559 0 -0.25685969819665661 0.38573864058497581 0 -0.2602569581555062 0.37149823246706037 0 -0.26763893001705152 0.37788626981255469 0 -0.25685969819665661 0.38573864058497581 0 -0.26705517985566252 0.38753739382625441 0 -0.26428556677140252 0.39778309304012649 0 -0.25685969819665661 0.38573864058497581 0 -0.26763893001705152 0.37788626981255469 0 -0.26705517985566252 0.38753739382625441 0 -0.25685969819665661 0.38573864058497581 0 -0.25938476562093032 0.41626212329834822 0 -0.26223008613162302 0.44514577307615938 0 -0.2431081494492498 0.42439269421931081 0 -0.25164769229376149 0.40218230189174659 0 -0.25938476562093032 0.41626212329834822 0 -0.2431081494492498 0.42439269421931081 0 -0.27682993598238609 0.40320637841560719 0 -0.25938476562093032 0.41626212329834822 0 -0.27658157788932181 0.42217852542720041 0 -0.27682993598238609 0.40320637841560719 0 -0.27658157788932181 0.42217852542720041 0 -0.28746410409219808 0.40837616695303058 0 -0.27658157788932181 0.42217852542720041 0 -0.28259275629709563 0.43929776259792153 0 -0.26223008613162302 0.44514577307615938 0 -0.25938476562093032 0.41626212329834822 0 -0.27658157788932181 0.42217852542720041 0 -0.26223008613162302 0.44514577307615938 0 -0.27658157788932181 0.42217852542720041 0 -0.28871288927078198 0.42162476592820192 0 -0.28259275629709563 0.43929776259792153 0 -0.28871288927078198 0.42162476592820192 0 -0.29816781344812432 0.43062259813976339 0 -0.28259275629709563 0.43929776259792153 0 -0.28871288927078198 0.42162476592820192 0 -0.29492524224824168 0.41242314118749279 0 -0.29816781344812432 0.43062259813976339 0 -0.27658157788932181 0.42217852542720041 0 -0.28746410409219808 0.40837616695303058 0 -0.28871288927078198 0.42162476592820192 0 -0.28746410409219808 0.40837616695303058 0 -0.28871288927078198 0.42162476592820192 0 -0.29492524224824168 0.41242314118749279 0 -0.29861952140306641 0.40318611568312068 0 -0.2932436510348489 0.406180228527111 0 -0.29492524224824168 0.41242314118749279 0 -0.2932436510348489 0.406180228527111 0 -0.28746410409219808 0.40837616695303058 0 -0.29492524224824168 0.41242314118749279 0 -0.30285170627682051 0.40454035838223118 0 -0.29492524224824168 0.41242314118749279 0 -0.29816781344812432 0.43062259813976339 0 -0.30285170627682051 0.40454035838223118 0 -0.29816781344812432 0.43062259813976339 0 -0.31966834454034321 0.42336873303580008 0 -0.31239592385728188 0.40514901845636397 0 -0.30285170627682051 0.40454035838223118 0 -0.31966834454034321 0.42336873303580008 0 -0.30285170627682051 0.40454035838223118 0 -0.31966834454034321 0.42336873303580008 0 -0.30285170627682051 0.40454035838223118 0 -0.29816781344812432 0.43062259813976339 0 -0.29861952140306641 0.40318611568312068 0 -0.30285170627682051 0.40454035838223118 0 -0.29492524224824168 0.41242314118749279 0 -0.31966834454034321 0.42336873303580008 0 -0.29816781344812432 0.43062259813976339 0 -0.31735922977814429 0.44271565074917307 0 -0.29816781344812432 0.43062259813976339 0 -0.29348392061942502 0.4567048378972951 0 -0.31735922977814429 0.44271565074917307 0 -0.29348392061942502 0.4567048378972951 0 -0.30391635493209568 0.47173719929890728 0 -0.31597737529806158 0.46218040177787539 0 -0.29348392061942502 0.4567048378972951 0 -0.31597737529806158 0.46218040177787539 0 -0.31735922977814429 0.44271565074917307 0 -0.29348392061942502 0.4567048378972951 0 -0.27657367169903352 0.46085413404699632 0 -0.2900411906158526 0.48196405094253209 0 -0.29816781344812432 0.43062259813976339 0 -0.29348392061942502 0.4567048378972951 0 -0.28259275629709563 0.43929776259792153 0 -0.29348392061942502 0.4567048378972951 0 -0.28259275629709563 0.43929776259792153 0 -0.27657367169903352 0.46085413404699632 0 -0.29816781344812432 0.43062259813976339 0 -0.29348392061942502 0.4567048378972951 0 -0.27657367169903352 0.46085413404699632 0 -0.26223008613162302 0.44514577307615938 0 -0.26391944803666112 0.47782859530713739 0 -0.26223008613162302 0.44514577307615938 0 -0.26391944803666112 0.47782859530713739 0 -0.24406060288197609 0.45267866623736441 0 -0.28259275629709563 0.43929776259792153 0 -0.27657367169903352 0.46085413404699632 0 -0.26223008613162302 0.44514577307615938 0 -0.26391944803666112 0.47782859530713739 0 -0.2377977054574697 0.47369313967174281 0 -0.25508572712214189 0.5 0 -0.26391944803666112 0.47782859530713739 0 -0.2377977054574697 0.47369313967174281 0 -0.27657367169903352 0.46085413404699632 0 -0.26391944803666112 0.47782859530713739 0 -0.2900411906158526 0.48196405094253209 0 -0.26391944803666112 0.47782859530713739 0 -0.2900411906158526 0.48196405094253209 0 -0.25508572712214189 0.5 0 -0.26391944803666112 0.47782859530713739 0 -0.28235695107190029 0.5 0 -0.26391944803666112 0.47782859530713739 0 -0.28235695107190029 0.5 0 -0.2900411906158526 0.48196405094253209 0 -0.28235695107190029 0.5 0 -0.2900411906158526 0.48196405094253209 0 -0.30962817502165862 0.5 0 -0.29348392061942502 0.4567048378972951 0 -0.2900411906158526 0.48196405094253209 0 -0.30391635493209568 0.47173719929890728 0 -0.2900411906158526 0.48196405094253209 0 -0.30391635493209568 0.47173719929890728 0 -0.3161629331950439 0.48609950657792672 0 -0.2900411906158526 0.48196405094253209 0 -0.3161629331950439 0.48609950657792672 0 -0.30391635493209568 0.47173719929890728 0 -0.3161629331950439 0.48609950657792672 0 -0.31597737529806158 0.46218040177787539 0 -0.2900411906158526 0.48196405094253209 0 -0.30962817502165862 0.5 0 -0.3161629331950439 0.48609950657792672 0 -0.30962817502165862 0.5 0 -0.3161629331950439 0.48609950657792672 0 -0.33689939897141707 0.49999999999999989 0 -0.3161629331950439 0.48609950657792672 0 -0.34228467577423521 0.49023496221332091 0 -0.33689939897141707 0.49999999999999989 0 -0.3161629331950439 0.48609950657792672 0 -0.34228467577423521 0.49023496221332091 0 -0.34228467577423521 0.49023496221332091 0 -0.33689939897141707 0.49999999999999989 0 -0.3161629331950439 0.48609950657792672 0 -0.33934464393349523 0.47653969483402142 0 -0.32972939300812137 0.46586354648926298 0 -0.3161629331950439 0.48609950657792672 0 -0.34228467577423521 0.49023496221332091 0 -0.33934464393349523 0.47653969483402142 0 -0.33934464393349523 0.47653969483402142 0 -0.32972939300812137 0.46586354648926298 0 -0.34408821807833451 0.46408499714568668 0 -0.3161629331950439 0.48609950657792672 0 -0.31597737529806158 0.46218040177787539 0 -0.32972939300812137 0.46586354648926298 0 -0.31597737529806158 0.46218040177787539 0 -0.3266229608899397 0.4531982832080802 0 -0.32972939300812137 0.46586354648926298 0 -0.31597737529806158 0.46218040177787539 0 -0.3266229608899397 0.4531982832080802 0 -0.31735922977814429 0.44271565074917307 0 -0.3266229608899397 0.4531982832080802 0 -0.31735922977814429 0.44271565074917307 0 -0.33452785611021602 0.44378999919995021 0 -0.33286265097483869 0.43168148688967278 0 -0.31735922977814429 0.44271565074917307 0 -0.33452785611021602 0.44378999919995021 0 -0.3266229608899397 0.4531982832080802 0 -0.33452785611021602 0.44378999919995021 0 -0.33683950305255189 0.45471497295983648 0 -0.33452785611021602 0.44378999919995021 0 -0.33683950305255189 0.45471497295983648 0 -0.34772255592005241 0.44933685036246129 0 -0.34503170809605821 0.43593033880013399 0 -0.33452785611021602 0.44378999919995021 0 -0.34772255592005241 0.44933685036246129 0 -0.3266229608899397 0.4531982832080802 0 -0.32972939300812137 0.46586354648926298 0 -0.33683950305255189 0.45471497295983648 0 -0.33683950305255189 0.45471497295983648 0 -0.34408821807833451 0.46408499714568668 0 -0.34772255592005241 0.44933685036246129 0 -0.32972939300812137 0.46586354648926298 0 -0.33683950305255189 0.45471497295983648 0 -0.34408821807833451 0.46408499714568668 0 -0.34408821807833451 0.46408499714568668 0 -0.36267038661996831 0.45326987313697259 0 -0.36267038661996831 0.45326987313697259 0 -0.35247753119710118 0.47175241767514647 0 -0.34408821807833451 0.46408499714568668 0 -0.36267038661996831 0.45326987313697259 0 -0.35247753119710118 0.47175241767514647 0 -0.34408821807833451 0.46408499714568668 0 -0.34772255592005241 0.44933685036246129 0 -0.36267038661996831 0.45326987313697259 0 -0.34503170809605821 0.43593033880013399 0 -0.34772255592005241 0.44933685036246129 0 -0.35772362925113982 0.44124954446458142 0 -0.34772255592005241 0.44933685036246129 0 -0.35772362925113982 0.44124954446458142 0 -0.36267038661996831 0.45326987313697259 0 -0.37770275616186028 0.45719433904947882 0 -0.38268766265869791 0.44161949324775368 0 -0.36267038661996831 0.45326987313697259 0 -0.38268766265869791 0.44161949324775368 0 -0.37367651449860861 0.43331263443686868 0 -0.36267038661996831 0.45326987313697259 0 -0.38268766265869791 0.44161949324775368 0 -0.36267038661996831 0.45326987313697259 0 -0.37367651449860861 0.43331263443686868 0 -0.35772362925113982 0.44124954446458142 0 -0.36267038661996831 0.45326987313697259 0 -0.37367651449860861 0.43331263443686868 0 -0.36267038661996831 0.45326987313697259 0 -0.37534854268504708 0.47231357073020408 0 -0.37770275616186028 0.45719433904947882 0 -0.36267038661996831 0.45326987313697259 0 -0.37534854268504708 0.47231357073020408 0 -0.36267038661996831 0.45326987313697259 0 -0.35247753119710118 0.47175241767514647 0 -0.37534854268504708 0.47231357073020408 0 -0.36033254176745533 0.48227917688691269 0 -0.35247753119710118 0.47175241767514647 0 -0.37534854268504708 0.47231357073020408 0 -0.36033254176745533 0.48227917688691269 0 -0.37121941741343789 0.49481575692897889 0 -0.37896490409964911 0.5 0 -0.37121941741343789 0.49481575692897889 0 -0.35793215153553309 0.5 0 -0.34228467577423521 0.49023496221332091 0 -0.37121941741343789 0.49481575692897889 0 -0.34228467577423521 0.49023496221332091 0 -0.33689939897141707 0.49999999999999989 0 -0.35793215153553309 0.5 0 -0.34228467577423521 0.49023496221332091 0 -0.36033254176745533 0.48227917688691269 0 -0.37121941741343789 0.49481575692897889 0 -0.34228467577423521 0.49023496221332091 0 -0.37121941741343789 0.49481575692897889 0 -0.35793215153553309 0.5 0 -0.34228467577423521 0.49023496221332091 0 -0.36033254176745533 0.48227917688691269 0 -0.35247753119710118 0.47175241767514647 0 -0.34228467577423521 0.49023496221332091 0 -0.35247753119710118 0.47175241767514647 0 -0.34228467577423521 0.49023496221332091 0 -0.33934464393349523 0.47653969483402142 0 -0.35247753119710118 0.47175241767514647 0 -0.33934464393349523 0.47653969483402142 0 -0.34408821807833451 0.46408499714568668 0 -0.35247753119710118 0.47175241767514647 0 -0.14075370981494581 0.47509913222602818 0 -0.15851393565362909 0.48249582431841398 0 -0.14075370981494581 0.47509913222602818 0 -0.14759608225327631 0.48904619699482088 0 -0.15851393565362909 0.48249582431841398 0 -0.14075370981494581 0.47509913222602818 0 -0.15851393565362909 0.48249582431841398 0 -0.1590539125175269 0.47022648809844142 0 -0.14759608225327631 0.48904619699482088 0 -0.15851393565362909 0.48249582431841398 0 -0.16182012626540981 0.49281482247353581 0 -0.15262789401406229 0.5 0 -0.14759608225327631 0.48904619699482088 0 -0.13281476663038419 0.49999999999999772 0 -0.15262789401406229 0.5 0 -0.14759608225327631 0.48904619699482088 0 -0.16182012626540981 0.49281482247353581 0 -0.14075370981494581 0.47509913222602818 0 -0.13281476663038419 0.49999999999999772 0 -0.14075370981494581 0.47509913222602818 0 -0.14759608225327631 0.48904619699482088 0 -0.13281476663038419 0.49999999999999772 0 -0.14075370981494581 0.47509913222602818 0 -0.13281476663038419 0.49999999999999772 0 -0.12132001166846421 0.48364632584960632 0 -0.14075370981494581 0.47509913222602818 0 -0.11985505786811081 0.46639536376042767 0 -0.14075370981494581 0.47509913222602818 0 -0.11985505786811081 0.46639536376042767 0 -0.12132001166846421 0.48364632584960632 0 -0.134338763720347 0.46055692535948928 0 -0.12863788831223599 0.44870240056096039 0 -0.14810839888609531 0.45203080489054093 0 -0.134338763720347 0.46055692535948928 0 -0.12863788831223599 0.44870240056096039 0 -0.11985505786811081 0.46639536376042767 0 -0.14075370981494581 0.47509913222602818 0 -0.134338763720347 0.46055692535948928 0 -0.11985505786811081 0.46639536376042767 0 -0.12863788831223599 0.44870240056096039 0 -0.14810839888609531 0.45203080489054093 0 -0.1385251157358626 0.43627600338726119 0 -0.12863788831223599 0.44870240056096039 0 -0.1385251157358626 0.43627600338726119 0 -0.1207948754090297 0.43110130256762552 0 -0.14810839888609531 0.45203080489054093 0 -0.15546308795724409 0.42896247755505351 0 -0.14810839888609531 0.45203080489054093 0 -0.15546308795724409 0.42896247755505351 0 -0.1385251157358626 0.43627600338726119 0 -0.14810839888609531 0.45203080489054093 0 -0.16245889369992519 0.44978367135589548 0 -0.15546308795724409 0.42896247755505351 0 -0.14075370981494581 0.47509913222602818 0 -0.1520737294639285 0.46012177480065158 0 -0.1590539125175269 0.47022648809844142 0 -0.14075370981494581 0.47509913222602818 0 -0.14810839888609531 0.45203080489054093 0 -0.14075370981494581 0.47509913222602818 0 -0.134338763720347 0.46055692535948928 0 -0.14810839888609531 0.45203080489054093 0 -0.14075370981494581 0.47509913222602818 0 -0.14810839888609531 0.45203080489054093 0 -0.1520737294639285 0.46012177480065158 0 -0.14810839888609531 0.45203080489054093 0 -0.1520737294639285 0.46012177480065158 0 -0.16245889369992519 0.44978367135589548 0 -0.1520737294639285 0.46012177480065158 0 -0.16881397488150771 0.46277200160080262 0 -0.1520737294639285 0.46012177480065158 0 -0.16881397488150771 0.46277200160080262 0 -0.1590539125175269 0.47022648809844142 0 -0.1520737294639285 0.46012177480065158 0 -0.16881397488150771 0.46277200160080262 0 -0.16245889369992519 0.44978367135589548 0 -0.16881397488150771 0.46277200160080262 0 -0.16245889369992519 0.44978367135589548 0 -0.17699549775856749 0.45278941210404849 0 -0.16245889369992519 0.44978367135589548 0 -0.1770393390428254 0.43752359422989401 0 -0.15546308795724409 0.42896247755505351 0 -0.16245889369992519 0.44978367135589548 0 -0.1770393390428254 0.43752359422989401 0 -0.17699549775856749 0.45278941210404849 0 -0.1770393390428254 0.43752359422989401 0 -0.17699549775856749 0.45278941210404849 0 -0.19100705084696271 0.45104383525133718 0 -0.16881397488150771 0.46277200160080262 0 -0.17699549775856749 0.45278941210404849 0 -0.18555422029908669 0.46542222840095399 0 -0.16881397488150771 0.46277200160080262 0 -0.18555422029908669 0.46542222840095399 0 -0.16881397488150771 0.46277200160080262 0 -0.18555422029908669 0.46542222840095399 0 -0.16964204096881261 0.47416181176588218 0 -0.17699549775856749 0.45278941210404849 0 -0.18555422029908669 0.46542222840095399 0 -0.19100705084696271 0.45104383525133718 0 -0.18555422029908669 0.46542222840095399 0 -0.16964204096881261 0.47416181176588218 0 -0.17627416149231251 0.48989251641079951 0 -0.18555422029908669 0.46542222840095399 0 -0.17627416149231251 0.48989251641079951 0 -0.19351190597307569 0.48121810721202518 0 -0.18555422029908669 0.46542222840095399 0 -0.17627416149231251 0.48989251641079951 0 -0.16964204096881261 0.47416181176588218 0 -0.15851393565362909 0.48249582431841398 0 -0.17627416149231251 0.48989251641079951 0 -0.16881397488150771 0.46277200160080262 0 -0.16964204096881261 0.47416181176588218 0 -0.1590539125175269 0.47022648809844142 0 -0.16964204096881261 0.47416181176588218 0 -0.15851393565362909 0.48249582431841398 0 -0.1590539125175269 0.47022648809844142 0 -0.15851393565362909 0.48249582431841398 0 -0.17627416149231251 0.48989251641079951 0 -0.15262789401406229 0.5 0 -0.16182012626540981 0.49281482247353581 0 -0.17244102139774031 0.50000000000000455 0 -0.15851393565362909 0.48249582431841398 0 -0.16182012626540981 0.49281482247353581 0 -0.17627416149231251 0.48989251641079951 0 -0.16182012626540981 0.49281482247353581 0 -0.17244102139774031 0.50000000000000455 0 -0.17627416149231251 0.48989251641079951 0 -0.17244102139774031 0.50000000000000455 0 -0.17627416149231251 0.48989251641079951 0 -0.2005432792226253 0.49999999999999989 0 -0.17244102139774031 0.50000000000000455 0 -0.17627416149231251 0.48989251641079951 0 -0.17627416149231251 0.48989251641079951 0 -0.2005432792226253 0.49999999999999989 0 -0.17627416149231251 0.48989251641079951 0 -0.2005432792226253 0.49999999999999989 0 -0.19351190597307569 0.48121810721202518 0 -0.2005432792226253 0.49999999999999989 0 -0.19351190597307569 0.48121810721202518 0 -0.21167596287827831 0.46955768403634812 0 -0.18555422029908669 0.46542222840095399 0 -0.19351190597307569 0.48121810721202518 0 -0.21167596287827831 0.46955768403634812 0 -0.2005432792226253 0.49999999999999989 0 -0.21167596287827831 0.46955768403634812 0 -0.22781450317238361 0.5 0 -0.21167596287827831 0.46955768403634812 0 -0.22781450317238361 0.5 0 -0.2377977054574697 0.47369313967174281 0 -0.21167596287827831 0.46955768403634812 0 -0.2377977054574697 0.47369313967174281 0 -0.25508572712214189 0.5 0 -0.22781450317238361 0.5 0 -0.2377977054574697 0.47369313967174281 0 -0.24406060288197609 0.45267866623736441 0 -0.23027772316762801 0.43858896773138373 0 -0.2431081494492498 0.42439269421931081 0 -0.26223008613162302 0.44514577307615938 0 -0.24406060288197609 0.45267866623736441 0 -0.2431081494492498 0.42439269421931081 0 -0.2377977054574697 0.47369313967174281 0 -0.24406060288197609 0.45267866623736441 0 -0.22703050504922509 0.45642282741845241 0 -0.26391944803666112 0.47782859530713739 0 -0.2377977054574697 0.47369313967174281 0 -0.24406060288197609 0.45267866623736441 0 -0.21167596287827831 0.46955768403634812 0 -0.2377977054574697 0.47369313967174281 0 -0.22703050504922509 0.45642282741845241 0 -0.24406060288197609 0.45267866623736441 0 -0.22703050504922509 0.45642282741845241 0 -0.23027772316762801 0.43858896773138373 0 -0.22703050504922509 0.45642282741845241 0 -0.23027772316762801 0.43858896773138373 0 -0.21093926105282099 0.44926306415599832 0 -0.23027772316762801 0.43858896773138373 0 -0.21093926105282099 0.44926306415599832 0 -0.2122874199482658 0.43246168714596239 0 -0.21093926105282099 0.44926306415599832 0 -0.19645988139483639 0.43666544210171948 0 -0.2122874199482658 0.43246168714596239 0 -0.21167596287827831 0.46955768403634812 0 -0.21093926105282099 0.44926306415599832 0 -0.19100705084696271 0.45104383525133718 0 -0.21167596287827831 0.46955768403634812 0 -0.22703050504922509 0.45642282741845241 0 -0.21093926105282099 0.44926306415599832 0 -0.18555422029908669 0.46542222840095399 0 -0.21167596287827831 0.46955768403634812 0 -0.18555422029908669 0.46542222840095399 0 -0.21167596287827831 0.46955768403634812 0 -0.19100705084696271 0.45104383525133718 0 -0.18555422029908669 0.46542222840095399 0 -0.19100705084696271 0.45104383525133718 0 -0.21093926105282099 0.44926306415599832 0 -0.19100705084696271 0.45104383525133718 0 -0.19645988139483639 0.43666544210171948 0 -0.1770393390428254 0.43752359422989401 0 -0.19100705084696271 0.45104383525133718 0 -0.19645988139483639 0.43666544210171948 0 -0.19100705084696271 0.45104383525133718 0 -0.19645988139483639 0.43666544210171948 0 -0.19645988139483639 0.43666544210171948 0 -0.2021758147110603 0.42164516132205287 0 -0.18596703408920301 0.4193843099519724 0 -0.2005315983395376 0.40342710104734048 0 -0.182217565743229 0.39951778383191588 0 -0.18596703408920301 0.4193843099519724 0 -0.2021758147110603 0.42164516132205287 0 -0.2005315983395376 0.40342710104734048 0 -0.18596703408920301 0.4193843099519724 0 -0.2021758147110603 0.42164516132205287 0 -0.21951985676534941 0.4152543460567984 0 -0.2005315983395376 0.40342710104734048 0 -0.2021758147110603 0.42164516132205287 0 -0.2122874199482658 0.43246168714596239 0 -0.21951985676534941 0.4152543460567984 0 -0.19645988139483639 0.43666544210171948 0 -0.2021758147110603 0.42164516132205287 0 -0.2122874199482658 0.43246168714596239 0 -0.23027772316762801 0.43858896773138373 0 -0.21951985676534941 0.4152543460567984 0 -0.2431081494492498 0.42439269421931081 0 -0.23027772316762801 0.43858896773138373 0 -0.2122874199482658 0.43246168714596239 0 -0.21951985676534941 0.4152543460567984 0 -0.21951985676534941 0.4152543460567984 0 -0.2431081494492498 0.42439269421931081 0 -0.23423504947552781 0.40230406598395008 0 -0.25164769229376149 0.40218230189174659 0 -0.2431081494492498 0.42439269421931081 0 -0.23423504947552781 0.40230406598395008 0 -0.25029156604607528 0.37123808027508559 0 -0.25685969819665661 0.38573864058497581 0 -0.2390336618633116 0.38452617982951492 0 -0.25029156604607528 0.37123808027508559 0 -0.2390336618633116 0.38452617982951492 0 -0.2375978295109562 0.37023355593540819 0 -0.25164769229376149 0.40218230189174659 0 -0.25685969819665661 0.38573864058497581 0 -0.2390336618633116 0.38452617982951492 0 -0.25164769229376149 0.40218230189174659 0 -0.2390336618633116 0.38452617982951492 0 -0.23423504947552781 0.40230406598395008 0 -0.21951985676534941 0.4152543460567984 0 -0.23423504947552781 0.40230406598395008 0 -0.2199375422270877 0.38686885327999709 0 -0.2390336618633116 0.38452617982951492 0 -0.23423504947552781 0.40230406598395008 0 -0.2199375422270877 0.38686885327999709 0 -0.2390336618633116 0.38452617982951492 0 -0.2199375422270877 0.38686885327999709 0 -0.2375978295109562 0.37023355593540819 0 -0.2199375422270877 0.38686885327999709 0 -0.2005315983395376 0.40342710104734048 0 -0.19418150920585731 0.37767696011079149 0 -0.21951985676534941 0.4152543460567984 0 -0.2199375422270877 0.38686885327999709 0 -0.2005315983395376 0.40342710104734048 0 -0.2005315983395376 0.40342710104734048 0 -0.19418150920585731 0.37767696011079149 0 -0.182217565743229 0.39951778383191588 0 -0.19418150920585731 0.37767696011079149 0 -0.182217565743229 0.39951778383191588 0 -0.17514148029255211 0.37300979614605972 0 -0.1590898177248547 0.38624404740163942 0 -0.182217565743229 0.39951778383191588 0 -0.17514148029255211 0.37300979614605972 0 -0.1590898177248547 0.38624404740163942 0 -0.182217565743229 0.39951778383191588 0 -0.1565148830505087 0.40913224271622178 0 -0.182217565743229 0.39951778383191588 0 -0.18596703408920301 0.4193843099519724 0 -0.17144038197660211 0.41890408165701148 0 -0.1770393390428254 0.43752359422989401 0 -0.18596703408920301 0.4193843099519724 0 -0.17144038197660211 0.41890408165701148 0 -0.1770393390428254 0.43752359422989401 0 -0.19645988139483639 0.43666544210171948 0 -0.18596703408920301 0.4193843099519724 0 -0.1770393390428254 0.43752359422989401 0 -0.17144038197660211 0.41890408165701148 0 -0.15546308795724409 0.42896247755505351 0 -0.1565148830505087 0.40913224271622178 0 -0.17144038197660211 0.41890408165701148 0 -0.15546308795724409 0.42896247755505351 0 -0.182217565743229 0.39951778383191588 0 -0.1565148830505087 0.40913224271622178 0 -0.17144038197660211 0.41890408165701148 0 -0.1565148830505087 0.40913224271622178 0 -0.15546308795724409 0.42896247755505351 0 -0.1373887611044167 0.4193084032921045 0 -0.1565148830505087 0.40913224271622178 0 -0.1373887611044167 0.4193084032921045 0 -0.13664718584319879 0.3978810013639047 0 -0.15546308795724409 0.42896247755505351 0 -0.1385251157358626 0.43627600338726119 0 -0.1373887611044167 0.4193084032921045 0 -0.1385251157358626 0.43627600338726119 0 -0.1373887611044167 0.4193084032921045 0 -0.1207948754090297 0.43110130256762552 0 -0.1373887611044167 0.4193084032921045 0 -0.13664718584319879 0.3978810013639047 0 -0.1166494819338554 0.4127092967561114 0 -0.13664718584319879 0.3978810013639047 0 -0.1310493651893854 0.36742593291801429 0 -0.1150696849205224 0.39332963532642878 0 -0.1590898177248547 0.38624404740163942 0 -0.13664718584319879 0.3978810013639047 0 -0.1310493651893854 0.36742593291801429 0 -0.1590898177248547 0.38624404740163942 0 -0.1565148830505087 0.40913224271622178 0 -0.13664718584319879 0.3978810013639047 0 -0.1310493651893854 0.36742593291801429 0 -0.1363526261333991 0.33769060303641318 0 -0.15733573003924389 0.35963562798948562 0 -0.1363526261333991 0.33769060303641318 0 -0.15621369752900061 0.33524242584953168 0 -0.15733573003924389 0.35963562798948562 0 -0.1590898177248547 0.38624404740163942 0 -0.1310493651893854 0.36742593291801429 0 -0.15733573003924389 0.35963562798948562 0 -0.1310493651893854 0.36742593291801429 0 -0.15733573003924389 0.35963562798948562 0 -0.1310493651893854 0.36742593291801429 0 -0.1363526261333991 0.33769060303641318 0 -0.11831655285987901 0.3487777702036704 0 -0.1384808489587174 0.31628162017940281 0 -0.12550708883952641 0.3077036018123811 0 -0.1192162520890889 0.32357221898242089 0 -0.1363526261333991 0.33769060303641318 0 -0.1384808489587174 0.31628162017940281 0 -0.1192162520890889 0.32357221898242089 0 -0.1384808489587174 0.31628162017940281 0 -0.1192162520890889 0.32357221898242089 0 -0.1384808489587174 0.31628162017940281 0 -0.151207005748561 0.32234578120313129 0 -0.15774544582834579 0.30899102137638451 0 -0.1363526261333991 0.33769060303641318 0 -0.1384808489587174 0.31628162017940281 0 -0.151207005748561 0.32234578120313129 0 -0.1384808489587174 0.31628162017940281 0 -0.15774544582834579 0.30899102137638451 0 -0.1363526261333991 0.33769060303641318 0 -0.151207005748561 0.32234578120313129 0 -0.15621369752900061 0.33524242584953168 0 -0.15621369752900061 0.33524242584953168 0 -0.16553531235859831 0.3223913725174099 0 -0.17251864835941769 0.33906378745194382 0 -0.16553531235859831 0.3223913725174099 0 -0.1757824615752363 0.3062072527204871 0 -0.15774544582834579 0.30899102137638451 0 -0.151207005748561 0.32234578120313129 0 -0.16553531235859831 0.3223913725174099 0 -0.15774544582834579 0.30899102137638451 0 -0.151207005748561 0.32234578120313129 0 -0.15621369752900061 0.33524242584953168 0 -0.16553531235859831 0.3223913725174099 0 -0.18152288270766209 0.3266925515873888 0 -0.18755480279953959 0.3135678017786025 0 -0.1757824615752363 0.3062072527204871 0 -0.16553531235859831 0.3223913725174099 0 -0.18152288270766209 0.3266925515873888 0 -0.1757824615752363 0.3062072527204871 0 -0.18152288270766209 0.3266925515873888 0 -0.1757824615752363 0.3062072527204871 0 -0.16553531235859831 0.3223913725174099 0 -0.18152288270766209 0.3266925515873888 0 -0.17251864835941769 0.33906378745194382 0 -0.18152288270766209 0.3266925515873888 0 -0.17251864835941769 0.33906378745194382 0 -0.19328349184809029 0.33889767886444039 0 -0.17251864835941769 0.33906378745194382 0 -0.18362209488910239 0.35184532306095689 0 -0.19328349184809029 0.33889767886444039 0 -0.15621369752900061 0.33524242584953168 0 -0.17251864835941769 0.33906378745194382 0 -0.15733573003924389 0.35963562798948562 0 -0.17251864835941769 0.33906378745194382 0 -0.18362209488910239 0.35184532306095689 0 -0.15733573003924389 0.35963562798948562 0 -0.18362209488910239 0.35184532306095689 0 -0.15733573003924389 0.35963562798948562 0 -0.1590898177248547 0.38624404740163942 0 -0.15733573003924389 0.35963562798948562 0 -0.17514148029255211 0.37300979614605972 0 -0.19418150920585731 0.37767696011079149 0 -0.18362209488910239 0.35184532306095689 0 -0.17514148029255211 0.37300979614605972 0 -0.18362209488910239 0.35184532306095689 0 -0.15733573003924389 0.35963562798948562 0 -0.17514148029255211 0.37300979614605972 0 -0.19418150920585731 0.37767696011079149 0 -0.18362209488910239 0.35184532306095689 0 -0.20295389904265779 0.3588993222053844 0 -0.18362209488910239 0.35184532306095689 0 -0.20295389904265779 0.3588993222053844 0 -0.19328349184809029 0.33889767886444039 0 -0.20295389904265779 0.3588993222053844 0 -0.21230948509286329 0.34277720654234212 0 -0.19328349184809029 0.33889767886444039 0 -0.20295389904265779 0.3588993222053844 0 -0.22573649860223191 0.3598067517850545 0 -0.21230948509286329 0.34277720654234212 0 -0.2199375422270877 0.38686885327999709 0 -0.19418150920585731 0.37767696011079149 0 -0.20295389904265779 0.3588993222053844 0 -0.2199375422270877 0.38686885327999709 0 -0.20295389904265779 0.3588993222053844 0 -0.22573649860223191 0.3598067517850545 0 -0.2199375422270877 0.38686885327999709 0 -0.22573649860223191 0.3598067517850545 0 -0.2375978295109562 0.37023355593540819 0 -0.2199375422270877 0.38686885327999709 0 -0.22573649860223191 0.3598067517850545 0 -0.22573649860223191 0.3598067517850545 0 -0.23153545497737579 0.3327446502901118 0 -0.21230948509286329 0.34277720654234212 0 -0.22573649860223191 0.3598067517850545 0 -0.23153545497737579 0.3327446502901118 0 -0.25036642621799782 0.35704406262904959 0 -0.22573649860223191 0.3598067517850545 0 -0.24695476622032311 0.34195659384621929 0 -0.22573649860223191 0.3598067517850545 0 -0.24695476622032311 0.34195659384621929 0 -0.23153545497737579 0.3327446502901118 0 -0.25029156604607528 0.37123808027508559 0 -0.25036642621799782 0.35704406262904959 0 -0.2375978295109562 0.37023355593540819 0 -0.25036642621799782 0.35704406262904959 0 -0.22573649860223191 0.3598067517850545 0 -0.2375978295109562 0.37023355593540819 0 -0.24114887000880611 0.31326108683846349 0 -0.2329269969965633 0.32625071432619551 0 -0.23889725860157959 0.29838917941297871 0 -0.24207449682026169 0.32005331596069098 0 -0.24589370043552139 0.32592193375619072 0 -0.2329269969965633 0.32625071432619551 0 -0.24114887000880611 0.31326108683846349 0 -0.24207449682026169 0.32005331596069098 0 -0.2329269969965633 0.32625071432619551 0 -0.24207449682026169 0.32005331596069098 0 -0.248328419840156 0.31477952892191419 0 -0.24589370043552139 0.32592193375619072 0 -0.24114887000880611 0.31326108683846349 0 -0.24207449682026169 0.32005331596069098 0 -0.248328419840156 0.31477952892191419 0 -0.25665424022231148 0.33004383179775421 0 -0.24589370043552139 0.32592193375619072 0 -0.24695476622032311 0.34195659384621929 0 -0.24695476622032311 0.34195659384621929 0 -0.23153545497737579 0.3327446502901118 0 -0.2329269969965633 0.32625071432619551 0 -0.24695476622032311 0.34195659384621929 0 -0.2329269969965633 0.32625071432619551 0 -0.24589370043552139 0.32592193375619072 0 -0.24695476622032311 0.34195659384621929 0 -0.2329269969965633 0.32625071432619551 0 -0.24695476622032311 0.34195659384621929 0 -0.23153545497737579 0.3327446502901118 0 -0.23153545497737579 0.3327446502901118 0 -0.21203214412250951 0.3210928069670595 0 -0.21602800194962549 0.33188567377333172 0 -0.23153545497737579 0.3327446502901118 0 -0.2329269969965633 0.32625071432619551 0 -0.23153545497737579 0.3327446502901118 0 -0.21230948509286329 0.34277720654234212 0 -0.21602800194962549 0.33188567377333172 0 -0.23153545497737579 0.3327446502901118 0 -0.21203214412250951 0.3210928069670595 0 -0.2329269969965633 0.32625071432619551 0 -0.22263753958995719 0.31473035240857522 0 -0.23889725860157959 0.29838917941297871 0 -0.23153545497737579 0.3327446502901118 0 -0.2329269969965633 0.32625071432619551 0 -0.21203214412250951 0.3210928069670595 0 -0.2329269969965633 0.32625071432619551 0 -0.22263753958995719 0.31473035240857522 0 -0.21203214412250951 0.3210928069670595 0 -0.2329269969965633 0.32625071432619551 0 -0.22263753958995719 0.31473035240857522 0 -0.22263753958995719 0.31473035240857522 0 -0.21203214412250951 0.3210928069670595 0 -0.20940141093611839 0.31286667187658179 0 -0.21203214412250951 0.3210928069670595 0 -0.21602800194962549 0.33188567377333172 0 -0.20492347975184161 0.33013871483998902 0 -0.21203214412250951 0.3210928069670595 0 -0.204123168700999 0.31908838769612541 0 -0.20492347975184161 0.33013871483998902 0 -0.204123168700999 0.31908838769612541 0 -0.20940141093611839 0.31286667187658179 0 -0.19973373597031929 0.31234757522417222 0 -0.21203214412250951 0.3210928069670595 0 -0.204123168700999 0.31908838769612541 0 -0.20940141093611839 0.31286667187658179 0 -0.21230948509286329 0.34277720654234212 0 -0.20492347975184161 0.33013871483998902 0 -0.19328349184809029 0.33889767886444039 0 -0.21230948509286329 0.34277720654234212 0 -0.21602800194962549 0.33188567377333172 0 -0.20492347975184161 0.33013871483998902 0 -0.18152288270766209 0.3266925515873888 0 -0.19328349184809029 0.33889767886444039 0 -0.19513395309308751 0.32286684636307772 0 -0.20492347975184161 0.33013871483998902 0 -0.19328349184809029 0.33889767886444039 0 -0.19513395309308751 0.32286684636307772 0 -0.204123168700999 0.31908838769612541 0 -0.19513395309308751 0.32286684636307772 0 -0.19973373597031929 0.31234757522417222 0 -0.204123168700999 0.31908838769612541 0 -0.20492347975184161 0.33013871483998902 0 -0.19513395309308751 0.32286684636307772 0 -0.18152288270766209 0.3266925515873888 0 -0.19513395309308751 0.32286684636307772 0 -0.18755480279953959 0.3135678017786025 0 -0.19513395309308751 0.32286684636307772 0 -0.18755480279953959 0.3135678017786025 0 -0.19973373597031929 0.31234757522417222 0 -0.18755480279953959 0.3135678017786025 0 -0.19448895164656321 0.3033201597859807 0 -0.19973373597031929 0.31234757522417222 0 -0.19448895164656321 0.3033201597859807 0 -0.19728108657650889 0.29695760639459468 0 -0.17475834061609791 0.30255256895431509 0 -0.19448895164656321 0.3033201597859807 0 -0.19728108657650889 0.29695760639459468 0 -0.21319544171789021 0.30043306685147497 0 -0.19728108657650889 0.29695760639459468 0 -0.19980127420851759 0.29307518497848989 0 -0.17475834061609791 0.30255256895431509 0 -0.19448895164656321 0.3033201597859807 0 -0.19973373597031929 0.31234757522417222 0 -0.20637794215967789 0.3061827399068538 0 -0.18869713521123199 0.28355302226882267 0 -0.1959252269678475 0.28547973054238268 0 -0.2087991732370329 0.27921366314394258 0 -0.18869713521123199 0.28355302226882267 0 -0.19980127420851759 0.29307518497848989 0 -0.17475834061609791 0.30255256895431509 0 -0.18869713521123199 0.28355302226882267 0 -0.2087991732370329 0.27921366314394258 0 -0.18869713521123199 0.28355302226882267 0 -0.19980127420851759 0.29307518497848989 0 -0.1959252269678475 0.28547973054238268 0 -0.18869713521123199 0.28355302226882267 0 -0.1959252269678475 0.28547973054238268 0 -0.19728108657650889 0.29695760639459468 0 -0.19980127420851759 0.29307518497848989 0 -0.19980127420851759 0.29307518497848989 0 -0.1959252269678475 0.28547973054238268 0 -0.2087991732370329 0.27921366314394258 0 -0.19980127420851759 0.29307518497848989 0 -0.21748247633434589 0.28638381469304452 0 -0.21319544171789021 0.30043306685147497 0 -0.19980127420851759 0.29307518497848989 0 -0.21748247633434589 0.28638381469304452 0 -0.19980127420851759 0.29307518497848989 0 -0.21748247633434589 0.28638381469304452 0 -0.2087991732370329 0.27921366314394258 0 -0.19728108657650889 0.29695760639459468 0 -0.19980127420851759 0.29307518497848989 0 -0.21319544171789021 0.30043306685147497 0 -0.19980127420851759 0.29307518497848989 0 -0.2087991732370329 0.27921366314394258 0 -0.21748247633434589 0.28638381469304452 0 -0.21319544171789021 0.30043306685147497 0 -0.2221332018105204 0.2942880084488293 0 -0.21748247633434589 0.28638381469304452 0 -0.21319544171789021 0.30043306685147497 0 -0.19448895164656321 0.3033201597859807 0 -0.20637794215967789 0.3061827399068538 0 -0.21319544171789021 0.30043306685147497 0 -0.19448895164656321 0.3033201597859807 0 -0.21319544171789021 0.30043306685147497 0 -0.20940141093611839 0.31286667187658179 0 -0.21234808218334891 0.30320999049095698 0 -0.20940141093611839 0.31286667187658179 0 -0.19973373597031929 0.31234757522417222 0 -0.20637794215967789 0.3061827399068538 0 -0.20940141093611839 0.31286667187658179 0 -0.20949484915191419 0.30536102512169311 0 -0.21234808218334891 0.30320999049095698 0 -0.20949484915191419 0.30536102512169311 0 -0.20637794215967789 0.3061827399068538 0 -0.21234808218334891 0.30320999049095698 0 -0.20940141093611839 0.31286667187658179 0 -0.20949484915191419 0.30536102512169311 0 -0.20637794215967789 0.3061827399068538 0 -0.20637794215967789 0.3061827399068538 0 -0.21234808218334891 0.30320999049095698 0 -0.21319544171789021 0.30043306685147497 0 -0.21234808218334891 0.30320999049095698 0 -0.21319544171789021 0.30043306685147497 0 -0.21850576126615651 0.30359168608300752 0 -0.21234808218334891 0.30320999049095698 0 -0.21319544171789021 0.30043306685147497 0 -0.22263753958995719 0.31473035240857522 0 -0.20940141093611839 0.31286667187658179 0 -0.21234808218334891 0.30320999049095698 0 -0.22263753958995719 0.31473035240857522 0 -0.21234808218334891 0.30320999049095698 0 -0.22263753958995719 0.31473035240857522 0 -0.21234808218334891 0.30320999049095698 0 -0.21850576126615651 0.30359168608300752 0 -0.21319544171789021 0.30043306685147497 0 -0.23091248349183169 0.29769868183692322 0 -0.22263753958995719 0.31473035240857522 0 -0.21850576126615651 0.30359168608300752 0 -0.22296947018679761 0.30497410395212909 0 -0.22263753958995719 0.31473035240857522 0 -0.23091248349183169 0.29769868183692322 0 -0.23889725860157959 0.29838917941297871 0 -0.22263753958995719 0.31473035240857522 0 -0.22296947018679761 0.30497410395212909 0 -0.23091248349183169 0.29769868183692322 0 -0.21319544171789021 0.30043306685147497 0 -0.21850576126615651 0.30359168608300752 0 -0.23091248349183169 0.29769868183692322 0 -0.21319544171789021 0.30043306685147497 0 -0.23091248349183169 0.29769868183692322 0 -0.2221332018105204 0.2942880084488293 0 -0.21850576126615651 0.30359168608300752 0 -0.22296947018679761 0.30497410395212909 0 -0.23091248349183169 0.29769868183692322 0 -0.21748247633434589 0.28638381469304452 0 -0.2221332018105204 0.2942880084488293 0 -0.22675279017706179 0.29192040617760329 0 -0.21748247633434589 0.28638381469304452 0 -0.22975478482962311 0.28697035782296249 0 -0.23669138800726791 0.2791142896986934 0 -0.21748247633434589 0.28638381469304452 0 -0.23669138800726791 0.2791142896986934 0 -0.21748247633434589 0.28638381469304452 0 -0.2204369853048955 0.2767014479185248 0 -0.21748247633434589 0.28638381469304452 0 -0.22975478482962311 0.28697035782296249 0 -0.22675279017706179 0.29192040617760329 0 -0.22975478482962311 0.28697035782296249 0 -0.23596322073648521 0.28657150645687379 0 -0.23669138800726791 0.2791142896986934 0 -0.22975478482962311 0.28697035782296249 0 -0.23257084991841601 0.29082405975215392 0 -0.23596322073648521 0.28657150645687379 0 -0.23091248349183169 0.29769868183692322 0 -0.23257084991841601 0.29082405975215392 0 -0.239281354836126 0.29024328223013529 0 -0.23091248349183169 0.29769868183692322 0 -0.2221332018105204 0.2942880084488293 0 -0.22675279017706179 0.29192040617760329 0 -0.23091248349183169 0.29769868183692322 0 -0.22675279017706179 0.29192040617760329 0 -0.23257084991841601 0.29082405975215392 0 -0.22975478482962311 0.28697035782296249 0 -0.22675279017706179 0.29192040617760329 0 -0.23257084991841601 0.29082405975215392 0 -0.23091248349183169 0.29769868183692322 0 -0.24862952526577309 0.29496429682237169 0 -0.23091248349183169 0.29769868183692322 0 -0.239281354836126 0.29024328223013529 0 -0.24862952526577309 0.29496429682237169 0 -0.23257084991841601 0.29082405975215392 0 -0.239281354836126 0.29024328223013529 0 -0.23596322073648521 0.28657150645687379 0 -0.24116099612456571 0.28494847940134832 0 -0.24867971912098599 0.28164339044666581 0 -0.23669138800726791 0.2791142896986934 0 -0.23596322073648521 0.28657150645687379 0 -0.24116099612456571 0.28494847940134832 0 -0.23669138800726791 0.2791142896986934 0 -0.239281354836126 0.29024328223013529 0 -0.23596322073648521 0.28657150645687379 0 -0.24116099612456571 0.28494847940134832 0 -0.2546459357637289 0.28879412782921993 0 -0.24647950622223591 0.28811871534594818 0 -0.24867971912098599 0.28164339044666581 0 -0.24116099612456571 0.28494847940134832 0 -0.24647950622223591 0.28811871534594818 0 -0.24867971912098599 0.28164339044666581 0 -0.239281354836126 0.29024328223013529 0 -0.24116099612456571 0.28494847940134832 0 -0.24647950622223591 0.28811871534594818 0 -0.239281354836126 0.29024328223013529 0 -0.24647950622223591 0.28811871534594818 0 -0.24862952526577309 0.29496429682237169 0 -0.2546459357637289 0.28879412782921993 0 -0.24647950622223591 0.28811871534594818 0 -0.24862952526577309 0.29496429682237169 0 -0.23091248349183169 0.29769868183692322 0 -0.24862952526577309 0.29496429682237169 0 -0.23889725860157959 0.29838917941297871 0 -0.24862952526577309 0.29496429682237169 0 -0.2455076789308617 0.30549766360206798 0 -0.23889725860157959 0.29838917941297871 0 -0.25323472167806632 0.30673312143518638 0 -0.24862952526577309 0.29496429682237169 0 -0.2455076789308617 0.30549766360206798 0 -0.2329269969965633 0.32625071432619551 0 -0.23889725860157959 0.29838917941297871 0 -0.24114887000880611 0.31326108683846349 0 -0.248328419840156 0.31477952892191419 0 -0.2455076789308617 0.30549766360206798 0 -0.25323472167806632 0.30673312143518638 0 -0.248328419840156 0.31477952892191419 0 -0.2455076789308617 0.30549766360206798 0 -0.24114887000880611 0.31326108683846349 0 -0.2455076789308617 0.30549766360206798 0 -0.23889725860157959 0.29838917941297871 0 -0.2389333861843578 0.25943834456078679 0 -0.23595449262639781 0.2654426781790038 0 -0.24446657500676641 0.26323313337258208 0 -0.23595449262639781 0.2654426781790038 0 -0.24446657500676641 0.26323313337258208 0 -0.24113412896590641 0.26756303632588152 0 -0.2389333861843578 0.25943834456078679 0 -0.23595449262639781 0.2654426781790038 0 -0.2328144672750882 0.25834519655178051 0 -0.2389333861843578 0.25943834456078679 0 -0.2379886336980577 0.25379501810672972 0 -0.2328144672750882 0.25834519655178051 0 -0.2389333861843578 0.25943834456078679 0 -0.2379886336980577 0.25379501810672972 0 -0.24381217732629429 0.25598547055601828 0 -0.25297570869820257 0.25688664002330702 0 -0.24381217732629429 0.25598547055601828 0 -0.24506904401784521 0.24759623977448059 0 -0.2379886336980577 0.25379501810672972 0 -0.24381217732629429 0.25598547055601828 0 -0.24506904401784521 0.24759623977448059 0 -0.25113021202000241 0.26453497608091903 0 -0.25297570869820257 0.25688664002330702 0 -0.24446657500676641 0.26323313337258208 0 -0.25297570869820257 0.25688664002330702 0 -0.24381217732629429 0.25598547055601828 0 -0.24446657500676641 0.26323313337258208 0 -0.2389333861843578 0.25943834456078679 0 -0.24381217732629429 0.25598547055601828 0 -0.24446657500676641 0.26323313337258208 0 -0.25113021202000241 0.26453497608091903 0 -0.24446657500676641 0.26323313337258208 0 -0.24540993010614809 0.26761211345051511 0 -0.25340016125707843 0.26958579834261998 0 -0.23669138800726791 0.2791142896986934 0 -0.236918573280987 0.27314362313057278 0 -0.25340016125707843 0.26958579834261998 0 -0.24540993010614809 0.26761211345051511 0 -0.236918573280987 0.27314362313057278 0 -0.25590029968018951 0.27184476470434132 0 -0.24867971912098599 0.28164339044666581 0 -0.23669138800726791 0.2791142896986934 0 -0.25590029968018951 0.27184476470434132 0 -0.25340016125707843 0.26958579834261998 0 -0.23669138800726791 0.2791142896986934 0 -0.25590029968018951 0.27184476470434132 0 -0.23669138800726791 0.2791142896986934 0 -0.25340016125707843 0.26958579834261998 0 -0.236918573280987 0.27314362313057278 0 -0.25340016125707843 0.26958579834261998 0 -0.25113021202000241 0.26453497608091903 0 -0.24540993010614809 0.26761211345051511 0 -0.24446657500676641 0.26323313337258208 0 -0.24540993010614809 0.26761211345051511 0 -0.24113412896590641 0.26756303632588152 0 -0.24540993010614809 0.26761211345051511 0 -0.24113412896590641 0.26756303632588152 0 -0.236918573280987 0.27314362313057278 0 -0.23595449262639781 0.2654426781790038 0 -0.24113412896590641 0.26756303632588152 0 -0.236918573280987 0.27314362313057278 0 -0.23595449262639781 0.2654426781790038 0 -0.236918573280987 0.27314362313057278 0 -0.2321426726148538 0.26950724206754978 0 -0.236918573280987 0.27314362313057278 0 -0.2204369853048955 0.2767014479185248 0 -0.2321426726148538 0.26950724206754978 0 -0.22807121730715399 0.26716802451450272 0 -0.2204369853048955 0.2767014479185248 0 -0.23669138800726791 0.2791142896986934 0 -0.236918573280987 0.27314362313057278 0 -0.2204369853048955 0.2767014479185248 0 -0.23595449262639781 0.2654426781790038 0 -0.2321426726148538 0.26950724206754978 0 -0.23127831903209439 0.26326814649224473 0 -0.2321426726148538 0.26950724206754978 0 -0.22807121730715399 0.26716802451450272 0 -0.23127831903209439 0.26326814649224473 0 -0.22807121730715399 0.26716802451450272 0 -0.2204369853048955 0.2767014479185248 0 -0.22627879564296449 0.25755696371346182 0 -0.2204369853048955 0.2767014479185248 0 -0.22627879564296449 0.25755696371346182 0 -0.21748247633434589 0.28638381469304452 0 -0.23669138800726791 0.2791142896986934 0 -0.2204369853048955 0.2767014479185248 0 -0.236918573280987 0.27314362313057278 0 -0.2321426726148538 0.26950724206754978 0 -0.2204369853048955 0.2767014479185248 0 -0.2204369853048955 0.2767014479185248 0 -0.22627879564296449 0.25755696371346182 0 -0.22310556421150779 0.25717425702949342 0 -0.22807121730715399 0.26716802451450272 0 -0.23127831903209439 0.26326814649224473 0 -0.22627879564296449 0.25755696371346182 0 -0.2328144672750882 0.25834519655178051 0 -0.22627879564296449 0.25755696371346182 0 -0.2328144672750882 0.25834519655178051 0 -0.23127831903209439 0.26326814649224473 0 -0.22627879564296449 0.25755696371346182 0 -0.23595449262639781 0.2654426781790038 0 -0.2328144672750882 0.25834519655178051 0 -0.23127831903209439 0.26326814649224473 0 -0.2379886336980577 0.25379501810672972 0 -0.2328144672750882 0.25834519655178051 0 -0.22931409368670311 0.24760983909058251 0 -0.2328144672750882 0.25834519655178051 0 -0.22627879564296449 0.25755696371346182 0 -0.22931409368670311 0.24760983909058251 0 -0.22627879564296449 0.25755696371346182 0 -0.22931409368670311 0.24760983909058251 0 -0.22310556421150779 0.25717425702949342 0 -0.22931409368670311 0.24760983909058251 0 -0.22627879564296449 0.25755696371346182 0 -0.22310556421150779 0.25717425702949342 0 -0.22931409368670311 0.24760983909058251 0 -0.22627879564296449 0.25755696371346182 0 -0.22310556421150779 0.25717425702949342 0 -0.22310556421150779 0.25717425702949342 0 -0.2087991732370329 0.27921366314394258 0 -0.2020392040574179 0.25463355459033749 0 -0.22310556421150779 0.25717425702949342 0 -0.2020392040574179 0.25463355459033749 0 -0.2139553109189436 0.24443729985889001 0 -0.22310556421150779 0.25717425702949342 0 -0.2020392040574179 0.25463355459033749 0 -0.22310556421150779 0.25717425702949342 0 -0.2087991732370329 0.27921366314394258 0 -0.2204369853048955 0.2767014479185248 0 -0.22310556421150779 0.25717425702949342 0 -0.2087991732370329 0.27921366314394258 0 -0.2204369853048955 0.2767014479185248 0 -0.2087991732370329 0.27921366314394258 0 -0.21748247633434589 0.28638381469304452 0 -0.2204369853048955 0.2767014479185248 0 -0.2087991732370329 0.27921366314394258 0 -0.18869713521123199 0.28355302226882267 0 -0.2087991732370329 0.27921366314394258 0 -0.18979259628652251 0.26806766363583562 0 -0.2087991732370329 0.27921366314394258 0 -0.18979259628652251 0.26806766363583562 0 -0.2020392040574179 0.25463355459033749 0 -0.2020392040574179 0.25463355459033749 0 -0.18097284390332799 0.25209285215118188 0 -0.18979259628652251 0.26806766363583562 0 -0.2020392040574179 0.25463355459033749 0 -0.18097284390332799 0.25209285215118188 0 -0.1678792600368719 0.27800384363538189 0 -0.15096897599281889 0.26100604599600752 0 -0.1599064837492381 0.24955214971202569 0 -0.18097284390332799 0.25209285215118188 0 -0.1678792600368719 0.27800384363538189 0 -0.1599064837492381 0.24955214971202569 0 -0.1678792600368719 0.27800384363538189 0 -0.1599064837492381 0.24955214971202569 0 -0.18097284390332799 0.25209285215118188 0 -0.1599064837492381 0.24955214971202569 0 -0.1678792600368719 0.27800384363538189 0 -0.15422737483799459 0.29015299408122658 0 -0.1471857212724475 0.27248780791127047 0 -0.1678792600368719 0.27800384363538189 0 -0.1471857212724475 0.27248780791127047 0 -0.18869713521123199 0.28355302226882267 0 -0.18979259628652251 0.26806766363583562 0 -0.1678792600368719 0.27800384363538189 0 -0.18869713521123199 0.28355302226882267 0 -0.1678792600368719 0.27800384363538189 0 -0.18979259628652251 0.26806766363583562 0 -0.18097284390332799 0.25209285215118188 0 -0.1678792600368719 0.27800384363538189 0 -0.18869713521123199 0.28355302226882267 0 -0.17654192979500991 0.28617692545067741 0 -0.18869713521123199 0.28355302226882267 0 -0.17654192979500991 0.28617692545067741 0 -0.17475834061609791 0.30255256895431509 0 -0.18869713521123199 0.28355302226882267 0 -0.1678792600368719 0.27800384363538189 0 -0.17654192979500991 0.28617692545067741 0 -0.1678792600368719 0.27800384363538189 0 -0.17654192979500991 0.28617692545067741 0 -0.17475834061609791 0.30255256895431509 0 -0.18755480279953959 0.3135678017786025 0 -0.19448895164656321 0.3033201597859807 0 -0.1757824615752363 0.3062072527204871 0 -0.19980127420851759 0.29307518497848989 0 -0.17475834061609791 0.30255256895431509 0 -0.19448895164656321 0.3033201597859807 0 -0.17475834061609791 0.30255256895431509 0 -0.1757824615752363 0.3062072527204871 0 -0.19448895164656321 0.3033201597859807 0 -0.1757824615752363 0.3062072527204871 0 -0.17475834061609791 0.30255256895431509 0 -0.1757824615752363 0.3062072527204871 0 -0.1757824615752363 0.3062072527204871 0 -0.15774544582834579 0.30899102137638451 0 -0.17475834061609791 0.30255256895431509 0 -0.15774544582834579 0.30899102137638451 0 -0.17475834061609791 0.30255256895431509 0 -0.1757824615752363 0.3062072527204871 0 -0.15774544582834579 0.30899102137638451 0 -0.17475834061609791 0.30255256895431509 0 -0.15774544582834579 0.30899102137638451 0 -0.15477890381582629 0.30131049806619531 0 -0.17475834061609791 0.30255256895431509 0 -0.15422737483799459 0.29015299408122658 0 -0.15477890381582629 0.30131049806619531 0 -0.1678792600368719 0.27800384363538189 0 -0.17475834061609791 0.30255256895431509 0 -0.15422737483799459 0.29015299408122658 0 -0.1678792600368719 0.27800384363538189 0 -0.17475834061609791 0.30255256895431509 0 -0.15422737483799459 0.29015299408122658 0 -0.13883343498888659 0.28412708084629967 0 -0.1471857212724475 0.27248780791127047 0 -0.15422737483799459 0.29015299408122658 0 -0.14075073120477441 0.29970782772158711 0 -0.13883343498888659 0.28412708084629967 0 -0.1384808489587174 0.31628162017940281 0 -0.15425898263416291 0.30952910966638197 0 -0.147853228652507 0.30511342134244679 0 -0.1384808489587174 0.31628162017940281 0 -0.15774544582834579 0.30899102137638451 0 -0.15425898263416291 0.30952910966638197 0 -0.1384808489587174 0.31628162017940281 0 -0.14075073120477441 0.29970782772158711 0 -0.147853228652507 0.30511342134244679 0 -0.15774544582834579 0.30899102137638451 0 -0.15425898263416291 0.30952910966638197 0 -0.15477890381582629 0.30131049806619531 0 -0.15425898263416291 0.30952910966638197 0 -0.15477890381582629 0.30131049806619531 0 -0.147853228652507 0.30511342134244679 0 -0.15774544582834579 0.30899102137638451 0 -0.15425898263416291 0.30952910966638197 0 -0.15422737483799459 0.29015299408122658 0 -0.15477890381582629 0.30131049806619531 0 -0.14075073120477441 0.29970782772158711 0 -0.15477890381582629 0.30131049806619531 0 -0.14075073120477441 0.29970782772158711 0 -0.147853228652507 0.30511342134244679 0 -0.14075073120477441 0.29970782772158711 0 -0.12550708883952641 0.3077036018123811 0 -0.12551116512119401 0.29131500233025442 0 -0.1384808489587174 0.31628162017940281 0 -0.14075073120477441 0.29970782772158711 0 -0.12550708883952641 0.3077036018123811 0 -0.14075073120477441 0.29970782772158711 0 -0.13883343498888659 0.28412708084629967 0 -0.12551116512119401 0.29131500233025442 0 -0.13883343498888659 0.28412708084629967 0 -0.1264921825080228 0.26697177218715967 0 -0.1471857212724475 0.27248780791127047 0 -0.13883343498888659 0.28412708084629967 0 -0.12551116512119401 0.29131500233025442 0 -0.1264921825080228 0.26697177218715967 0 -0.1264921825080228 0.26697177218715967 0 -0.1365069278854974 0.25801432573408822 0 -0.1471857212724475 0.27248780791127047 0 -0.1264921825080228 0.26697177218715967 0 -0.1471857212724475 0.27248780791127047 0 -0.1264921825080228 0.26697177218715967 0 -0.1365069278854974 0.25801432573408822 0 -0.1209829589588412 0.25411223725025162 0 -0.1365069278854974 0.25801432573408822 0 -0.1209829589588412 0.25411223725025162 0 -0.12897232447082349 0.2458213441358843 0 -0.1365069278854974 0.25801432573408822 0 -0.12897232447082349 0.2458213441358843 0 -0.14443940411003081 0.24768674692395529 0 -0.1365069278854974 0.25801432573408822 0 -0.15096897599281889 0.26100604599600752 0 -0.1471857212724475 0.27248780791127047 0 -0.1365069278854974 0.25801432573408822 0 -0.15096897599281889 0.26100604599600752 0 -0.14443940411003081 0.24768674692395529 0 -0.15096897599281889 0.26100604599600752 0 -0.1599064837492381 0.24955214971202569 0 -0.14443940411003081 0.24768674692395529 0 -0.1678792600368719 0.27800384363538189 0 -0.15096897599281889 0.26100604599600752 0 -0.1471857212724475 0.27248780791127047 0 -0.1057986437435981 0.26145573646304909 0 -0.095366350939496358 0.28504548650536332 0 -0.089350583582763154 0.26938649059610009 0 -0.1057986437435981 0.26145573646304909 0 -0.1134470787422423 0.28034470500999881 0 -0.095366350939496358 0.28504548650536332 0 -0.1057986437435981 0.26145573646304909 0 -0.095366350939496358 0.28504548650536332 0 -0.1057986437435981 0.26145573646304909 0 -0.083266964055525514 0.25544972891168249 0 -0.1057986437435981 0.26145573646304909 0 -0.083266964055525514 0.25544972891168249 0 -0.098033802335805026 0.246084267787991 0 -0.1264921825080228 0.26697177218715967 0 -0.1057986437435981 0.26145573646304909 0 -0.1264921825080228 0.26697177218715967 0 -0.1057986437435981 0.26145573646304909 0 -0.1209829589588412 0.25411223725025162 0 -0.1057986437435981 0.26145573646304909 0 -0.1209829589588412 0.25411223725025162 0 -0.1153475150392058 0.23986360026830661 0 -0.1057986437435981 0.26145573646304909 0 -0.1153475150392058 0.23986360026830661 0 -0.12551116512119401 0.29131500233025442 0 -0.1264921825080228 0.26697177218715967 0 -0.1134470787422423 0.28034470500999881 0 -0.1264921825080228 0.26697177218715967 0 -0.1057986437435981 0.26145573646304909 0 -0.1134470787422423 0.28034470500999881 0 -0.12551116512119401 0.29131500233025442 0 -0.1134470787422423 0.28034470500999881 0 -0.10816241826521859 0.30346865129854961 0 -0.12550708883952641 0.3077036018123811 0 -0.12551116512119401 0.29131500233025442 0 -0.10816241826521859 0.30346865129854961 0 -0.12550708883952641 0.3077036018123811 0 -0.10816241826521859 0.30346865129854961 0 -0.1192162520890889 0.32357221898242089 0 -0.10816241826521859 0.30346865129854961 0 -0.095366350939496358 0.28504548650536332 0 -0.084934058135394286 0.30863523654767733 0 -0.1134470787422423 0.28034470500999881 0 -0.10816241826521859 0.30346865129854961 0 -0.095366350939496358 0.28504548650536332 0 -0.095366350939496358 0.28504548650536332 0 -0.084934058135394286 0.30863523654767733 0 -0.095366350939496358 0.28504548650536332 0 -0.084934058135394286 0.30863523654767733 0 -0.075764775364027689 0.29453019542385461 0 -0.095366350939496358 0.28504548650536332 0 -0.075764775364027689 0.29453019542385461 0 -0.075232962304943571 0.27804374303142132 0 -0.084934058135394286 0.30863523654767733 0 -0.075764775364027689 0.29453019542385461 0 -0.062130096681559277 0.31153355174038538 0 -0.075764775364027689 0.29453019542385461 0 -0.061160408758744907 0.28939295929442571 0 -0.062130096681559277 0.31153355174038538 0 -0.075232962304943571 0.27804374303142132 0 -0.061160408758744907 0.28939295929442571 0 -0.052844656674774143 0.28321469143433969 0 -0.075764775364027689 0.29453019542385461 0 -0.075232962304943571 0.27804374303142132 0 -0.061160408758744907 0.28939295929442571 0 -0.075232962304943571 0.27804374303142132 0 -0.07012511915299123 0.25889004372662422 0 -0.052844656674774143 0.28321469143433969 0 -0.075232962304943571 0.27804374303142132 0 -0.079493907274055864 0.26544250156645699 0 -0.07012511915299123 0.25889004372662422 0 -0.095366350939496358 0.28504548650536332 0 -0.075232962304943571 0.27804374303142132 0 -0.089350583582763154 0.26938649059610009 0 -0.075232962304943571 0.27804374303142132 0 -0.089350583582763154 0.26938649059610009 0 -0.079493907274055864 0.26544250156645699 0 -0.1057986437435981 0.26145573646304909 0 -0.089350583582763154 0.26938649059610009 0 -0.083266964055525514 0.25544972891168249 0 -0.089350583582763154 0.26938649059610009 0 -0.079493907274055864 0.26544250156645699 0 -0.083266964055525514 0.25544972891168249 0 -0.079493907274055864 0.26544250156645699 0 -0.083266964055525514 0.25544972891168249 0 -0.07012511915299123 0.25889004372662422 0 -0.07012511915299123 0.25889004372662422 0 -0.05307753484651391 0.25974705154577787 0 -0.05775314063005297 0.24054139856091231 0 -0.05307753484651391 0.25974705154577787 0 -0.042144389288120927 0.2596478030350417 0 -0.045555500133256432 0.24675434812147551 0 -0.07012511915299123 0.25889004372662422 0 -0.05307753484651391 0.25974705154577787 0 -0.052844656674774143 0.28321469143433969 0 -0.07012511915299123 0.25889004372662422 0 -0.052844656674774143 0.28321469143433969 0 -0.05307753484651391 0.25974705154577787 0 -0.044218387598935947 0.27088446309617309 0 -0.052844656674774143 0.28321469143433969 0 -0.030820940036381458 0.27039911686443852 0 -0.02391627173062854 0.29107963927021141 0 -0.039777743981826083 0.28201800205955901 0 -0.044218387598935947 0.27088446309617309 0 -0.039777743981826083 0.28201800205955901 0 -0.052844656674774143 0.28321469143433969 0 -0.044218387598935947 0.27088446309617309 0 -0.042144389288120927 0.2596478030350417 0 -0.030820940036381458 0.27039911686443852 0 -0.044218387598935947 0.27088446309617309 0 -0.030820940036381458 0.27039911686443852 0 -0.039777743981826083 0.28201800205955901 0 -0.042144389288120927 0.2596478030350417 0 -0.032769419637382988 0.25179962344036472 0 -0.030820940036381458 0.27039911686443852 0 -0.042144389288120927 0.2596478030350417 0 -0.032769419637382988 0.25179962344036472 0 -0.045555500133256432 0.24675434812147551 0 -0.05307753484651391 0.25974705154577787 0 -0.044218387598935947 0.27088446309617309 0 -0.042144389288120927 0.2596478030350417 0 -0.032769419637382988 0.25179962344036472 0 -0.016935978650339349 0.26177997452075158 0 -0.030820940036381458 0.27039911686443852 0 -0.032769419637382988 0.25179962344036472 0 -0.020910475173787271 0.25014910931035328 0 -0.016935978650339349 0.26177997452075158 0 -0.016935978650339349 0.26177997452075158 0 -0.030820940036381458 0.27039911686443852 0 -0.01188514484807131 0.2754157237396096 0 -0.030820940036381458 0.27039911686443852 0 -0.01188514484807131 0.2754157237396096 0 -0.02391627173062854 0.29107963927021141 0 -0.01188514484807131 0.2754157237396096 0 0.0072134534684511944 0.2591845763088359 0 0.0013978959583359179 0.28053191190458271 0 -0.016935978650339349 0.26177997452075158 0 -0.0063857098188243016 0.2514955288583467 0 0.0072134534684511944 0.2591845763088359 0 -0.016935978650339349 0.26177997452075158 0 -0.01188514484807131 0.2754157237396096 0 0.0072134534684511944 0.2591845763088359 0 -0.020910475173787271 0.25014910931035328 0 -0.016935978650339349 0.26177997452075158 0 -0.0063857098188243016 0.2514955288583467 0 -0.011518108440017241 0.30327892146785779 0 -0.013114543376394699 0.31670816276007968 0 0.0058272740681826907 0.31586856144546582 0 -0.011518108440017241 0.30327892146785779 0 0.0058272740681826907 0.31586856144546582 0 0.0051318497252751793 0.29651341354619348 0 -0.011518108440017241 0.30327892146785779 0 -0.0095634212571897234 0.28975793543538741 0 0.0051318497252751793 0.29651341354619348 0 -0.01188514484807131 0.2754157237396096 0 -0.0095634212571897234 0.28975793543538741 0 -0.02391627173062854 0.29107963927021141 0 -0.0095634212571897234 0.28975793543538741 0 0.0051318497252751793 0.29651341354619348 0 0.0013978959583359179 0.28053191190458271 0 -0.01188514484807131 0.2754157237396096 0 -0.0095634212571897234 0.28975793543538741 0 0.0013978959583359179 0.28053191190458271 0 -0.011518108440017241 0.30327892146785779 0 -0.0095634212571897234 0.28975793543538741 0 -0.02391627173062854 0.29107963927021141 0 -0.011518108440017241 0.30327892146785779 0 -0.035564194196557798 0.30753933914205622 0 -0.013114543376394699 0.31670816276007968 0 -0.011518108440017241 0.30327892146785779 0 -0.02391627173062854 0.29107963927021141 0 -0.035564194196557798 0.30753933914205622 0 -0.02391627173062854 0.29107963927021141 0 -0.035564194196557798 0.30753933914205622 0 -0.039777743981826083 0.28201800205955901 0 -0.035564194196557798 0.30753933914205622 0 -0.052844656674774143 0.28321469143433969 0 -0.035564194196557798 0.30753933914205622 0 -0.039777743981826083 0.28201800205955901 0 -0.052844656674774143 0.28321469143433969 0 -0.035564194196557798 0.30753933914205622 0 -0.039777743981826083 0.28201800205955901 0 -0.035564194196557798 0.30753933914205622 0 -0.061160408758744907 0.28939295929442571 0 -0.052844656674774143 0.28321469143433969 0 -0.061160408758744907 0.28939295929442571 0 -0.062130096681559277 0.31153355174038538 0 -0.035564194196557798 0.30753933914205622 0 -0.061160408758744907 0.28939295929442571 0 -0.062130096681559277 0.31153355174038538 0 -0.035564194196557798 0.30753933914205622 0 -0.062130096681559277 0.31153355174038538 0 -0.047047392726107938 0.32394651222034998 0 -0.062130096681559277 0.31153355174038538 0 -0.047047392726107938 0.32394651222034998 0 -0.063099784604373627 0.33367414418634511 0 -0.049159689326092083 0.34139825803602231 0 -0.064069472527189197 0.35581473663230467 0 -0.063099784604373627 0.33367414418634511 0 -0.047047392726107938 0.32394651222034998 0 -0.049159689326092083 0.34139825803602231 0 -0.063099784604373627 0.33367414418634511 0 -0.047047392726107938 0.32394651222034998 0 -0.049159689326092083 0.34139825803602231 0 -0.03089485037454643 0.33582140621346718 0 -0.035564194196557798 0.30753933914205622 0 -0.03089485037454643 0.33582140621346718 0 -0.035564194196557798 0.30753933914205622 0 -0.047047392726107938 0.32394651222034998 0 -0.03089485037454643 0.33582140621346718 0 -0.035564194196557798 0.30753933914205622 0 -0.02240577472018605 0.32606163960458839 0 -0.03089485037454643 0.33582140621346718 0 -0.035564194196557798 0.30753933914205622 0 -0.02240577472018605 0.32606163960458839 0 -0.013114543376394699 0.31670816276007968 0 -0.035564194196557798 0.30753933914205622 0 -0.02240577472018605 0.32606163960458839 0 -0.02240577472018605 0.32606163960458839 0 -0.03089485037454643 0.33582140621346718 0 -0.0092473552438152827 0.34458394006712117 0 -0.02240577472018605 0.32606163960458839 0 -0.0092473552438152827 0.34458394006712117 0 -0.02240577472018605 0.32606163960458839 0 -0.0045793929973731553 0.3273326912411374 0 -0.0092473552438152827 0.34458394006712117 0 -0.0045793929973731553 0.3273326912411374 0 -0.0092473552438152827 0.34458394006712117 0 0.0077413597133283042 0.33712104146662558 0 -0.02240577472018605 0.32606163960458839 0 -0.013114543376394699 0.31670816276007968 0 -0.0045793929973731553 0.3273326912411374 0 -0.013114543376394699 0.31670816276007968 0 -0.0045793929973731553 0.3273326912411374 0 0.0058272740681826907 0.31586856144546582 0 -0.026225506552533979 0.36410347328487808 0 -0.0035438202055331539 0.38233734554682047 0 0.0039110642325555032 0.36310624052965412 0 -0.0092473552438152827 0.34458394006712117 0 -0.026225506552533979 0.36410347328487808 0 0.0039110642325555032 0.36310624052965412 0 -0.0092473552438152827 0.34458394006712117 0 0.0039110642325555032 0.36310624052965412 0 -0.03089485037454643 0.33582140621346718 0 -0.026225506552533979 0.36410347328487808 0 -0.03089485037454643 0.33582140621346718 0 -0.0092473552438152827 0.34458394006712117 0 -0.026225506552533979 0.36410347328487808 0 -0.044259831598963698 0.35975897876319002 0 -0.054598538225258363 0.3772306398325968 0 -0.036879703011800137 0.38219684779542629 0 -0.026225506552533979 0.36410347328487808 0 -0.044259831598963698 0.35975897876319002 0 -0.036879703011800137 0.38219684779542629 0 -0.049159689326092083 0.34139825803602231 0 -0.03089485037454643 0.33582140621346718 0 -0.044259831598963698 0.35975897876319002 0 -0.03089485037454643 0.33582140621346718 0 -0.026225506552533979 0.36410347328487808 0 -0.044259831598963698 0.35975897876319002 0 -0.049159689326092083 0.34139825803602231 0 -0.044259831598963698 0.35975897876319002 0 -0.064069472527189197 0.35581473663230467 0 -0.044259831598963698 0.35975897876319002 0 -0.064069472527189197 0.35581473663230467 0 -0.054598538225258363 0.3772306398325968 0 -0.064069472527189197 0.35581473663230467 0 -0.054598538225258363 0.3772306398325968 0 -0.064069472527189197 0.35581473663230467 0 -0.065165842539590402 0.38084782309595938 0 -0.054598538225258363 0.3772306398325968 0 -0.083467349394471729 0.36750572297846762 0 -0.064069472527189197 0.35581473663230467 0 -0.065165842539590402 0.38084782309595938 0 -0.064069472527189197 0.35581473663230467 0 -0.065165842539590402 0.38084782309595938 0 -0.083467349394471729 0.36750572297846762 0 -0.082133338974371542 0.3490651825337539 0 -0.10039048834476259 0.346148058511487 0 -0.082133338974371542 0.3490651825337539 0 -0.087783984339241228 0.33855830635561612 0 -0.10039048834476259 0.346148058511487 0 -0.064069472527189197 0.35581473663230467 0 -0.074501765331292241 0.33222498658999122 0 -0.082133338974371542 0.3490651825337539 0 -0.064069472527189197 0.35581473663230467 0 -0.074501765331292241 0.33222498658999122 0 -0.083467349394471729 0.36750572297846762 0 -0.082133338974371542 0.3490651825337539 0 -0.064069472527189197 0.35581473663230467 0 -0.064069472527189197 0.35581473663230467 0 -0.063099784604373627 0.33367414418634511 0 -0.064069472527189197 0.35581473663230467 0 -0.063099784604373627 0.33367414418634511 0 -0.074501765331292241 0.33222498658999122 0 -0.084934058135394286 0.30863523654767733 0 -0.062130096681559277 0.31153355174038538 0 -0.074501765331292241 0.33222498658999122 0 -0.062130096681559277 0.31153355174038538 0 -0.063099784604373627 0.33367414418634511 0 -0.062130096681559277 0.31153355174038538 0 -0.063099784604373627 0.33367414418634511 0 -0.074501765331292241 0.33222498658999122 0 -0.084934058135394286 0.30863523654767733 0 -0.074501765331292241 0.33222498658999122 0 -0.094110344706538507 0.32679499778723248 0 -0.084934058135394286 0.30863523654767733 0 -0.074501765331292241 0.33222498658999122 0 -0.082133338974371542 0.3490651825337539 0 -0.074501765331292241 0.33222498658999122 0 -0.087783984339241228 0.33855830635561612 0 -0.074501765331292241 0.33222498658999122 0 -0.087783984339241228 0.33855830635561612 0 -0.094110344706538507 0.32679499778723248 0 -0.1079139876955708 0.33539883193653541 0 -0.094110344706538507 0.32679499778723248 0 -0.10039048834476259 0.346148058511487 0 -0.087783984339241228 0.33855830635561612 0 -0.094110344706538507 0.32679499778723248 0 -0.10039048834476259 0.346148058511487 0 -0.1079139876955708 0.33539883193653541 0 -0.094110344706538507 0.32679499778723248 0 -0.1192162520890889 0.32357221898242089 0 -0.1079139876955708 0.33539883193653541 0 -0.11831655285987901 0.3487777702036704 0 -0.10039048834476259 0.346148058511487 0 -0.10816241826521859 0.30346865129854961 0 -0.094110344706538507 0.32679499778723248 0 -0.1192162520890889 0.32357221898242089 0 -0.10816241826521859 0.30346865129854961 0 -0.084934058135394286 0.30863523654767733 0 -0.094110344706538507 0.32679499778723248 0 -0.1363526261333991 0.33769060303641318 0 -0.1192162520890889 0.32357221898242089 0 -0.11831655285987901 0.3487777702036704 0 -0.1079139876955708 0.33539883193653541 0 -0.1192162520890889 0.32357221898242089 0 -0.11831655285987901 0.3487777702036704 0 -0.1310493651893854 0.36742593291801429 0 -0.11831655285987901 0.3487777702036704 0 -0.104763000339527 0.37521623784654301 0 -0.1310493651893854 0.36742593291801429 0 -0.104763000339527 0.37521623784654301 0 -0.083467349394471729 0.36750572297846762 0 -0.10039048834476259 0.346148058511487 0 -0.104763000339527 0.37521623784654301 0 -0.11831655285987901 0.3487777702036704 0 -0.10039048834476259 0.346148058511487 0 -0.104763000339527 0.37521623784654301 0 -0.1150696849205224 0.39332963532642878 0 -0.098605507708963855 0.40698726307743388 0 -0.086377670956058278 0.39050941118817062 0 -0.104763000339527 0.37521623784654301 0 -0.1150696849205224 0.39332963532642878 0 -0.086377670956058278 0.39050941118817062 0 -0.1310493651893854 0.36742593291801429 0 -0.104763000339527 0.37521623784654301 0 -0.1150696849205224 0.39332963532642878 0 -0.13664718584319879 0.3978810013639047 0 -0.1150696849205224 0.39332963532642878 0 -0.1166494819338554 0.4127092967561114 0 -0.1150696849205224 0.39332963532642878 0 -0.1166494819338554 0.4127092967561114 0 -0.098605507708963855 0.40698726307743388 0 -0.1373887611044167 0.4193084032921045 0 -0.1166494819338554 0.4127092967561114 0 -0.1207948754090297 0.43110130256762552 0 -0.1166494819338554 0.4127092967561114 0 -0.1207948754090297 0.43110130256762552 0 -0.095858951111224611 0.43126106346737109 0 -0.1207948754090297 0.43110130256762552 0 -0.095858951111224611 0.43126106346737109 0 -0.1114445450603118 0.44542892541654849 0 -0.1166494819338554 0.4127092967561114 0 -0.095858951111224611 0.43126106346737109 0 -0.098605507708963855 0.40698726307743388 0 -0.095858951111224611 0.43126106346737109 0 -0.098605507708963855 0.40698726307743388 0 -0.082660528139742021 0.41415540555161318 0 -0.095858951111224611 0.43126106346737109 0 -0.067358582564395239 0.43091399602326902 0 -0.079849155791690829 0.44769357730141057 0 -0.095858951111224611 0.43126106346737109 0 -0.082660528139742021 0.41415540555161318 0 -0.067358582564395239 0.43091399602326902 0 -0.067358582564395239 0.43091399602326902 0 -0.066262212551992827 0.4058809095596142 0 -0.082660528139742021 0.41415540555161318 0 -0.067358582564395239 0.43091399602326902 0 -0.066262212551992827 0.4058809095596142 0 -0.066262212551992827 0.4058809095596142 0 -0.065165842539590402 0.38084782309595938 0 -0.066262212551992827 0.4058809095596142 0 -0.065165842539590402 0.38084782309595938 0 -0.05863502916977581 0.3936744040671834 0 -0.066262212551992827 0.4058809095596142 0 -0.086377670956058278 0.39050941118817062 0 -0.065165842539590402 0.38084782309595938 0 -0.098605507708963855 0.40698726307743388 0 -0.082660528139742021 0.41415540555161318 0 -0.086377670956058278 0.39050941118817062 0 -0.082660528139742021 0.41415540555161318 0 -0.066262212551992827 0.4058809095596142 0 -0.086377670956058278 0.39050941118817062 0 -0.083467349394471729 0.36750572297846762 0 -0.086377670956058278 0.39050941118817062 0 -0.065165842539590402 0.38084782309595938 0 -0.083467349394471729 0.36750572297846762 0 -0.104763000339527 0.37521623784654301 0 -0.086377670956058278 0.39050941118817062 0 -0.054598538225258363 0.3772306398325968 0 -0.045127603923326529 0.39864654303288849 0 -0.065165842539590402 0.38084782309595938 0 -0.054598538225258363 0.3772306398325968 0 -0.05863502916977581 0.3936744040671834 0 -0.054598538225258363 0.3772306398325968 0 -0.05863502916977581 0.3936744040671834 0 -0.045127603923326529 0.39864654303288849 0 -0.066262212551992827 0.4058809095596142 0 -0.05863502916977581 0.3936744040671834 0 -0.045127603923326529 0.39864654303288849 0 -0.045127603923326529 0.39864654303288849 0 -0.036879703011800137 0.38219684779542629 0 -0.03079364110302674 0.40510967147374771 0 -0.054598538225258363 0.3772306398325968 0 -0.045127603923326529 0.39864654303288849 0 -0.036879703011800137 0.38219684779542629 0 -0.026225506552533979 0.36410347328487808 0 -0.021556162730521529 0.39238554035628898 0 -0.0035438202055331539 0.38233734554682047 0 -0.026225506552533979 0.36410347328487808 0 -0.036879703011800137 0.38219684779542629 0 -0.021556162730521529 0.39238554035628898 0 -0.026225506552533979 0.36410347328487808 0 -0.021556162730521529 0.39238554035628898 0 -0.03079364110302674 0.40510967147374771 0 -0.021556162730521529 0.39238554035628898 0 -0.016886818908509078 0.42066760742769987 0 -0.036879703011800137 0.38219684779542629 0 -0.03079364110302674 0.40510967147374771 0 -0.021556162730521529 0.39238554035628898 0 -0.021556162730521529 0.39238554035628898 0 -0.016886818908509078 0.42066760742769987 0 0.0045505085337773817 0.40125010839367292 0 -0.021556162730521529 0.39238554035628898 0 -0.0035438202055331539 0.38233734554682047 0 0.0045505085337773817 0.40125010839367292 0 -0.0072108633116705198 0.43508635142698582 0 -0.016886818908509078 0.42066760742769987 0 -0.011853398944084889 0.44432467469233461 0 -0.016886818908509078 0.42066760742769987 0 -0.012217475086496409 0.44894967449911077 0 -0.0072108633116705198 0.43508635142698582 0 -0.016886818908509078 0.42066760742769987 0 0.00042294704899089008 0.42776047570166842 0 -0.0072108633116705198 0.43508635142698582 0 -0.0020466792170015929 0.4432303571161415 0 0.00042294704899089008 0.42776047570166842 0 -0.016886818908509078 0.42066760742769987 0 0.00042294704899089008 0.42776047570166842 0 0.0045505085337773817 0.40125010839367292 0 -0.021556162730521529 0.39238554035628898 0 -0.016886818908509078 0.42066760742769987 0 -0.03079364110302674 0.40510967147374771 0 -0.016886818908509078 0.42066760742769987 0 -0.035656669621394688 0.42006244623318018 0 -0.016886818908509078 0.42066760742769987 0 -0.028099025908100018 0.43724092122114472 0 -0.035656669621394688 0.42006244623318018 0 -0.016886818908509078 0.42066760742769987 0 -0.028099025908100018 0.43724092122114472 0 -0.012217475086496409 0.44894967449911077 0 -0.028099025908100018 0.43724092122114472 0 -0.035656669621394688 0.42006244623318018 0 -0.047545941735539339 0.43706195714142032 0 -0.035656669621394688 0.42006244623318018 0 -0.053738828524002018 0.41896994617234962 0 -0.047545941735539339 0.43706195714142032 0 -0.045127603923326529 0.39864654303288849 0 -0.03079364110302674 0.40510967147374771 0 -0.035656669621394688 0.42006244623318018 0 -0.045127603923326529 0.39864654303288849 0 -0.035656669621394688 0.42006244623318018 0 -0.045127603923326529 0.39864654303288849 0 -0.035656669621394688 0.42006244623318018 0 -0.053738828524002018 0.41896994617234962 0 -0.067358582564395239 0.43091399602326902 0 -0.066262212551992827 0.4058809095596142 0 -0.053738828524002018 0.41896994617234962 0 -0.066262212551992827 0.4058809095596142 0 -0.045127603923326529 0.39864654303288849 0 -0.053738828524002018 0.41896994617234962 0 -0.067358582564395239 0.43091399602326902 0 -0.053738828524002018 0.41896994617234962 0 -0.047545941735539339 0.43706195714142032 0 -0.047545941735539339 0.43706195714142032 0 -0.059213946238214778 0.45373083648753998 0 -0.034410915867155757 0.46142965475566577 0 -0.067358582564395239 0.43091399602326902 0 -0.047545941735539339 0.43706195714142032 0 -0.059213946238214778 0.45373083648753998 0 -0.059213946238214778 0.45373083648753998 0 -0.034410915867155757 0.46142965475566577 0 -0.056604356647815379 0.47390963501222022 0 -0.034410915867155757 0.46142965475566577 0 -0.056604356647815379 0.47390963501222022 0 -0.028099025908100018 0.43724092122114472 0 -0.047545941735539339 0.43706195714142032 0 -0.034410915867155757 0.46142965475566577 0 -0.028099025908100018 0.43724092122114472 0 -0.034410915867155757 0.46142965475566577 0 -0.012217475086496409 0.44894967449911077 0 -0.034410915867155757 0.46142965475566577 0 -0.012217475086496409 0.44894967449911077 0 -0.034410915867155757 0.46142965475566577 0 -0.012217475086496409 0.44894967449911077 0 -0.02234821839479657 0.47024967061584222 0 -0.0094108649406965551 0.46594922291801671 0 -0.012217475086496409 0.44894967449911077 0 -0.02234821839479657 0.47024967061584222 0 -0.0094108649406965551 0.46594922291801671 0 -0.012217475086496409 0.44894967449911077 0 -0.0094108649406965551 0.46594922291801671 0 -0.0044897977537646768 0.45555525047748219 0 -0.012217475086496409 0.44894967449911077 0 -0.0094108649406965551 0.46594922291801671 0 -0.0044897977537646768 0.45555525047748219 0 -0.0021890098681121291 0.47083828691712792 0 -0.0044897977537646768 0.45555525047748219 0 -0.0055161832163427406 0.44518135434274181 0 -0.012217475086496409 0.44894967449911077 0 -0.0044897977537646768 0.45555525047748219 0 -0.0055161832163427406 0.44518135434274181 0 0.0068845443428243187 0.44685771371041599 0 -0.016886818908509078 0.42066760742769987 0 -0.011853398944084889 0.44432467469233461 0 -0.012217475086496409 0.44894967449911077 0 -0.0072108633116705198 0.43508635142698582 0 -0.0020466792170015929 0.4432303571161415 0 -0.0055161832163427406 0.44518135434274181 0 -0.0020466792170015929 0.4432303571161415 0 -0.0055161832163427406 0.44518135434274181 0 0.0068845443428243187 0.44685771371041599 0 -0.0020466792170015929 0.4432303571161415 0 -0.0055161832163427406 0.44518135434274181 0 -0.0055161832163427406 0.44518135434274181 0 -0.011853398944084889 0.44432467469233461 0 -0.0072108633116705198 0.43508635142698582 0 -0.0055161832163427406 0.44518135434274181 0 -0.011853398944084889 0.44432467469233461 0 -0.0055161832163427406 0.44518135434274181 0 -0.012217475086496409 0.44894967449911077 0 -0.0055161832163427406 0.44518135434274181 0 -0.011853398944084889 0.44432467469233461 0 -0.012217475086496409 0.44894967449911077 0 -0.0042917783013651416 0.48518830721076228 0 -0.018877736526897771 0.48269869311726932 0 -0.02207477262429924 0.5 0 -0.0042917783013651416 0.48518830721076228 0 -0.02207477262429924 0.5 0 0.0056102258772220406 0.5 0 -0.0042917783013651416 0.48518830721076228 0 -0.0021890098681121291 0.47083828691712792 0 -0.011423521606373631 0.47498483615580372 0 -0.0094108649406965551 0.46594922291801671 0 -0.0021890098681121291 0.47083828691712792 0 -0.011423521606373631 0.47498483615580372 0 -0.0094108649406965551 0.46594922291801671 0 -0.011423521606373631 0.47498483615580372 0 -0.02234821839479657 0.47024967061584222 0 -0.0042917783013651416 0.48518830721076228 0 -0.011423521606373631 0.47498483615580372 0 -0.018877736526897771 0.48269869311726932 0 -0.018877736526897771 0.48269869311726932 0 -0.02234821839479657 0.47024967061584222 0 -0.034984675762179132 0.48178424952220961 0 -0.034410915867155757 0.46142965475566577 0 -0.02234821839479657 0.47024967061584222 0 -0.034984675762179132 0.48178424952220961 0 -0.011423521606373631 0.47498483615580372 0 -0.018877736526897771 0.48269869311726932 0 -0.02234821839479657 0.47024967061584222 0 -0.018877736526897771 0.48269869311726932 0 -0.02207477262429924 0.5 0 -0.034984675762179132 0.48178424952220961 0 -0.02207477262429924 0.5 0 -0.034984675762179132 0.48178424952220961 0 -0.049759771125820418 0.5 0 -0.034410915867155757 0.46142965475566577 0 -0.034984675762179132 0.48178424952220961 0 -0.056604356647815379 0.47390963501222022 0 -0.034984675762179132 0.48178424952220961 0 -0.056604356647815379 0.47390963501222022 0 -0.049759771125820418 0.5 0 -0.056604356647815379 0.47390963501222022 0 -0.049759771125820418 0.5 0 -0.065066129898568248 0.49055385234537691 0 -0.049759771125820418 0.5 0 -0.065066129898568248 0.49055385234537691 0 -0.077444769627341703 0.5 0 -0.065066129898568248 0.49055385234537691 0 -0.077444769627341703 0.5 0 -0.078797797428474967 0.48638961526877461 0 -0.077444769627341703 0.5 0 -0.078797797428474967 0.48638961526877461 0 -0.1051297681288629 0.5 0 -0.078797797428474967 0.48638961526877461 0 -0.077857893123343819 0.464870395234046 0 -0.1009138941674679 0.47651720954437998 0 -0.056604356647815379 0.47390963501222022 0 -0.065066129898568248 0.49055385234537691 0 -0.078797797428474967 0.48638961526877461 0 -0.056604356647815379 0.47390963501222022 0 -0.078797797428474967 0.48638961526877461 0 -0.056604356647815379 0.47390963501222022 0 -0.078797797428474967 0.48638961526877461 0 -0.077857893123343819 0.464870395234046 0 -0.059213946238214778 0.45373083648753998 0 -0.056604356647815379 0.47390963501222022 0 -0.077857893123343819 0.464870395234046 0 -0.059213946238214778 0.45373083648753998 0 -0.077857893123343819 0.464870395234046 0 -0.079849155791690829 0.44769357730141057 0 -0.067358582564395239 0.43091399602326902 0 -0.059213946238214778 0.45373083648753998 0 -0.079849155791690829 0.44769357730141057 0 -0.095858951111224611 0.43126106346737109 0 -0.079849155791690829 0.44769357730141057 0 -0.098956405921275623 0.45769159529482722 0 -0.077857893123343819 0.464870395234046 0 -0.079849155791690829 0.44769357730141057 0 -0.098956405921275623 0.45769159529482722 0 -0.077857893123343819 0.464870395234046 0 -0.098956405921275623 0.45769159529482722 0 -0.1009138941674679 0.47651720954437998 0 -0.098956405921275623 0.45769159529482722 0 -0.11985505786811081 0.46639536376042767 0 -0.1009138941674679 0.47651720954437998 0 -0.095858951111224611 0.43126106346737109 0 -0.098956405921275623 0.45769159529482722 0 -0.1114445450603118 0.44542892541654849 0 -0.12863788831223599 0.44870240056096039 0 -0.1207948754090297 0.43110130256762552 0 -0.1114445450603118 0.44542892541654849 0 -0.098956405921275623 0.45769159529482722 0 -0.1114445450603118 0.44542892541654849 0 -0.11985505786811081 0.46639536376042767 0 -0.098956405921275623 0.45769159529482722 0 -0.11985505786811081 0.46639536376042767 0 -0.12863788831223599 0.44870240056096039 0 -0.1114445450603118 0.44542892541654849 0 -0.11985505786811081 0.46639536376042767 0 -0.11985505786811081 0.46639536376042767 0 -0.12132001166846421 0.48364632584960632 0 -0.1009138941674679 0.47651720954437998 0 -0.13281476663038419 0.49999999999999772 0 -0.12132001166846421 0.48364632584960632 0 -0.1051297681288629 0.5 0 -0.078797797428474967 0.48638961526877461 0 -0.1051297681288629 0.5 0 -0.1009138941674679 0.47651720954437998 0 -0.12132001166846421 0.48364632584960632 0 -0.1051297681288629 0.5 0 -0.1009138941674679 0.47651720954437998 0 -0.16148332812627261 0.090211673673301407 0 -0.16487974526141511 0.067995991940292294 0 -0.16148332812627261 0.090211673673301407 0 -0.17829414682645259 0.071182424666252325 0 -0.16148332812627261 0.090211673673301407 0 -0.1759743238783997 0.076942622704389674 0 -0.1659302515927242 0.10188239042391781 0 -0.16148332812627261 0.090211673673301407 0 -0.16487974526141511 0.067995991940292294 0 -0.1555022109634317 0.079055927582486279 0 -0.1759743238783997 0.076942622704389674 0 -0.1659302515927242 0.10188239042391781 0 -0.16148332812627261 0.090211673673301407 0 -0.159404158602591 0.092565219642692029 0 -0.16148332812627261 0.090211673673301407 0 -0.159404158602591 0.092565219642692029 0 -0.15452964850818929 0.08812287205331279 0 -0.16148332812627261 0.090211673673301407 0 -0.1555022109634317 0.079055927582486279 0 -0.15452964850818929 0.08812287205331279 0 -0.16148332812627261 0.090211673673301407 0 -0.16487974526141511 0.067995991940292294 0 -0.17829414682645259 0.071182424666252325 0 -0.16487974526141511 0.067995991940292294 0 -0.14779867043573161 0.06800169316735355 0 -0.15633497669734919 0.055322166132931228 0 -0.17829414682645259 0.071182424666252325 0 -0.18008134254987321 0.066744757857043965 0 -0.1951754251926705 0.052073417822664669 0 -0.17829414682645259 0.071182424666252325 0 -0.18830940700551749 0.07882745648594261 0 -0.19426152088948739 0.069103258393699116 0 -0.17829414682645259 0.071182424666252325 0 -0.1759743238783997 0.076942622704389674 0 -0.16487974526141511 0.067995991940292294 0 -0.17829414682645259 0.071182424666252325 0 -0.18008134254987321 0.066744757857043965 0 -0.17829414682645259 0.071182424666252325 0 -0.18008134254987321 0.066744757857043965 0 -0.17829414682645259 0.071182424666252325 0 -0.1759743238783997 0.076942622704389674 0 -0.18830940700551749 0.07882745648594261 0 -0.1759743238783997 0.076942622704389674 0 -0.18530487009639729 0.094572882829669275 0 -0.1759743238783997 0.076942622704389674 0 -0.18530487009639729 0.094572882829669275 0 -0.18830940700551749 0.07882745648594261 0 -0.1759743238783997 0.076942622704389674 0 -0.18530487009639729 0.094572882829669275 0 -0.1659302515927242 0.10188239042391781 0 -0.16148332812627261 0.090211673673301407 0 -0.17829414682645259 0.071182424666252325 0 -0.1759743238783997 0.076942622704389674 0 -0.18530487009639729 0.094572882829669275 0 -0.18047970318012421 0.11003289805175 0 -0.1659302515927242 0.10188239042391781 0 -0.18530487009639729 0.094572882829669275 0 -0.18047970318012421 0.11003289805175 0 -0.18841398351747141 0.1092177557215579 0 -0.18047970318012421 0.11003289805175 0 -0.17446197590365381 0.1155961544234174 0 -0.1659302515927242 0.10188239042391781 0 -0.18059671191843449 0.1205144438941473 0 -0.18778133092507901 0.1185114871233041 0 -0.18471215959175799 0.1268657688275486 0 -0.18059671191843449 0.1205144438941473 0 -0.18047970318012421 0.11003289805175 0 -0.18778133092507901 0.1185114871233041 0 -0.18047970318012421 0.11003289805175 0 -0.18778133092507901 0.1185114871233041 0 -0.18841398351747141 0.1092177557215579 0 -0.18059671191843449 0.1205144438941473 0 -0.18047970318012421 0.11003289805175 0 -0.17446197590365381 0.1155961544234174 0 -0.18059671191843449 0.1205144438941473 0 -0.17408352127790611 0.12326210978049081 0 -0.1754276643550321 0.13048443616694311 0 -0.18059671191843449 0.1205144438941473 0 -0.17446197590365381 0.1155961544234174 0 -0.17408352127790611 0.12326210978049081 0 -0.17446197590365381 0.1155961544234174 0 -0.1659302515927242 0.10188239042391781 0 -0.16545863780751871 0.1265511307429695 0 -0.1659302515927242 0.10188239042391781 0 -0.15588617930704779 0.12682215814344561 0 -0.1659302515927242 0.10188239042391781 0 -0.16545863780751871 0.1265511307429695 0 -0.15588617930704779 0.12682215814344561 0 -0.1659302515927242 0.10188239042391781 0 -0.15868475371666069 0.10851691590837351 0 -0.15588617930704779 0.12682215814344561 0 -0.15868475371666069 0.10851691590837351 0 -0.15588617930704779 0.12682215814344561 0 -0.17446197590365381 0.1155961544234174 0 -0.17408352127790611 0.12326210978049081 0 -0.16545863780751871 0.1265511307429695 0 -0.159404158602591 0.092565219642692029 0 -0.15868475371666069 0.10851691590837351 0 -0.15076487882561329 0.093978751801420499 0 -0.16148332812627261 0.090211673673301407 0 -0.1659302515927242 0.10188239042391781 0 -0.15868475371666069 0.10851691590837351 0 -0.16148332812627261 0.090211673673301407 0 -0.15868475371666069 0.10851691590837351 0 -0.16148332812627261 0.090211673673301407 0 -0.159404158602591 0.092565219642692029 0 -0.15868475371666069 0.10851691590837351 0 -0.15868475371666069 0.10851691590837351 0 -0.15076487882561329 0.093978751801420499 0 -0.14361402018080341 0.10059699973129919 0 -0.15868475371666069 0.10851691590837351 0 -0.14361402018080341 0.10059699973129919 0 -0.14504935751251799 0.117036271630567 0 -0.15868475371666069 0.10851691590837351 0 -0.14504935751251799 0.117036271630567 0 -0.15588617930704779 0.12682215814344561 0 -0.14504935751251799 0.117036271630567 0 -0.15588617930704779 0.12682215814344561 0 -0.14617813048269371 0.13022589322232789 0 -0.14504935751251799 0.117036271630567 0 -0.13536376206256351 0.1249867662025711 0 -0.14617813048269371 0.13022589322232789 0 -0.14361402018080341 0.10059699973129919 0 -0.14504935751251799 0.117036271630567 0 -0.1300305300871526 0.1112214946989411 0 -0.14504935751251799 0.117036271630567 0 -0.13536376206256351 0.1249867662025711 0 -0.1300305300871526 0.1112214946989411 0 -0.13536376206256351 0.1249867662025711 0 -0.1300305300871526 0.1112214946989411 0 -0.1240714866132859 0.12404616482660399 0 -0.14361402018080341 0.10059699973129919 0 -0.1300305300871526 0.1112214946989411 0 -0.13091045010780589 0.092504633903325723 0 -0.1300305300871526 0.1112214946989411 0 -0.13091045010780589 0.092504633903325723 0 -0.1162882706491276 0.1025664852558727 0 -0.13091045010780589 0.092504633903325723 0 -0.13264193287082821 0.076822749453180988 0 -0.11471473266248219 0.082009826567953859 0 -0.14361402018080341 0.10059699973129919 0 -0.13091045010780589 0.092504633903325723 0 -0.14549366602303679 0.084802787566663484 0 -0.13091045010780589 0.092504633903325723 0 -0.14549366602303679 0.084802787566663484 0 -0.13264193287082821 0.076822749453180988 0 -0.15076487882561329 0.093978751801420499 0 -0.14361402018080341 0.10059699973129919 0 -0.14549366602303679 0.084802787566663484 0 -0.14549366602303679 0.084802787566663484 0 -0.1555022109634317 0.079055927582486279 0 -0.15452964850818929 0.08812287205331279 0 -0.15076487882561329 0.093978751801420499 0 -0.14549366602303679 0.084802787566663484 0 -0.15452964850818929 0.08812287205331279 0 -0.159404158602591 0.092565219642692029 0 -0.15076487882561329 0.093978751801420499 0 -0.15452964850818929 0.08812287205331279 0 -0.14549366602303679 0.084802787566663484 0 -0.1555022109634317 0.079055927582486279 0 -0.14779867043573161 0.06800169316735355 0 -0.16487974526141511 0.067995991940292294 0 -0.1555022109634317 0.079055927582486279 0 -0.14779867043573161 0.06800169316735355 0 -0.14549366602303679 0.084802787566663484 0 -0.14779867043573161 0.06800169316735355 0 -0.13264193287082821 0.076822749453180988 0 -0.14779867043573161 0.06800169316735355 0 -0.13264193287082821 0.076822749453180988 0 -0.13427666143457351 0.06177313575650302 0 -0.13264193287082821 0.076822749453180988 0 -0.13427666143457351 0.06177313575650302 0 -0.1223786286685794 0.066419709785489639 0 -0.13427666143457351 0.06177313575650302 0 -0.14069364338646281 0.048624186504618243 0 -0.124709864767631 0.051647358848855733 0 -0.13427666143457351 0.06177313575650302 0 -0.1223786286685794 0.066419709785489639 0 -0.124709864767631 0.051647358848855733 0 -0.14069364338646281 0.048624186504618243 0 -0.1335886163371949 0.029246679841882561 0 -0.14069364338646281 0.048624186504618243 0 -0.1335886163371949 0.029246679841882561 0 -0.124709864767631 0.051647358848855733 0 -0.15338350595045319 0.035013448541678538 0 -0.14069364338646281 0.048624186504618243 0 -0.15633497669734919 0.055322166132931228 0 -0.15338350595045319 0.035013448541678538 0 -0.14069364338646281 0.048624186504618243 0 -0.1335886163371949 0.029246679841882561 0 -0.14779867043573161 0.06800169316735355 0 -0.14069364338646281 0.048624186504618243 0 -0.14779867043573161 0.06800169316735355 0 -0.13427666143457351 0.06177313575650302 0 -0.14069364338646281 0.048624186504618243 0 -0.14779867043573161 0.06800169316735355 0 -0.14069364338646281 0.048624186504618243 0 -0.15633497669734919 0.055322166132931228 0 -0.12713940856238881 -0.0076790342467774756 0 -0.12717484439133969 0.01175442995286285 0 -0.14541023924915009 0.00042060974509095309 0 -0.12717484439133969 0.01175442995286285 0 -0.1335886163371949 0.029246679841882561 0 -0.14541023924915009 0.00042060974509095309 0 -0.12717484439133969 0.01175442995286285 0 -0.1335886163371949 0.029246679841882561 0 -0.12717484439133969 0.01175442995286285 0 -0.1335886163371949 0.029246679841882561 0 -0.1161965099403782 0.025105612189290239 0 -0.15338350595045319 0.035013448541678538 0 -0.1335886163371949 0.029246679841882561 0 -0.15855884906805501 0.016020339818376458 0 -0.1335886163371949 0.029246679841882561 0 -0.15855884906805501 0.016020339818376458 0 -0.1335886163371949 0.029246679841882561 0 -0.14541023924915009 0.00042060974509095309 0 -0.15855884906805501 0.016020339818376458 0 -0.16274453941380371 -0.002728002490621266 0 -0.14541023924915009 0.00042060974509095309 0 -0.15855884906805501 0.016020339818376458 0 -0.15855884906805501 0.016020339818376458 0 -0.18352908179891519 0.002793999794870175 0 -0.17167257953169759 0.023564628474273739 0 -0.15855884906805501 0.016020339818376458 0 -0.18352908179891519 0.002793999794870175 0 -0.16274453941380371 -0.002728002490621266 0 -0.15855884906805501 0.016020339818376458 0 -0.18352908179891519 0.002793999794870175 0 -0.15338350595045319 0.035013448541678538 0 -0.17167257953169759 0.023564628474273739 0 -0.15855884906805501 0.016020339818376458 0 -0.185832446546671 0.019657453282740749 0 -0.17934773325540199 0.035300350232641102 0 -0.19278632044568991 0.033824402791746797 0 -0.17167257953169759 0.023564628474273739 0 -0.185832446546671 0.019657453282740749 0 -0.17934773325540199 0.035300350232641102 0 -0.17167257953169759 0.023564628474273739 0 -0.185832446546671 0.019657453282740749 0 -0.18352908179891519 0.002793999794870175 0 -0.16487974526141511 0.067995991940292294 0 -0.15633497669734919 0.055322166132931228 0 -0.16827616239655629 0.045780310207283029 0 -0.16487974526141511 0.067995991940292294 0 -0.16827616239655629 0.045780310207283029 0 -0.1808943065417121 0.052480973605082387 0 -0.16487974526141511 0.067995991940292294 0 -0.16827616239655629 0.045780310207283029 0 -0.15338350595045319 0.035013448541678538 0 -0.17167257953169759 0.023564628474273739 0 -0.16827616239655629 0.045780310207283029 0 -0.15338350595045319 0.035013448541678538 0 -0.15633497669734919 0.055322166132931228 0 -0.16827616239655629 0.045780310207283029 0 -0.17167257953169759 0.023564628474273739 0 -0.16827616239655629 0.045780310207283029 0 -0.17934773325540199 0.035300350232641102 0 -0.1808943065417121 0.052480973605082387 0 -0.19278632044568991 0.033824402791746797 0 -0.16827616239655629 0.045780310207283029 0 -0.17934773325540199 0.035300350232641102 0 -0.1808943065417121 0.052480973605082387 0 -0.17167257953169759 0.023564628474273739 0 -0.16827616239655629 0.045780310207283029 0 -0.17934773325540199 0.035300350232641102 0 -0.16487974526141511 0.067995991940292294 0 -0.18008134254987321 0.066744757857043965 0 -0.1808943065417121 0.052480973605082387 0 -0.17829414682645259 0.071182424666252325 0 -0.1951754251926705 0.052073417822664669 0 -0.18008134254987321 0.066744757857043965 0 -0.1808943065417121 0.052480973605082387 0 -0.1951754251926705 0.052073417822664669 0 -0.1808943065417121 0.052480973605082387 0 -0.1951754251926705 0.052073417822664669 0 -0.19278632044568991 0.033824402791746797 0 -0.1951754251926705 0.052073417822664669 0 -0.19278632044568991 0.033824402791746797 0 -0.2120567035588887 0.032964410979077118 0 -0.2120567035588887 0.032964410979077118 0 -0.2165858503187274 0.054120555665792727 0 -0.22534887064146281 0.041207866844521157 0 -0.1951754251926705 0.052073417822664669 0 -0.2120567035588887 0.032964410979077118 0 -0.2165858503187274 0.054120555665792727 0 -0.1951754251926705 0.052073417822664669 0 -0.2120567035588887 0.032964410979077118 0 -0.1951754251926705 0.052073417822664669 0 -0.2165858503187274 0.054120555665792727 0 -0.20835016246479929 0.066363711458272107 0 -0.20849931452977519 -0.01043234022863607 0 -0.18352908179891519 0.002793999794870175 0 -0.20518993213912379 0.01189016829778876 0 -0.185832446546671 0.019657453282740749 0 -0.18352908179891519 0.002793999794870175 0 -0.20518993213912379 0.01189016829778876 0 -0.185832446546671 0.019657453282740749 0 -0.19278632044568991 0.033824402791746797 0 -0.20518993213912379 0.01189016829778876 0 -0.19278632044568991 0.033824402791746797 0 -0.2120567035588887 0.032964410979077118 0 -0.20518993213912379 0.01189016829778876 0 -0.2120567035588887 0.032964410979077118 0 -0.20518993213912379 0.01189016829778876 0 -0.228937981925107 0.013855404135489489 0 -0.22677412226260951 -0.0050673254014672181 0 -0.20518993213912379 0.01189016829778876 0 -0.228937981925107 0.013855404135489489 0 -0.22677412226260951 -0.0050673254014672181 0 -0.24581926029132531 -0.0052536027080981318 0 -0.228937981925107 0.013855404135489489 0 -0.2120567035588887 0.032964410979077118 0 -0.228937981925107 0.013855404135489489 0 -0.22743168929404431 0.028783252306627372 0 -0.2120567035588887 0.032964410979077118 0 -0.228937981925107 0.013855404135489489 0 -0.228937981925107 0.013855404135489489 0 -0.22743168929404431 0.028783252306627372 0 -0.2356759760110213 0.021008311069527871 0 -0.22743168929404431 0.028783252306627372 0 -0.2356759760110213 0.021008311069527871 0 -0.23513891433374171 0.034880268504521202 0 -0.26240404264376449 0.032251770948421861 0 -0.2356759760110213 0.021008311069527871 0 -0.24762104927762729 0.036412932694412203 0 -0.26240404264376449 0.032251770948421861 0 -0.2356759760110213 0.021008311069527871 0 -0.2356759760110213 0.021008311069527871 0 -0.23513891433374171 0.034880268504521202 0 -0.24762104927762729 0.036412932694412203 0 -0.25342021044930962 0.01019897024344749 0 -0.228937981925107 0.013855404135489489 0 -0.2356759760110213 0.021008311069527871 0 -0.24581926029132531 -0.0052536027080981318 0 -0.228937981925107 0.013855404135489489 0 -0.24581926029132531 -0.0052536027080981318 0 -0.25342021044930962 0.01019897024344749 0 -0.228937981925107 0.013855404135489489 0 -0.2290165164309266 0.05345602860271418 0 -0.23360563393465261 0.043872207615077707 0 -0.23925119041222781 0.051584954752832667 0 -0.2290165164309266 0.05345602860271418 0 -0.2371152711374552 0.060121837010069512 0 -0.22782631319361421 0.069074598871536302 0 -0.2165858503187274 0.054120555665792727 0 -0.2290165164309266 0.05345602860271418 0 -0.22782631319361421 0.069074598871536302 0 -0.2165858503187274 0.054120555665792727 0 -0.2290165164309266 0.05345602860271418 0 -0.22534887064146281 0.041207866844521157 0 -0.2120567035588887 0.032964410979077118 0 -0.22743168929404431 0.028783252306627372 0 -0.22534887064146281 0.041207866844521157 0 -0.22743168929404431 0.028783252306627372 0 -0.22534887064146281 0.041207866844521157 0 -0.23513891433374171 0.034880268504521202 0 -0.22534887064146281 0.041207866844521157 0 -0.23360563393465261 0.043872207615077707 0 -0.23513891433374171 0.034880268504521202 0 -0.2290165164309266 0.05345602860271418 0 -0.22534887064146281 0.041207866844521157 0 -0.23360563393465261 0.043872207615077707 0 -0.23360563393465261 0.043872207615077707 0 -0.24163784822361339 0.044003978543737748 0 -0.23925119041222781 0.051584954752832667 0 -0.23360563393465261 0.043872207615077707 0 -0.24163784822361339 0.044003978543737748 0 -0.23513891433374171 0.034880268504521202 0 -0.24163784822361339 0.044003978543737748 0 -0.23513891433374171 0.034880268504521202 0 -0.24762104927762729 0.036412932694412203 0 -0.24163784822361339 0.044003978543737748 0 -0.24762104927762729 0.036412932694412203 0 -0.2493751262155684 0.045138526110561232 0 -0.24163784822361339 0.044003978543737748 0 -0.2493751262155684 0.045138526110561232 0 -0.24607097024029809 0.05081564983130591 0 -0.24607097024029809 0.05081564983130591 0 -0.23925119041222781 0.051584954752832667 0 -0.24806090250642079 0.057240026914091011 0 -0.25273612023309838 0.049916635427057397 0 -0.2493751262155684 0.045138526110561232 0 -0.24607097024029809 0.05081564983130591 0 -0.25273612023309838 0.049916635427057397 0 -0.24607097024029809 0.05081564983130591 0 -0.24806090250642079 0.057240026914091011 0 -0.24163784822361339 0.044003978543737748 0 -0.24607097024029809 0.05081564983130591 0 -0.23925119041222781 0.051584954752832667 0 -0.2290165164309266 0.05345602860271418 0 -0.23925119041222781 0.051584954752832667 0 -0.2371152711374552 0.060121837010069512 0 -0.23925119041222781 0.051584954752832667 0 -0.2371152711374552 0.060121837010069512 0 -0.24806090250642079 0.057240026914091011 0 -0.2371152711374552 0.060121837010069512 0 -0.24806090250642079 0.057240026914091011 0 -0.24552406085146769 0.063712102697614056 0 -0.25321289003786929 0.062372847780701131 0 -0.24806090250642079 0.057240026914091011 0 -0.24552406085146769 0.063712102697614056 0 -0.25116720230913592 0.071648978898289917 0 -0.25321289003786929 0.062372847780701131 0 -0.24552406085146769 0.063712102697614056 0 -0.25116720230913592 0.071648978898289917 0 -0.24552406085146769 0.063712102697614056 0 -0.23899141513161501 0.068144493011208937 0 -0.25666564669603592 0.079307487809267857 0 -0.25116720230913592 0.071648978898289917 0 -0.24202180751567071 0.077416193969850763 0 -0.25116720230913592 0.071648978898289917 0 -0.24202180751567071 0.077416193969850763 0 -0.23899141513161501 0.068144493011208937 0 -0.24202180751567071 0.077416193969850763 0 -0.23899141513161501 0.068144493011208937 0 -0.22782631319361421 0.069074598871536302 0 -0.2371152711374552 0.060121837010069512 0 -0.23899141513161501 0.068144493011208937 0 -0.22782631319361421 0.069074598871536302 0 -0.2371152711374552 0.060121837010069512 0 -0.24552406085146769 0.063712102697614056 0 -0.23899141513161501 0.068144493011208937 0 -0.24202180751567071 0.077416193969850763 0 -0.24659779519383199 0.089377054445430995 0 -0.23071457837411399 0.086429996812232388 0 -0.24659779519383199 0.089377054445430995 0 -0.23071457837411399 0.086429996812232388 0 -0.238327517766487 0.096943626078964326 0 -0.25666564669603592 0.079307487809267857 0 -0.24202180751567071 0.077416193969850763 0 -0.24659779519383199 0.089377054445430995 0 -0.23071457837411399 0.086429996812232388 0 -0.22782631319361421 0.069074598871536302 0 -0.21599934277607499 0.080110357232273763 0 -0.23071457837411399 0.086429996812232388 0 -0.21635347163673141 0.095181877158469499 0 -0.22849024943096671 0.098610929563577643 0 -0.23071457837411399 0.086429996812232388 0 -0.21599934277607499 0.080110357232273763 0 -0.21635347163673141 0.095181877158469499 0 -0.24202180751567071 0.077416193969850763 0 -0.23071457837411399 0.086429996812232388 0 -0.22782631319361421 0.069074598871536302 0 -0.2165858503187274 0.054120555665792727 0 -0.22782631319361421 0.069074598871536302 0 -0.20835016246479929 0.066363711458272107 0 -0.22782631319361421 0.069074598871536302 0 -0.20835016246479929 0.066363711458272107 0 -0.21599934277607499 0.080110357232273763 0 -0.20835016246479929 0.066363711458272107 0 -0.21599934277607499 0.080110357232273763 0 -0.2011784629579966 0.077069281535363701 0 -0.21599934277607499 0.080110357232273763 0 -0.20713684104915769 0.087490486148222663 0 -0.21635347163673141 0.095181877158469499 0 -0.20713684104915769 0.087490486148222663 0 -0.2007743952470617 0.097670027320382269 0 -0.21635347163673141 0.095181877158469499 0 -0.21599934277607499 0.080110357232273763 0 -0.20713684104915769 0.087490486148222663 0 -0.2011784629579966 0.077069281535363701 0 -0.20713684104915769 0.087490486148222663 0 -0.19605030331302339 0.087340494815244557 0 -0.2011784629579966 0.077069281535363701 0 -0.18530487009639729 0.094572882829669275 0 -0.19605030331302339 0.087340494815244557 0 -0.18830940700551749 0.07882745648594261 0 -0.20713684104915769 0.087490486148222663 0 -0.19605030331302339 0.087340494815244557 0 -0.2007743952470617 0.097670027320382269 0 -0.18530487009639729 0.094572882829669275 0 -0.19605030331302339 0.087340494815244557 0 -0.2007743952470617 0.097670027320382269 0 -0.19605030331302339 0.087340494815244557 0 -0.18830940700551749 0.07882745648594261 0 -0.2011784629579966 0.077069281535363701 0 -0.1951754251926705 0.052073417822664669 0 -0.20835016246479929 0.066363711458272107 0 -0.19426152088948739 0.069103258393699116 0 -0.17829414682645259 0.071182424666252325 0 -0.1951754251926705 0.052073417822664669 0 -0.19426152088948739 0.069103258393699116 0 -0.18830940700551749 0.07882745648594261 0 -0.19426152088948739 0.069103258393699116 0 -0.2011784629579966 0.077069281535363701 0 -0.20835016246479929 0.066363711458272107 0 -0.19426152088948739 0.069103258393699116 0 -0.2011784629579966 0.077069281535363701 0 -0.18778133092507901 0.1185114871233041 0 -0.19463541631439529 0.1122031429549485 0 -0.1929801591773169 0.128299136446509 0 -0.19463541631439529 0.1122031429549485 0 -0.1929801591773169 0.128299136446509 0 -0.20604309539342419 0.1337581885964399 0 -0.19463541631439529 0.1122031429549485 0 -0.20604309539342419 0.1337581885964399 0 -0.18778133092507901 0.1185114871233041 0 -0.1929801591773169 0.128299136446509 0 -0.18471215959175799 0.1268657688275486 0 -0.18778133092507901 0.1185114871233041 0 -0.19463541631439529 0.1122031429549485 0 -0.18841398351747141 0.1092177557215579 0 -0.19463541631439529 0.1122031429549485 0 -0.18841398351747141 0.1092177557215579 0 -0.18530487009639729 0.094572882829669275 0 -0.19463541631439529 0.1122031429549485 0 -0.18530487009639729 0.094572882829669275 0 -0.19463541631439529 0.1122031429549485 0 -0.18841398351747141 0.1092177557215579 0 -0.18530487009639729 0.094572882829669275 0 -0.19463541631439529 0.1122031429549485 0 -0.2007743952470617 0.097670027320382269 0 -0.19463541631439529 0.1122031429549485 0 -0.2007743952470617 0.097670027320382269 0 -0.21011381677517141 0.10696125256690731 0 -0.2007743952470617 0.097670027320382269 0 -0.21011381677517141 0.10696125256690731 0 -0.21635347163673141 0.095181877158469499 0 -0.21011381677517141 0.10696125256690731 0 -0.21635347163673141 0.095181877158469499 0 -0.22204615691993329 0.10774905634512361 0 -0.21011381677517141 0.10696125256690731 0 -0.21666376754236041 0.1227735630937178 0 -0.22204615691993329 0.10774905634512361 0 -0.19463541631439529 0.1122031429549485 0 -0.21666376754236041 0.1227735630937178 0 -0.20604309539342419 0.1337581885964399 0 -0.19463541631439529 0.1122031429549485 0 -0.21666376754236041 0.1227735630937178 0 -0.19463541631439529 0.1122031429549485 0 -0.21011381677517141 0.10696125256690731 0 -0.21666376754236041 0.1227735630937178 0 -0.21666376754236041 0.1227735630937178 0 -0.2313853320032524 0.1175486332617966 0 -0.2386921187703254 0.13334398323248731 0 -0.21666376754236041 0.1227735630937178 0 -0.2313853320032524 0.1175486332617966 0 -0.22204615691993329 0.10774905634512361 0 -0.2313853320032524 0.1175486332617966 0 -0.22204615691993329 0.10774905634512361 0 -0.23479782461967419 0.1067027431783532 0 -0.21635347163673141 0.095181877158469499 0 -0.22204615691993329 0.10774905634512361 0 -0.22849024943096671 0.098610929563577643 0 -0.22204615691993329 0.10774905634512361 0 -0.22849024943096671 0.098610929563577643 0 -0.23479782461967419 0.1067027431783532 0 -0.23071457837411399 0.086429996812232388 0 -0.22849024943096671 0.098610929563577643 0 -0.238327517766487 0.096943626078964326 0 -0.22849024943096671 0.098610929563577643 0 -0.238327517766487 0.096943626078964326 0 -0.23479782461967419 0.1067027431783532 0 -0.238327517766487 0.096943626078964326 0 -0.23479782461967419 0.1067027431783532 0 -0.24919113606741741 0.1031845297010493 0 -0.23479782461967419 0.1067027431783532 0 -0.24919113606741741 0.1031845297010493 0 -0.24472679216396881 0.1171738204593013 0 -0.24659779519383199 0.089377054445430995 0 -0.238327517766487 0.096943626078964326 0 -0.24919113606741741 0.1031845297010493 0 -0.2313853320032524 0.1175486332617966 0 -0.24472679216396881 0.1171738204593013 0 -0.2386921187703254 0.13334398323248731 0 -0.2313853320032524 0.1175486332617966 0 -0.23479782461967419 0.1067027431783532 0 -0.24472679216396881 0.1171738204593013 0 -0.26072046999829041 0.1439144033712568 0 -0.2386921187703254 0.13334398323248731 0 -0.26043283717982968 0.1272098808909656 0 -0.24472679216396881 0.1171738204593013 0 -0.2386921187703254 0.13334398323248731 0 -0.21666376754236041 0.1227735630937178 0 -0.2386921187703254 0.13334398323248731 0 -0.2386921187703254 0.13334398323248731 0 -0.22294275267607511 0.13763011872673861 0 -0.23087406680088979 0.15016597702554549 0 -0.21666376754236041 0.1227735630937178 0 -0.2386921187703254 0.13334398323248731 0 -0.22294275267607511 0.13763011872673861 0 -0.2193276723357106 0.1442168796466638 0 -0.23087406680088979 0.15016597702554549 0 -0.21745077447245331 0.1553132342379312 0 -0.22294275267607511 0.13763011872673861 0 -0.2193276723357106 0.1442168796466638 0 -0.23087406680088979 0.15016597702554549 0 -0.2386921187703254 0.13334398323248731 0 -0.23087406680088979 0.15016597702554549 0 -0.24961469133083611 0.15789641310683419 0 -0.26072046999829041 0.1439144033712568 0 -0.2386921187703254 0.13334398323248731 0 -0.24961469133083611 0.15789641310683419 0 -0.25283890570647738 0.1754588547854895 0 -0.2330687536853078 0.16460959889947771 0 -0.23087406680088979 0.15016597702554549 0 -0.24961469133083611 0.15789641310683419 0 -0.2330687536853078 0.16460959889947771 0 -0.25283890570647738 0.1754588547854895 0 -0.24961469133083611 0.15789641310683419 0 -0.2330687536853078 0.16460959889947771 0 -0.25283890570647738 0.1754588547854895 0 -0.2287962082378826 0.18424771469154921 0 -0.2330687536853078 0.16460959889947771 0 -0.25283890570647738 0.1754588547854895 0 -0.2287962082378826 0.18424771469154921 0 -0.2430350512544816 0.18888195189032761 0 -0.25283890570647738 0.1754588547854895 0 -0.2287962082378826 0.18424771469154921 0 -0.2287962082378826 0.18424771469154921 0 -0.2196655053469356 0.16616277699460499 0 -0.2114705617097225 0.17387221330405991 0 -0.2330687536853078 0.16460959889947771 0 -0.2196655053469356 0.16616277699460499 0 -0.21329860166413719 0.1537603430134678 0 -0.2287962082378826 0.18424771469154921 0 -0.2330687536853078 0.16460959889947771 0 -0.2196655053469356 0.16616277699460499 0 -0.2330687536853078 0.16460959889947771 0 -0.21329860166413719 0.1537603430134678 0 -0.2330687536853078 0.16460959889947771 0 -0.21745077447245331 0.1553132342379312 0 -0.21329860166413719 0.1537603430134678 0 -0.23087406680088979 0.15016597702554549 0 -0.2330687536853078 0.16460959889947771 0 -0.21745077447245331 0.1553132342379312 0 -0.2196655053469356 0.16616277699460499 0 -0.20826892273731509 0.16328487215856691 0 -0.21329860166413719 0.1537603430134678 0 -0.2196655053469356 0.16616277699460499 0 -0.20826892273731509 0.16328487215856691 0 -0.2114705617097225 0.17387221330405991 0 -0.20826892273731509 0.16328487215856691 0 -0.2114705617097225 0.17387221330405991 0 -0.20150502749805271 0.16975601850282609 0 -0.20826892273731509 0.16328487215856691 0 -0.21329860166413719 0.1537603430134678 0 -0.20330424420693821 0.15512356842891761 0 -0.20826892273731509 0.16328487215856691 0 -0.19812100278333411 0.1605379714161779 0 -0.20330424420693821 0.15512356842891761 0 -0.2287962082378826 0.18424771469154921 0 -0.21103016173698691 0.1830391696473857 0 -0.2114705617097225 0.17387221330405991 0 -0.2287962082378826 0.18424771469154921 0 -0.21103016173698691 0.1830391696473857 0 -0.20475351076928741 0.1930365745976077 0 -0.21103016173698691 0.1830391696473857 0 -0.2114705617097225 0.17387221330405991 0 -0.19910036623105479 0.1810001759963259 0 -0.2114705617097225 0.17387221330405991 0 -0.19910036623105479 0.1810001759963259 0 -0.20150502749805271 0.16975601850282609 0 -0.21103016173698691 0.1830391696473857 0 -0.19910036623105479 0.1810001759963259 0 -0.20475351076928741 0.1930365745976077 0 -0.19910036623105479 0.1810001759963259 0 -0.1919459871784123 0.19013833201363481 0 -0.18321925841261499 0.18469114295693939 0 -0.19910036623105479 0.1810001759963259 0 -0.1905642840288366 0.17008485963899991 0 -0.18321925841261499 0.18469114295693939 0 -0.19910036623105479 0.1810001759963259 0 -0.20150502749805271 0.16975601850282609 0 -0.1905642840288366 0.17008485963899991 0 -0.20826892273731509 0.16328487215856691 0 -0.19812100278333411 0.1605379714161779 0 -0.20150502749805271 0.16975601850282609 0 -0.19812100278333411 0.1605379714161779 0 -0.20150502749805271 0.16975601850282609 0 -0.1905642840288366 0.17008485963899991 0 -0.19812100278333411 0.1605379714161779 0 -0.1905642840288366 0.17008485963899991 0 -0.1873156364723709 0.15870872761501509 0 -0.19812100278333411 0.1605379714161779 0 -0.1935284496429665 0.14291108712745779 0 -0.20330424420693821 0.15512356842891761 0 -0.1935284496429665 0.14291108712745779 0 -0.18205934183505751 0.14986960708826391 0 -0.1873156364723709 0.15870872761501509 0 -0.19812100278333411 0.1605379714161779 0 -0.1935284496429665 0.14291108712745779 0 -0.1873156364723709 0.15870872761501509 0 -0.1935284496429665 0.14291108712745779 0 -0.1929801591773169 0.128299136446509 0 -0.1842783276803702 0.13728413255175251 0 -0.1935284496429665 0.14291108712745779 0 -0.1929801591773169 0.128299136446509 0 -0.20604309539342419 0.1337581885964399 0 -0.22294275267607511 0.13763011872673861 0 -0.2193276723357106 0.1442168796466638 0 -0.20604309539342419 0.1337581885964399 0 -0.21666376754236041 0.1227735630937178 0 -0.22294275267607511 0.13763011872673861 0 -0.20604309539342419 0.1337581885964399 0 -0.20604309539342419 0.1337581885964399 0 -0.21745077447245331 0.1553132342379312 0 -0.21329860166413719 0.1537603430134678 0 -0.20604309539342419 0.1337581885964399 0 -0.21745077447245331 0.1553132342379312 0 -0.1935284496429665 0.14291108712745779 0 -0.21329860166413719 0.1537603430134678 0 -0.20330424420693821 0.15512356842891761 0 -0.1935284496429665 0.14291108712745779 0 -0.20604309539342419 0.1337581885964399 0 -0.21329860166413719 0.1537603430134678 0 -0.2193276723357106 0.1442168796466638 0 -0.20604309539342419 0.1337581885964399 0 -0.21745077447245331 0.1553132342379312 0 -0.1935284496429665 0.14291108712745779 0 -0.21329860166413719 0.1537603430134678 0 -0.22480758234355841 0.2348556956670653 0 -0.22931409368670311 0.24760983909058251 0 -0.2139553109189436 0.24443729985889001 0 -0.22310556421150779 0.25717425702949342 0 -0.22931409368670311 0.24760983909058251 0 -0.2139553109189436 0.24443729985889001 0 -0.22480758234355841 0.2348556956670653 0 -0.22073685264362461 0.22992183842320529 0 -0.2139553109189436 0.24443729985889001 0 -0.22931409368670311 0.24760983909058251 0 -0.24191351089744101 0.2282000750761477 0 -0.22931409368670311 0.24760983909058251 0 -0.24506904401784521 0.24759623977448059 0 -0.24191351089744101 0.2282000750761477 0 -0.2379886336980577 0.25379501810672972 0 -0.22931409368670311 0.24760983909058251 0 -0.24506904401784521 0.24759623977448059 0 -0.22931409368670311 0.24760983909058251 0 -0.24191351089744101 0.2282000750761477 0 -0.23772809865018801 0.22003588926975251 0 -0.25557578109004953 0.22309103868061869 0 -0.24191351089744101 0.2282000750761477 0 -0.24878719285058179 0.21761097064462859 0 -0.24191351089744101 0.2282000750761477 0 -0.24878719285058179 0.21761097064462859 0 -0.24191351089744101 0.2282000750761477 0 -0.23772809865018801 0.22003588926975251 0 -0.24878719285058179 0.21761097064462859 0 -0.22931409368670311 0.24760983909058251 0 -0.23772809865018801 0.22003588926975251 0 -0.22480758234355841 0.2348556956670653 0 -0.23772809865018801 0.22003588926975251 0 -0.22607210444351189 0.22241456744132079 0 -0.22480758234355841 0.2348556956670653 0 -0.22931409368670311 0.24760983909058251 0 -0.23772809865018801 0.22003588926975251 0 -0.22480758234355841 0.2348556956670653 0 -0.22073685264362461 0.22992183842320529 0 -0.22607210444351189 0.22241456744132079 0 -0.22073685264362461 0.22992183842320529 0 -0.22607210444351189 0.22241456744132079 0 -0.210783472983499 0.22654106913849109 0 -0.2266250108096336 0.211929351743987 0 -0.23975706012400069 0.20786194580693759 0 -0.21633185965127949 0.19690573784613499 0 -0.22607210444351189 0.22241456744132079 0 -0.2266250108096336 0.211929351743987 0 -0.21287750793439861 0.21190337199951159 0 -0.23772809865018801 0.22003588926975251 0 -0.22607210444351189 0.22241456744132079 0 -0.2266250108096336 0.211929351743987 0 -0.23772809865018801 0.22003588926975251 0 -0.2266250108096336 0.211929351743987 0 -0.23975706012400069 0.20786194580693759 0 -0.23772809865018801 0.22003588926975251 0 -0.24878719285058179 0.21761097064462859 0 -0.23975706012400069 0.20786194580693759 0 -0.25274517746278302 0.2103389609785189 0 -0.23975706012400069 0.20786194580693759 0 -0.24856445565437221 0.20304572264506471 0 -0.23975706012400069 0.20786194580693759 0 -0.24365981448866961 0.19701774508533729 0 -0.234326728136035 0.19483023520403209 0 -0.25214797609838902 0.1971302461774268 0 -0.24365981448866961 0.19701774508533729 0 -0.24856445565437221 0.20304572264506471 0 -0.23975706012400069 0.20786194580693759 0 -0.24365981448866961 0.19701774508533729 0 -0.24856445565437221 0.20304572264506471 0 -0.25444209780087801 0.1885998892592935 0 -0.25214797609838902 0.1971302461774268 0 -0.2430350512544816 0.18888195189032761 0 -0.25214797609838902 0.1971302461774268 0 -0.24365981448866961 0.19701774508533729 0 -0.2430350512544816 0.18888195189032761 0 -0.2287962082378826 0.18424771469154921 0 -0.2430350512544816 0.18888195189032761 0 -0.234326728136035 0.19483023520403209 0 -0.24365981448866961 0.19701774508533729 0 -0.2430350512544816 0.18888195189032761 0 -0.234326728136035 0.19483023520403209 0 -0.23975706012400069 0.20786194580693759 0 -0.21633185965127949 0.19690573784613499 0 -0.2287962082378826 0.18424771469154921 0 -0.234326728136035 0.19483023520403209 0 -0.21633185965127949 0.19690573784613499 0 -0.23975706012400069 0.20786194580693759 0 -0.234326728136035 0.19483023520403209 0 -0.21633185965127949 0.19690573784613499 0 -0.2287962082378826 0.18424771469154921 0 -0.20475351076928741 0.1930365745976077 0 -0.2287962082378826 0.18424771469154921 0 -0.21633185965127949 0.19690573784613499 0 -0.20475351076928741 0.1930365745976077 0 -0.21633185965127949 0.19690573784613499 0 -0.20828293677436771 0.201733382082081 0 -0.20475351076928741 0.1930365745976077 0 -0.20828293677436771 0.201733382082081 0 -0.20475351076928741 0.1930365745976077 0 -0.2000519188167241 0.20624355411076001 0 -0.19910036623105479 0.1810001759963259 0 -0.20475351076928741 0.1930365745976077 0 -0.1919459871784123 0.19013833201363481 0 -0.20475351076928741 0.1930365745976077 0 -0.2000519188167241 0.20624355411076001 0 -0.18071081330069219 0.20182543450366619 0 -0.20475351076928741 0.1930365745976077 0 -0.18071081330069219 0.20182543450366619 0 -0.20475351076928741 0.1930365745976077 0 -0.1919459871784123 0.19013833201363481 0 -0.18071081330069219 0.20182543450366619 0 -0.2000519188167241 0.20624355411076001 0 -0.19039411792070809 0.21640505776928179 0 -0.18071081330069219 0.20182543450366619 0 -0.19039411792070809 0.21640505776928179 0 -0.21287750793439861 0.21190337199951159 0 -0.2000519188167241 0.20624355411076001 0 -0.19039411792070809 0.21640505776928179 0 -0.21287750793439861 0.21190337199951159 0 -0.19039411792070809 0.21640505776928179 0 -0.21287750793439861 0.21190337199951159 0 -0.210783472983499 0.22654106913849109 0 -0.20828293677436771 0.201733382082081 0 -0.2000519188167241 0.20624355411076001 0 -0.21287750793439861 0.21190337199951159 0 -0.21633185965127949 0.19690573784613499 0 -0.20828293677436771 0.201733382082081 0 -0.21287750793439861 0.21190337199951159 0 -0.2266250108096336 0.211929351743987 0 -0.21633185965127949 0.19690573784613499 0 -0.21287750793439861 0.21190337199951159 0 -0.22073685264362461 0.22992183842320529 0 -0.210783472983499 0.22654106913849109 0 -0.2139553109189436 0.24443729985889001 0 -0.22607210444351189 0.22241456744132079 0 -0.21287750793439861 0.21190337199951159 0 -0.210783472983499 0.22654106913849109 0 -0.19039411792070809 0.21640505776928179 0 -0.2006649440398072 0.2341642793387371 0 -0.18425513873528709 0.23147471346298079 0 -0.19039411792070809 0.21640505776928179 0 -0.210783472983499 0.22654106913849109 0 -0.2006649440398072 0.2341642793387371 0 -0.18097284390332799 0.25209285215118188 0 -0.2006649440398072 0.2341642793387371 0 -0.18425513873528709 0.23147471346298079 0 -0.2020392040574179 0.25463355459033749 0 -0.18097284390332799 0.25209285215118188 0 -0.2006649440398072 0.2341642793387371 0 -0.210783472983499 0.22654106913849109 0 -0.2006649440398072 0.2341642793387371 0 -0.2139553109189436 0.24443729985889001 0 -0.2020392040574179 0.25463355459033749 0 -0.2006649440398072 0.2341642793387371 0 -0.2139553109189436 0.24443729985889001 0 -0.18097284390332799 0.25209285215118188 0 -0.1599064837492381 0.24955214971202569 0 -0.16419294448252661 0.2432012031255146 0 -0.1599064837492381 0.24955214971202569 0 -0.16419294448252661 0.2432012031255146 0 -0.1517385277982671 0.23905551810312881 0 -0.16419294448252661 0.2432012031255146 0 -0.16042511424874031 0.23304003388020919 0 -0.1517385277982671 0.23905551810312881 0 -0.16419294448252661 0.2432012031255146 0 -0.1725896104106312 0.23727557052827289 0 -0.16042511424874031 0.23304003388020919 0 -0.18097284390332799 0.25209285215118188 0 -0.16419294448252661 0.2432012031255146 0 -0.1725896104106312 0.23727557052827289 0 -0.18097284390332799 0.25209285215118188 0 -0.1725896104106312 0.23727557052827289 0 -0.18425513873528709 0.23147471346298079 0 -0.19039411792070809 0.21640505776928179 0 -0.18425513873528709 0.23147471346298079 0 -0.16791072790701761 0.22090674353905199 0 -0.1725896104106312 0.23727557052827289 0 -0.18425513873528709 0.23147471346298079 0 -0.16791072790701761 0.22090674353905199 0 -0.16791072790701761 0.22090674353905199 0 -0.16042511424874031 0.23304003388020919 0 -0.14542733789332701 0.22540842930882221 0 -0.1725896104106312 0.23727557052827289 0 -0.16791072790701761 0.22090674353905199 0 -0.16042511424874031 0.23304003388020919 0 -0.16791072790701761 0.22090674353905199 0 -0.14542733789332701 0.22540842930882221 0 -0.156668115832097 0.21061429440972471 0 -0.18071081330069219 0.20182543450366619 0 -0.16481626223788859 0.19809220188923141 0 -0.16791072790701761 0.22090674353905199 0 -0.156668115832097 0.21061429440972471 0 -0.18071081330069219 0.20182543450366619 0 -0.16791072790701761 0.22090674353905199 0 -0.156668115832097 0.21061429440972471 0 -0.15022044864672229 0.21606640729491999 0 -0.156668115832097 0.21061429440972471 0 -0.18071081330069219 0.20182543450366619 0 -0.156668115832097 0.21061429440972471 0 -0.16481626223788859 0.19809220188923141 0 -0.15402996616007739 0.20187473173927331 0 -0.19039411792070809 0.21640505776928179 0 -0.16791072790701761 0.22090674353905199 0 -0.18071081330069219 0.20182543450366619 0 -0.19039411792070809 0.21640505776928179 0 -0.16791072790701761 0.22090674353905199 0 -0.18071081330069219 0.20182543450366619 0 -0.17193587855889761 0.19112497064163139 0 -0.16481626223788859 0.19809220188923141 0 -0.18071081330069219 0.20182543450366619 0 -0.17193587855889761 0.19112497064163139 0 -0.18321925841261499 0.18469114295693939 0 -0.1919459871784123 0.19013833201363481 0 -0.18071081330069219 0.20182543450366619 0 -0.18321925841261499 0.18469114295693939 0 -0.17193587855889761 0.19112497064163139 0 -0.16481626223788859 0.19809220188923141 0 -0.1626104429967592 0.18931118201418021 0 -0.17193587855889761 0.19112497064163139 0 -0.1626104429967592 0.18931118201418021 0 -0.16926416972185299 0.18240137312892979 0 -0.16481626223788859 0.19809220188923141 0 -0.1555038906439396 0.19433906317324071 0 -0.15402996616007739 0.20187473173927331 0 -0.16481626223788859 0.19809220188923141 0 -0.1626104429967592 0.18931118201418021 0 -0.1555038906439396 0.19433906317324071 0 -0.1626104429967592 0.18931118201418021 0 -0.1555038906439396 0.19433906317324071 0 -0.15274773084774859 0.18679883815892639 0 -0.1451593642100035 0.19172209390692099 0 -0.13444525763042181 0.19667932787882181 0 -0.14266852467516641 0.17808467972626221 0 -0.1555038906439396 0.19433906317324071 0 -0.14711665935115159 0.19832889165995821 0 -0.1451593642100035 0.19172209390692099 0 -0.1555038906439396 0.19433906317324071 0 -0.1451593642100035 0.19172209390692099 0 -0.15274773084774859 0.18679883815892639 0 -0.15402996616007739 0.20187473173927331 0 -0.14711665935115159 0.19832889165995821 0 -0.14644481811131679 0.20702924160153449 0 -0.1555038906439396 0.19433906317324071 0 -0.15402996616007739 0.20187473173927331 0 -0.14711665935115159 0.19832889165995821 0 -0.14711665935115159 0.19832889165995821 0 -0.13444525763042181 0.19667932787882181 0 -0.14644481811131679 0.20702924160153449 0 -0.14711665935115159 0.19832889165995821 0 -0.1451593642100035 0.19172209390692099 0 -0.13444525763042181 0.19667932787882181 0 -0.1451593642100035 0.19172209390692099 0 -0.15274773084774859 0.18679883815892639 0 -0.14707533391801139 0.1842011703689056 0 -0.13444525763042181 0.19667932787882181 0 -0.1219665065876433 0.18591610060347799 0 -0.1214985486655757 0.20277691021676411 0 -0.13444525763042181 0.19667932787882181 0 -0.1219665065876433 0.18591610060347799 0 -0.13444525763042181 0.19667932787882181 0 -0.1325204267136752 0.18346957948178161 0 -0.1219665065876433 0.18591610060347799 0 -0.13444525763042181 0.19667932787882181 0 -0.14644481811131679 0.20702924160153449 0 -0.13444525763042181 0.19667932787882181 0 -0.1357672170955303 0.20942994944881321 0 -0.1248963863348133 0.21827146407356399 0 -0.13444525763042181 0.19667932787882181 0 -0.1248963863348133 0.21827146407356399 0 -0.1214985486655757 0.20277691021676411 0 -0.13444525763042181 0.19667932787882181 0 -0.1357672170955303 0.20942994944881321 0 -0.14644481811131679 0.20702924160153449 0 -0.1357672170955303 0.20942994944881321 0 -0.1372824063055707 0.21573976424133309 0 -0.14644481811131679 0.20702924160153449 0 -0.13444525763042181 0.19667932787882181 0 -0.1248963863348133 0.21827146407356399 0 -0.1357672170955303 0.20942994944881321 0 -0.1372824063055707 0.21573976424133309 0 -0.1248963863348133 0.21827146407356399 0 -0.1372824063055707 0.21573976424133309 0 -0.14644481811131679 0.20702924160153449 0 -0.15022044864672229 0.21606640729491999 0 -0.156668115832097 0.21061429440972471 0 -0.15402996616007739 0.20187473173927331 0 -0.14644481811131679 0.20702924160153449 0 -0.156668115832097 0.21061429440972471 0 -0.14644481811131679 0.20702924160153449 0 -0.15022044864672229 0.21606640729491999 0 -0.16791072790701761 0.22090674353905199 0 -0.15022044864672229 0.21606640729491999 0 -0.14542733789332701 0.22540842930882221 0 -0.16042511424874031 0.23304003388020919 0 -0.14542733789332701 0.22540842930882221 0 -0.1517385277982671 0.23905551810312881 0 -0.14542733789332701 0.22540842930882221 0 -0.13870430843041701 0.23757643071007661 0 -0.1517385277982671 0.23905551810312881 0 -0.1372824063055707 0.21573976424133309 0 -0.15022044864672229 0.21606640729491999 0 -0.14542733789332701 0.22540842930882221 0 -0.14542733789332701 0.22540842930882221 0 -0.13870430843041701 0.23757643071007661 0 -0.1229439478796365 0.22991011507859249 0 -0.14542733789332701 0.22540842930882221 0 -0.1229439478796365 0.22991011507859249 0 -0.1372824063055707 0.21573976424133309 0 -0.14542733789332701 0.22540842930882221 0 -0.1229439478796365 0.22991011507859249 0 -0.1372824063055707 0.21573976424133309 0 -0.1229439478796365 0.22991011507859249 0 -0.1248963863348133 0.21827146407356399 0 -0.13870430843041701 0.23757643071007661 0 -0.12897232447082349 0.2458213441358843 0 -0.1229439478796365 0.22991011507859249 0 -0.13870430843041701 0.23757643071007661 0 -0.12897232447082349 0.2458213441358843 0 -0.14443940411003081 0.24768674692395529 0 -0.12897232447082349 0.2458213441358843 0 -0.14443940411003081 0.24768674692395529 0 -0.13870430843041701 0.23757643071007661 0 -0.14443940411003081 0.24768674692395529 0 -0.1517385277982671 0.23905551810312881 0 -0.1599064837492381 0.24955214971202569 0 -0.14443940411003081 0.24768674692395529 0 -0.1599064837492381 0.24955214971202569 0 -0.14443940411003081 0.24768674692395529 0 -0.1517385277982671 0.23905551810312881 0 -0.16667460573196419 0.1489199184731175 0 -0.17324375829158259 0.1425792502218465 0 -0.17355676264950221 0.15143372677492331 0 -0.16497982553282811 0.14331715777309539 0 -0.16667460573196419 0.1489199184731175 0 -0.17324375829158259 0.1425792502218465 0 -0.16497982553282811 0.14331715777309539 0 -0.1666225932001896 0.13680487506814679 0 -0.17324375829158259 0.1425792502218465 0 -0.16497982553282811 0.14331715777309539 0 -0.16667460573196419 0.1489199184731175 0 -0.1623060313649291 0.1470601996149038 0 -0.16667460573196419 0.1489199184731175 0 -0.15939447943120871 0.152983141055066 0 -0.16772562693169701 0.15669784883610949 0 -0.16667460573196419 0.1489199184731175 0 -0.17355676264950221 0.15143372677492331 0 -0.16772562693169701 0.15669784883610949 0 -0.16667460573196419 0.1489199184731175 0 -0.15939447943120871 0.152983141055066 0 -0.1623060313649291 0.1470601996149038 0 -0.16497982553282811 0.14331715777309539 0 -0.15817521476371549 0.1430205811583363 0 -0.1666225932001896 0.13680487506814679 0 -0.15939447943120871 0.152983141055066 0 -0.1623060313649291 0.1470601996149038 0 -0.15817521476371549 0.1430205811583363 0 -0.16497982553282811 0.14331715777309539 0 -0.1623060313649291 0.1470601996149038 0 -0.15817521476371549 0.1430205811583363 0 -0.15817521476371549 0.1430205811583363 0 -0.16545863780751871 0.1265511307429695 0 -0.15817521476371549 0.1430205811583363 0 -0.16545863780751871 0.1265511307429695 0 -0.1666225932001896 0.13680487506814679 0 -0.15817521476371549 0.1430205811583363 0 -0.16545863780751871 0.1265511307429695 0 -0.15588617930704779 0.12682215814344561 0 -0.16545863780751871 0.1265511307429695 0 -0.1666225932001896 0.13680487506814679 0 -0.1754276643550321 0.13048443616694311 0 -0.17408352127790611 0.12326210978049081 0 -0.16545863780751871 0.1265511307429695 0 -0.1754276643550321 0.13048443616694311 0 -0.1666225932001896 0.13680487506814679 0 -0.1754276643550321 0.13048443616694311 0 -0.17324375829158259 0.1425792502218465 0 -0.1754276643550321 0.13048443616694311 0 -0.1842783276803702 0.13728413255175251 0 -0.17324375829158259 0.1425792502218465 0 -0.1929801591773169 0.128299136446509 0 -0.18471215959175799 0.1268657688275486 0 -0.1842783276803702 0.13728413255175251 0 -0.1754276643550321 0.13048443616694311 0 -0.18471215959175799 0.1268657688275486 0 -0.1842783276803702 0.13728413255175251 0 -0.18059671191843449 0.1205144438941473 0 -0.1754276643550321 0.13048443616694311 0 -0.18471215959175799 0.1268657688275486 0 -0.1842783276803702 0.13728413255175251 0 -0.17324375829158259 0.1425792502218465 0 -0.18205934183505751 0.14986960708826391 0 -0.1935284496429665 0.14291108712745779 0 -0.1842783276803702 0.13728413255175251 0 -0.18205934183505751 0.14986960708826391 0 -0.17324375829158259 0.1425792502218465 0 -0.17355676264950221 0.15143372677492331 0 -0.18205934183505751 0.14986960708826391 0 -0.17355676264950221 0.15143372677492331 0 -0.18205934183505751 0.14986960708826391 0 -0.17611838188678711 0.1585326986173885 0 -0.17355676264950221 0.15143372677492331 0 -0.17611838188678711 0.1585326986173885 0 -0.16772562693169701 0.15669784883610949 0 -0.18205934183505751 0.14986960708826391 0 -0.1873156364723709 0.15870872761501509 0 -0.17611838188678711 0.1585326986173885 0 -0.1873156364723709 0.15870872761501509 0 -0.17853475050701351 0.16720312051158731 0 -0.17611838188678711 0.1585326986173885 0 -0.1905642840288366 0.17008485963899991 0 -0.1873156364723709 0.15870872761501509 0 -0.17853475050701351 0.16720312051158731 0 -0.1905642840288366 0.17008485963899991 0 -0.17853475050701351 0.16720312051158731 0 -0.1784856101402478 0.17565879730486161 0 -0.17853475050701351 0.16720312051158731 0 -0.17611838188678711 0.1585326986173885 0 -0.16672570557491909 0.16641046192833819 0 -0.1905642840288366 0.17008485963899991 0 -0.18321925841261499 0.18469114295693939 0 -0.1784856101402478 0.17565879730486161 0 -0.1784856101402478 0.17565879730486161 0 -0.16926416972185299 0.18240137312892979 0 -0.17007376572887639 0.1750576471276262 0 -0.17853475050701351 0.16720312051158731 0 -0.1784856101402478 0.17565879730486161 0 -0.17007376572887639 0.1750576471276262 0 -0.17193587855889761 0.19112497064163139 0 -0.18321925841261499 0.18469114295693939 0 -0.16926416972185299 0.18240137312892979 0 -0.18321925841261499 0.18469114295693939 0 -0.1784856101402478 0.17565879730486161 0 -0.16926416972185299 0.18240137312892979 0 -0.17007376572887639 0.1750576471276262 0 -0.1626460510256976 0.17579285157648411 0 -0.16672570557491909 0.16641046192833819 0 -0.16926416972185299 0.18240137312892979 0 -0.17007376572887639 0.1750576471276262 0 -0.1626460510256976 0.17579285157648411 0 -0.1626460510256976 0.17579285157648411 0 -0.15553428559585539 0.17079633338372091 0 -0.15560286946445351 0.17915622061690981 0 -0.1626460510256976 0.17579285157648411 0 -0.15984988808927481 0.18309325100227961 0 -0.15560286946445351 0.17915622061690981 0 -0.1626104429967592 0.18931118201418021 0 -0.16926416972185299 0.18240137312892979 0 -0.15984988808927481 0.18309325100227961 0 -0.1626104429967592 0.18931118201418021 0 -0.15984988808927481 0.18309325100227961 0 -0.15274773084774859 0.18679883815892639 0 -0.16926416972185299 0.18240137312892979 0 -0.1626460510256976 0.17579285157648411 0 -0.15984988808927481 0.18309325100227961 0 -0.16772562693169701 0.15669784883610949 0 -0.16672570557491909 0.16641046192833819 0 -0.16005437785071819 0.1612755633553874 0 -0.17611838188678711 0.1585326986173885 0 -0.16772562693169701 0.15669784883610949 0 -0.16672570557491909 0.16641046192833819 0 -0.17853475050701351 0.16720312051158731 0 -0.17007376572887639 0.1750576471276262 0 -0.16672570557491909 0.16641046192833819 0 -0.16672570557491909 0.16641046192833819 0 -0.16005437785071819 0.1612755633553874 0 -0.15553428559585539 0.17079633338372091 0 -0.1626460510256976 0.17579285157648411 0 -0.16672570557491909 0.16641046192833819 0 -0.15553428559585539 0.17079633338372091 0 -0.15939447943120871 0.152983141055066 0 -0.16005437785071819 0.1612755633553874 0 -0.15089179171991099 0.15949003157370259 0 -0.15939447943120871 0.152983141055066 0 -0.16772562693169701 0.15669784883610949 0 -0.16005437785071819 0.1612755633553874 0 -0.15089179171991099 0.15949003157370259 0 -0.14266852467516641 0.17808467972626221 0 -0.15089179171991099 0.15949003157370259 0 -0.15553428559585539 0.17079633338372091 0 -0.14772571593912701 0.1801990696835129 0 -0.15089179171991099 0.15949003157370259 0 -0.14266852467516641 0.17808467972626221 0 -0.1389069917780662 0.16410422637339331 0 -0.16005437785071819 0.1612755633553874 0 -0.15089179171991099 0.15949003157370259 0 -0.15553428559585539 0.17079633338372091 0 -0.15089179171991099 0.15949003157370259 0 -0.14772571593912701 0.1801990696835129 0 -0.15089179171991099 0.15949003157370259 0 -0.1389069917780662 0.16410422637339331 0 -0.13983349338170439 0.15114768659492561 0 -0.15089179171991099 0.15949003157370259 0 -0.14266852467516641 0.17808467972626221 0 -0.14772571593912701 0.1801990696835129 0 -0.15274773084774859 0.18679883815892639 0 -0.15560286946445351 0.17915622061690981 0 -0.14772571593912701 0.1801990696835129 0 -0.15274773084774859 0.18679883815892639 0 -0.14772571593912701 0.1801990696835129 0 -0.14707533391801139 0.1842011703689056 0 -0.15984988808927481 0.18309325100227961 0 -0.15274773084774859 0.18679883815892639 0 -0.15560286946445351 0.17915622061690981 0 -0.15553428559585539 0.17079633338372091 0 -0.15560286946445351 0.17915622061690981 0 -0.14772571593912701 0.1801990696835129 0 -0.1451593642100035 0.19172209390692099 0 -0.14266852467516641 0.17808467972626221 0 -0.14707533391801139 0.1842011703689056 0 -0.14266852467516641 0.17808467972626221 0 -0.14772571593912701 0.1801990696835129 0 -0.14707533391801139 0.1842011703689056 0 -0.13444525763042181 0.19667932787882181 0 -0.14266852467516641 0.17808467972626221 0 -0.13444525763042181 0.19667932787882181 0 -0.14266852467516641 0.17808467972626221 0 -0.1325204267136752 0.18346957948178161 0 -0.14266852467516641 0.17808467972626221 0 -0.13100141796147041 0.1731982097185647 0 -0.1325204267136752 0.18346957948178161 0 -0.13100141796147041 0.1731982097185647 0 -0.1219665065876433 0.18591610060347799 0 -0.13100141796147041 0.1731982097185647 0 -0.1325204267136752 0.18346957948178161 0 -0.1219665065876433 0.18591610060347799 0 -0.13100141796147041 0.1731982097185647 0 -0.1389069917780662 0.16410422637339331 0 -0.13030580507231529 0.15739837384185959 0 -0.13100141796147041 0.1731982097185647 0 -0.13030580507231529 0.15739837384185959 0 -0.1186248266552805 0.1611431051022062 0 -0.1389069917780662 0.16410422637339331 0 -0.13030580507231529 0.15739837384185959 0 -0.13983349338170439 0.15114768659492561 0 -0.14266852467516641 0.17808467972626221 0 -0.13100141796147041 0.1731982097185647 0 -0.1389069917780662 0.16410422637339331 0 -0.13030580507231529 0.15739837384185959 0 -0.13197428696606181 0.14425170090791861 0 -0.1218956500463219 0.14606117305028049 0 -0.13197428696606181 0.14425170090791861 0 -0.127618569720508 0.13464725828615731 0 -0.1218956500463219 0.14606117305028049 0 -0.13197428696606181 0.14425170090791861 0 -0.13983349338170439 0.15114768659492561 0 -0.13910841775836069 0.1368845029008614 0 -0.13030580507231529 0.15739837384185959 0 -0.13197428696606181 0.14425170090791861 0 -0.13983349338170439 0.15114768659492561 0 -0.15817521476371549 0.1430205811583363 0 -0.15089179171991099 0.15949003157370259 0 -0.15338898551347849 0.14315609485857389 0 -0.15089179171991099 0.15949003157370259 0 -0.14541133570079939 0.1445655766917576 0 -0.15338898551347849 0.14315609485857389 0 -0.15089179171991099 0.15949003157370259 0 -0.13983349338170439 0.15114768659492561 0 -0.14541133570079939 0.1445655766917576 0 -0.15817521476371549 0.1430205811583363 0 -0.15089179171991099 0.15949003157370259 0 -0.15939447943120871 0.152983141055066 0 -0.15817521476371549 0.1430205811583363 0 -0.15089179171991099 0.15949003157370259 0 -0.15089179171991099 0.15949003157370259 0 -0.15338898551347849 0.14315609485857389 0 -0.13983349338170439 0.15114768659492561 0 -0.14541133570079939 0.1445655766917576 0 -0.13910841775836069 0.1368845029008614 0 -0.14541133570079939 0.1445655766917576 0 -0.15338898551347849 0.14315609485857389 0 -0.15107365563681491 0.13877181552011669 0 -0.15338898551347849 0.14315609485857389 0 -0.15588617930704779 0.12682215814344561 0 -0.15107365563681491 0.13877181552011669 0 -0.15338898551347849 0.14315609485857389 0 -0.15588617930704779 0.12682215814344561 0 -0.15817521476371549 0.1430205811583363 0 -0.15338898551347849 0.14315609485857389 0 -0.15588617930704779 0.12682215814344561 0 -0.15588617930704779 0.12682215814344561 0 -0.15107365563681491 0.13877181552011669 0 -0.15588617930704779 0.12682215814344561 0 -0.15107365563681491 0.13877181552011669 0 -0.14617813048269371 0.13022589322232789 0 -0.15107365563681491 0.13877181552011669 0 -0.14520133930240761 0.13802273138622939 0 -0.14617813048269371 0.13022589322232789 0 -0.14541133570079939 0.1445655766917576 0 -0.15107365563681491 0.13877181552011669 0 -0.14520133930240761 0.13802273138622939 0 -0.14541133570079939 0.1445655766917576 0 -0.14520133930240761 0.13802273138622939 0 -0.13910841775836069 0.1368845029008614 0 -0.14520133930240761 0.13802273138622939 0 -0.14617813048269371 0.13022589322232789 0 -0.13910841775836069 0.1368845029008614 0 -0.13536376206256351 0.1249867662025711 0 -0.14617813048269371 0.13022589322232789 0 -0.13910841775836069 0.1368845029008614 0 -0.13536376206256351 0.1249867662025711 0 -0.13910841775836069 0.1368845029008614 0 -0.127618569720508 0.13464725828615731 0 -0.13197428696606181 0.14425170090791861 0 -0.13910841775836069 0.1368845029008614 0 -0.127618569720508 0.13464725828615731 0 -0.13536376206256351 0.1249867662025711 0 -0.127618569720508 0.13464725828615731 0 -0.1240714866132859 0.12404616482660399 0 -0.127618569720508 0.13464725828615731 0 -0.1146781069537564 0.13225531704476459 0 -0.1240714866132859 0.12404616482660399 0 -0.127618569720508 0.13464725828615731 0 -0.1146781069537564 0.13225531704476459 0 -0.1218956500463219 0.14606117305028049 0 -0.1146781069537564 0.13225531704476459 0 -0.1001975961997819 0.13714615631944821 0 -0.10194425935440971 0.123082900479952 0 -0.1146781069537564 0.13225531704476459 0 -0.1001975961997819 0.13714615631944821 0 -0.1086526358162465 0.14877422597206169 0 -0.1001975961997819 0.13714615631944821 0 -0.090923142336237522 0.13004665287311651 0 -0.10194425935440971 0.123082900479952 0 -0.095535139490713017 0.14822100022447471 0 -0.1086526358162465 0.14877422597206169 0 -0.1009844955516252 0.16781860409119609 0 -0.1001975961997819 0.13714615631944821 0 -0.095535139490713017 0.14822100022447471 0 -0.1086526358162465 0.14877422597206169 0 -0.1001975961997819 0.13714615631944821 0 -0.095535139490713017 0.14822100022447471 0 -0.087600956955919906 0.13936404953329701 0 -0.1146781069537564 0.13225531704476459 0 -0.1086526358162465 0.14877422597206169 0 -0.1218956500463219 0.14606117305028049 0 -0.1086526358162465 0.14877422597206169 0 -0.1218956500463219 0.14606117305028049 0 -0.1186248266552805 0.1611431051022062 0 -0.13030580507231529 0.15739837384185959 0 -0.1218956500463219 0.14606117305028049 0 -0.1186248266552805 0.1611431051022062 0 -0.1186248266552805 0.1611431051022062 0 -0.1181443116890049 0.17201900487886121 0 -0.1009844955516252 0.16781860409119609 0 -0.1086526358162465 0.14877422597206169 0 -0.1186248266552805 0.1611431051022062 0 -0.1009844955516252 0.16781860409119609 0 -0.13100141796147041 0.1731982097185647 0 -0.1186248266552805 0.1611431051022062 0 -0.1181443116890049 0.17201900487886121 0 -0.1219665065876433 0.18591610060347799 0 -0.1009844955516252 0.16781860409119609 0 -0.1219665065876433 0.18591610060347799 0 -0.1181443116890049 0.17201900487886121 0 -0.1009844955516252 0.16781860409119609 0 -0.13100141796147041 0.1731982097185647 0 -0.1219665065876433 0.18591610060347799 0 -0.1181443116890049 0.17201900487886121 0 -0.1009844955516252 0.16781860409119609 0 -0.089326994066492194 0.1862766732092119 0 -0.1026196357931702 0.1924835908272397 0 -0.1219665065876433 0.18591610060347799 0 -0.1009844955516252 0.16781860409119609 0 -0.1026196357931702 0.1924835908272397 0 -0.1009844955516252 0.16781860409119609 0 -0.079733856530313715 0.14979173906748899 0 -0.1009844955516252 0.16781860409119609 0 -0.082519849482319274 0.16038751849730409 0 -0.089326994066492194 0.1862766732092119 0 -0.1009844955516252 0.16781860409119609 0 -0.082519849482319274 0.16038751849730409 0 -0.079733856530313715 0.14979173906748899 0 -0.082519849482319274 0.16038751849730409 0 -0.089326994066492194 0.1862766732092119 0 -0.082519849482319274 0.16038751849730409 0 -0.089326994066492194 0.1862766732092119 0 -0.074557774895650228 0.17472970804772661 0 -0.089326994066492194 0.1862766732092119 0 -0.074557774895650228 0.17472970804772661 0 -0.073109022968446152 0.19212578627147359 0 -0.073109022968446152 0.19212578627147359 0 -0.058050427456679973 0.17058080962878841 0 -0.074557774895650228 0.17472970804772661 0 -0.073109022968446152 0.19212578627147359 0 -0.058050427456679973 0.17058080962878841 0 -0.082519849482319274 0.16038751849730409 0 -0.069782580504313546 0.16427775263185501 0 -0.06438337177063852 0.15131672606990931 0 -0.074557774895650228 0.17472970804772661 0 -0.069782580504313546 0.16427775263185501 0 -0.058050427456679973 0.17058080962878841 0 -0.069782580504313546 0.16427775263185501 0 -0.06438337177063852 0.15131672606990931 0 -0.058050427456679973 0.17058080962878841 0 -0.082519849482319274 0.16038751849730409 0 -0.074557774895650228 0.17472970804772661 0 -0.069782580504313546 0.16427775263185501 0 -0.082519849482319274 0.16038751849730409 0 -0.06438337177063852 0.15131672606990931 0 -0.079733856530313715 0.14979173906748899 0 -0.06438337177063852 0.15131672606990931 0 -0.075712704898146355 0.1344983637853964 0 -0.079733856530313715 0.14979173906748899 0 -0.075712704898146355 0.1344983637853964 0 -0.079733856530313715 0.14979173906748899 0 -0.075712704898146355 0.1344983637853964 0 -0.055832225343297348 0.13130752240206239 0 -0.0693978470150933 0.1136446571793248 0 -0.06438337177063852 0.15131672606990931 0 -0.075712704898146355 0.1344983637853964 0 -0.055832225343297348 0.13130752240206239 0 -0.075712704898146355 0.1344983637853964 0 -0.090923142336237522 0.13004665287311651 0 -0.087450650872716154 0.1181320301216268 0 -0.075712704898146355 0.1344983637853964 0 -0.090923142336237522 0.13004665287311651 0 -0.087600956955919906 0.13936404953329701 0 -0.1001975961997819 0.13714615631944821 0 -0.090923142336237522 0.13004665287311651 0 -0.087600956955919906 0.13936404953329701 0 -0.095535139490713017 0.14822100022447471 0 -0.087600956955919906 0.13936404953329701 0 -0.079733856530313715 0.14979173906748899 0 -0.095535139490713017 0.14822100022447471 0 -0.1009844955516252 0.16781860409119609 0 -0.079733856530313715 0.14979173906748899 0 -0.082519849482319274 0.16038751849730409 0 -0.079733856530313715 0.14979173906748899 0 -0.075712704898146355 0.1344983637853964 0 -0.087600956955919906 0.13936404953329701 0 -0.079733856530313715 0.14979173906748899 0 -0.1057986437435981 0.26145573646304909 0 -0.098033802335805026 0.246084267787991 0 -0.1153475150392058 0.23986360026830661 0 -0.098033802335805026 0.246084267787991 0 -0.10525812842047121 0.22914615949979891 0 -0.087405581631208318 0.23456539601890861 0 -0.098033802335805026 0.246084267787991 0 -0.1153475150392058 0.23986360026830661 0 -0.10525812842047121 0.22914615949979891 0 -0.12897232447082349 0.2458213441358843 0 -0.1153475150392058 0.23986360026830661 0 -0.1229439478796365 0.22991011507859249 0 -0.1209829589588412 0.25411223725025162 0 -0.12897232447082349 0.2458213441358843 0 -0.1153475150392058 0.23986360026830661 0 -0.1153475150392058 0.23986360026830661 0 -0.1248963863348133 0.21827146407356399 0 -0.1153475150392058 0.23986360026830661 0 -0.10525812842047121 0.22914615949979891 0 -0.1248963863348133 0.21827146407356399 0 -0.10525812842047121 0.22914615949979891 0 -0.10468604410942541 0.21024074831119299 0 -0.1248963863348133 0.21827146407356399 0 -0.1153475150392058 0.23986360026830661 0 -0.1229439478796365 0.22991011507859249 0 -0.1248963863348133 0.21827146407356399 0 -0.10468604410942541 0.21024074831119299 0 -0.087405581631208318 0.23456539601890861 0 -0.10468604410942541 0.21024074831119299 0 -0.096134138650665057 0.21216582792111949 0 -0.087405581631208318 0.23456539601890861 0 -0.10525812842047121 0.22914615949979891 0 -0.10468604410942541 0.21024074831119299 0 -0.087405581631208318 0.23456539601890861 0 -0.10468604410942541 0.21024074831119299 0 -0.096134138650665057 0.21216582792111949 0 -0.1026196357931702 0.1924835908272397 0 -0.10468604410942541 0.21024074831119299 0 -0.1248963863348133 0.21827146407356399 0 -0.1214985486655757 0.20277691021676411 0 -0.1219665065876433 0.18591610060347799 0 -0.10468604410942541 0.21024074831119299 0 -0.1026196357931702 0.1924835908272397 0 -0.1219665065876433 0.18591610060347799 0 -0.10468604410942541 0.21024074831119299 0 -0.1214985486655757 0.20277691021676411 0 -0.1219665065876433 0.18591610060347799 0 -0.10468604410942541 0.21024074831119299 0 -0.089326994066492194 0.1862766732092119 0 -0.096134138650665057 0.21216582792111949 0 -0.1026196357931702 0.1924835908272397 0 -0.089326994066492194 0.1862766732092119 0 -0.085046688801421813 0.19981710013433959 0 -0.073109022968446152 0.19212578627147359 0 -0.085046688801421813 0.19981710013433959 0 -0.073109022968446152 0.19212578627147359 0 -0.088167618480212318 0.2136707629141589 0 -0.089326994066492194 0.1862766732092119 0 -0.096134138650665057 0.21216582792111949 0 -0.085046688801421813 0.19981710013433959 0 -0.073109022968446152 0.19212578627147359 0 -0.088167618480212318 0.2136707629141589 0 -0.089326994066492194 0.1862766732092119 0 -0.096134138650665057 0.21216582792111949 0 -0.073109022968446152 0.19212578627147359 0 -0.071770530345594705 0.2113842877500762 0 -0.059566271362027218 0.20544282344234649 0 -0.073109022968446152 0.19212578627147359 0 -0.071770530345594705 0.2113842877500762 0 -0.088167618480212318 0.2136707629141589 0 -0.071770530345594705 0.2113842877500762 0 -0.061611609373189387 0.22197932939675941 0 -0.059566271362027218 0.20544282344234649 0 -0.071770530345594705 0.2113842877500762 0 -0.088167618480212318 0.2136707629141589 0 -0.076398129544098442 0.2237027367256425 0 -0.096134138650665057 0.21216582792111949 0 -0.085046688801421813 0.19981710013433959 0 -0.088167618480212318 0.2136707629141589 0 -0.096134138650665057 0.21216582792111949 0 -0.088167618480212318 0.2136707629141589 0 -0.087405581631208318 0.23456539601890861 0 -0.088167618480212318 0.2136707629141589 0 -0.076398129544098442 0.2237027367256425 0 -0.087405581631208318 0.23456539601890861 0 -0.076398129544098442 0.2237027367256425 0 -0.070658716066308067 0.23593578088576941 0 -0.087405581631208318 0.23456539601890861 0 -0.070658716066308067 0.23593578088576941 0 -0.05775314063005297 0.24054139856091231 0 -0.061611609373189387 0.22197932939675941 0 -0.071770530345594705 0.2113842877500762 0 -0.076398129544098442 0.2237027367256425 0 -0.061611609373189387 0.22197932939675941 0 -0.076398129544098442 0.2237027367256425 0 -0.070658716066308067 0.23593578088576941 0 -0.061611609373189387 0.22197932939675941 0 -0.07012511915299123 0.25889004372662422 0 -0.070658716066308067 0.23593578088576941 0 -0.087405581631208318 0.23456539601890861 0 -0.07012511915299123 0.25889004372662422 0 -0.070658716066308067 0.23593578088576941 0 -0.05775314063005297 0.24054139856091231 0 -0.083266964055525514 0.25544972891168249 0 -0.098033802335805026 0.246084267787991 0 -0.087405581631208318 0.23456539601890861 0 -0.07012511915299123 0.25889004372662422 0 -0.087405581631208318 0.23456539601890861 0 -0.083266964055525514 0.25544972891168249 0 -0.07012511915299123 0.25889004372662422 0 -0.087405581631208318 0.23456539601890861 0 -0.035744017940246398 0.23823117120969969 0 -0.045555500133256432 0.24675434812147551 0 -0.045106318294984342 0.22784428721921929 0 -0.032769419637382988 0.25179962344036472 0 -0.035744017940246398 0.23823117120969969 0 -0.045555500133256432 0.24675434812147551 0 -0.05307753484651391 0.25974705154577787 0 -0.045555500133256432 0.24675434812147551 0 -0.05775314063005297 0.24054139856091231 0 -0.045555500133256432 0.24675434812147551 0 -0.05775314063005297 0.24054139856091231 0 -0.045106318294984342 0.22784428721921929 0 -0.061611609373189387 0.22197932939675941 0 -0.045106318294984342 0.22784428721921929 0 -0.047574309481406653 0.2106103317215566 0 -0.05775314063005297 0.24054139856091231 0 -0.061611609373189387 0.22197932939675941 0 -0.045106318294984342 0.22784428721921929 0 -0.035744017940246398 0.23823117120969969 0 -0.045106318294984342 0.22784428721921929 0 -0.031496680363685331 0.2268663821508243 0 -0.045106318294984342 0.22784428721921929 0 -0.031496680363685331 0.2268663821508243 0 -0.034362084115754317 0.2147820068256153 0 -0.045106318294984342 0.22784428721921929 0 -0.034362084115754317 0.2147820068256153 0 -0.047574309481406653 0.2106103317215566 0 -0.034362084115754317 0.2147820068256153 0 -0.047574309481406653 0.2106103317215566 0 -0.03355166066306841 0.19788779640918269 0 -0.061611609373189387 0.22197932939675941 0 -0.047574309481406653 0.2106103317215566 0 -0.059566271362027218 0.20544282344234649 0 -0.047574309481406653 0.2106103317215566 0 -0.059566271362027218 0.20544282344234649 0 -0.050791440923802313 0.19233311568896039 0 -0.073109022968446152 0.19212578627147359 0 -0.059566271362027218 0.20544282344234649 0 -0.050791440923802313 0.19233311568896039 0 -0.050791440923802313 0.19233311568896039 0 -0.03355166066306841 0.19788779640918269 0 -0.037802387241929032 0.17498522266580849 0 -0.047574309481406653 0.2106103317215566 0 -0.050791440923802313 0.19233311568896039 0 -0.03355166066306841 0.19788779640918269 0 -0.03355166066306841 0.19788779640918269 0 -0.01697011265021375 0.19762230344107201 0 -0.021530772913718861 0.18172024574038889 0 -0.03355166066306841 0.19788779640918269 0 -0.01697011265021375 0.19762230344107201 0 -0.024500832965536481 0.2075720569989718 0 -0.01697011265021375 0.19762230344107201 0 -0.002927146739987457 0.19831744461118181 0 -0.0042089918715192288 0.17816405047356501 0 -0.01697011265021375 0.19762230344107201 0 -0.002927146739987457 0.19831744461118181 0 -0.01095072845985649 0.212945393931712 0 -0.01697011265021375 0.19762230344107201 0 -0.01095072845985649 0.212945393931712 0 -0.002927146739987457 0.19831744461118181 0 -0.01095072845985649 0.212945393931712 0 0.00608741631366253 0.20991130307242969 0 -0.01095072845985649 0.212945393931712 0 -0.0049313442694992916 0.2282684844223519 0 0.00608741631366253 0.20991130307242969 0 -0.01095072845985649 0.212945393931712 0 -0.024500832965536481 0.2075720569989718 0 -0.021933300362568822 0.2202246176835615 0 -0.034362084115754317 0.2147820068256153 0 -0.03355166066306841 0.19788779640918269 0 -0.024500832965536481 0.2075720569989718 0 -0.01697011265021375 0.19762230344107201 0 -0.01095072845985649 0.212945393931712 0 -0.024500832965536481 0.2075720569989718 0 -0.034362084115754317 0.2147820068256153 0 -0.024500832965536481 0.2075720569989718 0 -0.021933300362568822 0.2202246176835615 0 -0.02033768110487276 0.23324982781602599 0 -0.021933300362568822 0.2202246176835615 0 -0.0049313442694992916 0.2282684844223519 0 -0.031496680363685331 0.2268663821508243 0 -0.034362084115754317 0.2147820068256153 0 -0.021933300362568822 0.2202246176835615 0 -0.035744017940246398 0.23823117120969969 0 -0.031496680363685331 0.2268663821508243 0 -0.02033768110487276 0.23324982781602599 0 -0.031496680363685331 0.2268663821508243 0 -0.02033768110487276 0.23324982781602599 0 -0.021933300362568822 0.2202246176835615 0 -0.01095072845985649 0.212945393931712 0 -0.0049313442694992916 0.2282684844223519 0 -0.02033768110487276 0.23324982781602599 0 -0.0049313442694992916 0.2282684844223519 0 -0.001665835766312463 0.2365812421247849 0 -0.01095072845985649 0.212945393931712 0 -0.021933300362568822 0.2202246176835615 0 -0.0049313442694992916 0.2282684844223519 0 -0.0049313442694992916 0.2282684844223519 0 -0.001665835766312463 0.2365812421247849 0 -0.02033768110487276 0.23324982781602599 0 -0.0049313442694992916 0.2282684844223519 0 -0.020910475173787271 0.25014910931035328 0 -0.001665835766312463 0.2365812421247849 0 -0.020910475173787271 0.25014910931035328 0 -0.02033768110487276 0.23324982781602599 0 -0.001665835766312463 0.2365812421247849 0 -0.020910475173787271 0.25014910931035328 0 -0.0063857098188243016 0.2514955288583467 0 -0.001665835766312463 0.2365812421247849 0 -0.0063857098188243016 0.2514955288583467 0 -0.001665835766312463 0.2365812421247849 0 0.0072134534684511944 0.2591845763088359 0 -0.020910475173787271 0.25014910931035328 0 -0.035744017940246398 0.23823117120969969 0 -0.02033768110487276 0.23324982781602599 0 -0.035744017940246398 0.23823117120969969 0 -0.02033768110487276 0.23324982781602599 0 -0.032769419637382988 0.25179962344036472 0 -0.020910475173787271 0.25014910931035328 0 -0.035744017940246398 0.23823117120969969 0 -0.042991831944913787 0.1490358329861031 0 -0.031250946563827132 0.1283992185059698 0 -0.020726109235800649 0.15827081220764799 0 -0.042991831944913787 0.1490358329861031 0 -0.031250946563827132 0.1283992185059698 0 -0.055832225343297348 0.13130752240206239 0 -0.06438337177063852 0.15131672606990931 0 -0.042991831944913787 0.1490358329861031 0 -0.055832225343297348 0.13130752240206239 0 -0.042991831944913787 0.1490358329861031 0 -0.058050427456679973 0.17058080962878841 0 -0.06438337177063852 0.15131672606990931 0 -0.042991831944913787 0.1490358329861031 0 -0.058050427456679973 0.17058080962878841 0 -0.050791440923802313 0.19233311568896039 0 -0.058050427456679973 0.17058080962878841 0 -0.037802387241929032 0.17498522266580849 0 -0.073109022968446152 0.19212578627147359 0 -0.050791440923802313 0.19233311568896039 0 -0.058050427456679973 0.17058080962878841 0 -0.042991831944913787 0.1490358329861031 0 -0.037802387241929032 0.17498522266580849 0 -0.020726109235800649 0.15827081220764799 0 -0.042991831944913787 0.1490358329861031 0 -0.058050427456679973 0.17058080962878841 0 -0.037802387241929032 0.17498522266580849 0 -0.037802387241929032 0.17498522266580849 0 -0.020726109235800649 0.15827081220764799 0 -0.021530772913718861 0.18172024574038889 0 -0.03355166066306841 0.19788779640918269 0 -0.037802387241929032 0.17498522266580849 0 -0.021530772913718861 0.18172024574038889 0 -0.01697011265021375 0.19762230344107201 0 -0.021530772913718861 0.18172024574038889 0 -0.0042089918715192288 0.17816405047356501 0 -0.020726109235800649 0.15827081220764799 0 -0.021530772913718861 0.18172024574038889 0 -0.0042089918715192288 0.17816405047356501 0 -0.020726109235800649 0.15827081220764799 0 -0.0042089918715192288 0.17816405047356501 0 0.001168655440354278 0.15617658278348279 0 -0.011269188102019141 0.1385790105458834 0 0.001168655440354278 0.15617658278348279 0 0.004785734706925053 0.14178329206572829 0 -0.020726109235800649 0.15827081220764799 0 -0.011269188102019141 0.1385790105458834 0 0.001168655440354278 0.15617658278348279 0 -0.031250946563827132 0.1283992185059698 0 -0.020726109235800649 0.15827081220764799 0 -0.011269188102019141 0.1385790105458834 0 -0.031250946563827132 0.1283992185059698 0 -0.011269188102019141 0.1385790105458834 0 -0.0060923299389248004 0.1197032580256623 0 -0.011269188102019141 0.1385790105458834 0 0.00037908848290591949 0.13209288815094869 0 0.004785734706925053 0.14178329206572829 0 -0.011269188102019141 0.1385790105458834 0 -0.0060923299389248004 0.1197032580256623 0 0.00037908848290591949 0.13209288815094869 0 -0.0060923299389248004 0.1197032580256623 0 -0.015844586376143839 0.091613842887107916 0 0.0077042196160664773 0.104087275496153 0 -0.015844586376143839 0.091613842887107916 0 0.0077042196160664773 0.104087275496153 0 -0.015844586376143839 0.091613842887107916 0 0.0014282913974776341 0.087469894955315985 0 0.0077042196160664773 0.104087275496153 0 -0.0060923299389248004 0.1197032580256623 0 -0.029448862996698841 0.1058794940083209 0 -0.015844586376143839 0.091613842887107916 0 -0.031250946563827132 0.1283992185059698 0 -0.0060923299389248004 0.1197032580256623 0 -0.029448862996698841 0.1058794940083209 0 -0.01494641581558819 0.071438053013705885 0 0.0014282913974776341 0.087469894955315985 0 0.0050028164057399774 0.068292049016403622 0 -0.01494641581558819 0.071438053013705885 0 -0.015844586376143839 0.091613842887107916 0 0.0014282913974776341 0.087469894955315985 0 -0.01494641581558819 0.071438053013705885 0 -0.015844586376143839 0.091613842887107916 0 -0.03939339236835409 0.079140410278062859 0 -0.015844586376143839 0.091613842887107916 0 -0.03939339236835409 0.079140410278062859 0 -0.029448862996698841 0.1058794940083209 0 -0.015844586376143839 0.091613842887107916 0 -0.03939339236835409 0.079140410278062859 0 -0.01494641581558819 0.071438053013705885 0 -0.03939339236835409 0.079140410278062859 0 -0.027728473034460219 0.054921298951678472 0 -0.03939339236835409 0.079140410278062859 0 -0.061736203029985282 0.090352927781757644 0 -0.051256649867164987 0.1109503358856708 0 -0.03939339236835409 0.079140410278062859 0 -0.047073147370626463 0.05486094678489109 0 -0.027728473034460219 0.054921298951678472 0 -0.03939339236835409 0.079140410278062859 0 -0.061736203029985282 0.090352927781757644 0 -0.062942198360564278 0.066666977669017843 0 -0.03939339236835409 0.079140410278062859 0 -0.062942198360564278 0.066666977669017843 0 -0.03939339236835409 0.079140410278062859 0 -0.062942198360564278 0.066666977669017843 0 -0.047073147370626463 0.05486094678489109 0 -0.029448862996698841 0.1058794940083209 0 -0.03939339236835409 0.079140410278062859 0 -0.051256649867164987 0.1109503358856708 0 -0.031250946563827132 0.1283992185059698 0 -0.029448862996698841 0.1058794940083209 0 -0.051256649867164987 0.1109503358856708 0 -0.031250946563827132 0.1283992185059698 0 -0.055832225343297348 0.13130752240206239 0 -0.051256649867164987 0.1109503358856708 0 -0.061736203029985282 0.090352927781757644 0 -0.051256649867164987 0.1109503358856708 0 -0.0693978470150933 0.1136446571793248 0 -0.055832225343297348 0.13130752240206239 0 -0.051256649867164987 0.1109503358856708 0 -0.0693978470150933 0.1136446571793248 0 -0.075712704898146355 0.1344983637853964 0 -0.0693978470150933 0.1136446571793248 0 -0.087450650872716154 0.1181320301216268 0 -0.0693978470150933 0.1136446571793248 0 -0.087450650872716154 0.1181320301216268 0 -0.084915310923089682 0.098083121174067214 0 -0.090923142336237522 0.13004665287311651 0 -0.087450650872716154 0.1181320301216268 0 -0.10194425935440971 0.123082900479952 0 -0.087450650872716154 0.1181320301216268 0 -0.084915310923089682 0.098083121174067214 0 -0.1007209722484753 0.10859997686949451 0 -0.061736203029985282 0.090352927781757644 0 -0.0693978470150933 0.1136446571793248 0 -0.084915310923089682 0.098083121174067214 0 -0.061736203029985282 0.090352927781757644 0 -0.076081351278952616 0.082680819737903505 0 -0.062942198360564278 0.066666977669017843 0 -0.061736203029985282 0.090352927781757644 0 -0.084915310923089682 0.098083121174067214 0 -0.076081351278952616 0.082680819737903505 0 -0.076081351278952616 0.082680819737903505 0 -0.062942198360564278 0.066666977669017843 0 -0.086491004352774459 0.054193545059972807 0 -0.076081351278952616 0.082680819737903505 0 -0.094885235474585328 0.07882866586249955 0 -0.086491004352774459 0.054193545059972807 0 -0.084915310923089682 0.098083121174067214 0 -0.076081351278952616 0.082680819737903505 0 -0.094885235474585328 0.07882866586249955 0 -0.084915310923089682 0.098083121174067214 0 -0.094885235474585328 0.07882866586249955 0 -0.1019978172708664 0.093765203715231366 0 -0.094885235474585328 0.07882866586249955 0 -0.11471473266248219 0.082009826567953859 0 -0.1019978172708664 0.093765203715231366 0 -0.094885235474585328 0.07882866586249955 0 -0.11471473266248219 0.082009826567953859 0 -0.10728182843399039 0.062100328753713033 0 -0.094885235474585328 0.07882866586249955 0 -0.10728182843399039 0.062100328753713033 0 -0.086491004352774459 0.054193545059972807 0 -0.1223786286685794 0.066419709785489639 0 -0.11471473266248219 0.082009826567953859 0 -0.10728182843399039 0.062100328753713033 0 -0.13264193287082821 0.076822749453180988 0 -0.1223786286685794 0.066419709785489639 0 -0.11471473266248219 0.082009826567953859 0 -0.13091045010780589 0.092504633903325723 0 -0.11471473266248219 0.082009826567953859 0 -0.1162882706491276 0.1025664852558727 0 -0.11471473266248219 0.082009826567953859 0 -0.1162882706491276 0.1025664852558727 0 -0.1019978172708664 0.093765203715231366 0 -0.1162882706491276 0.1025664852558727 0 -0.11440080537943351 0.1166722775526252 0 -0.1007209722484753 0.10859997686949451 0 -0.1300305300871526 0.1112214946989411 0 -0.1240714866132859 0.12404616482660399 0 -0.11440080537943351 0.1166722775526252 0 -0.1300305300871526 0.1112214946989411 0 -0.1162882706491276 0.1025664852558727 0 -0.11440080537943351 0.1166722775526252 0 -0.1146781069537564 0.13225531704476459 0 -0.1240714866132859 0.12404616482660399 0 -0.11440080537943351 0.1166722775526252 0 -0.1146781069537564 0.13225531704476459 0 -0.11440080537943351 0.1166722775526252 0 -0.10194425935440971 0.123082900479952 0 -0.11440080537943351 0.1166722775526252 0 -0.10194425935440971 0.123082900479952 0 -0.1007209722484753 0.10859997686949451 0 -0.087450650872716154 0.1181320301216268 0 -0.10194425935440971 0.123082900479952 0 -0.1007209722484753 0.10859997686949451 0 -0.084915310923089682 0.098083121174067214 0 -0.1007209722484753 0.10859997686949451 0 -0.1019978172708664 0.093765203715231366 0 -0.1162882706491276 0.1025664852558727 0 -0.1007209722484753 0.10859997686949451 0 -0.1019978172708664 0.093765203715231366 0 -0.094077819715316174 0.025590516493947821 0 -0.1161965099403782 0.025105612189290239 0 -0.1100398103449847 0.041720112450927757 0 -0.094077819715316174 0.025590516493947821 0 -0.11090798119957671 0.010650522126582931 0 -0.1161965099403782 0.025105612189290239 0 -0.094077819715316174 0.025590516493947821 0 -0.095578112592554249 0.001926486421287764 0 -0.11090798119957671 0.010650522126582931 0 -0.1207610724454848 -0.0057378199361568828 0 -0.095578112592554249 0.001926486421287764 0 -0.11090798119957671 0.010650522126582931 0 -0.1207610724454848 -0.0057378199361568828 0 -0.12717484439133969 0.01175442995286285 0 -0.11090798119957671 0.010650522126582931 0 -0.1207610724454848 -0.0057378199361568828 0 -0.12717484439133969 0.01175442995286285 0 -0.12717484439133969 0.01175442995286285 0 -0.11090798119957671 0.010650522126582931 0 -0.1161965099403782 0.025105612189290239 0 -0.1335886163371949 0.029246679841882561 0 -0.1161965099403782 0.025105612189290239 0 -0.1100398103449847 0.041720112450927757 0 -0.1335886163371949 0.029246679841882561 0 -0.1100398103449847 0.041720112450927757 0 -0.124709864767631 0.051647358848855733 0 -0.1335886163371949 0.029246679841882561 0 -0.1100398103449847 0.041720112450927757 0 -0.1100398103449847 0.041720112450927757 0 -0.124709864767631 0.051647358848855733 0 -0.10728182843399039 0.062100328753713033 0 -0.1223786286685794 0.066419709785489639 0 -0.124709864767631 0.051647358848855733 0 -0.10728182843399039 0.062100328753713033 0 -0.1100398103449847 0.041720112450927757 0 -0.086491004352774459 0.054193545059972807 0 -0.1100398103449847 0.041720112450927757 0 -0.10728182843399039 0.062100328753713033 0 -0.086491004352774459 0.054193545059972807 0 -0.094077819715316174 0.025590516493947821 0 -0.1100398103449847 0.041720112450927757 0 -0.086491004352774459 0.054193545059972807 0 -0.094077819715316174 0.025590516493947821 0 -0.086491004352774459 0.054193545059972807 0 -0.065729560787779223 0.037946986642538427 0 -0.062942198360564278 0.066666977669017843 0 -0.086491004352774459 0.054193545059972807 0 -0.065729560787779223 0.037946986642538427 0 -0.062942198360564278 0.066666977669017843 0 -0.086491004352774459 0.054193545059972807 0 -0.065729560787779223 0.037946986642538427 0 -0.070395152739620437 0.0095907927787210415 0 -0.054232619199850111 0.016004074809841031 0 -0.094077819715316174 0.025590516493947821 0 -0.065729560787779223 0.037946986642538427 0 -0.070395152739620437 0.0095907927787210415 0 -0.095578112592554249 0.001926486421287764 0 -0.070395152739620437 0.0095907927787210415 0 -0.094077819715316174 0.025590516493947821 0 -0.095578112592554249 0.001926486421287764 0 -0.070395152739620437 0.0095907927787210415 0 -0.066018597316211639 -0.004128755832913996 0 -0.095578112592554249 0.001926486421287764 0 -0.070395152739620437 0.0095907927787210415 0 -0.066018597316211639 -0.004128755832913996 0 -0.070395152739620437 0.0095907927787210415 0 -0.054232619199850111 0.016004074809841031 0 -0.066018597316211639 -0.004128755832913996 0 -0.044641204068414167 -0.0073907901472365376 0 -0.054232619199850111 0.016004074809841031 0 -0.065729560787779223 0.037946986642538427 0 -0.054232619199850111 0.016004074809841031 0 -0.044561142489683167 0.035242104412408513 0 -0.054232619199850111 0.016004074809841031 0 -0.033248838710945042 0.016412234632003499 0 -0.044561142489683167 0.035242104412408513 0 -0.033248838710945042 0.016412234632003499 0 -0.044561142489683167 0.035242104412408513 0 -0.02426509404800618 0.034991731342638083 0 -0.044641204068414167 -0.0073907901472365376 0 -0.019808520525367499 -0.0042707229380058746 0 -0.033248838710945042 0.016412234632003499 0 -0.044641204068414167 -0.0073907901472365376 0 -0.054232619199850111 0.016004074809841031 0 -0.033248838710945042 0.016412234632003499 0 -0.062942198360564278 0.066666977669017843 0 -0.065729560787779223 0.037946986642538427 0 -0.047073147370626463 0.05486094678489109 0 -0.065729560787779223 0.037946986642538427 0 -0.047073147370626463 0.05486094678489109 0 -0.044561142489683167 0.035242104412408513 0 -0.044561142489683167 0.035242104412408513 0 -0.027728473034460219 0.054921298951678472 0 -0.02426509404800618 0.034991731342638083 0 -0.047073147370626463 0.05486094678489109 0 -0.044561142489683167 0.035242104412408513 0 -0.027728473034460219 0.054921298951678472 0 -0.027728473034460219 0.054921298951678472 0 -0.02426509404800618 0.034991731342638083 0 -0.003267629237962485 0.044104458364933881 0 -0.003267629237962485 0.044104458364933881 0 -0.011538074881664971 0.01991686771346406 0 -0.02426509404800618 0.034991731342638083 0 -0.003267629237962485 0.044104458364933881 0 -0.011538074881664971 0.01991686771346406 0 -0.01494641581558819 0.071438053013705885 0 -0.027728473034460219 0.054921298951678472 0 -0.003267629237962485 0.044104458364933881 0 -0.01494641581558819 0.071438053013705885 0 -0.003267629237962485 0.044104458364933881 0 0.0050028164057399774 0.068292049016403622 0 -0.019808520525367499 -0.0042707229380058746 0 -0.011538074881664971 0.01991686771346406 0 -0.019808520525367499 -0.0042707229380058746 0 -0.033248838710945042 0.016412234632003499 0 -0.011538074881664971 0.01991686771346406 0 -0.033248838710945042 0.016412234632003499 0 -0.02426509404800618 0.034991731342638083 0 -0.011538074881664971 0.01991686771346406 0 -0.003267629237962485 0.044104458364933881 0 -0.011538074881664971 0.01991686771346406 0 0.01305304389129076 0.021195823016508769 0 -0.019808520525367499 -0.0042707229380058746 0 -0.011538074881664971 0.01991686771346406 0 -0.0026022678282156138 0.0030506715727892961 0 -0.011538074881664971 0.01991686771346406 0 -0.0026022678282156138 0.0030506715727892961 0 0.01305304389129076 0.021195823016508769 0 -0.0026022678282156138 0.0030506715727892961 0 0.01305304389129076 0.021195823016508769 0 0.015291240015624581 -0.0046578398081096942 0 0.01305304389129076 0.021195823016508769 0 0.030622130174553071 0.0050023145525881626 0 0.041696910585653717 0.02304961515753827 0 0.01305304389129076 0.021195823016508769 0 0.020331421149243911 0.048161562754633562 0 0.041696910585653717 0.02304961515753827 0 0.01305304389129076 0.021195823016508769 0 0.030622130174553071 0.0050023145525881626 0 0.015291240015624581 -0.0046578398081096942 0 -0.003267629237962485 0.044104458364933881 0 0.020331421149243911 0.048161562754633562 0 0.0050028164057399774 0.068292049016403622 0 -0.003267629237962485 0.044104458364933881 0 0.0050028164057399774 0.068292049016403622 0 -0.003267629237962485 0.044104458364933881 0 0.01305304389129076 0.021195823016508769 0 0.020331421149243911 0.048161562754633562 0 0.020331421149243911 0.048161562754633562 0 0.032304521954479963 0.061556951208847868 0 0.0050028164057399774 0.068292049016403622 0 0.020331421149243911 0.048161562754633562 0 0.032304521954479963 0.061556951208847868 0 0.049520964100711121 0.051992307627853417 0 0.020331421149243911 0.048161562754633562 0 0.049520964100711121 0.051992307627853417 0 0.032304521954479963 0.061556951208847868 0 0.049520964100711121 0.051992307627853417 0 0.051203053516651789 0.065656900366454246 0 0.020331421149243911 0.048161562754633562 0 0.049520964100711121 0.051992307627853417 0 0.041696910585653717 0.02304961515753827 0 0.049520964100711121 0.051992307627853417 0 0.041696910585653717 0.02304961515753827 0 0.066557850731660484 0.027512434796957509 0 0.049520964100711121 0.051992307627853417 0 0.06573472646061887 0.065488373280946588 0 0.051203053516651789 0.065656900366454246 0 0.030622130174553071 0.0050023145525881626 0 0.041696910585653717 0.02304961515753827 0 0.046965844133997639 -0.0047290539795157138 0 0.041696910585653717 0.02304961515753827 0 0.063673067412081202 0.0079184099620196111 0 0.066557850731660484 0.027512434796957509 0 0.041696910585653717 0.02304961515753827 0 0.063673067412081202 0.0079184099620196111 0 0.046965844133997639 -0.0047290539795157138 0 0.063673067412081202 0.0079184099620196111 0 0.08108848323699322 0.01395628480430207 0 0.080100478180457513 -0.0059380854757541844 0 0.08108848323699322 0.01395628480430207 0 0.080100478180457513 -0.0059380854757541844 0 0.103874659622279 -0.0039790719896398083 0 0.08108848323699322 0.01395628480430207 0 0.085336163272673349 0.02792085535730001 0 0.099770598137000316 0.01903416051875929 0 0.063673067412081202 0.0079184099620196111 0 0.08108848323699322 0.01395628480430207 0 0.066557850731660484 0.027512434796957509 0 0.08108848323699322 0.01395628480430207 0 0.085336163272673349 0.02792085535730001 0 0.066557850731660484 0.027512434796957509 0 0.085336163272673349 0.02792085535730001 0 0.066557850731660484 0.027512434796957509 0 0.077250690512546696 0.039724941260931443 0 0.049520964100711121 0.051992307627853417 0 0.066557850731660484 0.027512434796957509 0 0.077250690512546696 0.039724941260931443 0 0.049520964100711121 0.051992307627853417 0 0.07871050705217833 0.055823052501073292 0 0.049520964100711121 0.051992307627853417 0 0.077250690512546696 0.039724941260931443 0 0.07871050705217833 0.055823052501073292 0 0.049520964100711121 0.051992307627853417 0 0.07871050705217833 0.055823052501073292 0 0.06573472646061887 0.065488373280946588 0 0.07871050705217833 0.055823052501073292 0 0.1079000500036454 0.059653797374293133 0 0.07871050705217833 0.055823052501073292 0 0.1079000500036454 0.059653797374293133 0 0.09318850807486774 0.067414277760324132 0 0.085336163272673349 0.02792085535730001 0 0.077250690512546696 0.039724941260931443 0 0.096351070438212158 0.039603093382975983 0 0.077250690512546696 0.039724941260931443 0 0.07871050705217833 0.055823052501073292 0 0.096351070438212158 0.039603093382975983 0 0.096351070438212158 0.039603093382975983 0 0.1134328516655103 0.045185699545981013 0 0.1158728713761043 0.028491084112147569 0 0.096351070438212158 0.039603093382975983 0 0.1079000500036454 0.059653797374293133 0 0.1134328516655103 0.045185699545981013 0 0.07871050705217833 0.055823052501073292 0 0.096351070438212158 0.039603093382975983 0 0.1079000500036454 0.059653797374293133 0 0.1079000500036454 0.059653797374293133 0 0.12217366843713259 0.053519232307389558 0 0.1370895929551125 0.063484542247512973 0 0.1079000500036454 0.059653797374293133 0 0.1370895929551125 0.063484542247512973 0 0.1079000500036454 0.059653797374293133 0 0.12217366843713259 0.053519232307389558 0 0.1134328516655103 0.045185699545981013 0 0.12217366843713259 0.053519232307389558 0 0.1134328516655103 0.045185699545981013 0 0.12828423065491959 0.043461279898505102 0 0.1134328516655103 0.045185699545981013 0 0.1158728713761043 0.028491084112147569 0 0.12828423065491959 0.043461279898505102 0 0.1158728713761043 0.028491084112147569 0 0.1138533526769549 0.0096960783265231873 0 0.099770598137000316 0.01903416051875929 0 0.1158728713761043 0.028491084112147569 0 0.1138533526769549 0.0096960783265231873 0 0.13051016951144981 0.0129506422220972 0 0.1138533526769549 0.0096960783265231873 0 0.13051016951144981 0.0129506422220972 0 0.12573576617947341 -0.0096380922407623519 0 0.08108848323699322 0.01395628480430207 0 0.099770598137000316 0.01903416051875929 0 0.103874659622279 -0.0039790719896398083 0 0.1138533526769549 0.0096960783265231873 0 0.099770598137000316 0.01903416051875929 0 0.103874659622279 -0.0039790719896398083 0 0.096351070438212158 0.039603093382975983 0 0.1158728713761043 0.028491084112147569 0 0.099770598137000316 0.01903416051875929 0 0.085336163272673349 0.02792085535730001 0 0.096351070438212158 0.039603093382975983 0 0.099770598137000316 0.01903416051875929 0 0.10909964692949101 0.10643017643656549 0 0.1137474472445888 0.094434144517982141 0 0.094458485684339982 0.092431668368006786 0 0.10909964692949101 0.10643017643656549 0 0.095728463293813487 0.1174490589756894 0 0.094458485684339982 0.092431668368006786 0 0.095728463293813487 0.1174490589756894 0 0.094458485684339982 0.092431668368006786 0 0.095728463293813487 0.1174490589756894 0 0.12068466627323041 0.12189875939767961 0 0.10785367184665701 0.12970817295409401 0 0.10909964692949101 0.10643017643656549 0 0.095728463293813487 0.1174490589756894 0 0.12068466627323041 0.12189875939767961 0 0.095728463293813487 0.1174490589756894 0 0.12068466627323041 0.12189875939767961 0 0.095728463293813487 0.1174490589756894 0 0.096289166013059257 0.128494386733875 0 0.10909964692949101 0.10643017643656549 0 0.12068466627323041 0.12189875939767961 0 0.1223557986626926 0.10745789177852 0 0.10909964692949101 0.10643017643656549 0 0.1223557986626926 0.10745789177852 0 0.1137474472445888 0.094434144517982141 0 0.1223557986626926 0.10745789177852 0 0.1137474472445888 0.094434144517982141 0 0.125655536331166 0.0960817510058532 0 0.1137474472445888 0.094434144517982141 0 0.1214760771384842 0.086832036352717246 0 0.125655536331166 0.0960817510058532 0 0.1214760771384842 0.086832036352717246 0 0.123663095598016 0.078419136862192401 0 0.11277634709910039 0.08116515526872424 0 0.1137474472445888 0.094434144517982141 0 0.1214760771384842 0.086832036352717246 0 0.11277634709910039 0.08116515526872424 0 0.1079000500036454 0.059653797374293133 0 0.1197484335100506 0.069466709861209591 0 0.1370895929551125 0.063484542247512973 0 0.123663095598016 0.078419136862192401 0 0.11277634709910039 0.08116515526872424 0 0.1197484335100506 0.069466709861209591 0 0.11277634709910039 0.08116515526872424 0 0.1197484335100506 0.069466709861209591 0 0.1050196746613901 0.072339080673144249 0 0.1079000500036454 0.059653797374293133 0 0.1197484335100506 0.069466709861209591 0 0.1050196746613901 0.072339080673144249 0 0.1050196746613901 0.072339080673144249 0 0.094458485684339982 0.092431668368006786 0 0.09318850807486774 0.067414277760324132 0 0.1079000500036454 0.059653797374293133 0 0.1050196746613901 0.072339080673144249 0 0.09318850807486774 0.067414277760324132 0 0.11277634709910039 0.08116515526872424 0 0.1050196746613901 0.072339080673144249 0 0.094458485684339982 0.092431668368006786 0 0.1137474472445888 0.094434144517982141 0 0.11277634709910039 0.08116515526872424 0 0.094458485684339982 0.092431668368006786 0 0.094458485684339982 0.092431668368006786 0 0.09318850807486774 0.067414277760324132 0 0.094458485684339982 0.092431668368006786 0 0.082875611259878523 0.083680105367863022 0 0.0839302084258714 0.098975934773548338 0 0.094458485684339982 0.092431668368006786 0 0.082875611259878523 0.083680105367863022 0 0.09318850807486774 0.067414277760324132 0 0.082875611259878523 0.083680105367863022 0 0.075134553586226796 0.094218216653409292 0 0.0839302084258714 0.098975934773548338 0 0.082875611259878523 0.083680105367863022 0 0.09318850807486774 0.067414277760324132 0 0.079922611177316236 0.068824352672009481 0 0.082875611259878523 0.083680105367863022 0 0.079922611177316236 0.068824352672009481 0 0.073519931419172693 0.077143806960366754 0 0.07871050705217833 0.055823052501073292 0 0.09318850807486774 0.067414277760324132 0 0.079922611177316236 0.068824352672009481 0 0.07871050705217833 0.055823052501073292 0 0.079922611177316236 0.068824352672009481 0 0.06573472646061887 0.065488373280946588 0 0.079922611177316236 0.068824352672009481 0 0.073519931419172693 0.077143806960366754 0 0.06573472646061887 0.065488373280946588 0 0.073519931419172693 0.077143806960366754 0 0.06573472646061887 0.065488373280946588 0 0.059271271277724927 0.075226698381459692 0 0.074514803836351326 0.085310505781102566 0 0.066529119080127319 0.086199894142771183 0 0.075134553586226796 0.094218216653409292 0 0.082875611259878523 0.083680105367863022 0 0.074514803836351326 0.085310505781102566 0 0.075134553586226796 0.094218216653409292 0 0.073519931419172693 0.077143806960366754 0 0.074514803836351326 0.085310505781102566 0 0.066529119080127319 0.086199894142771183 0 0.082875611259878523 0.083680105367863022 0 0.073519931419172693 0.077143806960366754 0 0.074514803836351326 0.085310505781102566 0 0.073519931419172693 0.077143806960366754 0 0.066529119080127319 0.086199894142771183 0 0.059271271277724927 0.075226698381459692 0 0.066529119080127319 0.086199894142771183 0 0.067840624380801018 0.093790143654066155 0 0.058309804888634208 0.092960529030392591 0 0.066529119080127319 0.086199894142771183 0 0.067840624380801018 0.093790143654066155 0 0.075134553586226796 0.094218216653409292 0 0.073706381613794655 0.1102832777338006 0 0.060463519491455238 0.099604027499683112 0 0.058309804888634208 0.092960529030392591 0 0.067840624380801018 0.093790143654066155 0 0.070509080375317251 0.099184021495174968 0 0.058309804888634208 0.092960529030392591 0 0.073706381613794655 0.1102832777338006 0 0.058309804888634208 0.092960529030392591 0 0.070509080375317251 0.099184021495174968 0 0.073706381613794655 0.1102832777338006 0 0.058309804888634208 0.092960529030392591 0 0.073706381613794655 0.1102832777338006 0 0.060463519491455238 0.099604027499683112 0 0.063522835055579319 0.1073141331028297 0 0.073706381613794655 0.1102832777338006 0 0.060463519491455238 0.099604027499683112 0 0.077969750247249295 0.10423699646697621 0 0.070509080375317251 0.099184021495174968 0 0.073706381613794655 0.1102832777338006 0 0.077969750247249295 0.10423699646697621 0 0.070509080375317251 0.099184021495174968 0 0.075134553586226796 0.094218216653409292 0 0.067840624380801018 0.093790143654066155 0 0.070509080375317251 0.099184021495174968 0 0.075134553586226796 0.094218216653409292 0 0.095728463293813487 0.1174490589756894 0 0.094458485684339982 0.092431668368006786 0 0.086672533927369955 0.10728424118494299 0 0.077969750247249295 0.10423699646697621 0 0.075134553586226796 0.094218216653409292 0 0.0839302084258714 0.098975934773548338 0 0.077969750247249295 0.10423699646697621 0 0.0839302084258714 0.098975934773548338 0 0.086672533927369955 0.10728424118494299 0 0.077969750247249295 0.10423699646697621 0 0.086672533927369955 0.10728424118494299 0 0.078863454371203179 0.11444202151162849 0 0.094458485684339982 0.092431668368006786 0 0.0839302084258714 0.098975934773548338 0 0.086672533927369955 0.10728424118494299 0 0.078863454371203179 0.11444202151162849 0 0.077127614889762525 0.1141325206761272 0 0.096716064953750347 0.13690390314551759 0 0.078863454371203179 0.11444202151162849 0 0.096289166013059257 0.128494386733875 0 0.095728463293813487 0.1174490589756894 0 0.086672533927369955 0.10728424118494299 0 0.078863454371203179 0.11444202151162849 0 0.095728463293813487 0.1174490589756894 0 0.078863454371203179 0.11444202151162849 0 0.096289166013059257 0.128494386733875 0 0.095728463293813487 0.1174490589756894 0 0.078863454371203179 0.11444202151162849 0 0.077127614889762525 0.1141325206761272 0 0.067187445090776593 0.1232438126366493 0 0.074912476791706734 0.13576697486736469 0 0.077127614889762525 0.1141325206761272 0 0.073706381613794655 0.1102832777338006 0 0.064040387337686175 0.1117990630580272 0 0.077127614889762525 0.1141325206761272 0 0.064040387337686175 0.1117990630580272 0 0.077969750247249295 0.10423699646697621 0 0.078863454371203179 0.11444202151162849 0 0.073706381613794655 0.1102832777338006 0 0.078863454371203179 0.11444202151162849 0 0.073706381613794655 0.1102832777338006 0 0.078863454371203179 0.11444202151162849 0 0.077127614889762525 0.1141325206761272 0 0.073706381613794655 0.1102832777338006 0 0.077127614889762525 0.1141325206761272 0 0.073706381613794655 0.1102832777338006 0 0.078863454371203179 0.11444202151162849 0 0.077127614889762525 0.1141325206761272 0 0.077127614889762525 0.1141325206761272 0 0.064040387337686175 0.1117990630580272 0 0.067187445090776593 0.1232438126366493 0 0.064040387337686175 0.1117990630580272 0 0.067187445090776593 0.1232438126366493 0 0.057117951748444022 0.1151585167617339 0 0.063522835055579319 0.1073141331028297 0 0.073706381613794655 0.1102832777338006 0 0.064040387337686175 0.1117990630580272 0 0.067187445090776593 0.1232438126366493 0 0.056839560017558008 0.12282485813955191 0 0.057117951748444022 0.1151585167617339 0 0.067187445090776593 0.1232438126366493 0 0.056839560017558008 0.12282485813955191 0 0.060429257538702062 0.1287784786485166 0 0.056839560017558008 0.12282485813955191 0 0.047763927711309807 0.1184287426793782 0 0.052026695346451428 0.12607951556977751 0 0.047763927711309807 0.1184287426793782 0 0.052026695346451428 0.12607951556977751 0 0.041991842835024093 0.125735451792229 0 0.056839560017558008 0.12282485813955191 0 0.047763927711309807 0.1184287426793782 0 0.057117951748444022 0.1151585167617339 0 0.047763927711309807 0.1184287426793782 0 0.049566257215372583 0.1097784090093545 0 0.057117951748444022 0.1151585167617339 0 0.049566257215372583 0.1097784090093545 0 0.057117951748444022 0.1151585167617339 0 0.05588105177938122 0.1075701641198079 0 0.064040387337686175 0.1117990630580272 0 0.057117951748444022 0.1151585167617339 0 0.05588105177938122 0.1075701641198079 0 0.063522835055579319 0.1073141331028297 0 0.05588105177938122 0.1075701641198079 0 0.060463519491455238 0.099604027499683112 0 0.05588105177938122 0.1075701641198079 0 0.060463519491455238 0.099604027499683112 0 0.048919900937217813 0.1010967719223792 0 0.063522835055579319 0.1073141331028297 0 0.064040387337686175 0.1117990630580272 0 0.05588105177938122 0.1075701641198079 0 0.060463519491455238 0.099604027499683112 0 0.058309804888634208 0.092960529030392591 0 0.04722065736911589 0.088924777265565622 0 0.060463519491455238 0.099604027499683112 0 0.048919900937217813 0.1010967719223792 0 0.04722065736911589 0.088924777265565622 0 0.060463519491455238 0.099604027499683112 0 0.04722065736911589 0.088924777265565622 0 0.049566257215372583 0.1097784090093545 0 0.05588105177938122 0.1075701641198079 0 0.048919900937217813 0.1010967719223792 0 0.049566257215372583 0.1097784090093545 0 0.048919900937217813 0.1010967719223792 0 0.041269798141517162 0.1070270075054216 0 0.041269798141517162 0.1070270075054216 0 0.031253025608276863 0.1165607081051981 0 0.028541821402101059 0.1005466344000648 0 0.048919900937217813 0.1010967719223792 0 0.040817234749695223 0.096488601254562434 0 0.04722065736911589 0.088924777265565622 0 0.048919900937217813 0.1010967719223792 0 0.041269798141517162 0.1070270075054216 0 0.040817234749695223 0.096488601254562434 0 0.041269798141517162 0.1070270075054216 0 0.040817234749695223 0.096488601254562434 0 0.028541821402101059 0.1005466344000648 0 0.040817234749695223 0.096488601254562434 0 0.034502214017901857 0.088389362403736849 0 0.028541821402101059 0.1005466344000648 0 0.047763927711309807 0.1184287426793782 0 0.041269798141517162 0.1070270075054216 0 0.031253025608276863 0.1165607081051981 0 0.047763927711309807 0.1184287426793782 0 0.031253025608276863 0.1165607081051981 0 0.041991842835024093 0.125735451792229 0 0.031253025608276863 0.1165607081051981 0 0.033517233563022927 0.1245847054345568 0 0.041991842835024093 0.125735451792229 0 0.031253025608276863 0.1165607081051981 0 0.033517233563022927 0.1245847054345568 0 0.029124414701945881 0.1230096924613147 0 0.047763927711309807 0.1184287426793782 0 0.049566257215372583 0.1097784090093545 0 0.041269798141517162 0.1070270075054216 0 0.06573472646061887 0.065488373280946588 0 0.051203053516651789 0.065656900366454246 0 0.059271271277724927 0.075226698381459692 0 0.051203053516651789 0.065656900366454246 0 0.059271271277724927 0.075226698381459692 0 0.043919458353789458 0.076929337175616452 0 0.059271271277724927 0.075226698381459692 0 0.054994705501040103 0.084376441468374405 0 0.043919458353789458 0.076929337175616452 0 0.054994705501040103 0.084376441468374405 0 0.04722065736911589 0.088924777265565622 0 0.043919458353789458 0.076929337175616452 0 0.066529119080127319 0.086199894142771183 0 0.059271271277724927 0.075226698381459692 0 0.054994705501040103 0.084376441468374405 0 0.066529119080127319 0.086199894142771183 0 0.054994705501040103 0.084376441468374405 0 0.058309804888634208 0.092960529030392591 0 0.054994705501040103 0.084376441468374405 0 0.058309804888634208 0.092960529030392591 0 0.04722065736911589 0.088924777265565622 0 0.034502214017901857 0.088389362403736849 0 0.043919458353789458 0.076929337175616452 0 0.02700933972700716 0.076771775083622082 0 0.040817234749695223 0.096488601254562434 0 0.04722065736911589 0.088924777265565622 0 0.034502214017901857 0.088389362403736849 0 0.04722065736911589 0.088924777265565622 0 0.034502214017901857 0.088389362403736849 0 0.043919458353789458 0.076929337175616452 0 0.032304521954479963 0.061556951208847868 0 0.043919458353789458 0.076929337175616452 0 0.02700933972700716 0.076771775083622082 0 0.032304521954479963 0.061556951208847868 0 0.051203053516651789 0.065656900366454246 0 0.043919458353789458 0.076929337175616452 0 0.032304521954479963 0.061556951208847868 0 0.02700933972700716 0.076771775083622082 0 0.0050028164057399774 0.068292049016403622 0 0.02700933972700716 0.076771775083622082 0 0.01874815128057275 0.091412871581397173 0 0.0050028164057399774 0.068292049016403622 0 0.034502214017901857 0.088389362403736849 0 0.02700933972700716 0.076771775083622082 0 0.01874815128057275 0.091412871581397173 0 0.034502214017901857 0.088389362403736849 0 0.01874815128057275 0.091412871581397173 0 0.028541821402101059 0.1005466344000648 0 0.01874815128057275 0.091412871581397173 0 0.0014282913974776341 0.087469894955315985 0 0.0050028164057399774 0.068292049016403622 0 0.031253025608276863 0.1165607081051981 0 0.0077042196160664773 0.104087275496153 0 0.031253025608276863 0.1165607081051981 0 0.022081487811930669 0.1219873749073125 0 0.01266094935463986 0.1168258609160842 0 0.031253025608276863 0.1165607081051981 0 0.0077042196160664773 0.104087275496153 0 0.01266094935463986 0.1168258609160842 0 0.031253025608276863 0.1165607081051981 0 0.022081487811930669 0.1219873749073125 0 0.029124414701945881 0.1230096924613147 0 0.022081487811930669 0.1219873749073125 0 0.029124414701945881 0.1230096924613147 0 0.027723944734807951 0.12965492138793061 0 0.033517233563022927 0.1245847054345568 0 0.029124414701945881 0.1230096924613147 0 0.03071856497035259 0.12693410312833739 0 0.01874815128057275 0.091412871581397173 0 0.028541821402101059 0.1005466344000648 0 0.0077042196160664773 0.104087275496153 0 0.031253025608276863 0.1165607081051981 0 0.028541821402101059 0.1005466344000648 0 0.0077042196160664773 0.104087275496153 0 0.01874815128057275 0.091412871581397173 0 0.0014282913974776341 0.087469894955315985 0 0.0077042196160664773 0.104087275496153 0 -0.0060923299389248004 0.1197032580256623 0 0.0077042196160664773 0.104087275496153 0 0.01266094935463986 0.1168258609160842 0 -0.0060923299389248004 0.1197032580256623 0 0.010931865644115579 0.12598069528597419 0 -0.0060923299389248004 0.1197032580256623 0 0.01266094935463986 0.1168258609160842 0 0.010931865644115579 0.12598069528597419 0 0.022081487811930669 0.1219873749073125 0 0.01266094935463986 0.1168258609160842 0 0.010931865644115579 0.12598069528597419 0 -0.0060923299389248004 0.1197032580256623 0 0.00037908848290591949 0.13209288815094869 0 0.010931865644115579 0.12598069528597419 0 0.00037908848290591949 0.13209288815094869 0 0.012481965806763799 0.1350735502545643 0 0.004785734706925053 0.14178329206572829 0 0.00037908848290591949 0.13209288815094869 0 0.012481965806763799 0.1350735502545643 0 0.010931865644115579 0.12598069528597419 0 0.012481965806763799 0.1350735502545643 0 0.010931865644115579 0.12598069528597419 0 0.021472597798253761 0.13298040097149141 0 0.010931865644115579 0.12598069528597419 0 0.027956061227155739 0.13225813254628671 0 0.010931865644115579 0.12598069528597419 0 0.021472597798253761 0.13298040097149141 0 0.027956061227155739 0.13225813254628671 0 0.010931865644115579 0.12598069528597419 0 0.027956061227155739 0.13225813254628671 0 0.027723944734807951 0.12965492138793061 0 0.022081487811930669 0.1219873749073125 0 0.010931865644115579 0.12598069528597419 0 0.027723944734807951 0.12965492138793061 0 0.012481965806763799 0.1350735502545643 0 0.021472597798253761 0.13298040097149141 0 0.021434442602608659 0.14757873761612089 0 0.021472597798253761 0.13298040097149141 0 0.027956061227155739 0.13225813254628671 0 0.021434442602608659 0.14757873761612089 0 0.027956061227155739 0.13225813254628671 0 0.03130530046761959 0.13349311831105959 0 0.027956061227155739 0.13225813254628671 0 0.030435528863488451 0.13063946103654739 0 0.03130530046761959 0.13349311831105959 0 0.027956061227155739 0.13225813254628671 0 0.027723944734807951 0.12965492138793061 0 0.027956061227155739 0.13225813254628671 0 0.027723944734807951 0.12965492138793061 0 0.030435528863488451 0.13063946103654739 0 0.027723944734807951 0.12965492138793061 0 0.030435528863488451 0.13063946103654739 0 0.03071856497035259 0.12693410312833739 0 0.029124414701945881 0.1230096924613147 0 0.027723944734807951 0.12965492138793061 0 0.03071856497035259 0.12693410312833739 0 0.021472597798253761 0.13298040097149141 0 0.027956061227155739 0.13225813254628671 0 0.027956061227155739 0.13225813254628671 0 0.021434442602608659 0.14757873761612089 0 0.030352668523061781 0.15913633836370891 0 0.027956061227155739 0.13225813254628671 0 0.030352668523061781 0.15913633836370891 0 0.012481965806763799 0.1350735502545643 0 0.021434442602608659 0.14757873761612089 0 0.004785734706925053 0.14178329206572829 0 0.021434442602608659 0.14757873761612089 0 0.001168655440354278 0.15617658278348279 0 0.004785734706925053 0.14178329206572829 0 0.021434442602608659 0.14757873761612089 0 0.001168655440354278 0.15617658278348279 0 0.01546795765091683 0.16982485496403951 0 -0.0042089918715192288 0.17816405047356501 0 0.001168655440354278 0.15617658278348279 0 0.01546795765091683 0.16982485496403951 0 -0.0042089918715192288 0.17816405047356501 0 0.01546795765091683 0.16982485496403951 0 0.01140668296798966 0.1929441721371305 0 0.01546795765091683 0.16982485496403951 0 0.032654288243005841 0.18494924841022939 0 0.01140668296798966 0.1929441721371305 0 0.01546795765091683 0.16982485496403951 0 0.030352668523061781 0.15913633836370891 0 0.032654288243005841 0.18494924841022939 0 0.021434442602608659 0.14757873761612089 0 0.01546795765091683 0.16982485496403951 0 0.030352668523061781 0.15913633836370891 0 0.043432590315868339 0.165257129002817 0 0.050994916906576461 0.15688162025875141 0 0.040710327148574817 0.14668181494535579 0 0.030352668523061781 0.15913633836370891 0 0.043432590315868339 0.165257129002817 0 0.032654288243005841 0.18494924841022939 0 0.030352668523061781 0.15913633836370891 0 0.043432590315868339 0.165257129002817 0 0.040710327148574817 0.14668181494535579 0 0.043432590315868339 0.165257129002817 0 0.032654288243005841 0.18494924841022939 0 0.047073487844117252 0.1782558108389464 0 0.030352668523061781 0.15913633836370891 0 0.032654288243005841 0.18494924841022939 0 0.032654288243005841 0.18494924841022939 0 0.047073487844117252 0.1782558108389464 0 0.047817565720361242 0.18851179856385181 0 0.047073487844117252 0.1782558108389464 0 0.056234070264308073 0.18318792146134899 0 0.047817565720361242 0.18851179856385181 0 0.047073487844117252 0.1782558108389464 0 0.056234070264308073 0.18318792146134899 0 0.055228924677042768 0.16937295675648489 0 0.056234070264308073 0.18318792146134899 0 0.055228924677042768 0.16937295675648489 0 0.067027129609096722 0.17857301760290431 0 0.043432590315868339 0.165257129002817 0 0.050994916906576461 0.15688162025875141 0 0.055228924677042768 0.16937295675648489 0 0.043432590315868339 0.165257129002817 0 0.047073487844117252 0.1782558108389464 0 0.055228924677042768 0.16937295675648489 0 0.055228924677042768 0.16937295675648489 0 0.060924145568309773 0.16163008825463979 0 0.06787013559808891 0.16851193925100369 0 0.050994916906576461 0.15688162025875141 0 0.060924145568309773 0.16163008825463979 0 0.061029417457718248 0.1534224034236856 0 0.050994916906576461 0.15688162025875141 0 0.055228924677042768 0.16937295675648489 0 0.060924145568309773 0.16163008825463979 0 0.052290183625692738 0.14993547381186251 0 0.056426072989901467 0.14275605661965721 0 0.040710327148574817 0.14668181494535579 0 0.061029417457718248 0.1534224034236856 0 0.052290183625692738 0.14993547381186251 0 0.056426072989901467 0.14275605661965721 0 0.050994916906576461 0.15688162025875141 0 0.061029417457718248 0.1534224034236856 0 0.052290183625692738 0.14993547381186251 0 0.050994916906576461 0.15688162025875141 0 0.052290183625692738 0.14993547381186251 0 0.040710327148574817 0.14668181494535579 0 0.056426072989901467 0.14275605661965721 0 0.053108888629663183 0.1346300465892119 0 0.074912476791706734 0.13576697486736469 0 0.056426072989901467 0.14275605661965721 0 0.053108888629663183 0.1346300465892119 0 0.03130530046761959 0.13349311831105959 0 0.060429257538702062 0.1287784786485166 0 0.052026695346451428 0.12607951556977751 0 0.053108888629663183 0.1346300465892119 0 0.056839560017558008 0.12282485813955191 0 0.060429257538702062 0.1287784786485166 0 0.052026695346451428 0.12607951556977751 0 0.052026695346451428 0.12607951556977751 0 0.053108888629663183 0.1346300465892119 0 0.041991842835024093 0.125735451792229 0 0.056426072989901467 0.14275605661965721 0 0.03130530046761959 0.13349311831105959 0 0.053108888629663183 0.1346300465892119 0 0.041991842835024093 0.125735451792229 0 0.036799216495888062 0.12930653065296879 0 0.053108888629663183 0.1346300465892119 0 0.036799216495888062 0.12930653065296879 0 0.03130530046761959 0.13349311831105959 0 0.053108888629663183 0.1346300465892119 0 0.03130530046761959 0.13349311831105959 0 0.033517233563022927 0.1245847054345568 0 0.041991842835024093 0.125735451792229 0 0.036799216495888062 0.12930653065296879 0 0.030435528863488451 0.13063946103654739 0 0.03071856497035259 0.12693410312833739 0 0.036799216495888062 0.12930653065296879 0 0.030435528863488451 0.13063946103654739 0 0.036799216495888062 0.12930653065296879 0 0.03130530046761959 0.13349311831105959 0 0.033517233563022927 0.1245847054345568 0 0.03071856497035259 0.12693410312833739 0 0.036799216495888062 0.12930653065296879 0 0.027956061227155739 0.13225813254628671 0 0.03130530046761959 0.13349311831105959 0 0.040710327148574817 0.14668181494535579 0 0.056426072989901467 0.14275605661965721 0 0.03130530046761959 0.13349311831105959 0 0.040710327148574817 0.14668181494535579 0 0.027956061227155739 0.13225813254628671 0 0.030352668523061781 0.15913633836370891 0 0.040710327148574817 0.14668181494535579 0 0.018507260666525562 0.23913500963347681 0 0.038001488041683733 0.24491866308286689 0 0.024837308117879538 0.26019798067375027 0 0.018507260666525562 0.23913500963347681 0 0.022879220322885429 0.21927647200000119 0 0.038001488041683733 0.24491866308286689 0 -0.001665835766312463 0.2365812421247849 0 0.0072134534684511944 0.2591845763088359 0 -0.001665835766312463 0.2365812421247849 0 0.018507260666525562 0.23913500963347681 0 0.0072134534684511944 0.2591845763088359 0 -0.0049313442694992916 0.2282684844223519 0 0.022879220322885429 0.21927647200000119 0 0.00608741631366253 0.20991130307242969 0 -0.0049313442694992916 0.2282684844223519 0 0.022879220322885429 0.21927647200000119 0 -0.001665835766312463 0.2365812421247849 0 0.018507260666525562 0.23913500963347681 0 0.022879220322885429 0.21927647200000119 0 -0.0049313442694992916 0.2282684844223519 0 -0.001665835766312463 0.2365812421247849 0 0.022879220322885429 0.21927647200000119 0 -0.001665835766312463 0.2365812421247849 0 0.022879220322885429 0.21927647200000119 0 0.022879220322885429 0.21927647200000119 0 0.021596703162098659 0.20356867081530811 0 0.034955907962950242 0.21076215845674989 0 0.022879220322885429 0.21927647200000119 0 0.021596703162098659 0.20356867081530811 0 0.00608741631366253 0.20991130307242969 0 0.022879220322885429 0.21927647200000119 0 0.034955907962950242 0.21076215845674989 0 0.022879220322885429 0.21927647200000119 0 0.034955907962950242 0.21076215845674989 0 0.035355402993580982 0.2152425377306762 0 0.022879220322885429 0.21927647200000119 0 0.035355402993580982 0.2152425377306762 0 -0.002927146739987457 0.19831744461118181 0 0.00608741631366253 0.20991130307242969 0 0.01140668296798966 0.1929441721371305 0 -0.002927146739987457 0.19831744461118181 0 -0.0042089918715192288 0.17816405047356501 0 0.01140668296798966 0.1929441721371305 0 0.021596703162098659 0.20356867081530811 0 0.00608741631366253 0.20991130307242969 0 0.01140668296798966 0.1929441721371305 0 0.032654288243005841 0.18494924841022939 0 0.021596703162098659 0.20356867081530811 0 0.034955907962950242 0.21076215845674989 0 0.032654288243005841 0.18494924841022939 0 0.021596703162098659 0.20356867081530811 0 0.01140668296798966 0.1929441721371305 0 0.032654288243005841 0.18494924841022939 0 0.041523111970638397 0.1966486693767355 0 0.034955907962950242 0.21076215845674989 0 0.041523111970638397 0.1966486693767355 0 0.055882106168665492 0.1960087576814776 0 0.034955907962950242 0.21076215845674989 0 0.032654288243005841 0.18494924841022939 0 0.034955907962950242 0.21076215845674989 0 0.032654288243005841 0.18494924841022939 0 0.041523111970638397 0.1966486693767355 0 0.047817565720361242 0.18851179856385181 0 0.041523111970638397 0.1966486693767355 0 0.047817565720361242 0.18851179856385181 0 0.055882106168665492 0.1960087576814776 0 0.056234070264308073 0.18318792146134899 0 0.047817565720361242 0.18851179856385181 0 0.055882106168665492 0.1960087576814776 0 0.056234070264308073 0.18318792146134899 0 0.055882106168665492 0.1960087576814776 0 0.068120838341870604 0.1885168484688198 0 0.055882106168665492 0.1960087576814776 0 0.056278208177413407 0.2084775501484068 0 0.066835080483473627 0.1975324136266508 0 0.056278208177413407 0.2084775501484068 0 0.037258818000489753 0.2160462997886575 0 0.054584746170372941 0.22041529239779309 0 0.055882106168665492 0.1960087576814776 0 0.056278208177413407 0.2084775501484068 0 0.034955907962950242 0.21076215845674989 0 0.056278208177413407 0.2084775501484068 0 0.054584746170372941 0.22041529239779309 0 0.066273423231637277 0.2221885200134934 0 0.055882106168665492 0.1960087576814776 0 0.034955907962950242 0.21076215845674989 0 0.056278208177413407 0.2084775501484068 0 0.035355402993580982 0.2152425377306762 0 0.056278208177413407 0.2084775501484068 0 0.037258818000489753 0.2160462997886575 0 0.035355402993580982 0.2152425377306762 0 0.056278208177413407 0.2084775501484068 0 0.034955907962950242 0.21076215845674989 0 0.035355402993580982 0.2152425377306762 0 0.034955907962950242 0.21076215845674989 0 0.035355402993580982 0.2152425377306762 0 0.037258818000489753 0.2160462997886575 0 0.042286061076926312 0.22778907506070381 0 0.058528535271951357 0.23494879964061449 0 0.022879220322885429 0.21927647200000119 0 0.035355402993580982 0.2152425377306762 0 0.038001488041683733 0.24491866308286689 0 0.035355402993580982 0.2152425377306762 0 0.042286061076926312 0.22778907506070381 0 0.038001488041683733 0.24491866308286689 0 0.035355402993580982 0.2152425377306762 0 0.038001488041683733 0.24491866308286689 0 0.037258818000489753 0.2160462997886575 0 0.035355402993580982 0.2152425377306762 0 0.042286061076926312 0.22778907506070381 0 0.037258818000489753 0.2160462997886575 0 0.058528535271951357 0.23494879964061449 0 0.037258818000489753 0.2160462997886575 0 0.054584746170372941 0.22041529239779309 0 0.058528535271951357 0.23494879964061449 0 0.054584746170372941 0.22041529239779309 0 0.058528535271951357 0.23494879964061449 0 0.066273423231637277 0.2221885200134934 0 0.058528535271951357 0.23494879964061449 0 0.038001488041683733 0.24491866308286689 0 0.060742791056237817 0.26428234052613991 0 0.042286061076926312 0.22778907506070381 0 0.058528535271951357 0.23494879964061449 0 0.038001488041683733 0.24491866308286689 0 0.086694779948159856 0.2391394350834197 0 0.074290018316739356 0.2346107462825997 0 0.079798252543412981 0.25385129949257162 0 0.086694779948159856 0.2391394350834197 0 0.079798252543412981 0.25385129949257162 0 0.092540046358089836 0.25227874596180661 0 0.058528535271951357 0.23494879964061449 0 0.079798252543412981 0.25385129949257162 0 0.058528535271951357 0.23494879964061449 0 0.074290018316739356 0.2346107462825997 0 0.079798252543412981 0.25385129949257162 0 0.074290018316739356 0.2346107462825997 0 0.066273423231637277 0.2221885200134934 0 0.080155100588535311 0.2229256771828991 0 0.058528535271951357 0.23494879964061449 0 0.074290018316739356 0.2346107462825997 0 0.066273423231637277 0.2221885200134934 0 0.086694779948159856 0.2391394350834197 0 0.080155100588535311 0.2229256771828991 0 0.092141358191462602 0.22602539380163381 0 0.086694779948159856 0.2391394350834197 0 0.074290018316739356 0.2346107462825997 0 0.080155100588535311 0.2229256771828991 0 0.080155100588535311 0.2229256771828991 0 0.092141358191462602 0.22602539380163381 0 0.087568408670590431 0.2113828230040809 0 0.087568408670590431 0.2113828230040809 0 0.098123818545076708 0.194947574983863 0 0.087568408670590431 0.2113828230040809 0 0.085106683654929349 0.20446196270919151 0 0.098123818545076708 0.194947574983863 0 0.087568408670590431 0.2113828230040809 0 0.077533494042805268 0.20980489028268701 0 0.087568408670590431 0.2113828230040809 0 0.085106683654929349 0.20446196270919151 0 0.077533494042805268 0.20980489028268701 0 0.085106683654929349 0.20446196270919151 0 0.077533494042805268 0.20980489028268701 0 0.077201013361245047 0.2017125625661349 0 0.080155100588535311 0.2229256771828991 0 0.087568408670590431 0.2113828230040809 0 0.080155100588535311 0.2229256771828991 0 0.087568408670590431 0.2113828230040809 0 0.077533494042805268 0.20980489028268701 0 0.066273423231637277 0.2221885200134934 0 0.080155100588535311 0.2229256771828991 0 0.077533494042805268 0.20980489028268701 0 0.056278208177413407 0.2084775501484068 0 0.066273423231637277 0.2221885200134934 0 0.077533494042805268 0.20980489028268701 0 0.056278208177413407 0.2084775501484068 0 0.077533494042805268 0.20980489028268701 0 0.077201013361245047 0.2017125625661349 0 0.056278208177413407 0.2084775501484068 0 0.077201013361245047 0.2017125625661349 0 0.077201013361245047 0.2017125625661349 0 0.066835080483473627 0.1975324136266508 0 0.075197412726555946 0.19264648465497469 0 0.056278208177413407 0.2084775501484068 0 0.077201013361245047 0.2017125625661349 0 0.066835080483473627 0.1975324136266508 0 0.066835080483473627 0.1975324136266508 0 0.068120838341870604 0.1885168484688198 0 0.075197412726555946 0.19264648465497469 0 0.055882106168665492 0.1960087576814776 0 0.066835080483473627 0.1975324136266508 0 0.068120838341870604 0.1885168484688198 0 0.068120838341870604 0.1885168484688198 0 0.075197412726555946 0.19264648465497469 0 0.076851403845574456 0.18471904558506219 0 0.077201013361245047 0.2017125625661349 0 0.075197412726555946 0.19264648465497469 0 0.085124161680792718 0.19050932349730029 0 0.075197412726555946 0.19264648465497469 0 0.085124161680792718 0.19050932349730029 0 0.076851403845574456 0.18471904558506219 0 0.077201013361245047 0.2017125625661349 0 0.098123818545076708 0.194947574983863 0 0.077201013361245047 0.2017125625661349 0 0.085124161680792718 0.19050932349730029 0 0.098123818545076708 0.194947574983863 0 0.085106683654929349 0.20446196270919151 0 0.077201013361245047 0.2017125625661349 0 0.098123818545076708 0.194947574983863 0 0.085124161680792718 0.19050932349730029 0 0.098123818545076708 0.194947574983863 0 0.091798667185446534 0.18710785637661759 0 0.098123818545076708 0.194947574983863 0 0.1052425216092177 0.1926458789441729 0 0.1041303964369361 0.21398710050889549 0 0.1052425216092177 0.1926458789441729 0 0.11795935189077419 0.20150694107098571 0 0.1041303964369361 0.21398710050889549 0 0.098123818545076708 0.194947574983863 0 0.091798667185446534 0.18710785637661759 0 0.096707267348931536 0.1807723796772682 0 0.098123818545076708 0.194947574983863 0 0.1052425216092177 0.1926458789441729 0 0.1055491180581254 0.18676242004027169 0 0.098123818545076708 0.194947574983863 0 0.1052425216092177 0.1926458789441729 0 0.1052425216092177 0.1926458789441729 0 0.1055491180581254 0.18676242004027169 0 0.1052425216092177 0.1926458789441729 0 0.1245760352358689 0.1863947582910489 0 0.1052425216092177 0.1926458789441729 0 0.11795935189077419 0.20150694107098571 0 0.1245760352358689 0.1863947582910489 0 0.1052425216092177 0.1926458789441729 0 0.1055491180581254 0.18676242004027169 0 0.1245760352358689 0.1863947582910489 0 0.11795935189077419 0.20150694107098571 0 0.1245760352358689 0.1863947582910489 0 0.1272480644307554 0.19935463428967989 0 0.11795935189077419 0.20150694107098571 0 0.1263342973630498 0.21747853647157589 0 0.1272480644307554 0.19935463428967989 0 0.1041303964369361 0.21398710050889549 0 0.1263342973630498 0.21747853647157589 0 0.11795935189077419 0.20150694107098571 0 0.1041303964369361 0.21398710050889549 0 0.1263342973630498 0.21747853647157589 0 0.092141358191462602 0.22602539380163381 0 0.087568408670590431 0.2113828230040809 0 0.1041303964369361 0.21398710050889549 0 0.1052425216092177 0.1926458789441729 0 0.1041303964369361 0.21398710050889549 0 0.087568408670590431 0.2113828230040809 0 0.1041303964369361 0.21398710050889549 0 0.087568408670590431 0.2113828230040809 0 0.098123818545076708 0.194947574983863 0 0.1041303964369361 0.21398710050889549 0 0.1041303964369361 0.21398710050889549 0 0.1135359207609664 0.2335280535809546 0 0.1025991831259085 0.24337044992671031 0 0.092141358191462602 0.22602539380163381 0 0.1041303964369361 0.21398710050889549 0 0.1025991831259085 0.24337044992671031 0 0.1041303964369361 0.21398710050889549 0 0.1025991831259085 0.24337044992671031 0 0.1041303964369361 0.21398710050889549 0 0.1216907108743132 0.22604624524878869 0 0.1135359207609664 0.2335280535809546 0 0.1041303964369361 0.21398710050889549 0 0.1216907108743132 0.22604624524878869 0 0.1263342973630498 0.21747853647157589 0 0.1216907108743132 0.22604624524878869 0 0.1263342973630498 0.21747853647157589 0 0.1216907108743132 0.22604624524878869 0 0.1135359207609664 0.2335280535809546 0 0.1213324536993315 0.2344322590000015 0 0.1216907108743132 0.22604624524878869 0 0.1213324536993315 0.2344322590000015 0 0.12864688053324561 0.23139535804973879 0 0.1135359207609664 0.2335280535809546 0 0.1176436003702233 0.24428934310490771 0 0.1025991831259085 0.24337044992671031 0 0.1213324536993315 0.2344322590000015 0 0.1176436003702233 0.24428934310490771 0 0.12619840629920839 0.23976477735231949 0 0.1135359207609664 0.2335280535809546 0 0.1213324536993315 0.2344322590000015 0 0.1176436003702233 0.24428934310490771 0 0.1176436003702233 0.24428934310490771 0 0.12659951537742381 0.2471792158728551 0 0.12619840629920839 0.23976477735231949 0 0.1176436003702233 0.24428934310490771 0 0.12659951537742381 0.2471792158728551 0 0.12203340356053841 0.25359120832007448 0 0.1176436003702233 0.24428934310490771 0 0.1025991831259085 0.24337044992671031 0 0.111593496771331 0.25855939330488448 0 0.086694779948159856 0.2391394350834197 0 0.1025991831259085 0.24337044992671031 0 0.092540046358089836 0.25227874596180661 0 0.086694779948159856 0.2391394350834197 0 0.092141358191462602 0.22602539380163381 0 0.1025991831259085 0.24337044992671031 0 0.081546845512183455 0.15201899492825419 0 0.087615658180565326 0.14321137667523481 0 0.074912476791706734 0.13576697486736469 0 0.081546845512183455 0.15201899492825419 0 0.087615658180565326 0.14321137667523481 0 0.097287245464620795 0.1481556337598029 0 0.077127614889762525 0.1141325206761272 0 0.074912476791706734 0.13576697486736469 0 0.096716064953750347 0.13690390314551759 0 0.077127614889762525 0.1141325206761272 0 0.096716064953750347 0.13690390314551759 0 0.078863454371203179 0.11444202151162849 0 0.096289166013059257 0.128494386733875 0 0.096716064953750347 0.13690390314551759 0 0.074912476791706734 0.13576697486736469 0 0.096716064953750347 0.13690390314551759 0 0.087615658180565326 0.14321137667523481 0 0.074912476791706734 0.13576697486736469 0 0.096716064953750347 0.13690390314551759 0 0.060429257538702062 0.1287784786485166 0 0.053108888629663183 0.1346300465892119 0 0.074912476791706734 0.13576697486736469 0 0.053108888629663183 0.1346300465892119 0 0.074912476791706734 0.13576697486736469 0 0.067187445090776593 0.1232438126366493 0 0.060429257538702062 0.1287784786485166 0 0.074912476791706734 0.13576697486736469 0 0.061029417457718248 0.1534224034236856 0 0.081546845512183455 0.15201899492825419 0 0.069497333202122466 0.1599615215832732 0 0.056426072989901467 0.14275605661965721 0 0.081546845512183455 0.15201899492825419 0 0.074912476791706734 0.13576697486736469 0 0.061029417457718248 0.1534224034236856 0 0.056426072989901467 0.14275605661965721 0 0.081546845512183455 0.15201899492825419 0 0.056426072989901467 0.14275605661965721 0 0.081546845512183455 0.15201899492825419 0 0.060924145568309773 0.16163008825463979 0 0.061029417457718248 0.1534224034236856 0 0.069497333202122466 0.1599615215832732 0 0.060924145568309773 0.16163008825463979 0 0.069497333202122466 0.1599615215832732 0 0.06787013559808891 0.16851193925100369 0 0.06787013559808891 0.16851193925100369 0 0.078399459548145561 0.17586645193833481 0 0.079685183299287449 0.16572592103208639 0 0.069497333202122466 0.1599615215832732 0 0.06787013559808891 0.16851193925100369 0 0.079685183299287449 0.16572592103208639 0 0.081546845512183455 0.15201899492825419 0 0.069497333202122466 0.1599615215832732 0 0.079685183299287449 0.16572592103208639 0 0.056234070264308073 0.18318792146134899 0 0.068120838341870604 0.1885168484688198 0 0.067027129609096722 0.17857301760290431 0 0.055228924677042768 0.16937295675648489 0 0.06787013559808891 0.16851193925100369 0 0.067027129609096722 0.17857301760290431 0 0.06787013559808891 0.16851193925100369 0 0.067027129609096722 0.17857301760290431 0 0.078399459548145561 0.17586645193833481 0 0.068120838341870604 0.1885168484688198 0 0.067027129609096722 0.17857301760290431 0 0.076851403845574456 0.18471904558506219 0 0.067027129609096722 0.17857301760290431 0 0.076851403845574456 0.18471904558506219 0 0.078399459548145561 0.17586645193833481 0 0.085124161680792718 0.19050932349730029 0 0.076851403845574456 0.18471904558506219 0 0.086445856665466725 0.18210113831022859 0 0.076851403845574456 0.18471904558506219 0 0.078399459548145561 0.17586645193833481 0 0.086445856665466725 0.18210113831022859 0 0.078399459548145561 0.17586645193833481 0 0.088825461240861464 0.17331740747734661 0 0.086445856665466725 0.18210113831022859 0 0.088825461240861464 0.17331740747734661 0 0.086445856665466725 0.18210113831022859 0 0.096707267348931536 0.1807723796772682 0 0.086445856665466725 0.18210113831022859 0 0.091798667185446534 0.18710785637661759 0 0.096707267348931536 0.1807723796772682 0 0.085124161680792718 0.19050932349730029 0 0.086445856665466725 0.18210113831022859 0 0.091798667185446534 0.18710785637661759 0 0.081546845512183455 0.15201899492825419 0 0.091107482997909814 0.16478568037145369 0 0.10666761803446539 0.16128193323685119 0 0.081546845512183455 0.15201899492825419 0 0.079685183299287449 0.16572592103208639 0 0.091107482997909814 0.16478568037145369 0 0.078399459548145561 0.17586645193833481 0 0.088825461240861464 0.17331740747734661 0 0.079685183299287449 0.16572592103208639 0 0.088825461240861464 0.17331740747734661 0 0.091107482997909814 0.16478568037145369 0 0.10060751758542789 0.17065287353470801 0 0.088825461240861464 0.17331740747734661 0 0.079685183299287449 0.16572592103208639 0 0.091107482997909814 0.16478568037145369 0 0.081546845512183455 0.15201899492825419 0 0.10666761803446539 0.16128193323685119 0 0.091107482997909814 0.16478568037145369 0 0.10060751758542789 0.17065287353470801 0 0.10666761803446539 0.16128193323685119 0 0.10060751758542789 0.17065287353470801 0 0.10666761803446539 0.16128193323685119 0 0.1106469296819881 0.17544852757904539 0 0.098123818545076708 0.194947574983863 0 0.096707267348931536 0.1807723796772682 0 0.1106469296819881 0.17544852757904539 0 0.098123818545076708 0.194947574983863 0 0.1055491180581254 0.18676242004027169 0 0.1106469296819881 0.17544852757904539 0 0.098123818545076708 0.194947574983863 0 0.1106469296819881 0.17544852757904539 0 0.088825461240861464 0.17331740747734661 0 0.10060751758542789 0.17065287353470801 0 0.096707267348931536 0.1807723796772682 0 0.10060751758542789 0.17065287353470801 0 0.096707267348931536 0.1807723796772682 0 0.1106469296819881 0.17544852757904539 0 0.1106469296819881 0.17544852757904539 0 0.1245760352358689 0.1863947582910489 0 0.1247266434030596 0.17075860581872751 0 0.1055491180581254 0.18676242004027169 0 0.1106469296819881 0.17544852757904539 0 0.1245760352358689 0.1863947582910489 0 0.10666761803446539 0.16128193323685119 0 0.1106469296819881 0.17544852757904539 0 0.1231700408188995 0.15594948017422791 0 0.1106469296819881 0.17544852757904539 0 0.1247266434030596 0.17075860581872751 0 0.1231700408188995 0.15594948017422791 0 0.10666761803446539 0.16128193323685119 0 0.1231700408188995 0.15594948017422791 0 0.1108518431332572 0.15207578179882669 0 0.1106469296819881 0.17544852757904539 0 0.1231700408188995 0.15594948017422791 0 0.1231700408188995 0.15594948017422791 0 0.1215910041951052 0.145695461084205 0 0.1108518431332572 0.15207578179882669 0 0.1215910041951052 0.145695461084205 0 0.1108518431332572 0.15207578179882669 0 0.11127996719108731 0.14058320224151369 0 0.1108518431332572 0.15207578179882669 0 0.10740884422116 0.13746146839720011 0 0.11127996719108731 0.14058320224151369 0 0.10666761803446539 0.16128193323685119 0 0.1108518431332572 0.15207578179882669 0 0.097287245464620795 0.1481556337598029 0 0.081546845512183455 0.15201899492825419 0 0.10666761803446539 0.16128193323685119 0 0.097287245464620795 0.1481556337598029 0 0.1108518431332572 0.15207578179882669 0 0.096716064953750347 0.13690390314551759 0 0.1108518431332572 0.15207578179882669 0 0.097287245464620795 0.1481556337598029 0 0.096716064953750347 0.13690390314551759 0 0.1108518431332572 0.15207578179882669 0 0.096716064953750347 0.13690390314551759 0 0.10740884422116 0.13746146839720011 0 0.097287245464620795 0.1481556337598029 0 0.096716064953750347 0.13690390314551759 0 0.087615658180565326 0.14321137667523481 0 0.097287245464620795 0.1481556337598029 0 0.096716064953750347 0.13690390314551759 0 0.096289166013059257 0.128494386733875 0 0.096716064953750347 0.13690390314551759 0 0.095728463293813487 0.1174490589756894 0 0.096289166013059257 0.128494386733875 0 0.10785367184665701 0.12970817295409401 0 0.096289166013059257 0.128494386733875 0 0.096716064953750347 0.13690390314551759 0 0.10740884422116 0.13746146839720011 0 0.10740884422116 0.13746146839720011 0 0.10785367184665701 0.12970817295409401 0 0.10964044352132581 0.13757783311345781 0 0.096716064953750347 0.13690390314551759 0 0.10740884422116 0.13746146839720011 0 0.096289166013059257 0.128494386733875 0 0.10740884422116 0.13746146839720011 0 0.10740884422116 0.13746146839720011 0 0.10964044352132581 0.13757783311345781 0 0.10740884422116 0.13746146839720011 0 0.11127996719108731 0.14058320224151369 0 0.096289166013059257 0.128494386733875 0 0.10740884422116 0.13746146839720011 0 0.10785367184665701 0.12970817295409401 0 0.12068466627323041 0.12189875939767961 0 0.1173704477573525 0.13536753110666311 0 0.13143968907359421 0.1381047125310135 0 0.12068466627323041 0.12189875939767961 0 0.10785367184665701 0.12970817295409401 0 0.1173704477573525 0.13536753110666311 0 0.10785367184665701 0.12970817295409401 0 0.10964044352132581 0.13757783311345781 0 0.1173704477573525 0.13536753110666311 0 0.1215910041951052 0.145695461084205 0 0.11127996719108731 0.14058320224151369 0 0.1173704477573525 0.13536753110666311 0 0.11127996719108731 0.14058320224151369 0 0.10964044352132581 0.13757783311345781 0 0.1173704477573525 0.13536753110666311 0 0.10740884422116 0.13746146839720011 0 0.11127996719108731 0.14058320224151369 0 0.10964044352132581 0.13757783311345781 0 0.1215910041951052 0.145695461084205 0 0.1173704477573525 0.13536753110666311 0 0.13143968907359421 0.1381047125310135 0 0.12068466627323041 0.12189875939767961 0 0.13143968907359421 0.1381047125310135 0 0.14564086925264719 0.12634845981967011 0 0.13143968907359421 0.1381047125310135 0 0.14564086925264719 0.12634845981967011 0 0.14754471735551439 0.14777734730394931 0 0.14564086925264719 0.12634845981967011 0 0.14754471735551439 0.14777734730394931 0 0.16769912497388631 0.1411578310321765 0 0.14754471735551439 0.14777734730394931 0 0.1342598953496176 0.15149998007843779 0 0.1373155084006796 0.16480997412874221 0 0.13143968907359421 0.1381047125310135 0 0.14754471735551439 0.14777734730394931 0 0.1342598953496176 0.15149998007843779 0 0.1215910041951052 0.145695461084205 0 0.13143968907359421 0.1381047125310135 0 0.1342598953496176 0.15149998007843779 0 0.1231700408188995 0.15594948017422791 0 0.1215910041951052 0.145695461084205 0 0.1342598953496176 0.15149998007843779 0 0.1247266434030596 0.17075860581872751 0 0.1231700408188995 0.15594948017422791 0 0.1373155084006796 0.16480997412874221 0 0.1231700408188995 0.15594948017422791 0 0.1342598953496176 0.15149998007843779 0 0.1373155084006796 0.16480997412874221 0 0.1247266434030596 0.17075860581872751 0 0.1373155084006796 0.16480997412874221 0 0.13263193397553191 0.17552674396911039 0 0.1245760352358689 0.1863947582910489 0 0.1439095488625195 0.18014363763792321 0 0.1401225732333288 0.19203830132510941 0 0.1245760352358689 0.1863947582910489 0 0.1247266434030596 0.17075860581872751 0 0.13263193397553191 0.17552674396911039 0 0.1245760352358689 0.1863947582910489 0 0.13263193397553191 0.17552674396911039 0 0.1439095488625195 0.18014363763792321 0 0.1245760352358689 0.1863947582910489 0 0.1439095488625195 0.18014363763792321 0 0.1373155084006796 0.16480997412874221 0 0.13263193397553191 0.17552674396911039 0 0.1439095488625195 0.18014363763792321 0 0.1439095488625195 0.18014363763792321 0 0.15391084910360761 0.1665980661786429 0 0.1401225732333288 0.19203830132510941 0 0.15391084910360761 0.1665980661786429 0 0.15908559589481211 0.18600591264138649 0 0.1401225732333288 0.19203830132510941 0 0.15391084910360761 0.1665980661786429 0 0.1401225732333288 0.19203830132510941 0 0.1373155084006796 0.16480997412874221 0 0.1439095488625195 0.18014363763792321 0 0.15391084910360761 0.1665980661786429 0 0.14754471735551439 0.14777734730394931 0 0.1373155084006796 0.16480997412874221 0 0.15391084910360761 0.1665980661786429 0 0.15391084910360761 0.1665980661786429 0 0.1656714246919106 0.17376825586831651 0 0.17325193265311509 0.15758584780805721 0 0.15391084910360761 0.1665980661786429 0 0.15908559589481211 0.18600591264138649 0 0.1656714246919106 0.17376825586831651 0 0.15908559589481211 0.18600591264138649 0 0.1656714246919106 0.17376825586831651 0 0.1790040284849958 0.18950388446104741 0 0.17908926270745881 0.17065628200232669 0 0.1790040284849958 0.18950388446104741 0 0.1946561958756835 0.1849863539785572 0 0.1656714246919106 0.17376825586831651 0 0.17908926270745881 0.17065628200232669 0 0.1790040284849958 0.18950388446104741 0 0.1656714246919106 0.17376825586831651 0 0.17325193265311509 0.15758584780805721 0 0.17908926270745881 0.17065628200232669 0 0.17325193265311509 0.15758584780805721 0 0.17908926270745881 0.17065628200232669 0 0.1901141592146624 0.15474690245295911 0 0.17908926270745881 0.17065628200232669 0 0.1901141592146624 0.15474690245295911 0 0.17325193265311509 0.15758584780805721 0 0.18302677522716521 0.13858774931392151 0 0.16769912497388631 0.1411578310321765 0 0.17325193265311509 0.15758584780805721 0 0.18302677522716521 0.13858774931392151 0 0.1901141592146624 0.15474690245295911 0 0.18302677522716521 0.13858774931392151 0 0.18872804884044631 0.1234601155307722 0 0.18148740084416501 0.1157175958857101 0 0.18302677522716521 0.13858774931392151 0 0.16769912497388631 0.1411578310321765 0 0.18148740084416501 0.1157175958857101 0 0.16769912497388631 0.1411578310321765 0 0.18148740084416501 0.1157175958857101 0 0.16769912497388631 0.1411578310321765 0 0.16363721448846019 0.1218132413429826 0 0.18148740084416501 0.1157175958857101 0 0.14564086925264719 0.12634845981967011 0 0.16769912497388631 0.1411578310321765 0 0.16363721448846019 0.1218132413429826 0 0.15391084910360761 0.1665980661786429 0 0.16769912497388631 0.1411578310321765 0 0.15391084910360761 0.1665980661786429 0 0.17325193265311509 0.15758584780805721 0 0.16769912497388631 0.1411578310321765 0 0.14754471735551439 0.14777734730394931 0 0.15391084910360761 0.1665980661786429 0 0.16769912497388631 0.1411578310321765 0 0.13830289072393709 0.24215030697427431 0 0.15750437485464891 0.24309139961252649 0 0.1523869939018862 0.26034940734419421 0 0.13830289072393709 0.24215030697427431 0 0.14885505281341491 0.23336360921770469 0 0.15750437485464891 0.24309139961252649 0 0.13830289072393709 0.24215030697427431 0 0.13851346986863289 0.22909105215342351 0 0.14885505281341491 0.23336360921770469 0 0.12659951537742381 0.2471792158728551 0 0.12619840629920839 0.23976477735231949 0 0.13830289072393709 0.24215030697427431 0 0.12659951537742381 0.2471792158728551 0 0.13830289072393709 0.24215030697427431 0 0.13120266578364639 0.25331006539398349 0 0.1213324536993315 0.2344322590000015 0 0.12619840629920839 0.23976477735231949 0 0.12864688053324561 0.23139535804973879 0 0.12619840629920839 0.23976477735231949 0 0.13830289072393709 0.24215030697427431 0 0.12864688053324561 0.23139535804973879 0 0.15332848742774541 0.22172321790341121 0 0.1263342973630498 0.21747853647157589 0 0.13851346986863289 0.22909105215342351 0 0.15332848742774541 0.22172321790341121 0 0.1263342973630498 0.21747853647157589 0 0.13830289072393709 0.24215030697427431 0 0.13851346986863289 0.22909105215342351 0 0.12864688053324561 0.23139535804973879 0 0.1216907108743132 0.22604624524878869 0 0.12864688053324561 0.23139535804973879 0 0.1263342973630498 0.21747853647157589 0 0.13851346986863289 0.22909105215342351 0 0.12864688053324561 0.23139535804973879 0 0.1263342973630498 0.21747853647157589 0 0.14885505281341491 0.23336360921770469 0 0.15332848742774541 0.22172321790341121 0 0.16565830622682781 0.23126888991162309 0 0.13851346986863289 0.22909105215342351 0 0.14885505281341491 0.23336360921770469 0 0.15332848742774541 0.22172321790341121 0 0.15332848742774541 0.22172321790341121 0 0.14146345928266341 0.20922169456551221 0 0.15257743363569651 0.20225308347145701 0 0.14146345928266341 0.20922169456551221 0 0.1263342973630498 0.21747853647157589 0 0.1401225732333288 0.19203830132510941 0 0.1263342973630498 0.21747853647157589 0 0.1401225732333288 0.19203830132510941 0 0.15332848742774541 0.22172321790341121 0 0.14146345928266341 0.20922169456551221 0 0.1263342973630498 0.21747853647157589 0 0.1263342973630498 0.21747853647157589 0 0.1272480644307554 0.19935463428967989 0 0.1401225732333288 0.19203830132510941 0 0.1245760352358689 0.1863947582910489 0 0.1272480644307554 0.19935463428967989 0 0.1401225732333288 0.19203830132510941 0 0.14146345928266341 0.20922169456551221 0 0.1401225732333288 0.19203830132510941 0 0.15257743363569651 0.20225308347145701 0 0.15908559589481211 0.18600591264138649 0 0.1401225732333288 0.19203830132510941 0 0.15257743363569651 0.20225308347145701 0 0.15908559589481211 0.18600591264138649 0 0.15257743363569651 0.20225308347145701 0 0.16888705233993281 0.2022762909218658 0 0.15908559589481211 0.18600591264138649 0 0.16888705233993281 0.2022762909218658 0 0.1790040284849958 0.18950388446104741 0 0.16888705233993281 0.2022762909218658 0 0.1790040284849958 0.18950388446104741 0 0.18529619800482511 0.2061114901044673 0 0.1790040284849958 0.18950388446104741 0 0.18529619800482511 0.2061114901044673 0 0.19726960380593059 0.20055839203644391 0 0.16888705233993281 0.2022762909218658 0 0.18529619800482511 0.2061114901044673 0 0.17802129077897069 0.21269052158562021 0 0.18529619800482511 0.2061114901044673 0 0.17802129077897069 0.21269052158562021 0 0.1896790347625717 0.2194493784360077 0 0.15332848742774541 0.22172321790341121 0 0.15257743363569651 0.20225308347145701 0 0.16888705233993281 0.2022762909218658 0 0.15332848742774541 0.22172321790341121 0 0.16888705233993281 0.2022762909218658 0 0.17802129077897069 0.21269052158562021 0 0.15332848742774541 0.22172321790341121 0 0.16565830622682781 0.23126888991162309 0 0.1803226774924408 0.2259678993352465 0 0.15332848742774541 0.22172321790341121 0 0.17802129077897069 0.21269052158562021 0 0.1803226774924408 0.2259678993352465 0 0.15332848742774541 0.22172321790341121 0 0.1803226774924408 0.2259678993352465 0 0.1803226774924408 0.2259678993352465 0 0.18943428850679911 0.22974649119515239 0 0.1896790347625717 0.2194493784360077 0 0.17802129077897069 0.21269052158562021 0 0.1803226774924408 0.2259678993352465 0 0.1896790347625717 0.2194493784360077 0 0.1803226774924408 0.2259678993352465 0 0.18111418149707281 0.23333291639817819 0 0.18943428850679911 0.22974649119515239 0 0.18111418149707281 0.23333291639817819 0 0.1901987391466389 0.2392084736657846 0 0.18943428850679911 0.22974649119515239 0 0.16565830622682781 0.23126888991162309 0 0.1803226774924408 0.2259678993352465 0 0.18111418149707281 0.23333291639817819 0 0.16565830622682781 0.23126888991162309 0 0.18111418149707281 0.23333291639817819 0 0.1722258946919413 0.24170077339084139 0 0.18111418149707281 0.23333291639817819 0 0.1901987391466389 0.2392084736657846 0 0.18793491581771871 0.25388050382139737 0 0.18111418149707281 0.23333291639817819 0 0.1722258946919413 0.24170077339084139 0 0.18793491581771871 0.25388050382139737 0 0.1722258946919413 0.24170077339084139 0 0.16834814689714089 0.25261690768887618 0 0.18793491581771871 0.25388050382139737 0 0.18111418149707281 0.23333291639817819 0 0.18793491581771871 0.25388050382139737 0 0.1722258946919413 0.24170077339084139 0 0.15750437485464891 0.24309139961252649 0 0.16834814689714089 0.25261690768887618 0 0.14885505281341491 0.23336360921770469 0 0.16565830622682781 0.23126888991162309 0 0.15750437485464891 0.24309139961252649 0 0.16565830622682781 0.23126888991162309 0 0.1722258946919413 0.24170077339084139 0 0.15750437485464891 0.24309139961252649 0 0.21444869797179331 0.2490145456185015 0 0.21774573906059541 0.24524128371703571 0 0.21880972439142549 0.25311319525236048 0 0.21444869797179331 0.2490145456185015 0 0.20945048672397079 0.2472949006310797 0 0.2124583023384338 0.25323887682229451 0 0.21279220166562651 0.24388495410585451 0 0.21444869797179331 0.2490145456185015 0 0.20945048672397079 0.2472949006310797 0 0.21279220166562651 0.24388495410585451 0 0.21444869797179331 0.2490145456185015 0 0.21774573906059541 0.24524128371703571 0 0.21279220166562651 0.24388495410585451 0 0.21774573906059541 0.24524128371703571 0 0.21551258562004491 0.24045446179087579 0 0.21454457174520661 0.2346888189617907 0 0.21211331988584431 0.23892234101649881 0 0.20637212274349129 0.23367029729497771 0 0.21774573906059541 0.24524128371703571 0 0.21551258562004491 0.24045446179087579 0 0.22075031219446389 0.2381738467222399 0 0.21454457174520661 0.2346888189617907 0 0.21886910508599089 0.23224533224451349 0 0.22075031219446389 0.2381738467222399 0 0.21551258562004491 0.24045446179087579 0 0.21454457174520661 0.2346888189617907 0 0.22075031219446389 0.2381738467222399 0 0.21551258562004491 0.24045446179087579 0 0.21454457174520661 0.2346888189617907 0 0.21211331988584431 0.23892234101649881 0 0.21279220166562651 0.24388495410585451 0 0.21211331988584431 0.23892234101649881 0 0.2080846087804909 0.241812425823342 0 0.21279220166562651 0.24388495410585451 0 0.21551258562004491 0.24045446179087579 0 0.21211331988584431 0.23892234101649881 0 0.2080846087804909 0.241812425823342 0 0.20202643657074951 0.2409476788436731 0 0.20637212274349129 0.23367029729497771 0 0.21211331988584431 0.23892234101649881 0 0.2080846087804909 0.241812425823342 0 0.20637212274349129 0.23367029729497771 0 0.2080846087804909 0.241812425823342 0 0.20539417533746401 0.2450811254960496 0 0.20202643657074951 0.2409476788436731 0 0.21279220166562651 0.24388495410585451 0 0.2080846087804909 0.241812425823342 0 0.20945048672397079 0.2472949006310797 0 0.2080846087804909 0.241812425823342 0 0.20539417533746401 0.2450811254960496 0 0.20945048672397079 0.2472949006310797 0 0.20539417533746401 0.2450811254960496 0 0.20945048672397079 0.2472949006310797 0 0.20711626154703949 0.25152153195106819 0 0.20539417533746401 0.2450811254960496 0 0.20171262006913609 0.2489580606067687 0 0.20711626154703949 0.25152153195106819 0 0.19622689492941919 0.2455871524163849 0 0.20171262006913609 0.2489580606067687 0 0.19784336304055411 0.25535005617849749 0 0.20539417533746401 0.2450811254960496 0 0.20171262006913609 0.2489580606067687 0 0.20202643657074951 0.2409476788436731 0 0.19622689492941919 0.2455871524163849 0 0.20171262006913609 0.2489580606067687 0 0.20202643657074951 0.2409476788436731 0 0.19622689492941919 0.2455871524163849 0 0.1901987391466389 0.2392084736657846 0 0.18793491581771871 0.25388050382139737 0 0.19622689492941919 0.2455871524163849 0 0.1901987391466389 0.2392084736657846 0 0.19764529493171851 0.23517814138218809 0 0.1901987391466389 0.2392084736657846 0 0.19764529493171851 0.23517814138218809 0 0.18943428850679911 0.22974649119515239 0 0.19764529493171851 0.23517814138218809 0 0.20202643657074951 0.2409476788436731 0 0.20637212274349129 0.23367029729497771 0 0.19622689492941919 0.2455871524163849 0 0.19764529493171851 0.23517814138218809 0 0.20202643657074951 0.2409476788436731 0 0.1896790347625717 0.2194493784360077 0 0.2069172090650031 0.22079279947416611 0 0.1980095900019167 0.2277674215564984 0 0.1896790347625717 0.2194493784360077 0 0.2069172090650031 0.22079279947416611 0 0.19764529493171851 0.23517814138218809 0 0.1980095900019167 0.2277674215564984 0 0.20637212274349129 0.23367029729497771 0 0.19764529493171851 0.23517814138218809 0 0.1980095900019167 0.2277674215564984 0 0.18943428850679911 0.22974649119515239 0 0.1980095900019167 0.2277674215564984 0 0.18943428850679911 0.22974649119515239 0 0.1896790347625717 0.2194493784360077 0 0.2069172090650031 0.22079279947416611 0 0.2241553833674346 0.22213622051232401 0 0.2069172090650031 0.22079279947416611 0 0.2241553833674346 0.22213622051232401 0 0.2218947392343312 0.22287591332571571 0 0.21454457174520661 0.2346888189617907 0 0.20637212274349129 0.23367029729497771 0 0.21116260044680529 0.22974921271310211 0 0.2069172090650031 0.22079279947416611 0 0.20637212274349129 0.23367029729497771 0 0.21116260044680529 0.22974921271310211 0 0.1980095900019167 0.2277674215564984 0 0.2069172090650031 0.22079279947416611 0 0.20637212274349129 0.23367029729497771 0 0.21454457174520661 0.2346888189617907 0 0.21116260044680529 0.22974921271310211 0 0.21650914843466651 0.2280166141706971 0 0.21454457174520661 0.2346888189617907 0 0.21650914843466651 0.2280166141706971 0 0.21886910508599089 0.23224533224451349 0 0.2069172090650031 0.22079279947416611 0 0.21116260044680529 0.22974921271310211 0 0.21650914843466651 0.2280166141706971 0 0.2069172090650031 0.22079279947416611 0 0.21650914843466651 0.2280166141706971 0 0.2218947392343312 0.22287591332571571 0 0.19891617785654939 0.21219047318581929 0 0.19726960380593059 0.20055839203644391 0 0.22119346147906391 0.2079178869713349 0 0.19726960380593059 0.20055839203644391 0 0.22119346147906391 0.2079178869713349 0 0.2069172090650031 0.22079279947416611 0 0.19891617785654939 0.21219047318581929 0 0.22119346147906391 0.2079178869713349 0 0.2069172090650031 0.22079279947416611 0 0.22119346147906391 0.2079178869713349 0 0.2241553833674346 0.22213622051232401 0 0.1896790347625717 0.2194493784360077 0 0.2069172090650031 0.22079279947416611 0 0.19891617785654939 0.21219047318581929 0 0.18529619800482511 0.2061114901044673 0 0.1896790347625717 0.2194493784360077 0 0.19891617785654939 0.21219047318581929 0 0.18529619800482511 0.2061114901044673 0 0.19891617785654939 0.21219047318581929 0 0.19726960380593059 0.20055839203644391 0 0.1790040284849958 0.18950388446104741 0 0.19726960380593059 0.20055839203644391 0 0.1946561958756835 0.1849863539785572 0 0.19726960380593059 0.20055839203644391 0 0.20951964907283699 0.1932580010234029 0 0.1946561958756835 0.1849863539785572 0 0.19726960380593059 0.20055839203644391 0 0.20951964907283699 0.1932580010234029 0 0.22119346147906391 0.2079178869713349 0 0.20951964907283699 0.1932580010234029 0 0.22151278739585331 0.19224526799364641 0 0.22119346147906391 0.2079178869713349 0 0.20951964907283699 0.1932580010234029 0 0.22151278739585331 0.19224526799364641 0 0.21296619680765391 0.1805821041370321 0 0.22151278739585331 0.19224526799364641 0 0.22894946478812711 0.19988528855368501 0 0.22119346147906391 0.2079178869713349 0 0.22894946478812711 0.19988528855368501 0 0.23465346330518891 0.19058359614433659 0 0.2388481491549159 0.19802767194592161 0 0.22151278739585331 0.19224526799364641 0 0.22894946478812711 0.19988528855368501 0 0.23465346330518891 0.19058359614433659 0 0.23465346330518891 0.19058359614433659 0 0.2488946947107113 0.1980074131548116 0 0.23127619773962441 0.17617785429550711 0 0.2488946947107113 0.1980074131548116 0 0.24768121447060321 0.1845470262951292 0 0.25158898072416952 0.19074595044934109 0 0.2488946947107113 0.1980074131548116 0 0.2455302515097405 0.20049624971284949 0 0.2388481491549159 0.19802767194592161 0 0.2499011110407604 0.19983562748019881 0 0.2455302515097405 0.20049624971284949 0 0.2473154595982342 0.2047387156805289 0 0.2499011110407604 0.19983562748019881 0 0.2488946947107113 0.1980074131548116 0 0.2455302515097405 0.20049624971284949 0 0.2455302515097405 0.20049624971284949 0 0.2432243392863824 0.20266331376575461 0 0.2388481491549159 0.19802767194592161 0 0.2455302515097405 0.20049624971284949 0 0.2432243392863824 0.20266331376575461 0 0.2473154595982342 0.2047387156805289 0 0.23465346330518891 0.19058359614433659 0 0.2488946947107113 0.1980074131548116 0 0.2388481491549159 0.19802767194592161 0 0.2432243392863824 0.20266331376575461 0 0.2388481491549159 0.19802767194592161 0 0.2374087220087884 0.20481235794059199 0 0.22894946478812711 0.19988528855368501 0 0.2388481491549159 0.19802767194592161 0 0.2374087220087884 0.20481235794059199 0 0.2432243392863824 0.20266331376575461 0 0.2374087220087884 0.20481235794059199 0 0.24525795293406841 0.20767505339236861 0 0.2374087220087884 0.20481235794059199 0 0.2451173191521975 0.21527738190622489 0 0.22119346147906391 0.2079178869713349 0 0.2451173191521975 0.21527738190622489 0 0.2241553833674346 0.22213622051232401 0 0.2374087220087884 0.20481235794059199 0 0.24525795293406841 0.20767505339236861 0 0.2451173191521975 0.21527738190622489 0 0.2499011110407604 0.19983562748019881 0 0.2473154595982342 0.2047387156805289 0 0.25114435800409107 0.2133053079917574 0 0.2432243392863824 0.20266331376575461 0 0.24525795293406841 0.20767505339236861 0 0.2473154595982342 0.2047387156805289 0 0.24525795293406841 0.20767505339236861 0 0.2473154595982342 0.2047387156805289 0 0.25114435800409107 0.2133053079917574 0 0.2451173191521975 0.21527738190622489 0 0.25114435800409107 0.2133053079917574 0 0.25150782782575809 0.2172432402914844 0 0.2451173191521975 0.21527738190622489 0 0.25150782782575809 0.2172432402914844 0 0.24525795293406841 0.20767505339236861 0 0.2451173191521975 0.21527738190622489 0 0.25114435800409107 0.2133053079917574 0 0.2451173191521975 0.21527738190622489 0 0.25114435800409107 0.2133053079917574 0 0.2451173191521975 0.21527738190622489 0 0.22119346147906391 0.2079178869713349 0 0.2451173191521975 0.21527738190622489 0 0.22119346147906391 0.2079178869713349 0 0.2241553833674346 0.22213622051232401 0 0.22894946478812711 0.19988528855368501 0 0.2374087220087884 0.20481235794059199 0 0.22119346147906391 0.2079178869713349 0 0.2241553833674346 0.22213622051232401 0 0.2218947392343312 0.22287591332571571 0 0.21650914843466651 0.2280166141706971 0 0.2218947392343312 0.22287591332571571 0 0.2214310277020638 0.22755206930880351 0 0.2241553833674346 0.22213622051232401 0 0.2218947392343312 0.22287591332571571 0 0.2214310277020638 0.22755206930880351 0 0.2241553833674346 0.22213622051232401 0 0.2214310277020638 0.22755206930880351 0 0.2263177079408272 0.23275595099864271 0 0.21650914843466651 0.2280166141706971 0 0.2214310277020638 0.22755206930880351 0 0.21886910508599089 0.23224533224451349 0 0.2214310277020638 0.22755206930880351 0 0.21886910508599089 0.23224533224451349 0 0.2263177079408272 0.23275595099864271 0 0.2241553833674346 0.22213622051232401 0 0.2263177079408272 0.23275595099864271 0 0.23723749024209301 0.23554547609620449 0 0.2241553833674346 0.22213622051232401 0 0.23723749024209301 0.23554547609620449 0 0.25216089697706501 0.22431877160547281 0 0.2241553833674346 0.22213622051232401 0 0.25216089697706501 0.22431877160547281 0 0.2451173191521975 0.21527738190622489 0 0.2241553833674346 0.22213622051232401 0 0.25216089697706501 0.22431877160547281 0 0.2451173191521975 0.21527738190622489 0 0.25216089697706501 0.22431877160547281 0 0.25150782782575809 0.2172432402914844 0 0.23723749024209301 0.23554547609620449 0 0.23619642361452331 0.24727695548554859 0 0.25435681544483307 0.2481099579607853 0 0.23723749024209301 0.23554547609620449 0 0.25435681544483307 0.2481099579607853 0 0.25216089697706501 0.22431877160547281 0 0.23619642361452331 0.24727695548554859 0 0.22416091252021819 0.24680669881238251 0 0.22946931249077041 0.25492521190520667 0 0.23619642361452331 0.24727695548554859 0 0.22957746237717541 0.23990410816244509 0 0.22416091252021819 0.24680669881238251 0 0.2263177079408272 0.23275595099864271 0 0.23723749024209301 0.23554547609620449 0 0.22957746237717541 0.23990410816244509 0 0.23723749024209301 0.23554547609620449 0 0.23619642361452331 0.24727695548554859 0 0.22957746237717541 0.23990410816244509 0 0.2263177079408272 0.23275595099864271 0 0.22957746237717541 0.23990410816244509 0 0.22075031219446389 0.2381738467222399 0 0.22957746237717541 0.23990410816244509 0 0.22075031219446389 0.2381738467222399 0 0.22416091252021819 0.24680669881238251 0 0.21886910508599089 0.23224533224451349 0 0.2263177079408272 0.23275595099864271 0 0.22075031219446389 0.2381738467222399 0 0.21774573906059541 0.24524128371703571 0 0.22416091252021819 0.24680669881238251 0 0.21880972439142549 0.25311319525236048 0 0.21774573906059541 0.24524128371703571 0 0.22075031219446389 0.2381738467222399 0 0.22416091252021819 0.24680669881238251 0 0.20113905572186641 0.13883752290359189 0 0.21620762673074531 0.1575076885995495 0 0.223817158011275 0.13155237822134391 0 0.20113905572186641 0.13883752290359189 0 0.21620762673074531 0.1575076885995495 0 0.20113905572186641 0.13883752290359189 0 0.223817158011275 0.13155237822134391 0 0.21597245558498829 0.1174323162174557 0 0.20113905572186641 0.13883752290359189 0 0.21597245558498829 0.1174323162174557 0 0.18302677522716521 0.13858774931392151 0 0.20113905572186641 0.13883752290359189 0 0.18872804884044631 0.1234601155307722 0 0.20113905572186641 0.13883752290359189 0 0.18872804884044631 0.1234601155307722 0 0.20099320185275299 0.1168325343683836 0 0.20113905572186641 0.13883752290359189 0 0.18872804884044631 0.1234601155307722 0 0.20113905572186641 0.13883752290359189 0 0.1901141592146624 0.15474690245295911 0 0.20113905572186641 0.13883752290359189 0 0.1901141592146624 0.15474690245295911 0 0.21620762673074531 0.1575076885995495 0 0.18302677522716521 0.13858774931392151 0 0.20113905572186641 0.13883752290359189 0 0.1901141592146624 0.15474690245295911 0 0.17908926270745881 0.17065628200232669 0 0.1901141592146624 0.15474690245295911 0 0.20041394889474401 0.16866068789697169 0 0.1901141592146624 0.15474690245295911 0 0.20041394889474401 0.16866068789697169 0 0.21620762673074531 0.1575076885995495 0 0.17908926270745881 0.17065628200232669 0 0.20041394889474401 0.16866068789697169 0 0.1946561958756835 0.1849863539785572 0 0.20041394889474401 0.16866068789697169 0 0.1946561958756835 0.1849863539785572 0 0.21296619680765391 0.1805821041370321 0 0.1946561958756835 0.1849863539785572 0 0.21296619680765391 0.1805821041370321 0 0.20951964907283699 0.1932580010234029 0 0.1946561958756835 0.1849863539785572 0 0.21296619680765391 0.1805821041370321 0 0.20041394889474401 0.16866068789697169 0 0.21296619680765391 0.1805821041370321 0 0.21620762673074531 0.1575076885995495 0 0.21620762673074531 0.1575076885995495 0 0.23127619773962441 0.17617785429550711 0 0.21296619680765391 0.1805821041370321 0 0.21620762673074531 0.1575076885995495 0 0.23127619773962441 0.17617785429550711 0 0.21620762673074531 0.1575076885995495 0 0.23127619773962441 0.17617785429550711 0 0.23743001017742429 0.16038580368310271 0 0.22151278739585331 0.19224526799364641 0 0.21296619680765391 0.1805821041370321 0 0.23127619773962441 0.17617785429550711 0 0.22151278739585331 0.19224526799364641 0 0.23465346330518891 0.19058359614433659 0 0.23127619773962441 0.17617785429550711 0 0.21296619680765391 0.1805821041370321 0 0.23127619773962441 0.17617785429550711 0 0.2488946947107113 0.1980074131548116 0 0.23127619773962441 0.17617785429550711 0 0.24768121447060321 0.1845470262951292 0 0.23127619773962441 0.17617785429550711 0 0.25097495819152282 0.17143955510476089 0 0.2488946947107113 0.1980074131548116 0 0.23127619773962441 0.17617785429550711 0 0.23127619773962441 0.17617785429550711 0 0.24768121447060321 0.1845470262951292 0 0.25097495819152282 0.17143955510476089 0 0.23127619773962441 0.17617785429550711 0 0.23743001017742429 0.16038580368310271 0 0.25097495819152282 0.17143955510476089 0 0.23743001017742429 0.16038580368310271 0 0.25487321133675822 0.1521976876698912 0 0.25097495819152282 0.17143955510476089 0 0.23743001017742429 0.16038580368310271 0 0.23381805688847071 0.14460623274580511 0 0.25487321133675822 0.1521976876698912 0 0.23381805688847071 0.14460623274580511 0 0.25995151029996372 0.13135074598120669 0 0.25487321133675822 0.1521976876698912 0 0.21620762673074531 0.1575076885995495 0 0.23743001017742429 0.16038580368310271 0 0.23381805688847071 0.14460623274580511 0 0.21620762673074531 0.1575076885995495 0 0.23381805688847071 0.14460623274580511 0 0.223817158011275 0.13155237822134391 0 0.23381805688847071 0.14460623274580511 0 0.223817158011275 0.13155237822134391 0 0.24494890045066961 0.1190535435516859 0 0.23381805688847071 0.14460623274580511 0 0.24494890045066961 0.1190535435516859 0 0.25995151029996372 0.13135074598120669 0 0.23381805688847071 0.14460623274580511 0 0.24494890045066961 0.1190535435516859 0 0.24494890045066961 0.1190535435516859 0 0.2415363714440478 0.1002493374752821 0 0.2314161481878183 0.1128629369994175 0 0.24494890045066961 0.1190535435516859 0 0.2415363714440478 0.1002493374752821 0 0.25607974401286498 0.093500854357565222 0 0.2415363714440478 0.1002493374752821 0 0.23411350679032819 0.089448574907250028 0 0.25607974401286498 0.093500854357565222 0 0.2415363714440478 0.1002493374752821 0 0.23080585544811069 0.096027109531319904 0 0.2314161481878183 0.1128629369994175 0 0.2415363714440478 0.1002493374752821 0 0.23080585544811069 0.096027109531319904 0 0.23411350679032819 0.089448574907250028 0 0.23080585544811069 0.096027109531319904 0 0.21597245558498829 0.1174323162174557 0 0.2097507175588316 0.10182076232087429 0 0.23080585544811069 0.096027109531319904 0 0.2314161481878183 0.1128629369994175 0 0.21597245558498829 0.1174323162174557 0 0.23080585544811069 0.096027109531319904 0 0.21597245558498829 0.1174323162174557 0 0.223817158011275 0.13155237822134391 0 0.24494890045066961 0.1190535435516859 0 0.2314161481878183 0.1128629369994175 0 0.223817158011275 0.13155237822134391 0 0.2314161481878183 0.1128629369994175 0 0.21597245558498829 0.1174323162174557 0 0.20113905572186641 0.13883752290359189 0 0.21597245558498829 0.1174323162174557 0 0.20099320185275299 0.1168325343683836 0 0.21597245558498829 0.1174323162174557 0 0.2097507175588316 0.10182076232087429 0 0.20099320185275299 0.1168325343683836 0 0.23080585544811069 0.096027109531319904 0 0.2097507175588316 0.10182076232087429 0 0.2121472695677912 0.085396295456935667 0 0.2097507175588316 0.10182076232087429 0 0.19807256926484729 0.094799765100017003 0 0.2121472695677912 0.085396295456935667 0 0.2097507175588316 0.10182076232087429 0 0.19805382941306099 0.1049156305365249 0 0.20099320185275299 0.1168325343683836 0 0.2097507175588316 0.10182076232087429 0 0.19805382941306099 0.1049156305365249 0 0.19807256926484729 0.094799765100017003 0 0.19805382941306099 0.1049156305365249 0 0.19807256926484729 0.094799765100017003 0 0.19324730651455671 0.1009333146216518 0 0.19807256926484729 0.094799765100017003 0 0.19324730651455671 0.1009333146216518 0 0.18871572892331359 0.098158570815461046 0 0.19805382941306099 0.1049156305365249 0 0.1881470984570047 0.1058592920346043 0 0.19182904092650321 0.113826338247252 0 0.19805382941306099 0.1049156305365249 0 0.19324730651455671 0.1009333146216518 0 0.1881470984570047 0.1058592920346043 0 0.19324730651455671 0.1009333146216518 0 0.18871572892331359 0.098158570815461046 0 0.1881470984570047 0.1058592920346043 0 0.19182904092650321 0.113826338247252 0 0.18872804884044631 0.1234601155307722 0 0.20099320185275299 0.1168325343683836 0 0.19805382941306099 0.1049156305365249 0 0.19182904092650321 0.113826338247252 0 0.20099320185275299 0.1168325343683836 0 0.19546867885804681 0.071146031993951697 0 0.20354122892642759 0.055576962401330768 0 0.19546867885804681 0.071146031993951697 0 0.20860759766576131 0.064643363690447833 0 0.20354122892642759 0.055576962401330768 0 0.19546867885804681 0.071146031993951697 0 0.19018103234525419 0.081344016006621528 0 0.19807256926484729 0.094799765100017003 0 0.18871572892331359 0.098158570815461046 0 0.19018103234525419 0.081344016006621528 0 0.19018103234525419 0.081344016006621528 0 0.2121472695677912 0.085396295456935667 0 0.19546867885804681 0.071146031993951697 0 0.19018103234525419 0.081344016006621528 0 0.2121472695677912 0.085396295456935667 0 0.19807256926484729 0.094799765100017003 0 0.19018103234525419 0.081344016006621528 0 0.2121472695677912 0.085396295456935667 0 0.19546867885804681 0.071146031993951697 0 0.2121472695677912 0.085396295456935667 0 0.22011803432743871 0.074380936776447762 0 0.19546867885804681 0.071146031993951697 0 0.22011803432743871 0.074380936776447762 0 0.19546867885804681 0.071146031993951697 0 0.20860759766576131 0.064643363690447833 0 0.22011803432743871 0.074380936776447762 0 0.20860759766576131 0.064643363690447833 0 0.22011803432743871 0.074380936776447762 0 0.21676676830477681 0.061389766886003158 0 0.22011803432743871 0.074380936776447762 0 0.23495782239261551 0.067697606360231685 0 0.24476738979683069 0.077615841558942855 0 0.2261197175752159 0.064969827657702983 0 0.22011803432743871 0.074380936776447762 0 0.21676676830477681 0.061389766886003158 0 0.22011803432743871 0.074380936776447762 0 0.24476738979683069 0.077615841558942855 0 0.2261197175752159 0.064969827657702983 0 0.23495782239261551 0.067697606360231685 0 0.23467949937614341 0.058954497826354722 0 0.2261197175752159 0.064969827657702983 0 0.22011803432743871 0.074380936776447762 0 0.23495782239261551 0.067697606360231685 0 0.23080585544811069 0.096027109531319904 0 0.2121472695677912 0.085396295456935667 0 0.23411350679032819 0.089448574907250028 0 0.2121472695677912 0.085396295456935667 0 0.22011803432743871 0.074380936776447762 0 0.23411350679032819 0.089448574907250028 0 0.2121472695677912 0.085396295456935667 0 0.23411350679032819 0.089448574907250028 0 0.22011803432743871 0.074380936776447762 0 0.23411350679032819 0.089448574907250028 0 0.24476738979683069 0.077615841558942855 0 0.23411350679032819 0.089448574907250028 0 0.25607974401286498 0.093500854357565222 0 0.23411350679032819 0.089448574907250028 0 0.24476738979683069 0.077615841558942855 0 0.25607974401286498 0.093500854357565222 0 0.23495782239261551 0.067697606360231685 0 0.2491044708874488 0.062566927981710041 0 0.23467949937614341 0.058954497826354722 0 0.23495782239261551 0.067697606360231685 0 0.24476738979683069 0.077615841558942855 0 0.2491044708874488 0.062566927981710041 0 0.2491044708874488 0.062566927981710041 0 0.23467949937614341 0.058954497826354722 0 0.25144917798608579 0.041218784004105682 0 0.23467949937614341 0.058954497826354722 0 0.23076570086216819 0.048997344648157172 0 0.25144917798608579 0.041218784004105682 0 0.22440248431034829 0.040396635762449257 0 0.23076570086216819 0.048997344648157172 0 0.25144917798608579 0.041218784004105682 0 0.22440248431034829 0.040396635762449257 0 0.24425447620817919 0.02957247558217364 0 0.25144917798608579 0.041218784004105682 0 0.22440248431034829 0.040396635762449257 0 0.25144917798608579 0.041218784004105682 0 0.22440248431034829 0.040396635762449257 0 0.24425447620817919 0.02957247558217364 0 0.24425447620817919 0.02957247558217364 0 0.2150920102713427 0.033299625365975041 0 0.22440248431034829 0.040396635762449257 0 0.24425447620817919 0.02957247558217364 0 0.2150920102713427 0.033299625365975041 0 0.22440248431034829 0.040396635762449257 0 0.22061169637079359 0.051383437282850622 0 0.23076570086216819 0.048997344648157172 0 0.2261197175752159 0.064969827657702983 0 0.22061169637079359 0.051383437282850622 0 0.21676676830477681 0.061389766886003158 0 0.2261197175752159 0.064969827657702983 0 0.23467949937614341 0.058954497826354722 0 0.22061169637079359 0.051383437282850622 0 0.23467949937614341 0.058954497826354722 0 0.22061169637079359 0.051383437282850622 0 0.23076570086216819 0.048997344648157172 0 0.24425447620817919 0.02957247558217364 0 0.228121030243084 0.0081712933091401263 0 0.2511759112382515 0.0019848408324899792 0 0.228121030243084 0.0081712933091401263 0 0.2150920102713427 0.033299625365975041 0 0.24425447620817919 0.02957247558217364 0 0.228121030243084 0.0081712933091401263 0 0.2150920102713427 0.033299625365975041 0 0.228121030243084 0.0081712933091401263 0 0.22342033270583811 0.015198075397024779 0 0.2150920102713427 0.033299625365975041 0 0.228121030243084 0.0081712933091401263 0 0.22342033270583811 0.015198075397024779 0 0.2200059735232037 -0.01039383911369585 0 0.22342033270583811 0.015198075397024779 0 0.2200059735232037 -0.01039383911369585 0 0.22342033270583811 0.015198075397024779 0 0.20931617210649589 0.002849294376640494 0 0.2200059735232037 -0.01039383911369585 0 0.22342033270583811 0.015198075397024779 0 0.20931617210649589 0.002849294376640494 0 0.20824202441096989 0.016541072228803261 0 0.20931617210649589 0.002849294376640494 0 0.20824202441096989 0.016541072228803261 0 0.19519467079488489 0.0068324314852854263 0 0.20824202441096989 0.016541072228803261 0 0.19769369874437329 0.022956510746537481 0 0.2150920102713427 0.033299625365975041 0 0.22342033270583811 0.015198075397024779 0 0.20824202441096989 0.016541072228803261 0 0.2150920102713427 0.033299625365975041 0 0.19769369874437329 0.022956510746537481 0 0.19519467079488489 0.0068324314852854263 0 0.18278392359922499 0.020352457597852529 0 0.19769369874437329 0.022956510746537481 0 0.2150920102713427 0.033299625365975041 0 0.19250646952065029 0.036186202019280841 0 0.19769369874437329 0.022956510746537481 0 0.19250646952065029 0.036186202019280841 0 0.18278392359922499 0.020352457597852529 0 0.20824202441096989 0.016541072228803261 0 0.19769369874437329 0.022956510746537481 0 0.19519467079488489 0.0068324314852854263 0 0.20354122892642759 0.055576962401330768 0 0.20955634529250941 0.039945352243830431 0 0.19864113010707279 0.045846396189700662 0 0.20354122892642759 0.055576962401330768 0 0.21161377899480949 0.040007892808710421 0 0.20946724466075681 0.048539971057468427 0 0.20354122892642759 0.055576962401330768 0 0.2114116605631309 0.056083708887855167 0 0.20946724466075681 0.048539971057468427 0 0.20354122892642759 0.055576962401330768 0 0.21161377899480949 0.040007892808710421 0 0.20860759766576131 0.064643363690447833 0 0.20354122892642759 0.055576962401330768 0 0.2114116605631309 0.056083708887855167 0 0.20860759766576131 0.064643363690447833 0 0.2114116605631309 0.056083708887855167 0 0.21676676830477681 0.061389766886003158 0 0.22061169637079359 0.051383437282850622 0 0.2114116605631309 0.056083708887855167 0 0.21676676830477681 0.061389766886003158 0 0.22061169637079359 0.051383437282850622 0 0.20946724466075681 0.048539971057468427 0 0.2114116605631309 0.056083708887855167 0 0.2150920102713427 0.033299625365975041 0 0.20955634529250941 0.039945352243830431 0 0.19250646952065029 0.036186202019280841 0 0.2150920102713427 0.033299625365975041 0 0.19250646952065029 0.036186202019280841 0 0.22440248431034829 0.040396635762449257 0 0.20946724466075681 0.048539971057468427 0 0.20354122892642759 0.055576962401330768 0 0.21161377899480949 0.040007892808710421 0 0.20955634529250941 0.039945352243830431 0 0.22440248431034829 0.040396635762449257 0 0.21161377899480949 0.040007892808710421 0 0.22440248431034829 0.040396635762449257 0 0.22061169637079359 0.051383437282850622 0 0.20946724466075681 0.048539971057468427 0 0.22440248431034829 0.040396635762449257 0 0.20946724466075681 0.048539971057468427 0 0.21161377899480949 0.040007892808710421 0 0.22440248431034829 0.040396635762449257 0 0.21161377899480949 0.040007892808710421 0 0.2150920102713427 0.033299625365975041 0 0.21161377899480949 0.040007892808710421 0 0.2150920102713427 0.033299625365975041 0 0.20955634529250941 0.039945352243830431 0 0.21161377899480949 0.040007892808710421 0 0.2150920102713427 0.033299625365975041 0 0.21161377899480949 0.040007892808710421 0 0.20955634529250941 0.039945352243830431 0 0.20955634529250941 0.039945352243830431 0 0.19250646952065029 0.036186202019280841 0 0.19864113010707279 0.045846396189700662 0 0.19250646952065029 0.036186202019280841 0 0.19864113010707279 0.045846396189700662 0 0.182481497288042 0.04889625602413495 0 0.19864113010707279 0.045846396189700662 0 0.19076667627193819 0.056316448903048259 0 0.182481497288042 0.04889625602413495 0 0.20354122892642759 0.055576962401330768 0 0.19864113010707279 0.045846396189700662 0 0.19076667627193819 0.056316448903048259 0 0.19546867885804681 0.071146031993951697 0 0.20354122892642759 0.055576962401330768 0 0.19076667627193819 0.056316448903048259 0 0.19546867885804681 0.071146031993951697 0 0.19076667627193819 0.056316448903048259 0 0.18024793070272049 0.059325736712207228 0 0.182481497288042 0.04889625602413495 0 0.16992092876995751 0.039072778672584803 0 0.1662436651889965 0.052954659519168563 0 0.18024793070272049 0.059325736712207228 0 0.182481497288042 0.04889625602413495 0 0.1662436651889965 0.052954659519168563 0 0.19076667627193819 0.056316448903048259 0 0.18024793070272049 0.059325736712207228 0 0.182481497288042 0.04889625602413495 0 0.19250646952065029 0.036186202019280841 0 0.16992092876995751 0.039072778672584803 0 0.19250646952065029 0.036186202019280841 0 0.182481497288042 0.04889625602413495 0 0.16992092876995751 0.039072778672584803 0 0.19250646952065029 0.036186202019280841 0 0.16992092876995751 0.039072778672584803 0 0.18278392359922499 0.020352457597852529 0 0.16992092876995751 0.039072778672584803 0 0.1473353880192648 0.041959355325888757 0 0.16992092876995751 0.039072778672584803 0 0.1662436651889965 0.052954659519168563 0 0.1473353880192648 0.041959355325888757 0 0.1662436651889965 0.052954659519168563 0 0.15177497309069091 0.055659988357950087 0 0.16627913590657961 0.067315287120732814 0 0.18024793070272049 0.059325736712207228 0 0.1662436651889965 0.052954659519168563 0 0.16627913590657961 0.067315287120732814 0 0.19519467079488489 0.0068324314852854263 0 0.18278392359922499 0.020352457597852529 0 0.1780178837506983 -0.0065088798985852916 0 0.18278392359922499 0.020352457597852529 0 0.16544427427279901 0.01096391165516661 0 0.1780178837506983 -0.0065088798985852916 0 0.16992092876995751 0.039072778672584803 0 0.18278392359922499 0.020352457597852529 0 0.16544427427279901 0.01096391165516661 0 0.16992092876995751 0.039072778672584803 0 0.16544427427279901 0.01096391165516661 0 0.14884307526290169 0.023136414273668349 0 0.14564299490285049 0.0045145703206222083 0 0.14884307526290169 0.023136414273668349 0 0.13051016951144981 0.0129506422220972 0 0.16544427427279901 0.01096391165516661 0 0.14564299490285049 0.0045145703206222083 0 0.1517827832825189 -0.01304443636414223 0 0.16544427427279901 0.01096391165516661 0 0.14564299490285049 0.0045145703206222083 0 0.14884307526290169 0.023136414273668349 0 0.14884307526290169 0.023136414273668349 0 0.13358462960252629 0.029868270970851669 0 0.13051016951144981 0.0129506422220972 0 0.1158728713761043 0.028491084112147569 0 0.13358462960252629 0.029868270970851669 0 0.13051016951144981 0.0129506422220972 0 0.14564299490285049 0.0045145703206222083 0 0.13051016951144981 0.0129506422220972 0 0.12573576617947341 -0.0096380922407623519 0 0.1662436651889965 0.052954659519168563 0 0.15177497309069091 0.055659988357950087 0 0.1473353880192648 0.041959355325888757 0 0.15177497309069091 0.055659988357950087 0 0.1370895929551125 0.063484542247512973 0 0.16627913590657961 0.067315287120732814 0 0.15177497309069091 0.055659988357950087 0 0.1473353880192648 0.041959355325888757 0 0.13985766882089989 0.051978219537871122 0 0.15177497309069091 0.055659988357950087 0 0.13985766882089989 0.051978219537871122 0 0.1370895929551125 0.063484542247512973 0 0.14884307526290169 0.023136414273668349 0 0.13358462960252629 0.029868270970851669 0 0.1473353880192648 0.041959355325888757 0 0.16992092876995751 0.039072778672584803 0 0.14884307526290169 0.023136414273668349 0 0.1473353880192648 0.041959355325888757 0 0.13358462960252629 0.029868270970851669 0 0.1473353880192648 0.041959355325888757 0 0.12828423065491959 0.043461279898505102 0 0.1158728713761043 0.028491084112147569 0 0.13358462960252629 0.029868270970851669 0 0.12828423065491959 0.043461279898505102 0 0.1473353880192648 0.041959355325888757 0 0.12828423065491959 0.043461279898505102 0 0.13985766882089989 0.051978219537871122 0 0.12217366843713259 0.053519232307389558 0 0.12828423065491959 0.043461279898505102 0 0.13099688207140051 0.053410821161468121 0 0.12828423065491959 0.043461279898505102 0 0.13099688207140051 0.053410821161468121 0 0.13985766882089989 0.051978219537871122 0 0.13099688207140051 0.053410821161468121 0 0.13985766882089989 0.051978219537871122 0 0.1370895929551125 0.063484542247512973 0 0.12217366843713259 0.053519232307389558 0 0.13099688207140051 0.053410821161468121 0 0.1370895929551125 0.063484542247512973 0 0.1197484335100506 0.069466709861209591 0 0.1325699655737316 0.070716062769850846 0 0.1370895929551125 0.063484542247512973 0 0.123663095598016 0.078419136862192401 0 0.1325699655737316 0.070716062769850846 0 0.13153795941954979 0.084059994108834232 0 0.123663095598016 0.078419136862192401 0 0.1197484335100506 0.069466709861209591 0 0.1325699655737316 0.070716062769850846 0 0.1370895929551125 0.063484542247512973 0 0.16627913590657961 0.067315287120732814 0 0.1325699655737316 0.070716062769850846 0 0.14403228438110929 0.080215854991069632 0 0.16137549895949299 0.07603003938823609 0 0.1325699655737316 0.070716062769850846 0 0.1370895929551125 0.063484542247512973 0 0.16137549895949299 0.07603003938823609 0 0.1325699655737316 0.070716062769850846 0 0.16137549895949299 0.07603003938823609 0 0.1370895929551125 0.063484542247512973 0 0.16627913590657961 0.067315287120732814 0 0.16137549895949299 0.07603003938823609 0 0.15162591772050529 0.084043800511626771 0 0.14403228438110929 0.080215854991069632 0 0.16137549895949299 0.07603003938823609 0 0.15318259705145831 0.092222053251242442 0 0.15162591772050529 0.084043800511626771 0 0.14305208023226701 0.086229378176800153 0 0.15318259705145831 0.092222053251242442 0 0.15162591772050529 0.084043800511626771 0 0.16206502481561941 0.087854500902535021 0 0.15162591772050529 0.084043800511626771 0 0.14403228438110929 0.080215854991069632 0 0.14305208023226701 0.086229378176800153 0 0.15318259705145831 0.092222053251242442 0 0.14305208023226701 0.086229378176800153 0 0.13864711368545049 0.094898164524669981 0 0.14305208023226701 0.086229378176800153 0 0.13153795941954979 0.084059994108834232 0 0.13864711368545049 0.094898164524669981 0 0.1325699655737316 0.070716062769850846 0 0.14403228438110929 0.080215854991069632 0 0.13153795941954979 0.084059994108834232 0 0.14403228438110929 0.080215854991069632 0 0.14305208023226701 0.086229378176800153 0 0.13153795941954979 0.084059994108834232 0 0.1214760771384842 0.086832036352717246 0 0.123663095598016 0.078419136862192401 0 0.13153795941954979 0.084059994108834232 0 0.1214760771384842 0.086832036352717246 0 0.13153795941954979 0.084059994108834232 0 0.125655536331166 0.0960817510058532 0 0.13153795941954979 0.084059994108834232 0 0.125655536331166 0.0960817510058532 0 0.13864711368545049 0.094898164524669981 0 0.1223557986626926 0.10745789177852 0 0.125655536331166 0.0960817510058532 0 0.13709474933320229 0.1083398779666971 0 0.125655536331166 0.0960817510058532 0 0.13709474933320229 0.1083398779666971 0 0.13864711368545049 0.094898164524669981 0 0.12068466627323041 0.12189875939767961 0 0.14564086925264719 0.12634845981967011 0 0.12068466627323041 0.12189875939767961 0 0.1223557986626926 0.10745789177852 0 0.13709474933320229 0.1083398779666971 0 0.12068466627323041 0.12189875939767961 0 0.14564086925264719 0.12634845981967011 0 0.13709474933320229 0.1083398779666971 0 0.14564086925264719 0.12634845981967011 0 0.13709474933320229 0.1083398779666971 0 0.156238062049849 0.11166261544881979 0 0.14564086925264719 0.12634845981967011 0 0.156238062049849 0.11166261544881979 0 0.16363721448846019 0.1218132413429826 0 0.13709474933320229 0.1083398779666971 0 0.156238062049849 0.11166261544881979 0 0.14934313130641039 0.1014890217706105 0 0.15318259705145831 0.092222053251242442 0 0.13864711368545049 0.094898164524669981 0 0.14934313130641039 0.1014890217706105 0 0.13709474933320229 0.1083398779666971 0 0.13864711368545049 0.094898164524669981 0 0.14934313130641039 0.1014890217706105 0 0.15318259705145831 0.092222053251242442 0 0.14934313130641039 0.1014890217706105 0 0.16421357772219769 0.099405505396224475 0 0.156238062049849 0.11166261544881979 0 0.16771434469524199 0.1086049793380733 0 0.16421357772219769 0.099405505396224475 0 0.156238062049849 0.11166261544881979 0 0.14934313130641039 0.1014890217706105 0 0.16421357772219769 0.099405505396224475 0 0.16771434469524199 0.1086049793380733 0 0.1714138184205273 0.1036428940944248 0 0.16421357772219769 0.099405505396224475 0 0.16771434469524199 0.1086049793380733 0 0.1714138184205273 0.1036428940944248 0 0.17340119460819861 0.1089642730099471 0 0.1714138184205273 0.1036428940944248 0 0.16421357772219769 0.099405505396224475 0 0.17363115744387289 0.09472575514057964 0 0.16421357772219769 0.099405505396224475 0 0.17363115744387289 0.09472575514057964 0 0.1677821161334842 0.092371854724440497 0 0.16363721448846019 0.1218132413429826 0 0.16602254755078291 0.11563722250748019 0 0.18148740084416501 0.1157175958857101 0 0.156238062049849 0.11166261544881979 0 0.16363721448846019 0.1218132413429826 0 0.16602254755078291 0.11563722250748019 0 0.156238062049849 0.11166261544881979 0 0.16771434469524199 0.1086049793380733 0 0.16602254755078291 0.11563722250748019 0 0.16771434469524199 0.1086049793380733 0 0.17377272445177341 0.11298978906802 0 0.17340119460819861 0.1089642730099471 0 0.16771434469524199 0.1086049793380733 0 0.16602254755078291 0.11563722250748019 0 0.17377272445177341 0.11298978906802 0 0.16602254755078291 0.11563722250748019 0 0.17377272445177341 0.11298978906802 0 0.18148740084416501 0.1157175958857101 0 0.17377272445177341 0.11298978906802 0 0.1763170419590247 0.10808270815795371 0 0.17377272445177341 0.11298978906802 0 0.17340119460819861 0.1089642730099471 0 0.1763170419590247 0.10808270815795371 0 0.17377272445177341 0.11298978906802 0 0.18148740084416501 0.1157175958857101 0 0.1763170419590247 0.10808270815795371 0 0.19182904092650321 0.113826338247252 0 0.18872804884044631 0.1234601155307722 0 0.1763170419590247 0.10808270815795371 0 0.18872804884044631 0.1234601155307722 0 0.18148740084416501 0.1157175958857101 0 0.1763170419590247 0.10808270815795371 0 0.18872804884044631 0.1234601155307722 0 0.1763170419590247 0.10808270815795371 0 0.18871572892331359 0.098158570815461046 0 0.19018103234525419 0.081344016006621528 0 0.1763170419590247 0.10808270815795371 0 0.19018103234525419 0.081344016006621528 0 0.1763170419590247 0.10808270815795371 0 0.1760684186701201 0.1026194643053386 0 0.19018103234525419 0.081344016006621528 0 0.1763170419590247 0.10808270815795371 0 0.1714138184205273 0.1036428940944248 0 0.17363115744387289 0.09472575514057964 0 0.1760684186701201 0.1026194643053386 0 0.1714138184205273 0.1036428940944248 0 0.1741412734358144 0.10527089534192249 0 0.1760684186701201 0.1026194643053386 0 0.1741412734358144 0.10527089534192249 0 0.1763170419590247 0.10808270815795371 0 0.1760684186701201 0.1026194643053386 0 0.1714138184205273 0.1036428940944248 0 0.1741412734358144 0.10527089534192249 0 0.17340119460819861 0.1089642730099471 0 0.1741412734358144 0.10527089534192249 0 0.17340119460819861 0.1089642730099471 0 0.1763170419590247 0.10808270815795371 0 0.18871572892331359 0.098158570815461046 0 0.1881470984570047 0.1058592920346043 0 0.1763170419590247 0.10808270815795371 0 0.1881470984570047 0.1058592920346043 0 0.19182904092650321 0.113826338247252 0 0.1763170419590247 0.10808270815795371 0 0.19018103234525419 0.081344016006621528 0 0.17363115744387289 0.09472575514057964 0 0.1760684186701201 0.1026194643053386 0 0.19018103234525419 0.081344016006621528 0 0.16137549895949299 0.07603003938823609 0 0.17121870455224689 0.087501657458422866 0 0.19018103234525419 0.081344016006621528 0 0.17363115744387289 0.09472575514057964 0 0.17121870455224689 0.087501657458422866 0 0.19018103234525419 0.081344016006621528 0 0.16137549895949299 0.07603003938823609 0 0.19018103234525419 0.081344016006621528 0 0.16627913590657961 0.067315287120732814 0 0.16137549895949299 0.07603003938823609 0 0.19546867885804681 0.071146031993951697 0 0.16627913590657961 0.067315287120732814 0 0.19546867885804681 0.071146031993951697 0 0.19018103234525419 0.081344016006621528 0 0.16627913590657961 0.067315287120732814 0 0.19546867885804681 0.071146031993951697 0 0.18024793070272049 0.059325736712207228 0 0.16627913590657961 0.067315287120732814 0 0.15162591772050529 0.084043800511626771 0 0.16137549895949299 0.07603003938823609 0 0.16206502481561941 0.087854500902535021 0 0.15318259705145831 0.092222053251242442 0 0.16421357772219769 0.099405505396224475 0 0.16206502481561941 0.087854500902535021 0 0.16421357772219769 0.099405505396224475 0 0.16206502481561941 0.087854500902535021 0 0.1677821161334842 0.092371854724440497 0 0.16206502481561941 0.087854500902535021 0 0.1677821161334842 0.092371854724440497 0 0.17121870455224689 0.087501657458422866 0 0.17363115744387289 0.09472575514057964 0 0.1677821161334842 0.092371854724440497 0 0.17121870455224689 0.087501657458422866 0 0.16137549895949299 0.07603003938823609 0 0.16206502481561941 0.087854500902535021 0 0.17121870455224689 0.087501657458422866 0 0.1091679919420612 0.47790166218817742 0 0.1043437253621918 0.46003247384348822 0 0.093591773462706238 0.47630095149573459 0 0.1091679919420612 0.47790166218817742 0 0.1135660386615775 0.5 0 0.093591773462706238 0.47630095149573459 0 0.1135660386615775 0.5 0 0.093591773462706238 0.47630095149573459 0 0.087273130770921026 0.5 0 0.1091679919420612 0.47790166218817742 0 0.1135660386615775 0.5 0 0.12517043028176911 0.47527322341348699 0 0.1091679919420612 0.47790166218817742 0 0.1043437253621918 0.46003247384348822 0 0.12517043028176911 0.47527322341348699 0 0.1043437253621918 0.46003247384348822 0 0.1258579131830555 0.44304162323779539 0 0.12517043028176911 0.47527322341348699 0 0.1043437253621918 0.46003247384348822 0 0.1035450100545387 0.43232193101665328 0 0.1258579131830555 0.44304162323779539 0 0.1043437253621918 0.46003247384348822 0 0.087545223587185583 0.45776161306704921 0 0.1035450100545387 0.43232193101665328 0 0.087545223587185583 0.45776161306704921 0 0.1035450100545387 0.43232193101665328 0 0.1043437253621918 0.46003247384348822 0 0.087545223587185583 0.45776161306704921 0 0.093591773462706238 0.47630095149573459 0 0.1043437253621918 0.46003247384348822 0 0.087545223587185583 0.45776161306704921 0 0.087545223587185583 0.45776161306704921 0 0.074262723233724709 0.47888080653352372 0 0.087545223587185583 0.45776161306704921 0 0.077755060861430289 0.43348442713214419 0 0.1035450100545387 0.43232193101665328 0 0.087545223587185583 0.45776161306704921 0 0.060658330505731883 0.45412697994817119 0 0.077755060861430289 0.43348442713214419 0 0.060658330505731883 0.45412697994817119 0 0.053681714356196848 0.43022345418712771 0 0.077755060861430289 0.43348442713214419 0 0.087545223587185583 0.45776161306704921 0 0.074262723233724709 0.47888080653352372 0 0.060658330505731883 0.45412697994817119 0 0.087545223587185583 0.45776161306704921 0 0.060658330505731883 0.45412697994817119 0 0.087545223587185583 0.45776161306704921 0 0.074262723233724709 0.47888080653352372 0 0.093591773462706238 0.47630095149573459 0 0.074262723233724709 0.47888080653352372 0 0.093591773462706238 0.47630095149573459 0 0.087273130770921026 0.5 0 0.074262723233724709 0.47888080653352372 0 0.087273130770921026 0.5 0 0.060980222880264508 0.49999999999999861 0 0.074262723233724709 0.47888080653352372 0 0.060980222880264508 0.49999999999999861 0 0.074262723233724709 0.47888080653352372 0 0.060980222880264508 0.49999999999999861 0 0.041921578859567092 0.4758431498244492 0 0.074262723233724709 0.47888080653352372 0 0.041921578859567092 0.4758431498244492 0 0.060658330505731883 0.45412697994817119 0 0.060980222880264508 0.49999999999999861 0 0.041921578859567092 0.4758431498244492 0 0.033295224378743271 0.5 0 0.041921578859567092 0.4758431498244492 0 0.033295224378743271 0.5 0 0.015857109427938131 0.4827540369592801 0 0.033295224378743271 0.5 0 0.015857109427938131 0.4827540369592801 0 0.0056102258772220406 0.5 0 0.041921578859567092 0.4758431498244492 0 0.015857109427938131 0.4827540369592801 0 0.018144782187055921 0.46482513314881768 0 -0.0042917783013651416 0.48518830721076228 0 -0.0021890098681121291 0.47083828691712792 0 0.015857109427938131 0.4827540369592801 0 -0.0021890098681121291 0.47083828691712792 0 0.015857109427938131 0.4827540369592801 0 0.018144782187055921 0.46482513314881768 0 -0.0042917783013651416 0.48518830721076228 0 0.015857109427938131 0.4827540369592801 0 0.0056102258772220406 0.5 0 -0.0020466792170015929 0.4432303571161415 0 0.0068845443428243187 0.44685771371041599 0 0.00042294704899089008 0.42776047570166842 0 -0.0055161832163427406 0.44518135434274181 0 0.0068845443428243187 0.44685771371041599 0 -0.0021890098681121291 0.47083828691712792 0 0.0068845443428243187 0.44685771371041599 0 -0.0021890098681121291 0.47083828691712792 0 0.0068845443428243187 0.44685771371041599 0 0.018144782187055921 0.46482513314881768 0 -0.0044897977537646768 0.45555525047748219 0 -0.0021890098681121291 0.47083828691712792 0 0.0068845443428243187 0.44685771371041599 0 0.0068845443428243187 0.44685771371041599 0 0.018144782187055921 0.46482513314881768 0 0.033771437424278218 0.45049234682929279 0 0.0068845443428243187 0.44685771371041599 0 0.033771437424278218 0.45049234682929279 0 0.0068845443428243187 0.44685771371041599 0 0.033771437424278218 0.45049234682929279 0 0.021920708045237141 0.43689303890109221 0 0.033771437424278218 0.45049234682929279 0 0.034245323300746033 0.4288230213211523 0 0.021920708045237141 0.43689303890109221 0 0.041921578859567092 0.4758431498244492 0 0.033771437424278218 0.45049234682929279 0 0.060658330505731883 0.45412697994817119 0 0.041921578859567092 0.4758431498244492 0 0.018144782187055921 0.46482513314881768 0 0.033771437424278218 0.45049234682929279 0 0.033771437424278218 0.45049234682929279 0 0.060658330505731883 0.45412697994817119 0 0.033771437424278218 0.45049234682929279 0 0.060658330505731883 0.45412697994817119 0 0.053681714356196848 0.43022345418712771 0 0.053681714356196848 0.43022345418712771 0 0.044605765823493362 0.40703555055315221 0 0.068917958232067589 0.41385161605704612 0 0.044605765823493362 0.40703555055315221 0 0.034245323300746033 0.4288230213211523 0 0.017246990854524628 0.4194707161350964 0 0.053681714356196848 0.43022345418712771 0 0.044605765823493362 0.40703555055315221 0 0.034245323300746033 0.4288230213211523 0 0.033771437424278218 0.45049234682929279 0 0.053681714356196848 0.43022345418712771 0 0.034245323300746033 0.4288230213211523 0 0.034245323300746033 0.4288230213211523 0 0.021920708045237141 0.43689303890109221 0 0.017246990854524628 0.4194707161350964 0 0.017246990854524628 0.4194707161350964 0 0.00042294704899089008 0.42776047570166842 0 0.0045505085337773817 0.40125010839367292 0 0.0068845443428243187 0.44685771371041599 0 0.017246990854524628 0.4194707161350964 0 0.00042294704899089008 0.42776047570166842 0 0.0068845443428243187 0.44685771371041599 0 0.017246990854524628 0.4194707161350964 0 0.0068845443428243187 0.44685771371041599 0 0.021920708045237141 0.43689303890109221 0 0.017246990854524628 0.4194707161350964 0 -0.0035438202055331539 0.38233734554682047 0 0.0045505085337773817 0.40125010839367292 0 0.01706948370892639 0.38162854099218713 0 -0.0035438202055331539 0.38233734554682047 0 0.01706948370892639 0.38162854099218713 0 0.0039110642325555032 0.36310624052965412 0 0.0045505085337773817 0.40125010839367292 0 0.027609437366224631 0.39208371855977669 0 0.01706948370892639 0.38162854099218713 0 0.017246990854524628 0.4194707161350964 0 0.027609437366224631 0.39208371855977669 0 0.044605765823493362 0.40703555055315221 0 0.017246990854524628 0.4194707161350964 0 0.027609437366224631 0.39208371855977669 0 0.017246990854524628 0.4194707161350964 0 0.0045505085337773817 0.40125010839367292 0 0.027609437366224631 0.39208371855977669 0 0.027609437366224631 0.39208371855977669 0 0.01706948370892639 0.38162854099218713 0 0.037971883877924627 0.36469672098445699 0 0.027609437366224631 0.39208371855977669 0 0.037971883877924627 0.36469672098445699 0 0.027609437366224631 0.39208371855977669 0 0.042314148448419457 0.38176399122870541 0 0.037971883877924627 0.36469672098445699 0 0.027609437366224631 0.39208371855977669 0 0.042314148448419457 0.38176399122870541 0 0.041280656530513389 0.39323787224325768 0 0.042314148448419457 0.38176399122870541 0 0.041280656530513389 0.39323787224325768 0 0.052414617025975323 0.38691898198481989 0 0.044605765823493362 0.40703555055315221 0 0.041280656530513389 0.39323787224325768 0 0.052414617025975323 0.38691898198481989 0 0.044605765823493362 0.40703555055315221 0 0.027609437366224631 0.39208371855977669 0 0.041280656530513389 0.39323787224325768 0 0.044605765823493362 0.40703555055315221 0 0.052414617025975323 0.38691898198481989 0 0.065434442788820171 0.39553905673271361 0 0.044605765823493362 0.40703555055315221 0 0.065434442788820171 0.39553905673271361 0 0.068917958232067589 0.41385161605704612 0 0.042314148448419457 0.38176399122870541 0 0.052414617025975323 0.38691898198481989 0 0.052555234388428879 0.37114452495054812 0 0.052414617025975323 0.38691898198481989 0 0.066666509672137983 0.37888201903588209 0 0.065434442788820171 0.39553905673271361 0 0.052414617025975323 0.38691898198481989 0 0.066666509672137983 0.37888201903588209 0 0.052555234388428879 0.37114452495054812 0 0.066666509672137983 0.37888201903588209 0 0.07850158595046039 0.38607868376869597 0 0.065434442788820171 0.39553905673271361 0 0.066666509672137983 0.37888201903588209 0 0.07850158595046039 0.38607868376869597 0 0.082280446991620099 0.37395227173096879 0 0.07850158595046039 0.38607868376869597 0 0.086657703751195178 0.38114728886860788 0 0.082280446991620099 0.37395227173096879 0 0.07850158595046039 0.38607868376869597 0 0.089675764036558053 0.38908119543661518 0 0.086657703751195178 0.38114728886860788 0 0.089675764036558053 0.38908119543661518 0 0.086657703751195178 0.38114728886860788 0 0.095638395137078933 0.37694508921840031 0 0.086657703751195178 0.38114728886860788 0 0.095638395137078933 0.37694508921840031 0 0.082280446991620099 0.37395227173096879 0 0.081500220028786444 0.40046748899668549 0 0.090137853437830789 0.4175573034380301 0 0.097680346537873775 0.40064006860549561 0 0.089675764036558053 0.38908119543661518 0 0.081500220028786444 0.40046748899668549 0 0.097680346537873775 0.40064006860549561 0 0.07850158595046039 0.38607868376869597 0 0.089675764036558053 0.38908119543661518 0 0.081500220028786444 0.40046748899668549 0 0.081500220028786444 0.40046748899668549 0 0.065434442788820171 0.39553905673271361 0 0.068917958232067589 0.41385161605704612 0 0.07850158595046039 0.38607868376869597 0 0.081500220028786444 0.40046748899668549 0 0.065434442788820171 0.39553905673271361 0 0.053681714356196848 0.43022345418712771 0 0.068917958232067589 0.41385161605704612 0 0.077755060861430289 0.43348442713214419 0 0.077755060861430289 0.43348442713214419 0 0.090137853437830789 0.4175573034380301 0 0.1035450100545387 0.43232193101665328 0 0.081500220028786444 0.40046748899668549 0 0.068917958232067589 0.41385161605704612 0 0.090137853437830789 0.4175573034380301 0 0.068917958232067589 0.41385161605704612 0 0.077755060861430289 0.43348442713214419 0 0.090137853437830789 0.4175573034380301 0 0.090137853437830789 0.4175573034380301 0 0.1035450100545387 0.43232193101665328 0 0.1195447965218919 0.40688224896625752 0 0.1035450100545387 0.43232193101665328 0 0.1195447965218919 0.40688224896625752 0 0.1258579131830555 0.44304162323779539 0 0.090137853437830789 0.4175573034380301 0 0.1195447965218919 0.40688224896625752 0 0.097680346537873775 0.40064006860549561 0 0.1035450100545387 0.43232193101665328 0 0.1195447965218919 0.40688224896625752 0 0.1195447965218919 0.40688224896625752 0 0.10897889086719841 0.38839766954632049 0 0.13554458298924499 0.38144256691586143 0 0.11578945998054251 0.37539484813529278 0 0.10897889086719841 0.38839766954632049 0 0.13554458298924499 0.38144256691586143 0 0.11578945998054251 0.37539484813529278 0 0.10897889086719841 0.38839766954632049 0 0.095638395137078933 0.37694508921840031 0 0.089675764036558053 0.38908119543661518 0 0.10897889086719841 0.38839766954632049 0 0.095638395137078933 0.37694508921840031 0 0.089675764036558053 0.38908119543661518 0 0.10897889086719841 0.38839766954632049 0 0.097680346537873775 0.40064006860549561 0 0.1195447965218919 0.40688224896625752 0 0.10897889086719841 0.38839766954632049 0 0.097680346537873775 0.40064006860549561 0 0.097292745182600213 0.34519879685217469 0 0.096034336971839829 0.36934712935472458 0 0.1103161189581206 0.35798442076213288 0 0.097292745182600213 0.34519879685217469 0 0.096034336971839829 0.36934712935472458 0 0.097292745182600213 0.34519879685217469 0 0.1103161189581206 0.35798442076213288 0 0.1136258179958491 0.33838641807053188 0 0.11578945998054251 0.37539484813529278 0 0.095638395137078933 0.37694508921840031 0 0.096034336971839829 0.36934712935472458 0 0.11578945998054251 0.37539484813529278 0 0.096034336971839829 0.36934712935472458 0 0.11578945998054251 0.37539484813529278 0 0.096034336971839829 0.36934712935472458 0 0.1103161189581206 0.35798442076213288 0 0.095638395137078933 0.37694508921840031 0 0.096034336971839829 0.36934712935472458 0 0.11578945998054251 0.37539484813529278 0 0.1103161189581206 0.35798442076213288 0 0.1282672931007196 0.36992481296954699 0 0.1225259631229768 0.35077141290914382 0 0.1103161189581206 0.35798442076213288 0 0.1282672931007196 0.36992481296954699 0 0.1225259631229768 0.35077141290914382 0 0.1103161189581206 0.35798442076213288 0 0.1136258179958491 0.33838641807053188 0 0.1136258179958491 0.33838641807053188 0 0.1204364392737808 0.31533819529737639 0 0.13338943867951261 0.34124659587323058 0 0.1225259631229768 0.35077141290914382 0 0.1136258179958491 0.33838641807053188 0 0.13338943867951261 0.34124659587323058 0 0.1136258179958491 0.33838641807053188 0 0.1204364392737808 0.31533819529737639 0 0.098551153393360541 0.32105046434962481 0 0.097292745182600213 0.34519879685217469 0 0.1136258179958491 0.33838641807053188 0 0.098551153393360541 0.32105046434962481 0 0.097292745182600213 0.34519879685217469 0 0.098551153393360541 0.32105046434962481 0 0.097292745182600213 0.34519879685217469 0 0.098551153393360541 0.32105046434962481 0 0.080109234410046304 0.32598479264771041 0 0.097292745182600213 0.34519879685217469 0 0.080109234410046304 0.32598479264771041 0 0.077950170289208282 0.3439000337406582 0 0.098551153393360541 0.32105046434962481 0 0.080109234410046304 0.32598479264771041 0 0.078013675591629833 0.30606263912247827 0 0.080109234410046304 0.32598479264771041 0 0.059596425410887673 0.31405571885375871 0 0.078013675591629833 0.30606263912247827 0 0.080109234410046304 0.32598479264771041 0 0.063259570592214237 0.33312851355625073 0 0.059596425410887673 0.31405571885375871 0 0.080109234410046304 0.32598479264771041 0 0.063259570592214237 0.33312851355625073 0 0.077950170289208282 0.3439000337406582 0 0.063259570592214237 0.33312851355625073 0 0.063628569975274787 0.34716284204560338 0 0.077950170289208282 0.3439000337406582 0 0.063628569975274787 0.34716284204560338 0 0.077950170289208282 0.3439000337406582 0 0.072142053509512666 0.36203288426791291 0 0.097292745182600213 0.34519879685217469 0 0.077950170289208282 0.3439000337406582 0 0.086314052771696709 0.35540998230097848 0 0.077950170289208282 0.3439000337406582 0 0.086314052771696709 0.35540998230097848 0 0.072142053509512666 0.36203288426791291 0 0.097292745182600213 0.34519879685217469 0 0.096034336971839829 0.36934712935472458 0 0.086314052771696709 0.35540998230097848 0 0.096034336971839829 0.36934712935472458 0 0.072142053509512666 0.36203288426791291 0 0.096034336971839829 0.36934712935472458 0 0.086314052771696709 0.35540998230097848 0 0.072142053509512666 0.36203288426791291 0 0.096034336971839829 0.36934712935472458 0 0.082280446991620099 0.37395227173096879 0 0.072142053509512666 0.36203288426791291 0 0.095638395137078933 0.37694508921840031 0 0.096034336971839829 0.36934712935472458 0 0.082280446991620099 0.37395227173096879 0 0.066666509672137983 0.37888201903588209 0 0.072142053509512666 0.36203288426791291 0 0.052555234388428879 0.37114452495054812 0 0.066666509672137983 0.37888201903588209 0 0.082280446991620099 0.37395227173096879 0 0.072142053509512666 0.36203288426791291 0 0.072142053509512666 0.36203288426791291 0 0.052555234388428879 0.37114452495054812 0 0.048249770047185413 0.35471863918110103 0 0.063628569975274787 0.34716284204560338 0 0.072142053509512666 0.36203288426791291 0 0.048249770047185413 0.35471863918110103 0 0.072142053509512666 0.36203288426791291 0 0.048249770047185413 0.35471863918110103 0 0.063628569975274787 0.34716284204560338 0 0.048249770047185413 0.35471863918110103 0 0.052113156024540891 0.34046056572453381 0 0.048249770047185413 0.35471863918110103 0 0.024357486584858201 0.34740439409428908 0 0.048249770047185413 0.35471863918110103 0 0.037971883877924627 0.36469672098445699 0 0.024357486584858201 0.34740439409428908 0 0.048249770047185413 0.35471863918110103 0 0.024357486584858201 0.34740439409428908 0 0.039463000923534781 0.33955415170347369 0 0.048249770047185413 0.35471863918110103 0 0.039463000923534781 0.33955415170347369 0 0.052113156024540891 0.34046056572453381 0 0.042314148448419457 0.38176399122870541 0 0.052555234388428879 0.37114452495054812 0 0.037971883877924627 0.36469672098445699 0 0.052555234388428879 0.37114452495054812 0 0.048249770047185413 0.35471863918110103 0 0.037971883877924627 0.36469672098445699 0 0.01706948370892639 0.38162854099218713 0 0.037971883877924627 0.36469672098445699 0 0.020827479601066179 0.3642089741501468 0 0.037971883877924627 0.36469672098445699 0 0.020827479601066179 0.3642089741501468 0 0.024357486584858201 0.34740439409428908 0 0.020827479601066179 0.3642089741501468 0 0.024357486584858201 0.34740439409428908 0 0.0039110642325555032 0.36310624052965412 0 -0.0092473552438152827 0.34458394006712117 0 0.0039110642325555032 0.36310624052965412 0 0.0077413597133283042 0.33712104146662558 0 0.024357486584858201 0.34740439409428908 0 0.0039110642325555032 0.36310624052965412 0 0.0077413597133283042 0.33712104146662558 0 0.01706948370892639 0.38162854099218713 0 0.0039110642325555032 0.36310624052965412 0 0.01706948370892639 0.38162854099218713 0 0.020827479601066179 0.3642089741501468 0 0.0039110642325555032 0.36310624052965412 0 -0.0045793929973731553 0.3273326912411374 0 0.0058272740681826907 0.31586856144546582 0 0.0077413597133283042 0.33712104146662558 0 0.0058272740681826907 0.31586856144546582 0 0.0077413597133283042 0.33712104146662558 0 0.02717780456274042 0.32587117975644442 0 0.024357486584858201 0.34740439409428908 0 0.02717780456274042 0.32587117975644442 0 0.039463000923534781 0.33955415170347369 0 0.024357486584858201 0.34740439409428908 0 0.0077413597133283042 0.33712104146662558 0 0.02717780456274042 0.32587117975644442 0 0.0058272740681826907 0.31586856144546582 0 0.02717780456274042 0.32587117975644442 0 0.023028483714514991 0.29981779457721608 0 0.02717780456274042 0.32587117975644442 0 0.045964868584495243 0.32773868213624008 0 0.043293658137890358 0.3042709137872483 0 0.02717780456274042 0.32587117975644442 0 0.045964868584495243 0.32773868213624008 0 0.039463000923534781 0.33955415170347369 0 0.045964868584495243 0.32773868213624008 0 0.039463000923534781 0.33955415170347369 0 0.052113156024540891 0.34046056572453381 0 0.063259570592214237 0.33312851355625073 0 0.045964868584495243 0.32773868213624008 0 0.052113156024540891 0.34046056572453381 0 0.063259570592214237 0.33312851355625073 0 0.063628569975274787 0.34716284204560338 0 0.052113156024540891 0.34046056572453381 0 0.063259570592214237 0.33312851355625073 0 0.045964868584495243 0.32773868213624008 0 0.059596425410887673 0.31405571885375871 0 0.045964868584495243 0.32773868213624008 0 0.059596425410887673 0.31405571885375871 0 0.043293658137890358 0.3042709137872483 0 0.059596425410887673 0.31405571885375871 0 0.055372748440101642 0.28907238610978342 0 0.043293658137890358 0.3042709137872483 0 0.043293658137890358 0.3042709137872483 0 0.023028483714514991 0.29981779457721608 0 0.040647573089787052 0.27459478843505758 0 0.043293658137890358 0.3042709137872483 0 0.040647573089787052 0.27459478843505758 0 0.055372748440101642 0.28907238610978342 0 0.043293658137890358 0.3042709137872483 0 0.040647573089787052 0.27459478843505758 0 0.02717780456274042 0.32587117975644442 0 0.043293658137890358 0.3042709137872483 0 0.023028483714514991 0.29981779457721608 0 0.023028483714514991 0.29981779457721608 0 0.016092742703214251 0.28178791049288709 0 0.040647573089787052 0.27459478843505758 0 0.023028483714514991 0.29981779457721608 0 0.016092742703214251 0.28178791049288709 0 0.0051318497252751793 0.29651341354619348 0 0.016092742703214251 0.28178791049288709 0 0.0051318497252751793 0.29651341354619348 0 0.0013978959583359179 0.28053191190458271 0 0.0058272740681826907 0.31586856144546582 0 0.023028483714514991 0.29981779457721608 0 0.0051318497252751793 0.29651341354619348 0 0.016092742703214251 0.28178791049288709 0 0.0072134534684511944 0.2591845763088359 0 0.016092742703214251 0.28178791049288709 0 0.0072134534684511944 0.2591845763088359 0 0.0013978959583359179 0.28053191190458271 0 0.016092742703214251 0.28178791049288709 0 0.0072134534684511944 0.2591845763088359 0 0.024837308117879538 0.26019798067375027 0 0.016092742703214251 0.28178791049288709 0 0.024837308117879538 0.26019798067375027 0 0.040647573089787052 0.27459478843505758 0 0.018507260666525562 0.23913500963347681 0 0.0072134534684511944 0.2591845763088359 0 0.024837308117879538 0.26019798067375027 0 0.038001488041683733 0.24491866308286689 0 0.024837308117879538 0.26019798067375027 0 0.040647573089787052 0.27459478843505758 0 0.038001488041683733 0.24491866308286689 0 0.040647573089787052 0.27459478843505758 0 0.038001488041683733 0.24491866308286689 0 0.040647573089787052 0.27459478843505758 0 0.060742791056237817 0.26428234052613991 0 0.055372748440101642 0.28907238610978342 0 0.040647573089787052 0.27459478843505758 0 0.060742791056237817 0.26428234052613991 0 0.058528535271951357 0.23494879964061449 0 0.060742791056237817 0.26428234052613991 0 0.079798252543412981 0.25385129949257162 0 0.060742791056237817 0.26428234052613991 0 0.079798252543412981 0.25385129949257162 0 0.080667113050118477 0.2717006300842324 0 0.079798252543412981 0.25385129949257162 0 0.092540046358089836 0.25227874596180661 0 0.10106796981487801 0.27275379934452482 0 0.079798252543412981 0.25385129949257162 0 0.10106796981487801 0.27275379934452482 0 0.079798252543412981 0.25385129949257162 0 0.080667113050118477 0.2717006300842324 0 0.10106796981487801 0.27275379934452482 0 0.080667113050118477 0.2717006300842324 0 0.072592960614648941 0.28337687617739782 0 0.089133591221414607 0.28423883488052798 0 0.080667113050118477 0.2717006300842324 0 0.089133591221414607 0.28423883488052798 0 0.10106796981487801 0.27275379934452482 0 0.055372748440101642 0.28907238610978342 0 0.060742791056237817 0.26428234052613991 0 0.072592960614648941 0.28337687617739782 0 0.060742791056237817 0.26428234052613991 0 0.080667113050118477 0.2717006300842324 0 0.072592960614648941 0.28337687617739782 0 0.055372748440101642 0.28907238610978342 0 0.072592960614648941 0.28337687617739782 0 0.078013675591629833 0.30606263912247827 0 0.059596425410887673 0.31405571885375871 0 0.055372748440101642 0.28907238610978342 0 0.078013675591629833 0.30606263912247827 0 0.098551153393360541 0.32105046434962481 0 0.078013675591629833 0.30606263912247827 0 0.099809561604120869 0.29690213184707492 0 0.072592960614648941 0.28337687617739782 0 0.078013675591629833 0.30606263912247827 0 0.089133591221414607 0.28423883488052798 0 0.078013675591629833 0.30606263912247827 0 0.089133591221414607 0.28423883488052798 0 0.099809561604120869 0.29690213184707492 0 0.099809561604120869 0.29690213184707492 0 0.10106796981487801 0.27275379934452482 0 0.089133591221414607 0.28423883488052798 0 0.099809561604120869 0.29690213184707492 0 0.10106796981487801 0.27275379934452482 0 0.099809561604120869 0.29690213184707492 0 0.1184060441651853 0.29000644883566568 0 0.10744483063343679 0.27842094616836321 0 0.099809561604120869 0.29690213184707492 0 0.10106796981487801 0.27275379934452482 0 0.10744483063343679 0.27842094616836321 0 0.1204364392737808 0.31533819529737639 0 0.098551153393360541 0.32105046434962481 0 0.099809561604120869 0.29690213184707492 0 0.098551153393360541 0.32105046434962481 0 0.099809561604120869 0.29690213184707492 0 0.1204364392737808 0.31533819529737639 0 0.1184060441651853 0.29000644883566568 0 0.13578956392847019 0.29738233808718889 0 0.1204364392737808 0.31533819529737639 0 0.099809561604120869 0.29690213184707492 0 0.1184060441651853 0.29000644883566568 0 0.1184060441651853 0.29000644883566568 0 0.1175389681371582 0.27598989854195338 0 0.10744483063343679 0.27842094616836321 0 0.1184060441651853 0.29000644883566568 0 0.1175389681371582 0.27598989854195338 0 0.12891148374450431 0.27548677320363169 0 0.1175389681371582 0.27598989854195338 0 0.1111135218307186 0.27031851874106833 0 0.10744483063343679 0.27842094616836321 0 0.1175389681371582 0.27598989854195338 0 0.1111135218307186 0.27031851874106833 0 0.11741760072487741 0.26588821315708949 0 0.1175389681371582 0.27598989854195338 0 0.11741760072487741 0.26588821315708949 0 0.12891148374450431 0.27548677320363169 0 0.11741760072487741 0.26588821315708949 0 0.12203340356053841 0.25359120832007448 0 0.12891148374450431 0.27548677320363169 0 0.1176436003702233 0.24428934310490771 0 0.12203340356053841 0.25359120832007448 0 0.111593496771331 0.25855939330488448 0 0.11741760072487741 0.26588821315708949 0 0.12203340356053841 0.25359120832007448 0 0.111593496771331 0.25855939330488448 0 0.1111135218307186 0.27031851874106833 0 0.11741760072487741 0.26588821315708949 0 0.111593496771331 0.25855939330488448 0 0.1025991831259085 0.24337044992671031 0 0.111593496771331 0.25855939330488448 0 0.10106796981487801 0.27275379934452482 0 0.1025991831259085 0.24337044992671031 0 0.10106796981487801 0.27275379934452482 0 0.1025991831259085 0.24337044992671031 0 0.092540046358089836 0.25227874596180661 0 0.10106796981487801 0.27275379934452482 0 0.10106796981487801 0.27275379934452482 0 0.10744483063343679 0.27842094616836321 0 0.1111135218307186 0.27031851874106833 0 0.10106796981487801 0.27275379934452482 0 0.10744483063343679 0.27842094616836321 0 0.1111135218307186 0.27031851874106833 0 0.111593496771331 0.25855939330488448 0 0.10106796981487801 0.27275379934452482 0 0.14684972612931599 0.27963699812913462 0 0.1523869939018862 0.26034940734419421 0 0.1631928568840699 0.27870291032423627 0 0.14684972612931599 0.27963699812913462 0 0.1523869939018862 0.26034940734419421 0 0.13897371895000099 0.26531964057220708 0 0.13830289072393709 0.24215030697427431 0 0.1523869939018862 0.26034940734419421 0 0.13120266578364639 0.25331006539398349 0 0.1523869939018862 0.26034940734419421 0 0.13120266578364639 0.25331006539398349 0 0.1523869939018862 0.26034940734419421 0 0.13897371895000099 0.26531964057220708 0 0.13120266578364639 0.25331006539398349 0 0.13897371895000099 0.26531964057220708 0 0.13120266578364639 0.25331006539398349 0 0.12891148374450431 0.27548677320363169 0 0.12203340356053841 0.25359120832007448 0 0.13120266578364639 0.25331006539398349 0 0.12891148374450431 0.27548677320363169 0 0.12203340356053841 0.25359120832007448 0 0.12891148374450431 0.27548677320363169 0 0.12659951537742381 0.2471792158728551 0 0.12203340356053841 0.25359120832007448 0 0.13120266578364639 0.25331006539398349 0 0.14684972612931599 0.27963699812913462 0 0.13897371895000099 0.26531964057220708 0 0.12891148374450431 0.27548677320363169 0 0.12891148374450431 0.27548677320363169 0 0.13578956392847019 0.29738233808718889 0 0.1184060441651853 0.29000644883566568 0 0.12891148374450431 0.27548677320363169 0 0.13578956392847019 0.29738233808718889 0 0.14684972612931599 0.27963699812913462 0 0.12891148374450431 0.27548677320363169 0 0.13578956392847019 0.29738233808718889 0 0.13578956392847019 0.29738233808718889 0 0.1426676441124361 0.3192779029707461 0 0.1204364392737808 0.31533819529737639 0 0.13578956392847019 0.29738233808718889 0 0.1426676441124361 0.3192779029707461 0 0.16032069098713819 0.29909415447191212 0 0.15925177598451409 0.31526122434195619 0 0.1426676441124361 0.3192779029707461 0 0.13578956392847019 0.29738233808718889 0 0.16032069098713819 0.29909415447191212 0 0.1426676441124361 0.3192779029707461 0 0.14684972612931599 0.27963699812913462 0 0.13578956392847019 0.29738233808718889 0 0.16032069098713819 0.29909415447191212 0 0.16032069098713819 0.29909415447191212 0 0.1797894546222305 0.28407171283866089 0 0.1631928568840699 0.27870291032423627 0 0.14684972612931599 0.27963699812913462 0 0.16032069098713819 0.29909415447191212 0 0.1631928568840699 0.27870291032423627 0 0.16032069098713819 0.29909415447191212 0 0.17473679000803699 0.31884142093295242 0 0.15925177598451409 0.31526122434195619 0 0.16032069098713819 0.29909415447191212 0 0.18620857065481741 0.30088675823383809 0 0.17473679000803699 0.31884142093295242 0 0.18620857065481741 0.30088675823383809 0 0.17473679000803699 0.31884142093295242 0 0.16032069098713819 0.29909415447191212 0 0.18620857065481741 0.30088675823383809 0 0.1797894546222305 0.28407171283866089 0 0.17357132202012601 0.26738874929440493 0 0.19475565013836579 0.2744280912446162 0 0.1797894546222305 0.28407171283866089 0 0.17357132202012601 0.26738874929440493 0 0.19475565013836579 0.2744280912446162 0 0.1797894546222305 0.28407171283866089 0 0.17357132202012601 0.26738874929440493 0 0.1631928568840699 0.27870291032423627 0 0.1523869939018862 0.26034940734419421 0 0.17357132202012601 0.26738874929440493 0 0.1631928568840699 0.27870291032423627 0 0.1523869939018862 0.26034940734419421 0 0.17357132202012601 0.26738874929440493 0 0.16834814689714089 0.25261690768887618 0 0.15750437485464891 0.24309139961252649 0 0.1523869939018862 0.26034940734419421 0 0.16834814689714089 0.25261690768887618 0 0.1523869939018862 0.26034940734419421 0 0.17357132202012601 0.26738874929440493 0 0.17357132202012601 0.26738874929440493 0 0.18793491581771871 0.25388050382139737 0 0.19475565013836579 0.2744280912446162 0 0.17357132202012601 0.26738874929440493 0 0.16834814689714089 0.25261690768887618 0 0.18793491581771871 0.25388050382139737 0 0.18793491581771871 0.25388050382139737 0 0.1979608802217129 0.26464808612790353 0 0.19475565013836579 0.2744280912446162 0 0.19622689492941919 0.2455871524163849 0 0.18793491581771871 0.25388050382139737 0 0.19784336304055411 0.25535005617849749 0 0.18793491581771871 0.25388050382139737 0 0.19475565013836579 0.2744280912446162 0 0.18793491581771871 0.25388050382139737 0 0.1979608802217129 0.26464808612790353 0 0.19784336304055411 0.25535005617849749 0 0.1979608802217129 0.26464808612790353 0 0.19784336304055411 0.25535005617849749 0 0.20387253181019671 0.26063510360604247 0 0.1979608802217129 0.26464808612790353 0 0.20401823240929379 0.26761398150900118 0 0.20387253181019671 0.26063510360604247 0 0.19784336304055411 0.25535005617849749 0 0.20359877222107389 0.25486593599169921 0 0.20387253181019671 0.26063510360604247 0 0.20171262006913609 0.2489580606067687 0 0.19784336304055411 0.25535005617849749 0 0.20359877222107389 0.25486593599169921 0 0.1797894546222305 0.28407171283866089 0 0.19475565013836579 0.2744280912446162 0 0.19755168359040221 0.28285119337603648 0 0.1979608802217129 0.26464808612790353 0 0.19475565013836579 0.2744280912446162 0 0.20030272737756549 0.27140169531207631 0 0.1979608802217129 0.26464808612790353 0 0.20030272737756549 0.27140169531207631 0 0.20401823240929379 0.26761398150900118 0 0.20030272737756549 0.27140169531207631 0 0.2033287140090683 0.27366570722306238 0 0.20401823240929379 0.26761398150900118 0 0.19475565013836579 0.2744280912446162 0 0.19755168359040221 0.28285119337603648 0 0.19475565013836579 0.2744280912446162 0 0.20145016010938729 0.27665261045579942 0 0.19755168359040221 0.28285119337603648 0 0.20145016010938729 0.27665261045579942 0 0.20621738623902969 0.28397608977443262 0 0.19755168359040221 0.28285119337603648 0 0.19475565013836579 0.2744280912446162 0 0.20030272737756549 0.27140169531207631 0 0.20145016010938729 0.27665261045579942 0 0.19475565013836579 0.2744280912446162 0 0.20145016010938729 0.27665261045579942 0 0.20030272737756549 0.27140169531207631 0 0.20145016010938729 0.27665261045579942 0 0.2033287140090683 0.27366570722306238 0 0.20145016010938729 0.27665261045579942 0 0.2033287140090683 0.27366570722306238 0 0.20145016010938729 0.27665261045579942 0 0.19755168359040221 0.28285119337603648 0 0.20145016010938729 0.27665261045579942 0 0.22054965753304731 0.28299918386100542 0 0.20145016010938729 0.27665261045579942 0 0.22054965753304731 0.28299918386100542 0 0.20621738623902969 0.28397608977443262 0 0.20145016010938729 0.27665261045579942 0 0.2157297859006915 0.27402262911742581 0 0.22054965753304731 0.28299918386100542 0 0.20145016010938729 0.27665261045579942 0 0.2033287140090683 0.27366570722306238 0 0.2157297859006915 0.27402262911742581 0 0.2033287140090683 0.27366570722306238 0 0.21087472242556571 0.26845524783232311 0 0.2157297859006915 0.27402262911742581 0 0.2033287140090683 0.27366570722306238 0 0.20401823240929379 0.26761398150900118 0 0.21087472242556571 0.26845524783232311 0 0.20401823240929379 0.26761398150900118 0 0.21087472242556571 0.26845524783232311 0 0.21121946737515099 0.26235632468568981 0 0.21087472242556571 0.26845524783232311 0 0.2157297859006915 0.27402262911742581 0 0.21945741866174431 0.26389238821498251 0 0.20945048672397079 0.2472949006310797 0 0.20711626154703949 0.25152153195106819 0 0.2124583023384338 0.25323887682229451 0 0.20872232043180119 0.25683605799562692 0 0.20711626154703949 0.25152153195106819 0 0.2124583023384338 0.25323887682229451 0 0.20171262006913609 0.2489580606067687 0 0.20711626154703949 0.25152153195106819 0 0.20359877222107389 0.25486593599169921 0 0.20872232043180119 0.25683605799562692 0 0.20359877222107389 0.25486593599169921 0 0.20387253181019671 0.26063510360604247 0 0.20872232043180119 0.25683605799562692 0 0.20711626154703949 0.25152153195106819 0 0.20359877222107389 0.25486593599169921 0 0.20401823240929379 0.26761398150900118 0 0.20387253181019671 0.26063510360604247 0 0.21121946737515099 0.26235632468568981 0 0.20872232043180119 0.25683605799562692 0 0.20387253181019671 0.26063510360604247 0 0.21121946737515099 0.26235632468568981 0 0.21087472242556571 0.26845524783232311 0 0.21121946737515099 0.26235632468568981 0 0.21945741866174431 0.26389238821498251 0 0.20872232043180119 0.25683605799562692 0 0.21470520519559169 0.25788414010672162 0 0.21121946737515099 0.26235632468568981 0 0.21470520519559169 0.25788414010672162 0 0.21121946737515099 0.26235632468568981 0 0.21945741866174431 0.26389238821498251 0 0.21470520519559169 0.25788414010672162 0 0.21880972439142549 0.25311319525236048 0 0.21945741866174431 0.26389238821498251 0 0.21470520519559169 0.25788414010672162 0 0.2124583023384338 0.25323887682229451 0 0.21880972439142549 0.25311319525236048 0 0.20872232043180119 0.25683605799562692 0 0.21470520519559169 0.25788414010672162 0 0.2124583023384338 0.25323887682229451 0 0.21444869797179331 0.2490145456185015 0 0.2124583023384338 0.25323887682229451 0 0.21880972439142549 0.25311319525236048 0 0.22946931249077041 0.25492521190520667 0 0.21945741866174431 0.26389238821498251 0 0.232230427836387 0.27088205629993251 0 0.22416091252021819 0.24680669881238251 0 0.21880972439142549 0.25311319525236048 0 0.22946931249077041 0.25492521190520667 0 0.21880972439142549 0.25311319525236048 0 0.22946931249077041 0.25492521190520667 0 0.21945741866174431 0.26389238821498251 0 0.2157297859006915 0.27402262911742581 0 0.232230427836387 0.27088205629993251 0 0.22054965753304731 0.28299918386100542 0 0.2157297859006915 0.27402262911742581 0 0.21945741866174431 0.26389238821498251 0 0.232230427836387 0.27088205629993251 0 0.232230427836387 0.27088205629993251 0 0.23964915495670819 0.28934575726620848 0 0.22054965753304731 0.28299918386100542 0 0.232230427836387 0.27088205629993251 0 0.24237654861204971 0.25837027997626749 0 0.25655273391260169 0.27190114431609769 0 0.232230427836387 0.27088205629993251 0 0.23964915495670819 0.28934575726620848 0 0.25655273391260169 0.27190114431609769 0 0.22946931249077041 0.25492521190520667 0 0.232230427836387 0.27088205629993251 0 0.24237654861204971 0.25837027997626749 0 0.23619642361452331 0.24727695548554859 0 0.24237654861204971 0.25837027997626749 0 0.25435681544483307 0.2481099579607853 0 0.23619642361452331 0.24727695548554859 0 0.22946931249077041 0.25492521190520667 0 0.24237654861204971 0.25837027997626749 0 0.23607848859113911 0.30365293355502149 0 0.2466253946056588 0.30455978760580088 0 0.23964915495670819 0.28934575726620848 0 0.23607848859113911 0.30365293355502149 0 0.2466253946056588 0.30455978760580088 0 0.2364904061232195 0.31498391792431579 0 0.2466253946056588 0.30455978760580088 0 0.248347667330094 0.31832895252430071 0 0.25235684033986822 0.30987673937372379 0 0.23964915495670819 0.28934575726620848 0 0.25874865238036959 0.29569233067141032 0 0.2466253946056588 0.30455978760580088 0 0.23964915495670819 0.28934575726620848 0 0.25874865238036959 0.29569233067141032 0 0.23964915495670819 0.28934575726620848 0 0.22054965753304731 0.28299918386100542 0 0.22624529633206181 0.29973273703640729 0 0.23964915495670819 0.28934575726620848 0 0.22054965753304731 0.28299918386100542 0 0.22054965753304731 0.28299918386100542 0 0.22624529633206181 0.29973273703640729 0 0.21576990736964771 0.29762623349488943 0 0.22624529633206181 0.29973273703640729 0 0.21896663561095769 0.30546371885713092 0 0.21576990736964771 0.29762623349488943 0 0.23607848859113911 0.30365293355502149 0 0.23964915495670819 0.28934575726620848 0 0.22624529633206181 0.29973273703640729 0 0.23607848859113911 0.30365293355502149 0 0.22624529633206181 0.29973273703640729 0 0.22650154896205901 0.31042050113927921 0 0.23607848859113911 0.30365293355502149 0 0.22650154896205901 0.31042050113927921 0 0.2364904061232195 0.31498391792431579 0 0.22624529633206181 0.29973273703640729 0 0.21896663561095769 0.30546371885713092 0 0.22650154896205901 0.31042050113927921 0 0.21896663561095769 0.30546371885713092 0 0.22650154896205901 0.31042050113927921 0 0.21680223096774789 0.31421758281392959 0 0.21896663561095769 0.30546371885713092 0 0.21090143151017299 0.30695205744096221 0 0.21680223096774789 0.31421758281392959 0 0.2065047961382086 0.30982260937578121 0 0.21090143151017299 0.30695205744096221 0 0.21680223096774789 0.31421758281392959 0 0.21896663561095769 0.30546371885713092 0 0.21576990736964771 0.29762623349488943 0 0.21090143151017299 0.30695205744096221 0 0.21576990736964771 0.29762623349488943 0 0.20808088715483619 0.29753172190579741 0 0.21090143151017299 0.30695205744096221 0 0.20808088715483619 0.29753172190579741 0 0.2065047961382086 0.30982260937578121 0 0.21090143151017299 0.30695205744096221 0 0.2065047961382086 0.30982260937578121 0 0.21090143151017299 0.30695205744096221 0 0.20808088715483619 0.29753172190579741 0 0.2065047961382086 0.30982260937578121 0 0.19755168359040221 0.28285119337603648 0 0.22054965753304731 0.28299918386100542 0 0.20967661716575181 0.29040651584131949 0 0.20621738623902969 0.28397608977443262 0 0.22054965753304731 0.28299918386100542 0 0.21576990736964771 0.29762623349488943 0 0.20967661716575181 0.29040651584131949 0 0.21576990736964771 0.29762623349488943 0 0.20808088715483619 0.29753172190579741 0 0.20967661716575181 0.29040651584131949 0 0.20808088715483619 0.29753172190579741 0 0.20967661716575181 0.29040651584131949 0 0.19755168359040221 0.28285119337603648 0 0.20967661716575181 0.29040651584131949 0 0.20621738623902969 0.28397608977443262 0 0.19755168359040221 0.28285119337603648 0 0.2065047961382086 0.30982260937578121 0 0.19755168359040221 0.28285119337603648 0 0.18620857065481741 0.30088675823383809 0 0.19755168359040221 0.28285119337603648 0 0.18620857065481741 0.30088675823383809 0 0.1797894546222305 0.28407171283866089 0 0.19755168359040221 0.28285119337603648 0 0.18620857065481741 0.30088675823383809 0 0.2065047961382086 0.30982260937578121 0 0.19359195161049539 0.31825337238137502 0 0.18620857065481741 0.30088675823383809 0 0.19359195161049539 0.31825337238137502 0 0.1842071159139039 0.31798349586604457 0 0.18620857065481741 0.30088675823383809 0 0.2065047961382086 0.30982260937578121 0 0.19755168359040221 0.28285119337603648 0 0.2065047961382086 0.30982260937578121 0 0.19359195161049539 0.31825337238137502 0 0.19359195161049539 0.31825337238137502 0 0.1946599186726036 0.34513611493554669 0 0.1806791070827822 0.32668413538696878 0 0.19359195161049539 0.31825337238137502 0 0.2140291854641731 0.33248997042715628 0 0.1946599186726036 0.34513611493554669 0 0.1946599186726036 0.34513611493554669 0 0.1806791070827822 0.32668413538696878 0 0.2140291854641731 0.33248997042715628 0 0.2084580271564701 0.34920400184053441 0 0.1946599186726036 0.34513611493554669 0 0.2065047961382086 0.30982260937578121 0 0.2140291854641731 0.33248997042715628 0 0.21680223096774789 0.31421758281392959 0 0.2065047961382086 0.30982260937578121 0 0.2140291854641731 0.33248997042715628 0 0.2065047961382086 0.30982260937578121 0 0.19359195161049539 0.31825337238137502 0 0.2140291854641731 0.33248997042715628 0 0.22650154896205901 0.31042050113927921 0 0.21680223096774789 0.31421758281392959 0 0.22723915712947881 0.32406988197882031 0 0.2140291854641731 0.33248997042715628 0 0.21680223096774789 0.31421758281392959 0 0.22723915712947881 0.32406988197882031 0 0.22650154896205901 0.31042050113927921 0 0.22723915712947881 0.32406988197882031 0 0.2364904061232195 0.31498391792431579 0 0.2140291854641731 0.33248997042715628 0 0.22723915712947881 0.32406988197882031 0 0.23622877459744171 0.33913648787077721 0 0.2140291854641731 0.33248997042715628 0 0.23622877459744171 0.33913648787077721 0 0.2215535747901374 0.35515733147853151 0 0.22723915712947881 0.32406988197882031 0 0.23622877459744171 0.33913648787077721 0 0.23940451359905909 0.32551310673867551 0 0.23622877459744171 0.33913648787077721 0 0.24963375527312889 0.33043823118468812 0 0.23940451359905909 0.32551310673867551 0 0.23622877459744171 0.33913648787077721 0 0.24963375527312889 0.33043823118468812 0 0.2566943888525921 0.34309541031675039 0 0.24963375527312889 0.33043823118468812 0 0.248347667330094 0.31832895252430071 0 0.23940451359905909 0.32551310673867551 0 0.2466253946056588 0.30455978760580088 0 0.248347667330094 0.31832895252430071 0 0.2364904061232195 0.31498391792431579 0 0.248347667330094 0.31832895252430071 0 0.2364904061232195 0.31498391792431579 0 0.23940451359905909 0.32551310673867551 0 0.22723915712947881 0.32406988197882031 0 0.2364904061232195 0.31498391792431579 0 0.23940451359905909 0.32551310673867551 0 0.23622877459744171 0.33913648787077721 0 0.24756722879131951 0.36384725225117681 0 0.2566943888525921 0.34309541031675039 0 0.23622877459744171 0.33913648787077721 0 0.24756722879131951 0.36384725225117681 0 0.2215535747901374 0.35515733147853151 0 0.2215535747901374 0.35515733147853151 0 0.22907796411610171 0.37782469252990669 0 0.2086407302624248 0.36358809448412488 0 0.22262154185224611 0.38204007403270301 0 0.22907796411610171 0.37782469252990669 0 0.2215535747901374 0.35515733147853151 0 0.2086407302624248 0.36358809448412488 0 0.22907796411610171 0.37782469252990669 0 0.24756722879131951 0.36384725225117681 0 0.2215535747901374 0.35515733147853151 0 0.22907796411610171 0.37782469252990669 0 0.2086407302624248 0.36358809448412488 0 0.22262154185224611 0.38204007403270301 0 0.2140291854641731 0.33248997042715628 0 0.2215535747901374 0.35515733147853151 0 0.2084580271564701 0.34920400184053441 0 0.2140291854641731 0.33248997042715628 0 0.2215535747901374 0.35515733147853151 0 0.2086407302624248 0.36358809448412488 0 0.2084580271564701 0.34920400184053441 0 0.1946599186726036 0.34513611493554669 0 0.2215535747901374 0.35515733147853151 0 0.2086407302624248 0.36358809448412488 0 0.2084580271564701 0.34920400184053441 0 0.2086407302624248 0.36358809448412488 0 0.1946599186726036 0.34513611493554669 0 0.19485467239542159 0.36823500260723008 0 0.2086407302624248 0.36358809448412488 0 0.1946599186726036 0.34513611493554669 0 0.1946599186726036 0.34513611493554669 0 0.19485467239542159 0.36823500260723008 0 0.17932828013625679 0.36511874158179181 0 0.2086407302624248 0.36358809448412488 0 0.19485467239542159 0.36823500260723008 0 0.20466668274718619 0.3805581052238558 0 0.19485467239542159 0.36823500260723008 0 0.17932828013625679 0.36511874158179181 0 0.1869777501586366 0.38677395681083099 0 0.17932828013625679 0.36511874158179181 0 0.1655859704998649 0.35766546032694918 0 0.16101015146020059 0.37643455482190208 0 0.1655859704998649 0.35766546032694918 0 0.14903839955516679 0.3599873803867254 0 0.16101015146020059 0.37643455482190208 0 0.1655859704998649 0.35766546032694918 0 0.17655709850251919 0.34662732921776918 0 0.16253221612108901 0.33853219385758959 0 0.1655859704998649 0.35766546032694918 0 0.16253221612108901 0.33853219385758959 0 0.14903839955516679 0.3599873803867254 0 0.1946599186726036 0.34513611493554669 0 0.17932828013625679 0.36511874158179181 0 0.17655709850251919 0.34662732921776918 0 0.17932828013625679 0.36511874158179181 0 0.1655859704998649 0.35766546032694918 0 0.17655709850251919 0.34662732921776918 0 0.1946599186726036 0.34513611493554669 0 0.17655709850251919 0.34662732921776918 0 0.1806791070827822 0.32668413538696878 0 0.17655709850251919 0.34662732921776918 0 0.1806791070827822 0.32668413538696878 0 0.16253221612108901 0.33853219385758959 0 0.18620857065481741 0.30088675823383809 0 0.1842071159139039 0.31798349586604457 0 0.17473679000803699 0.31884142093295242 0 0.1806791070827822 0.32668413538696878 0 0.17473679000803699 0.31884142093295242 0 0.16253221612108901 0.33853219385758959 0 0.19359195161049539 0.31825337238137502 0 0.1806791070827822 0.32668413538696878 0 0.19359195161049539 0.31825337238137502 0 0.1842071159139039 0.31798349586604457 0 0.1806791070827822 0.32668413538696878 0 0.1842071159139039 0.31798349586604457 0 0.1806791070827822 0.32668413538696878 0 0.17473679000803699 0.31884142093295242 0 0.1806791070827822 0.32668413538696878 0 0.17473679000803699 0.31884142093295242 0 0.17473679000803699 0.31884142093295242 0 0.15925177598451409 0.31526122434195619 0 0.154747411494913 0.32749815252361408 0 0.1806791070827822 0.32668413538696878 0 0.16253221612108901 0.33853219385758959 0 0.17473679000803699 0.31884142093295242 0 0.16253221612108901 0.33853219385758959 0 0.154747411494913 0.32749815252361408 0 0.17473679000803699 0.31884142093295242 0 0.16253221612108901 0.33853219385758959 0 0.14954572429640189 0.34117346785430308 0 0.1426676441124361 0.3192779029707461 0 0.154747411494913 0.32749815252361408 0 0.14954572429640189 0.34117346785430308 0 0.1426676441124361 0.3192779029707461 0 0.13338943867951261 0.34124659587323058 0 0.14954572429640189 0.34117346785430308 0 0.13338943867951261 0.34124659587323058 0 0.1480819862706067 0.34796671178927557 0 0.16253221612108901 0.33853219385758959 0 0.1480819862706067 0.34796671178927557 0 0.14954572429640189 0.34117346785430308 0 0.1426676441124361 0.3192779029707461 0 0.16253221612108901 0.33853219385758959 0 0.14954572429640189 0.34117346785430308 0 0.1480819862706067 0.34796671178927557 0 0.16253221612108901 0.33853219385758959 0 0.14954572429640189 0.34117346785430308 0 0.154747411494913 0.32749815252361408 0 0.15925177598451409 0.31526122434195619 0 0.1426676441124361 0.3192779029707461 0 0.154747411494913 0.32749815252361408 0 0.1204364392737808 0.31533819529737639 0 0.1426676441124361 0.3192779029707461 0 0.13338943867951261 0.34124659587323058 0 0.1225259631229768 0.35077141290914382 0 0.13363175642012401 0.35740122972096122 0 0.1282672931007196 0.36992481296954699 0 0.1225259631229768 0.35077141290914382 0 0.13338943867951261 0.34124659587323058 0 0.13363175642012401 0.35740122972096122 0 0.13338943867951261 0.34124659587323058 0 0.13363175642012401 0.35740122972096122 0 0.1480819862706067 0.34796671178927557 0 0.1282672931007196 0.36992481296954699 0 0.14903839955516679 0.3599873803867254 0 0.13554458298924499 0.38144256691586143 0 0.13363175642012401 0.35740122972096122 0 0.1282672931007196 0.36992481296954699 0 0.14903839955516679 0.3599873803867254 0 0.14903839955516679 0.3599873803867254 0 0.13554458298924499 0.38144256691586143 0 0.14903839955516679 0.3599873803867254 0 0.13554458298924499 0.38144256691586143 0 0.16101015146020059 0.37643455482190208 0 0.16253221612108901 0.33853219385758959 0 0.14903839955516679 0.3599873803867254 0 0.16253221612108901 0.33853219385758959 0 0.14903839955516679 0.3599873803867254 0 0.1480819862706067 0.34796671178927557 0 0.13363175642012401 0.35740122972096122 0 0.1480819862706067 0.34796671178927557 0 0.13363175642012401 0.35740122972096122 0 0.14903839955516679 0.3599873803867254 0 0.1480819862706067 0.34796671178927557 0 0.1552846925571259 0.40388960448944489 0 0.15326086872449171 0.38686612787854152 0 0.13911181571261139 0.40143732375907321 0 0.15326086872449171 0.38686612787854152 0 0.13554458298924499 0.38144256691586143 0 0.16101015146020059 0.37643455482190208 0 0.15326086872449171 0.38686612787854152 0 0.13554458298924499 0.38144256691586143 0 0.15326086872449171 0.38686612787854152 0 0.13554458298924499 0.38144256691586143 0 0.13911181571261139 0.40143732375907321 0 0.11578945998054251 0.37539484813529278 0 0.13554458298924499 0.38144256691586143 0 0.11578945998054251 0.37539484813529278 0 0.1282672931007196 0.36992481296954699 0 0.13554458298924499 0.38144256691586143 0 0.1195447965218919 0.40688224896625752 0 0.13554458298924499 0.38144256691586143 0 0.1195447965218919 0.40688224896625752 0 0.13554458298924499 0.38144256691586143 0 0.13911181571261139 0.40143732375907321 0 0.1195447965218919 0.40688224896625752 0 0.13911181571261139 0.40143732375907321 0 0.1431513799169398 0.4229464699018019 0 0.1195447965218919 0.40688224896625752 0 0.1431513799169398 0.4229464699018019 0 0.1258579131830555 0.44304162323779539 0 0.1431513799169398 0.4229464699018019 0 0.14487896271315359 0.44356891362373579 0 0.1258579131830555 0.44304162323779539 0 0.1431513799169398 0.4229464699018019 0 0.16143898529876591 0.43807397949185028 0 0.14487896271315359 0.44356891362373579 0 0.1552846925571259 0.40388960448944489 0 0.13911181571261139 0.40143732375907321 0 0.1431513799169398 0.4229464699018019 0 0.1552846925571259 0.40388960448944489 0 0.1431513799169398 0.4229464699018019 0 0.16992224397184841 0.41590841206658569 0 0.1431513799169398 0.4229464699018019 0 0.16992224397184841 0.41590841206658569 0 0.1431513799169398 0.4229464699018019 0 0.16992224397184841 0.41590841206658569 0 0.16143898529876591 0.43807397949185028 0 0.16992224397184841 0.41590841206658569 0 0.17707836926379261 0.43637848671726642 0 0.16143898529876591 0.43807397949185028 0 0.16992224397184841 0.41590841206658569 0 0.17707836926379261 0.43637848671726642 0 0.19218920357034519 0.42976322455763061 0 0.16992224397184841 0.41590841206658569 0 0.1966931080267571 0.40887035423136958 0 0.19218920357034519 0.42976322455763061 0 0.16992224397184841 0.41590841206658569 0 0.1966931080267571 0.40887035423136958 0 0.16992224397184841 0.41590841206658569 0 0.18171654467736151 0.40115480575478951 0 0.1966931080267571 0.40887035423136958 0 0.18171654467736151 0.40115480575478951 0 0.17097715445973821 0.39228968884122228 0 0.1869777501586366 0.38677395681083099 0 0.16992224397184841 0.41590841206658569 0 0.18171654467736151 0.40115480575478951 0 0.17097715445973821 0.39228968884122228 0 0.1552846925571259 0.40388960448944489 0 0.15326086872449171 0.38686612787854152 0 0.17097715445973821 0.39228968884122228 0 0.1552846925571259 0.40388960448944489 0 0.16992224397184841 0.41590841206658569 0 0.17097715445973821 0.39228968884122228 0 0.15326086872449171 0.38686612787854152 0 0.17097715445973821 0.39228968884122228 0 0.15326086872449171 0.38686612787854152 0 0.17097715445973821 0.39228968884122228 0 0.16101015146020059 0.37643455482190208 0 0.17932828013625679 0.36511874158179181 0 0.16101015146020059 0.37643455482190208 0 0.1869777501586366 0.38677395681083099 0 0.16101015146020059 0.37643455482190208 0 0.1869777501586366 0.38677395681083099 0 0.17097715445973821 0.39228968884122228 0 0.16101015146020059 0.37643455482190208 0 0.1869777501586366 0.38677395681083099 0 0.1869777501586366 0.38677395681083099 0 0.21294534885707261 0.39711335879975979 0 0.20466668274718619 0.3805581052238558 0 0.19485467239542159 0.36823500260723008 0 0.1869777501586366 0.38677395681083099 0 0.20466668274718619 0.3805581052238558 0 0.1869777501586366 0.38677395681083099 0 0.21294534885707261 0.39711335879975979 0 0.1966931080267571 0.40887035423136958 0 0.18171654467736151 0.40115480575478951 0 0.1869777501586366 0.38677395681083099 0 0.1966931080267571 0.40887035423136958 0 0.1869777501586366 0.38677395681083099 0 0.21294534885707261 0.39711335879975979 0 0.21294534885707261 0.39711335879975979 0 0.22364639213284579 0.40137414507476532 0 0.1966931080267571 0.40887035423136958 0 0.22364639213284579 0.40137414507476532 0 0.1966931080267571 0.40887035423136958 0 0.21294534885707261 0.39711335879975979 0 0.22364639213284579 0.40137414507476532 0 0.2086407302624248 0.36358809448412488 0 0.20466668274718619 0.3805581052238558 0 0.22262154185224611 0.38204007403270301 0 0.21294534885707261 0.39711335879975979 0 0.20466668274718619 0.3805581052238558 0 0.22262154185224611 0.38204007403270301 0 0.22907796411610171 0.37782469252990669 0 0.2366023534420667 0.40049205358128159 0 0.22262154185224611 0.38204007403270301 0 0.22907796411610171 0.37782469252990669 0 0.2366023534420667 0.40049205358128159 0 0.21294534885707261 0.39711335879975979 0 0.22364639213284579 0.40137414507476532 0 0.2366023534420667 0.40049205358128159 0 0.21294534885707261 0.39711335879975979 0 0.22262154185224611 0.38204007403270301 0 0.2366023534420667 0.40049205358128159 0 0.22262154185224611 0.38204007403270301 0 0.2366023534420667 0.40049205358128159 0 0.22364639213284579 0.40137414507476532 0 0.2366023534420667 0.40049205358128159 0 0.23891294755550849 0.40745276078868892 0 0.22364639213284579 0.40137414507476532 0 0.23891294755550849 0.40745276078868892 0 0.2366023534420667 0.40049205358128159 0 0.2444979203763154 0.40124306658686809 0 0.2450891445124542 0.38754181561479412 0 0.2366023534420667 0.40049205358128159 0 0.2444979203763154 0.40124306658686809 0 0.23891294755550849 0.40745276078868892 0 0.2366023534420667 0.40049205358128159 0 0.23891294755550849 0.40745276078868892 0 0.2444979203763154 0.40124306658686809 0 0.2450891445124542 0.38754181561479412 0 0.25383941740522098 0.39685762322440987 0 0.22907796411610171 0.37782469252990669 0 0.2366023534420667 0.40049205358128159 0 0.2450891445124542 0.38754181561479412 0 0.24756722879131951 0.36384725225117681 0 0.22907796411610171 0.37782469252990669 0 0.2450891445124542 0.38754181561479412 0 0.24640823792313221 0.43003246069357831 0 0.23325956907393761 0.42283680696301851 0 0.2316965265501473 0.43861371523088238 0 0.2444979203763154 0.40124306658686809 0 0.23891294755550849 0.40745276078868892 0 0.25551898671756579 0.41406471271903039 0 0.24640823792313221 0.43003246069357831 0 0.23891294755550849 0.40745276078868892 0 0.24858998115209899 0.41729740375224478 0 0.23891294755550849 0.40745276078868892 0 0.25551898671756579 0.41406471271903039 0 0.24640823792313221 0.43003246069357831 0 0.24858998115209899 0.41729740375224478 0 0.23891294755550849 0.40745276078868892 0 0.23891294755550849 0.40745276078868892 0 0.25551898671756579 0.41406471271903039 0 0.24640823792313221 0.43003246069357831 0 0.23891294755550849 0.40745276078868892 0 0.23325956907393761 0.42283680696301851 0 0.23891294755550849 0.40745276078868892 0 0.22707444907527599 0.41456985586514139 0 0.23325956907393761 0.42283680696301851 0 0.22707444907527599 0.41456985586514139 0 0.22220568426562429 0.42351524223680109 0 0.23325956907393761 0.42283680696301851 0 0.22364639213284579 0.40137414507476532 0 0.23891294755550849 0.40745276078868892 0 0.22707444907527599 0.41456985586514139 0 0.22364639213284579 0.40137414507476532 0 0.22707444907527599 0.41456985586514139 0 0.2152567583660365 0.41396964022575961 0 0.22707444907527599 0.41456985586514139 0 0.22220568426562429 0.42351524223680109 0 0.2152567583660365 0.41396964022575961 0 0.22220568426562429 0.42351524223680109 0 0.21206174219153379 0.43737867144213233 0 0.2316965265501473 0.43861371523088238 0 0.22220568426562429 0.42351524223680109 0 0.23325956907393761 0.42283680696301851 0 0.2316965265501473 0.43861371523088238 0 0.22220568426562429 0.42351524223680109 0 0.2059165796190956 0.42417255582712782 0 0.21206174219153379 0.43737867144213233 0 0.2059165796190956 0.42417255582712782 0 0.21206174219153379 0.43737867144213233 0 0.19218920357034519 0.42976322455763061 0 0.2059165796190956 0.42417255582712782 0 0.2152567583660365 0.41396964022575961 0 0.1966931080267571 0.40887035423136958 0 0.22364639213284579 0.40137414507476532 0 0.2152567583660365 0.41396964022575961 0 0.1966931080267571 0.40887035423136958 0 0.22220568426562429 0.42351524223680109 0 0.2059165796190956 0.42417255582712782 0 0.2152567583660365 0.41396964022575961 0 0.2059165796190956 0.42417255582712782 0 0.1966931080267571 0.40887035423136958 0 0.19218920357034519 0.42976322455763061 0 0.17707836926379261 0.43637848671726642 0 0.19218920357034519 0.42976322455763061 0 0.19330560423771909 0.44579201862521911 0 0.21206174219153379 0.43737867144213233 0 0.19218920357034519 0.42976322455763061 0 0.19330560423771909 0.44579201862521911 0 0.18956250851836171 0.46755864618641563 0 0.2067530535729353 0.45819673326341248 0 0.20134348333696089 0.47199857267358691 0 0.19330560423771909 0.44579201862521911 0 0.18956250851836171 0.46755864618641563 0 0.2067530535729353 0.45819673326341248 0 0.2067530535729353 0.45819673326341248 0 0.21732162935673441 0.47482594082968022 0 0.20134348333696089 0.47199857267358691 0 0.2067530535729353 0.45819673326341248 0 0.22404287847015211 0.45338181130433308 0 0.21732162935673441 0.47482594082968022 0 0.21206174219153379 0.43737867144213233 0 0.19330560423771909 0.44579201862521911 0 0.2067530535729353 0.45819673326341248 0 0.21206174219153379 0.43737867144213233 0 0.2067530535729353 0.45819673326341248 0 0.22404287847015211 0.45338181130433308 0 0.21206174219153379 0.43737867144213233 0 0.2316965265501473 0.43861371523088238 0 0.22404287847015211 0.45338181130433308 0 0.2316965265501473 0.43861371523088238 0 0.22404287847015211 0.45338181130433308 0 0.23590840028059359 0.45018459971275387 0 0.22404287847015211 0.45338181130433308 0 0.24290651681365641 0.46223891124452088 0 0.23590840028059359 0.45018459971275387 0 0.24290651681365641 0.46223891124452088 0 0.21732162935673441 0.47482594082968022 0 0.22404287847015211 0.45338181130433308 0 0.24290651681365641 0.46223891124452088 0 0.21732162935673441 0.47482594082968022 0 0.2449876792884188 0.44650396107127899 0 0.2475583352671977 0.47105780492292471 0 0.24290651681365641 0.46223891124452088 0 0.2449876792884188 0.44650396107127899 0 0.2475583352671977 0.47105780492292471 0 0.2449876792884188 0.44650396107127899 0 0.2475583352671977 0.47105780492292471 0 0.25390352829075608 0.45261216059846759 0 0.24640823792313221 0.43003246069357831 0 0.2449876792884188 0.44650396107127899 0 0.25390352829075608 0.45261216059846759 0 0.24290651681365641 0.46223891124452088 0 0.2449876792884188 0.44650396107127899 0 0.23590840028059359 0.45018459971275387 0 0.24640823792313221 0.43003246069357831 0 0.2316965265501473 0.43861371523088238 0 0.2449876792884188 0.44650396107127899 0 0.2316965265501473 0.43861371523088238 0 0.2449876792884188 0.44650396107127899 0 0.23590840028059359 0.45018459971275387 0 0.2477070287712089 0.50000000000000022 0 0.23769074535275739 0.48395571762861611 0 0.22052197066176951 0.5 0 0.2477070287712089 0.50000000000000022 0 0.23769074535275739 0.48395571762861611 0 0.25012899124597709 0.49561164877457031 0 0.2477070287712089 0.50000000000000022 0 0.25012899124597709 0.49561164877457031 0 0.2477070287712089 0.50000000000000022 0 0.25012899124597709 0.49561164877457031 0 0.25058842812204329 0.49999999999999939 0 0.23769074535275739 0.48395571762861611 0 0.2475583352671977 0.47105780492292471 0 0.25012899124597709 0.49561164877457031 0 0.24290651681365641 0.46223891124452088 0 0.23769074535275739 0.48395571762861611 0 0.2475583352671977 0.47105780492292471 0 0.2475583352671977 0.47105780492292471 0 0.25012899124597709 0.49561164877457031 0 0.24290651681365641 0.46223891124452088 0 0.23769074535275739 0.48395571762861611 0 0.21732162935673441 0.47482594082968022 0 0.23769074535275739 0.48395571762861611 0 0.22052197066176951 0.5 0 0.21732162935673441 0.47482594082968022 0 0.22052197066176951 0.5 0 0.2066170384444643 0.49153393548045848 0 0.19333691255232999 0.5 0 0.22052197066176951 0.5 0 0.2066170384444643 0.49153393548045848 0 0.21732162935673441 0.47482594082968022 0 0.2066170384444643 0.49153393548045848 0 0.21732162935673441 0.47482594082968022 0 0.19173674189981241 0.48741297041483939 0 0.21732162935673441 0.47482594082968022 0 0.20134348333696089 0.47199857267358691 0 0.19173674189981241 0.48741297041483939 0 0.21732162935673441 0.47482594082968022 0 0.19173674189981241 0.48741297041483939 0 0.18956250851836171 0.46755864618641563 0 0.20134348333696089 0.47199857267358691 0 0.19173674189981241 0.48741297041483939 0 0.2066170384444643 0.49153393548045848 0 0.19173674189981241 0.48741297041483939 0 0.19333691255232999 0.5 0 0.19173674189981241 0.48741297041483939 0 0.19333691255232999 0.5 0 0.16615185444289049 0.49999999999999928 0 0.19173674189981241 0.48741297041483939 0 0.16615185444289049 0.49999999999999928 0 0.17924871740497059 0.48239255270082448 0 0.19173674189981241 0.48741297041483939 0 0.16615185444289049 0.49999999999999928 0 0.16615185444289049 0.49999999999999928 0 0.16954376475881799 0.47459859420204281 0 0.1499246315095337 0.48055906523551278 0 0.16615185444289049 0.49999999999999928 0 0.16954376475881799 0.47459859420204281 0 0.17924871740497059 0.48239255270082448 0 0.16954376475881799 0.47459859420204281 0 0.16083956077433459 0.45745959439922279 0 0.1499246315095337 0.48055906523551278 0 0.18956250851836171 0.46755864618641563 0 0.16954376475881799 0.47459859420204281 0 0.17924871740497059 0.48239255270082448 0 0.18956250851836171 0.46755864618641563 0 0.19173674189981241 0.48741297041483939 0 0.17924871740497059 0.48239255270082448 0 0.18956250851836171 0.46755864618641563 0 0.16954376475881799 0.47459859420204281 0 0.1790022440689843 0.45224739404580261 0 0.19330560423771909 0.44579201862521911 0 0.18956250851836171 0.46755864618641563 0 0.1790022440689843 0.45224739404580261 0 0.17707836926379261 0.43637848671726642 0 0.1790022440689843 0.45224739404580261 0 0.16143898529876591 0.43807397949185028 0 0.17707836926379261 0.43637848671726642 0 0.19330560423771909 0.44579201862521911 0 0.1790022440689843 0.45224739404580261 0 0.1790022440689843 0.45224739404580261 0 0.16143898529876591 0.43807397949185028 0 0.16083956077433459 0.45745959439922279 0 0.16954376475881799 0.47459859420204281 0 0.1790022440689843 0.45224739404580261 0 0.16083956077433459 0.45745959439922279 0 0.16083956077433459 0.45745959439922279 0 0.14228269612517469 0.46130378632312807 0 0.14487896271315359 0.44356891362373579 0 0.14228269612517469 0.46130378632312807 0 0.1258579131830555 0.44304162323779539 0 0.12517043028176911 0.47527322341348699 0 0.16083956077433459 0.45745959439922279 0 0.14228269612517469 0.46130378632312807 0 0.1499246315095337 0.48055906523551278 0 0.16143898529876591 0.43807397949185028 0 0.16083956077433459 0.45745959439922279 0 0.14487896271315359 0.44356891362373579 0 0.14228269612517469 0.46130378632312807 0 0.14487896271315359 0.44356891362373579 0 0.1258579131830555 0.44304162323779539 0 0.14228269612517469 0.46130378632312807 0 0.12517043028176911 0.47527322341348699 0 0.1499246315095337 0.48055906523551278 0 0.12517043028176911 0.47527322341348699 0 0.13985894655223399 0.5 0 0.1499246315095337 0.48055906523551278 0 0.1135660386615775 0.5 0 0.12517043028176911 0.47527322341348699 0 0.13985894655223399 0.5 0 0.16615185444289049 0.49999999999999928 0 0.13985894655223399 0.5 0 0.1499246315095337 0.48055906523551278 0 0.35110297705134003 0.47933682074494011 0 0.35799364029680059 0.5 0 0.32915607947431308 0.5 0 0.35110297705134003 0.47933682074494011 0 0.35799364029680059 0.5 0 0.37403712975126852 0.47416619929372961 0 0.35799364029680059 0.5 0 0.37403712975126852 0.47416619929372961 0 0.38683120111928809 0.5 0 0.35110297705134003 0.47933682074494011 0 0.37403712975126852 0.47416619929372961 0 0.3543775807473632 0.45435560875051911 0 0.37403712975126852 0.47416619929372961 0 0.37352615650895737 0.4496494333111688 0 0.3543775807473632 0.45435560875051911 0 0.37352615650895737 0.4496494333111688 0 0.36295949768697539 0.43359328355016957 0 0.38412966039658891 0.43117856677581101 0 0.37352615650895737 0.4496494333111688 0 0.3543775807473632 0.45435560875051911 0 0.36295949768697539 0.43359328355016957 0 0.3543775807473632 0.45435560875051911 0 0.34431657363425061 0.43695487041521253 0 0.36295949768697539 0.43359328355016957 0 0.3543775807473632 0.45435560875051911 0 0.33481951554069611 0.44951218080101529 0 0.34431657363425061 0.43695487041521253 0 0.35110297705134003 0.47933682074494011 0 0.3543775807473632 0.45435560875051911 0 0.331483626440644 0.46987482843339878 0 0.3543775807473632 0.45435560875051911 0 0.33481951554069611 0.44951218080101529 0 0.331483626440644 0.46987482843339878 0 0.33481951554069611 0.44951218080101529 0 0.32569002197864771 0.4328748495097976 0 0.34431657363425061 0.43695487041521253 0 0.30764379173972528 0.45131126955503448 0 0.32569002197864771 0.4328748495097976 0 0.33481951554069611 0.44951218080101529 0 0.30764379173972528 0.45131126955503448 0 0.32569002197864771 0.4328748495097976 0 0.331483626440644 0.46987482843339878 0 0.30953729981116862 0.47947172902315088 0 0.30764379173972528 0.45131126955503448 0 0.33481951554069611 0.44951218080101529 0 0.331483626440644 0.46987482843339878 0 0.30764379173972528 0.45131126955503448 0 0.331483626440644 0.46987482843339878 0 0.32915607947431308 0.5 0 0.30953729981116862 0.47947172902315088 0 0.35110297705134003 0.47933682074494011 0 0.331483626440644 0.46987482843339878 0 0.32915607947431308 0.5 0 0.32915607947431308 0.5 0 0.30031851865182541 0.5 0 0.30953729981116862 0.47947172902315088 0 0.30031851865182541 0.5 0 0.30953729981116862 0.47947172902315088 0 0.28849713381100289 0.48748070565378587 0 0.2895975615008029 0.46974768960027152 0 0.28849713381100289 0.48748070565378587 0 0.2715513312618818 0.48818410964550968 0 0.30953729981116862 0.47947172902315088 0 0.2895975615008029 0.46974768960027152 0 0.28849713381100289 0.48748070565378587 0 0.30031851865182541 0.5 0 0.28849713381100289 0.48748070565378587 0 0.27148095782933751 0.49999999999999839 0 0.26719045599496682 0.49263927435975158 0 0.2715513312618818 0.48818410964550968 0 0.26139881865838011 0.47519186050335699 0 0.28849713381100289 0.48748070565378587 0 0.27148095782933751 0.49999999999999839 0 0.2715513312618818 0.48818410964550968 0 0.27148095782933751 0.49999999999999839 0 0.26719045599496682 0.49263927435975158 0 0.2715513312618818 0.48818410964550968 0 0.27148095782933751 0.49999999999999839 0 0.2715513312618818 0.48818410964550968 0 0.26963383550054648 0.49999999999999789 0 0.27148095782933751 0.49999999999999839 0 0.26719045599496682 0.49263927435975158 0 0.26963383550054648 0.49999999999999789 0 0.26719045599496682 0.49263927435975158 0 0.26719045599496682 0.49263927435975158 0 0.2715513312618818 0.48818410964550968 0 0.2895975615008029 0.46974768960027152 0 0.2715513312618818 0.48818410964550968 0 0.2716458204598341 0.4723191168172286 0 0.2895975615008029 0.46974768960027152 0 0.2715513312618818 0.48818410964550968 0 0.2715513312618818 0.48818410964550968 0 0.2716458204598341 0.4723191168172286 0 0.26139881865838011 0.47519186050335699 0 0.2715513312618818 0.48818410964550968 0 0.2716458204598341 0.4723191168172286 0 0.2475583352671977 0.47105780492292471 0 0.26139881865838011 0.47519186050335699 0 0.25012899124597709 0.49561164877457031 0 0.26719045599496682 0.49263927435975158 0 0.26139881865838011 0.47519186050335699 0 0.26719045599496682 0.49263927435975158 0 0.26139881865838011 0.47519186050335699 0 0.25012899124597709 0.49561164877457031 0 0.26719045599496682 0.49263927435975158 0 0.25012899124597709 0.49561164877457031 0 0.25998551331610481 0.50000000000000122 0 0.26139881865838011 0.47519186050335699 0 0.25012899124597709 0.49561164877457031 0 0.25012899124597709 0.49561164877457031 0 0.25058842812204329 0.49999999999999939 0 0.25998551331610481 0.50000000000000122 0 0.25012899124597709 0.49561164877457031 0 0.25058842812204329 0.49999999999999939 0 0.26963383550054648 0.49999999999999789 0 0.26719045599496682 0.49263927435975158 0 0.25998551331610481 0.50000000000000122 0 0.26719045599496682 0.49263927435975158 0 0.25998551331610481 0.50000000000000122 0 0.24640823792313221 0.43003246069357831 0 0.25390352829075608 0.45261216059846759 0 0.26007955153050127 0.44056735243183498 0 0.24640823792313221 0.43003246069357831 0 0.25390352829075608 0.45261216059846759 0 0.25390352829075608 0.45261216059846759 0 0.26007955153050127 0.44056735243183498 0 0.27174030965778351 0.45645412398894752 0 0.2475583352671977 0.47105780492292471 0 0.26139881865838011 0.47519186050335699 0 0.25390352829075608 0.45261216059846759 0 0.26139881865838011 0.47519186050335699 0 0.25390352829075608 0.45261216059846759 0 0.26139881865838011 0.47519186050335699 0 0.25390352829075608 0.45261216059846759 0 0.27174030965778351 0.45645412398894752 0 0.26139881865838011 0.47519186050335699 0 0.27174030965778351 0.45645412398894752 0 0.2895975615008029 0.46974768960027152 0 0.2716458204598341 0.4723191168172286 0 0.27174030965778351 0.45645412398894752 0 0.2716458204598341 0.4723191168172286 0 0.26139881865838011 0.47519186050335699 0 0.27174030965778351 0.45645412398894752 0 0.2716458204598341 0.4723191168172286 0 0.27174030965778351 0.45645412398894752 0 0.26007955153050127 0.44056735243183498 0 0.27174030965778351 0.45645412398894752 0 0.27184705491087829 0.43853130623258663 0 0.27174030965778351 0.45645412398894752 0 0.27952185381080918 0.44235475243574818 0 0.2829811853875428 0.45555374884966021 0 0.27174030965778351 0.45645412398894752 0 0.27952185381080918 0.44235475243574818 0 0.27174030965778351 0.45645412398894752 0 0.27184705491087829 0.43853130623258663 0 0.27174030965778351 0.45645412398894752 0 0.27184705491087829 0.43853130623258663 0 0.27952185381080918 0.44235475243574818 0 0.27952185381080918 0.44235475243574818 0 0.28980570878586681 0.43755154069433538 0 0.29106501658077538 0.45365842937367351 0 0.28980570878586681 0.43755154069433538 0 0.29106501658077538 0.45365842937367351 0 0.30764379173972528 0.45131126955503448 0 0.27952185381080918 0.44235475243574818 0 0.2829811853875428 0.45555374884966021 0 0.29106501658077538 0.45365842937367351 0 0.2895975615008029 0.46974768960027152 0 0.2829811853875428 0.45555374884966021 0 0.29106501658077538 0.45365842937367351 0 0.2895975615008029 0.46974768960027152 0 0.29106501658077538 0.45365842937367351 0 0.30764379173972528 0.45131126955503448 0 0.2895975615008029 0.46974768960027152 0 0.27174030965778351 0.45645412398894752 0 0.2829811853875428 0.45555374884966021 0 0.30953729981116862 0.47947172902315088 0 0.2895975615008029 0.46974768960027152 0 0.30764379173972528 0.45131126955503448 0 0.2895975615008029 0.46974768960027152 0 0.30764379173972528 0.45131126955503448 0 0.28980570878586681 0.43755154069433538 0 0.30764379173972528 0.45131126955503448 0 0.30298136316484858 0.42959477883683911 0 0.30764379173972528 0.45131126955503448 0 0.30298136316484858 0.42959477883683911 0 0.32569002197864771 0.4328748495097976 0 0.30298136316484858 0.42959477883683911 0 0.29254762074264062 0.41469989532826779 0 0.31643777142412371 0.41340259060595302 0 0.29254762074264062 0.41469989532826779 0 0.28419013955888112 0.42071189948240151 0 0.2904442299131263 0.42544986683389791 0 0.29254762074264062 0.41469989532826779 0 0.28419013955888112 0.42071189948240151 0 0.27794812838648769 0.41372372501156751 0 0.29254762074264062 0.41469989532826779 0 0.27794812838648769 0.41372372501156751 0 0.28095661491746771 0.4021969213294857 0 0.28980570878586681 0.43755154069433538 0 0.30298136316484858 0.42959477883683911 0 0.2904442299131263 0.42544986683389791 0 0.30298136316484858 0.42959477883683911 0 0.29254762074264062 0.41469989532826779 0 0.2904442299131263 0.42544986683389791 0 0.28419013955888112 0.42071189948240151 0 0.2904442299131263 0.42544986683389791 0 0.28417324034756558 0.42760263264534182 0 0.28419013955888112 0.42071189948240151 0 0.28417324034756558 0.42760263264534182 0 0.2775696007426745 0.42284450653654609 0 0.28980570878586681 0.43755154069433538 0 0.2904442299131263 0.42544986683389791 0 0.28417324034756558 0.42760263264534182 0 0.27952185381080918 0.44235475243574818 0 0.28980570878586681 0.43755154069433538 0 0.27885652273727962 0.43145534967952842 0 0.28980570878586681 0.43755154069433538 0 0.28417324034756558 0.42760263264534182 0 0.27885652273727962 0.43145534967952842 0 0.27184705491087829 0.43853130623258663 0 0.27195380016397303 0.42060848847622578 0 0.27184705491087829 0.43853130623258663 0 0.27195380016397303 0.42060848847622578 0 0.25649862686995639 0.42520671064559512 0 0.27184705491087829 0.43853130623258663 0 0.27952185381080918 0.44235475243574818 0 0.27885652273727962 0.43145534967952842 0 0.27184705491087829 0.43853130623258663 0 0.27885652273727962 0.43145534967952842 0 0.27195380016397303 0.42060848847622578 0 0.28417324034756558 0.42760263264534182 0 0.27885652273727962 0.43145534967952842 0 0.2775696007426745 0.42284450653654609 0 0.27885652273727962 0.43145534967952842 0 0.2775696007426745 0.42284450653654609 0 0.27195380016397303 0.42060848847622578 0 0.28419013955888112 0.42071189948240151 0 0.2775696007426745 0.42284450653654609 0 0.27794812838648769 0.41372372501156751 0 0.27187938209517531 0.4064318564689855 0 0.27195380016397303 0.42060848847622578 0 0.25551898671756579 0.41406471271903039 0 0.2775696007426745 0.42284450653654609 0 0.27794812838648769 0.41372372501156751 0 0.27195380016397303 0.42060848847622578 0 0.2775696007426745 0.42284450653654609 0 0.27195380016397303 0.42060848847622578 0 0.27794812838648769 0.41372372501156751 0 0.27187938209517531 0.4064318564689855 0 0.28095661491746771 0.4021969213294857 0 0.27794812838648769 0.41372372501156751 0 0.27187938209517531 0.4064318564689855 0 0.27195380016397303 0.42060848847622578 0 0.27187938209517531 0.4064318564689855 0 0.27195380016397303 0.42060848847622578 0 0.27195380016397303 0.42060848847622578 0 0.25551898671756579 0.41406471271903039 0 0.27187938209517531 0.4064318564689855 0 0.25551898671756579 0.41406471271903039 0 0.27195380016397303 0.42060848847622578 0 0.25551898671756579 0.41406471271903039 0 0.25649862686995639 0.42520671064559512 0 0.24858998115209899 0.41729740375224478 0 0.25551898671756579 0.41406471271903039 0 0.25649862686995639 0.42520671064559512 0 0.24858998115209899 0.41729740375224478 0 0.25551898671756579 0.41406471271903039 0 0.24640823792313221 0.43003246069357831 0 0.24858998115209899 0.41729740375224478 0 0.25649862686995639 0.42520671064559512 0 0.24640823792313221 0.43003246069357831 0 0.26007955153050127 0.44056735243183498 0 0.25649862686995639 0.42520671064559512 0 0.26007955153050127 0.44056735243183498 0 0.27184705491087829 0.43853130623258663 0 0.25649862686995639 0.42520671064559512 0 0.24756722879131951 0.36384725225117681 0 0.2450891445124542 0.38754181561479412 0 0.25915461334665157 0.3838431985849724 0 0.2450891445124542 0.38754181561479412 0 0.25915461334665157 0.3838431985849724 0 0.25383941740522098 0.39685762322440987 0 0.2444979203763154 0.40124306658686809 0 0.25551898671756579 0.41406471271903039 0 0.25383941740522098 0.39685762322440987 0 0.25551898671756579 0.41406471271903039 0 0.25383941740522098 0.39685762322440987 0 0.265454452297397 0.3968559437771777 0 0.27187938209517531 0.4064318564689855 0 0.25551898671756579 0.41406471271903039 0 0.265454452297397 0.3968559437771777 0 0.25915461334665157 0.3838431985849724 0 0.25383941740522098 0.39685762322440987 0 0.265454452297397 0.3968559437771777 0 0.265454452297397 0.3968559437771777 0 0.28095661491746771 0.4021969213294857 0 0.27426160434191937 0.38430425317832428 0 0.28095661491746771 0.4021969213294857 0 0.27426160434191937 0.38430425317832428 0 0.28682594864650862 0.38832493956532838 0 0.27187938209517531 0.4064318564689855 0 0.265454452297397 0.3968559437771777 0 0.28095661491746771 0.4021969213294857 0 0.27187938209517531 0.4064318564689855 0 0.28095661491746771 0.4021969213294857 0 0.25915461334665157 0.3838431985849724 0 0.265454452297397 0.3968559437771777 0 0.27426160434191937 0.38430425317832428 0 0.25915461334665157 0.3838431985849724 0 0.27426160434191937 0.38430425317832428 0 0.26463072724633491 0.36988096284571398 0 0.27426160434191937 0.38430425317832428 0 0.2870912676315428 0.37631344362507102 0 0.27727439191911452 0.36967920214692851 0 0.28682594864650862 0.38832493956532838 0 0.3063942431173689 0.39032912993994012 0 0.27426160434191937 0.38430425317832428 0 0.2870912676315428 0.37631344362507102 0 0.28682594864650862 0.38832493956532838 0 0.2870912676315428 0.37631344362507102 0 0.28682594864650862 0.38832493956532838 0 0.29744408386462812 0.38035570194438412 0 0.2870912676315428 0.37631344362507102 0 0.29744408386462812 0.38035570194438412 0 0.29768385384441531 0.37116643381230968 0 0.29254762074264062 0.41469989532826779 0 0.28095661491746771 0.4021969213294857 0 0.3063942431173689 0.39032912993994012 0 0.28095661491746771 0.4021969213294857 0 0.28682594864650862 0.38832493956532838 0 0.3063942431173689 0.39032912993994012 0 0.28095661491746771 0.4021969213294857 0 0.3063942431173689 0.39032912993994012 0 0.29254762074264062 0.41469989532826779 0 0.3063942431173689 0.39032912993994012 0 0.31643777142412371 0.41340259060595302 0 0.28682594864650862 0.38832493956532838 0 0.29744408386462812 0.38035570194438412 0 0.3063942431173689 0.39032912993994012 0 0.29744408386462812 0.38035570194438412 0 0.30922510608330489 0.37564456277926972 0 0.29768385384441531 0.37116643381230968 0 0.29744408386462812 0.38035570194438412 0 0.3063942431173689 0.39032912993994012 0 0.30922510608330489 0.37564456277926972 0 0.3063942431173689 0.39032912993994012 0 0.31802185205751338 0.38490433026221438 0 0.3063942431173689 0.39032912993994012 0 0.30922510608330489 0.37564456277926972 0 0.31802185205751338 0.38490433026221438 0 0.30922510608330489 0.37564456277926972 0 0.31802185205751338 0.38490433026221438 0 0.32118284240063849 0.37550033505799141 0 0.31802185205751338 0.38490433026221438 0 0.32966678960024942 0.38246504798912662 0 0.33408836278693083 0.3931655696796329 0 0.3063942431173689 0.39032912993994012 0 0.31802185205751338 0.38490433026221438 0 0.33408836278693083 0.3931655696796329 0 0.32118284240063849 0.37550033505799141 0 0.32966678960024942 0.38246504798912662 0 0.33285159249783758 0.37040956630314181 0 0.31802185205751338 0.38490433026221438 0 0.32118284240063849 0.37550033505799141 0 0.32966678960024942 0.38246504798912662 0 0.32966678960024942 0.38246504798912662 0 0.34909284827598042 0.38328304371327959 0 0.33285159249783758 0.37040956630314181 0 0.32966678960024942 0.38246504798912662 0 0.33408836278693083 0.3931655696796329 0 0.34909284827598042 0.38328304371327959 0 0.3063942431173689 0.39032912993994012 0 0.33408836278693083 0.3931655696796329 0 0.31643777142412371 0.41340259060595302 0 0.3063942431173689 0.39032912993994012 0 0.33408836278693083 0.3931655696796329 0 0.30298136316484858 0.42959477883683911 0 0.31643777142412371 0.41340259060595302 0 0.32569002197864771 0.4328748495097976 0 0.32569002197864771 0.4328748495097976 0 0.34373625221757009 0.41443842946456072 0 0.34431657363425061 0.43695487041521253 0 0.32569002197864771 0.4328748495097976 0 0.34373625221757009 0.41443842946456072 0 0.33408836278693083 0.3931655696796329 0 0.31643777142412371 0.41340259060595302 0 0.34373625221757009 0.41443842946456072 0 0.31643777142412371 0.41340259060595302 0 0.32569002197864771 0.4328748495097976 0 0.34373625221757009 0.41443842946456072 0 0.34373625221757009 0.41443842946456072 0 0.36295949768697539 0.43359328355016957 0 0.36765703329215083 0.41417550023012373 0 0.34373625221757009 0.41443842946456072 0 0.36765703329215083 0.41417550023012373 0 0.36178248245649269 0.3960020094193239 0 0.34373625221757009 0.41443842946456072 0 0.34431657363425061 0.43695487041521253 0 0.36295949768697539 0.43359328355016957 0 0.36295949768697539 0.43359328355016957 0 0.36765703329215083 0.41417550023012373 0 0.38412966039658891 0.43117856677581101 0 0.36765703329215083 0.41417550023012373 0 0.36178248245649269 0.3960020094193239 0 0.3770936397415714 0.39757018257312848 0 0.36178248245649269 0.3960020094193239 0 0.37885696005160502 0.37855835294210938 0 0.3770936397415714 0.39757018257312848 0 0.36178248245649269 0.3960020094193239 0 0.3770936397415714 0.39757018257312848 0 0.34909284827598042 0.38328304371327959 0 0.36128056696617089 0.3664750711583421 0 0.37885696005160502 0.37855835294210938 0 0.36178248245649269 0.3960020094193239 0 0.34909284827598042 0.38328304371327959 0 0.37885696005160502 0.37855835294210938 0 0.36178248245649269 0.3960020094193239 0 0.37885696005160502 0.37855835294210938 0 0.33408836278693083 0.3931655696796329 0 0.34373625221757009 0.41443842946456072 0 0.36178248245649269 0.3960020094193239 0 0.33408836278693083 0.3931655696796329 0 0.36178248245649269 0.3960020094193239 0 0.33408836278693083 0.3931655696796329 0 0.36178248245649269 0.3960020094193239 0 0.34909284827598042 0.38328304371327959 0 0.34373625221757009 0.41443842946456072 0 0.36178248245649269 0.3960020094193239 0 0.35515541654457228 0.35111496944161591 0 0.34629399362767832 0.33371553982702062 0 0.33689502423362039 0.35243360320485478 0 0.35515541654457228 0.35111496944161591 0 0.34616640595193771 0.36439150935429321 0 0.33689502423362039 0.35243360320485478 0 0.34909284827598042 0.38328304371327959 0 0.34616640595193771 0.36439150935429321 0 0.36128056696617089 0.3664750711583421 0 0.35515541654457228 0.35111496944161591 0 0.34616640595193771 0.36439150935429321 0 0.36128056696617089 0.3664750711583421 0 0.36128056696617089 0.3664750711583421 0 0.37477864882003298 0.35531329869654638 0 0.37885696005160502 0.37855835294210938 0 0.35515541654457228 0.35111496944161591 0 0.36128056696617089 0.3664750711583421 0 0.37477864882003298 0.35531329869654638 0 0.35515541654457228 0.35111496944161591 0 0.37477864882003298 0.35531329869654638 0 0.36773956904724048 0.33524014793352219 0 0.36773956904724048 0.33524014793352219 0 0.3562210491918692 0.31556842894145198 0 0.36773956904724048 0.33524014793352219 0 0.3562210491918692 0.31556842894145198 0 0.37770196461637651 0.31508206408079309 0 0.3562210491918692 0.31556842894145198 0 0.34629399362767832 0.33371553982702062 0 0.34086272090735659 0.3142405280606213 0 0.35515541654457228 0.35111496944161591 0 0.36773956904724048 0.33524014793352219 0 0.34629399362767832 0.33371553982702062 0 0.36773956904724048 0.33524014793352219 0 0.3562210491918692 0.31556842894145198 0 0.34629399362767832 0.33371553982702062 0 0.34629399362767832 0.33371553982702062 0 0.33081800332176842 0.3249172153324611 0 0.3273844509639372 0.33933485767644062 0 0.34629399362767832 0.33371553982702062 0 0.3273844509639372 0.33933485767644062 0 0.33689502423362039 0.35243360320485478 0 0.34629399362767832 0.33371553982702062 0 0.33081800332176842 0.3249172153324611 0 0.34086272090735659 0.3142405280606213 0 0.33081800332176842 0.3249172153324611 0 0.34086272090735659 0.3142405280606213 0 0.32620522441321642 0.30816561877871468 0 0.3148020186514775 0.3275748176625522 0 0.30740472717326922 0.31265460594837108 0 0.32620522441321642 0.30816561877871468 0 0.33081800332176842 0.3249172153324611 0 0.3148020186514775 0.3275748176625522 0 0.32620522441321642 0.30816561877871468 0 0.3148020186514775 0.3275748176625522 0 0.3273844509639372 0.33933485767644062 0 0.31222918519211479 0.34420346826008658 0 0.33081800332176842 0.3249172153324611 0 0.3148020186514775 0.3275748176625522 0 0.3273844509639372 0.33933485767644062 0 0.32326848075696402 0.35316450177166803 0 0.31694056328007358 0.36349761807898262 0 0.30660765463987721 0.35962935473288699 0 0.32326848075696402 0.35316450177166803 0 0.30660765463987721 0.35962935473288699 0 0.31222918519211479 0.34420346826008658 0 0.3273844509639372 0.33933485767644062 0 0.32326848075696402 0.35316450177166803 0 0.31222918519211479 0.34420346826008658 0 0.32326848075696402 0.35316450177166803 0 0.33689502423362039 0.35243360320485478 0 0.33285159249783758 0.37040956630314181 0 0.3273844509639372 0.33933485767644062 0 0.32326848075696402 0.35316450177166803 0 0.33689502423362039 0.35243360320485478 0 0.34909284827598042 0.38328304371327959 0 0.34616640595193771 0.36439150935429321 0 0.33285159249783758 0.37040956630314181 0 0.34616640595193771 0.36439150935429321 0 0.33689502423362039 0.35243360320485478 0 0.33285159249783758 0.37040956630314181 0 0.32118284240063849 0.37550033505799141 0 0.33285159249783758 0.37040956630314181 0 0.31694056328007358 0.36349761807898262 0 0.32326848075696402 0.35316450177166803 0 0.33285159249783758 0.37040956630314181 0 0.31694056328007358 0.36349761807898262 0 0.30922510608330489 0.37564456277926972 0 0.32118284240063849 0.37550033505799141 0 0.31694056328007358 0.36349761807898262 0 0.30922510608330489 0.37564456277926972 0 0.30660765463987721 0.35962935473288699 0 0.29768385384441531 0.37116643381230968 0 0.30922510608330489 0.37564456277926972 0 0.31694056328007358 0.36349761807898262 0 0.30660765463987721 0.35962935473288699 0 0.30660765463987721 0.35962935473288699 0 0.29768385384441531 0.37116643381230968 0 0.28851209763382901 0.36121990540358279 0 0.30660765463987721 0.35962935473288699 0 0.29839429568843862 0.34850899302430982 0 0.28851209763382901 0.36121990540358279 0 0.30660765463987721 0.35962935473288699 0 0.31222918519211479 0.34420346826008658 0 0.29839429568843862 0.34850899302430982 0 0.29839429568843862 0.34850899302430982 0 0.28315156372127642 0.3442784445882478 0 0.28851209763382901 0.36121990540358279 0 0.2870912676315428 0.37631344362507102 0 0.29768385384441531 0.37116643381230968 0 0.28851209763382901 0.36121990540358279 0 0.2870912676315428 0.37631344362507102 0 0.28851209763382901 0.36121990540358279 0 0.27727439191911452 0.36967920214692851 0 0.28851209763382901 0.36121990540358279 0 0.27727439191911452 0.36967920214692851 0 0.26938813781412407 0.35518388239885218 0 0.27426160434191937 0.38430425317832428 0 0.27727439191911452 0.36967920214692851 0 0.26463072724633491 0.36988096284571398 0 0.27727439191911452 0.36967920214692851 0 0.26938813781412407 0.35518388239885218 0 0.26463072724633491 0.36988096284571398 0 0.28315156372127642 0.3442784445882478 0 0.26938813781412407 0.35518388239885218 0 0.27078321102129138 0.33666519957778052 0 0.28315156372127642 0.3442784445882478 0 0.28851209763382901 0.36121990540358279 0 0.26938813781412407 0.35518388239885218 0 0.26938813781412407 0.35518388239885218 0 0.2566943888525921 0.34309541031675039 0 0.27078321102129138 0.33666519957778052 0 0.24756722879131951 0.36384725225117681 0 0.26938813781412407 0.35518388239885218 0 0.2566943888525921 0.34309541031675039 0 0.24756722879131951 0.36384725225117681 0 0.26938813781412407 0.35518388239885218 0 0.26463072724633491 0.36988096284571398 0 0.24756722879131951 0.36384725225117681 0 0.25915461334665157 0.3838431985849724 0 0.26463072724633491 0.36988096284571398 0 0.2615852169923859 0.32642445405572179 0 0.26016693468637803 0.31105839236356603 0 0.2615852169923859 0.32642445405572179 0 0.27253364639805799 0.32028424391246207 0 0.26016693468637803 0.31105839236356603 0 0.248347667330094 0.31832895252430071 0 0.25235684033986822 0.30987673937372379 0 0.26016693468637803 0.31105839236356603 0 0.248347667330094 0.31832895252430071 0 0.2615852169923859 0.32642445405572179 0 0.26016693468637803 0.31105839236356603 0 0.24963375527312889 0.33043823118468812 0 0.248347667330094 0.31832895252430071 0 0.2615852169923859 0.32642445405572179 0 0.2615852169923859 0.32642445405572179 0 0.2566943888525921 0.34309541031675039 0 0.27078321102129138 0.33666519957778052 0 0.24963375527312889 0.33043823118468812 0 0.2615852169923859 0.32642445405572179 0 0.2566943888525921 0.34309541031675039 0 0.27078321102129138 0.33666519957778052 0 0.27253364639805799 0.32028424391246207 0 0.28301382974147721 0.32758850972714249 0 0.28315156372127642 0.3442784445882478 0 0.27078321102129138 0.33666519957778052 0 0.28301382974147721 0.32758850972714249 0 0.27253364639805799 0.32028424391246207 0 0.28051403691928539 0.31433699012757582 0 0.28301382974147721 0.32758850972714249 0 0.2615852169923859 0.32642445405572179 0 0.27078321102129138 0.33666519957778052 0 0.27253364639805799 0.32028424391246207 0 0.27253364639805799 0.32028424391246207 0 0.27252036136129359 0.30836255861451001 0 0.26016693468637803 0.31105839236356603 0 0.27253364639805799 0.32028424391246207 0 0.28051403691928539 0.31433699012757582 0 0.27252036136129359 0.30836255861451001 0 0.28051403691928539 0.31433699012757582 0 0.28301382974147721 0.32758850972714249 0 0.2917218812684822 0.31449506060001359 0 0.28301382974147721 0.32758850972714249 0 0.2917218812684822 0.31449506060001359 0 0.29850239906009968 0.33154609231916349 0 0.29839429568843862 0.34850899302430982 0 0.28315156372127642 0.3442784445882478 0 0.29850239906009968 0.33154609231916349 0 0.28315156372127642 0.3442784445882478 0 0.28301382974147721 0.32758850972714249 0 0.29850239906009968 0.33154609231916349 0 0.31222918519211479 0.34420346826008658 0 0.29839429568843862 0.34850899302430982 0 0.29850239906009968 0.33154609231916349 0 0.3148020186514775 0.3275748176625522 0 0.31222918519211479 0.34420346826008658 0 0.29850239906009968 0.33154609231916349 0 0.3148020186514775 0.3275748176625522 0 0.29850239906009968 0.33154609231916349 0 0.30740472717326922 0.31265460594837108 0 0.2917218812684822 0.31449506060001359 0 0.29850239906009968 0.33154609231916349 0 0.30740472717326922 0.31265460594837108 0 0.2917218812684822 0.31449506060001359 0 0.30740472717326922 0.31265460594837108 0 0.29756403461020908 0.298349007697985 0 0.30740472717326922 0.31265460594837108 0 0.29756403461020908 0.298349007697985 0 0.3130930792622415 0.29818711427828271 0 0.29756403461020908 0.298349007697985 0 0.30632972317119822 0.28519133470407881 0 0.3130930792622415 0.29818711427828271 0 0.29756403461020908 0.298349007697985 0 0.30632972317119822 0.28519133470407881 0 0.29339654994806391 0.28384672458207783 0 0.29756403461020908 0.298349007697985 0 0.29339654994806391 0.28384672458207783 0 0.28663154796619239 0.293147229410055 0 0.29339654994806391 0.28384672458207783 0 0.28663154796619239 0.293147229410055 0 0.28295274110925261 0.27996895784119358 0 0.28663154796619239 0.293147229410055 0 0.277012538166098 0.28910777363315099 0 0.28295274110925261 0.27996895784119358 0 0.2917218812684822 0.31449506060001359 0 0.29756403461020908 0.298349007697985 0 0.28388405438598951 0.30403573777593668 0 0.29756403461020908 0.298349007697985 0 0.28663154796619239 0.293147229410055 0 0.28388405438598951 0.30403573777593668 0 0.28663154796619239 0.293147229410055 0 0.28388405438598951 0.30403573777593668 0 0.27397408443433519 0.29836392125915068 0 0.28051403691928539 0.31433699012757582 0 0.2917218812684822 0.31449506060001359 0 0.28388405438598951 0.30403573777593668 0 0.28051403691928539 0.31433699012757582 0 0.28388405438598951 0.30403573777593668 0 0.27252036136129359 0.30836255861451001 0 0.27252036136129359 0.30836255861451001 0 0.26016693468637803 0.31105839236356603 0 0.26512275877773422 0.30389932548601217 0 0.27397408443433519 0.29836392125915068 0 0.26512275877773422 0.30389932548601217 0 0.26362202471265522 0.29731170392253298 0 0.27252036136129359 0.30836255861451001 0 0.27397408443433519 0.29836392125915068 0 0.26512275877773422 0.30389932548601217 0 0.28388405438598951 0.30403573777593668 0 0.27252036136129359 0.30836255861451001 0 0.27397408443433519 0.29836392125915068 0 0.277012538166098 0.28910777363315099 0 0.26672225852060039 0.28351242723207859 0 0.28295274110925261 0.27996895784119358 0 0.28663154796619239 0.293147229410055 0 0.27397408443433519 0.29836392125915068 0 0.277012538166098 0.28910777363315099 0 0.277012538166098 0.28910777363315099 0 0.26672225852060039 0.28351242723207859 0 0.26801591164281169 0.29279763134366471 0 0.27397408443433519 0.29836392125915068 0 0.277012538166098 0.28910777363315099 0 0.26801591164281169 0.29279763134366471 0 0.27397408443433519 0.29836392125915068 0 0.26801591164281169 0.29279763134366471 0 0.26362202471265522 0.29731170392253298 0 0.25874865238036959 0.29569233067141032 0 0.25655273391260169 0.27190114431609769 0 0.26672225852060039 0.28351242723207859 0 0.26801591164281169 0.29279763134366471 0 0.25874865238036959 0.29569233067141032 0 0.26672225852060039 0.28351242723207859 0 0.25874865238036959 0.29569233067141032 0 0.25655273391260169 0.27190114431609769 0 0.26801591164281169 0.29279763134366471 0 0.25874865238036959 0.29569233067141032 0 0.26362202471265522 0.29731170392253298 0 0.23964915495670819 0.28934575726620848 0 0.25874865238036959 0.29569233067141032 0 0.25655273391260169 0.27190114431609769 0 0.25874865238036959 0.29569233067141032 0 0.26362202471265522 0.29731170392253298 0 0.2466253946056588 0.30455978760580088 0 0.25874865238036959 0.29569233067141032 0 0.25428736473734181 0.30555982500122769 0 0.25874865238036959 0.29569233067141032 0 0.25428736473734181 0.30555982500122769 0 0.26016693468637803 0.31105839236356603 0 0.2466253946056588 0.30455978760580088 0 0.25235684033986822 0.30987673937372379 0 0.25428736473734181 0.30555982500122769 0 0.25235684033986822 0.30987673937372379 0 0.25428736473734181 0.30555982500122769 0 0.26016693468637803 0.31105839236356603 0 0.25874865238036959 0.29569233067141032 0 0.26016693468637803 0.31105839236356603 0 0.25874865238036959 0.29569233067141032 0 0.26512275877773422 0.30389932548601217 0 0.26362202471265522 0.29731170392253298 0 0.25874865238036959 0.29569233067141032 0 0.26016693468637803 0.31105839236356603 0 0.26512275877773422 0.30389932548601217 0 0.25655273391260169 0.27190114431609769 0 0.26699541301598168 0.25903647783959161 0 0.25435681544483307 0.2481099579607853 0 0.24237654861204971 0.25837027997626749 0 0.25655273391260169 0.27190114431609769 0 0.25435681544483307 0.2481099579607853 0 0.25655273391260169 0.27190114431609769 0 0.25435681544483307 0.2481099579607853 0 0.26699541301598168 0.25903647783959161 0 0.27266650452682639 0.24477938378231609 0 0.25435681544483307 0.2481099579607853 0 0.25655273391260169 0.27190114431609769 0 0.2775022793009071 0.26897873319287158 0 0.26699541301598168 0.25903647783959161 0 0.26672225852060039 0.28351242723207859 0 0.2775022793009071 0.26897873319287158 0 0.28295274110925261 0.27996895784119358 0 0.26672225852060039 0.28351242723207859 0 0.25655273391260169 0.27190114431609769 0 0.2775022793009071 0.26897873319287158 0 0.26699541301598168 0.25903647783959161 0 0.28449420888810989 0.25676903337645263 0 0.27266650452682639 0.24477938378231609 0 0.2775022793009071 0.26897873319287158 0 0.26699541301598168 0.25903647783959161 0 0.28449420888810989 0.25676903337645263 0 0.28449420888810989 0.25676903337645263 0 0.29520990485632098 0.27111799112082391 0 0.30596628249813013 0.25368333874340432 0 0.28449420888810989 0.25676903337645263 0 0.30596628249813013 0.25368333874340432 0 0.28937060934680581 0.24269140785945001 0 0.2775022793009071 0.26897873319287158 0 0.28449420888810989 0.25676903337645263 0 0.29520990485632098 0.27111799112082391 0 0.2775022793009071 0.26897873319287158 0 0.28295274110925261 0.27996895784119358 0 0.29520990485632098 0.27111799112082391 0 0.29339654994806391 0.28384672458207783 0 0.28295274110925261 0.27996895784119358 0 0.29520990485632098 0.27111799112082391 0 0.30632972317119822 0.28519133470407881 0 0.29520990485632098 0.27111799112082391 0 0.31476311552754838 0.27152761588721153 0 0.30632972317119822 0.28519133470407881 0 0.29339654994806391 0.28384672458207783 0 0.29520990485632098 0.27111799112082391 0 0.29520990485632098 0.27111799112082391 0 0.30596628249813013 0.25368333874340432 0 0.31476311552754838 0.27152761588721153 0 0.30596628249813013 0.25368333874340432 0 0.32166548962575542 0.25655327196524152 0 0.31476311552754838 0.27152761588721153 0 0.30596628249813013 0.25368333874340432 0 0.32166548962575542 0.25655327196524152 0 0.31488834249029091 0.24344894755231691 0 0.32166548962575542 0.25655327196524152 0 0.3385387061886081 0.2576031054685507 0 0.32686470914906779 0.24607216482192279 0 0.32166548962575542 0.25655327196524152 0 0.3385387061886081 0.2576031054685507 0 0.33318400948112659 0.27622499095731168 0 0.3385387061886081 0.2576031054685507 0 0.33318400948112659 0.27622499095731168 0 0.35601183046296891 0.27502668799749619 0 0.33318400948112659 0.27622499095731168 0 0.31476311552754838 0.27152761588721153 0 0.32579775481611928 0.29001088342549519 0 0.32166548962575542 0.25655327196524152 0 0.33318400948112659 0.27622499095731168 0 0.31476311552754838 0.27152761588721153 0 0.32166548962575542 0.25655327196524152 0 0.33318400948112659 0.27622499095731168 0 0.30632972317119822 0.28519133470407881 0 0.32579775481611928 0.29001088342549519 0 0.3130930792622415 0.29818711427828271 0 0.30632972317119822 0.28519133470407881 0 0.31476311552754838 0.27152761588721153 0 0.32579775481611928 0.29001088342549519 0 0.30740472717326922 0.31265460594837108 0 0.32620522441321642 0.30816561877871468 0 0.3130930792622415 0.29818711427828271 0 0.32579775481611928 0.29001088342549519 0 0.32620522441321642 0.30816561877871468 0 0.3130930792622415 0.29818711427828271 0 0.32579775481611928 0.29001088342549519 0 0.32620522441321642 0.30816561877871468 0 0.34470252933649792 0.29589670994938189 0 0.34086272090735659 0.3142405280606213 0 0.32620522441321642 0.30816561877871468 0 0.34470252933649792 0.29589670994938189 0 0.33318400948112659 0.27622499095731168 0 0.34470252933649792 0.29589670994938189 0 0.33318400948112659 0.27622499095731168 0 0.32579775481611928 0.29001088342549519 0 0.34470252933649792 0.29589670994938189 0 0.33318400948112659 0.27622499095731168 0 0.34470252933649792 0.29589670994938189 0 0.35601183046296891 0.27502668799749619 0 0.34470252933649792 0.29589670994938189 0 0.36752490150895972 0.29664316550999342 0 0.35601183046296891 0.27502668799749619 0 0.3562210491918692 0.31556842894145198 0 0.34470252933649792 0.29589670994938189 0 0.36752490150895972 0.29664316550999342 0 0.3562210491918692 0.31556842894145198 0 0.34086272090735659 0.3142405280606213 0 0.34470252933649792 0.29589670994938189 0 0.3562210491918692 0.31556842894145198 0 0.34470252933649792 0.29589670994938189 0 0.3562210491918692 0.31556842894145198 0 0.36752490150895972 0.29664316550999342 0 0.37770196461637651 0.31508206408079309 0 0.36752490150895972 0.29664316550999342 0 0.35601183046296891 0.27502668799749619 0 0.38044566682698311 0.27878269248285098 0 0.37385290070494792 0.26012865249644151 0 0.35601183046296891 0.27502668799749619 0 0.38044566682698311 0.27878269248285098 0 0.37385290070494792 0.26012865249644151 0 0.35503702002048859 0.2540130652783073 0 0.35601183046296891 0.27502668799749619 0 0.3385387061886081 0.2576031054685507 0 0.35503702002048859 0.2540130652783073 0 0.35601183046296891 0.27502668799749619 0 0.39255903186386648 0.26691204342241531 0 0.38044566682698311 0.27878269248285098 0 0.40805770255106699 0.28257342468977947 0 0.38044566682698311 0.27878269248285098 0 0.40805770255106699 0.28257342468977947 0 0.39255903186386648 0.26691204342241531 0 0.40805770255106699 0.28257342468977947 0 0.41144509495347348 0.26568222248617512 0 0.41144509495347348 0.26568222248617512 0 0.38899379428286079 0.24739322495682919 0 0.41559125593060858 0.24912957250618531 0 0.39255903186386648 0.26691204342241531 0 0.41144509495347348 0.26568222248617512 0 0.38899379428286079 0.24739322495682919 0 0.41144509495347348 0.26568222248617512 0 0.38899379428286079 0.24739322495682919 0 0.37385290070494792 0.26012865249644151 0 0.39255903186386648 0.26691204342241531 0 0.38899379428286079 0.24739322495682919 0 0.37385290070494792 0.26012865249644151 0 0.39255903186386648 0.26691204342241531 0 0.38044566682698311 0.27878269248285098 0 0.38044566682698311 0.27878269248285098 0 0.3841294460435693 0.30237659848870679 0 0.39648879163172152 0.2942950247984974 0 0.36752490150895972 0.29664316550999342 0 0.38044566682698311 0.27878269248285098 0 0.3841294460435693 0.30237659848870679 0 0.3841294460435693 0.30237659848870679 0 0.39792667063024112 0.3088145248632419 0 0.37770196461637651 0.31508206408079309 0 0.36752490150895972 0.29664316550999342 0 0.3841294460435693 0.30237659848870679 0 0.37770196461637651 0.31508206408079309 0 0.3841294460435693 0.30237659848870679 0 0.39792667063024112 0.3088145248632419 0 0.39648879163172152 0.2942950247984974 0 0.39792667063024112 0.3088145248632419 0 0.39648879163172152 0.2942950247984974 0 0.41188447210674639 0.29892788346790772 0 0.38044566682698311 0.27878269248285098 0 0.39648879163172152 0.2942950247984974 0 0.40805770255106699 0.28257342468977947 0 0.39648879163172152 0.2942950247984974 0 0.40805770255106699 0.28257342468977947 0 0.41188447210674639 0.29892788346790772 0 0.40805770255106699 0.28257342468977947 0 0.41188447210674639 0.29892788346790772 0 0.42436991903013399 0.29429217950729092 0 0.40805770255106699 0.28257342468977947 0 0.43566973827515088 0.28636415689670769 0 0.39792667063024112 0.3088145248632419 0 0.41200620321190079 0.30905263445214548 0 0.41188447210674639 0.29892788346790772 0 0.41188447210674639 0.29892788346790772 0 0.42413627270742832 0.30023609209380769 0 0.42436991903013399 0.29429217950729092 0 0.41188447210674639 0.29892788346790772 0 0.41877122915699933 0.3052688987557427 0 0.42413627270742832 0.30023609209380769 0 0.41200620321190079 0.30905263445214548 0 0.41188447210674639 0.29892788346790772 0 0.41877122915699933 0.3052688987557427 0 0.41877122915699933 0.3052688987557427 0 0.41979131307241291 0.31193954899133791 0 0.42603788468650811 0.3061883347735147 0 0.41200620321190079 0.30905263445214548 0 0.41877122915699933 0.3052688987557427 0 0.41979131307241291 0.31193954899133791 0 0.42725666622258007 0.31133144697000781 0 0.42603788468650811 0.3061883347735147 0 0.43417091513760131 0.30777746479326018 0 0.41979131307241291 0.31193954899133791 0 0.42725666622258007 0.31133144697000781 0 0.42603788468650811 0.3061883347735147 0 0.42603788468650811 0.3061883347735147 0 0.42900986558617848 0.30153087156692038 0 0.42413627270742832 0.30023609209380769 0 0.41877122915699933 0.3052688987557427 0 0.42603788468650811 0.3061883347735147 0 0.42413627270742832 0.30023609209380769 0 0.42900986558617848 0.30153087156692038 0 0.42413627270742832 0.30023609209380769 0 0.42436991903013399 0.29429217950729092 0 0.42900986558617848 0.30153087156692038 0 0.43633433636922081 0.29916028666672828 0 0.43417091513760131 0.30777746479326018 0 0.42900986558617848 0.30153087156692038 0 0.43633433636922081 0.29916028666672828 0 0.42436991903013399 0.29429217950729092 0 0.42603788468650811 0.3061883347735147 0 0.42900986558617848 0.30153087156692038 0 0.43417091513760131 0.30777746479326018 0 0.42725666622258007 0.31133144697000781 0 0.43417091513760131 0.30777746479326018 0 0.43118446769869601 0.31466335148333702 0 0.40805770255106699 0.28257342468977947 0 0.42436991903013399 0.29429217950729092 0 0.43566973827515088 0.28636415689670769 0 0.40805770255106699 0.28257342468977947 0 0.43566973827515088 0.28636415689670769 0 0.42339332177821321 0.27526286068398581 0 0.43633433636922081 0.29916028666672828 0 0.42436991903013399 0.29429217950729092 0 0.43566973827515088 0.28636415689670769 0 0.43566973827515088 0.28636415689670769 0 0.42339332177821321 0.27526286068398581 0 0.4419682697815222 0.25875663085730788 0 0.40805770255106699 0.28257342468977947 0 0.42339332177821321 0.27526286068398581 0 0.41144509495347348 0.26568222248617512 0 0.42339332177821321 0.27526286068398581 0 0.41144509495347348 0.26568222248617512 0 0.4255128489523522 0.25974241898116529 0 0.41144509495347348 0.26568222248617512 0 0.4255128489523522 0.25974241898116529 0 0.41559125593060858 0.24912957250618531 0 0.4255128489523522 0.25974241898116529 0 0.4419682697815222 0.25875663085730788 0 0.42621630301462471 0.23419813018020191 0 0.42339332177821321 0.27526286068398581 0 0.4255128489523522 0.25974241898116529 0 0.4419682697815222 0.25875663085730788 0 0.43566973827515088 0.28636415689670769 0 0.4419682697815222 0.25875663085730788 0 0.43566973827515088 0.28636415689670769 0 0.4419682697815222 0.25875663085730788 0 0.46135801204473509 0.26835131951828062 0 0.46135801204473509 0.26835131951828062 0 0.4773892092864393 0.25382476209635851 0 0.45870782022739159 0.24931750321282031 0 0.4419682697815222 0.25875663085730788 0 0.46135801204473509 0.26835131951828062 0 0.45870782022739159 0.24931750321282031 0 0.46135801204473509 0.26835131951828062 0 0.4773892092864393 0.25382476209635851 0 0.48256988444445548 0.27260298093857299 0 0.46135801204473509 0.26835131951828062 0 0.48256988444445548 0.27260298093857299 0 0.46513976888891351 0.29040996486621329 0 0.48256988444445548 0.27260298093857299 0 0.5 0.27812307704847877 0 0.49999999999999822 0.25479599701093369 0 0.48256988444445548 0.27260298093857299 0 0.5 0.27812307704847877 0 0.48860059940692407 0.28383904182552627 0 0.48256988444445548 0.27260298093857299 0 0.49999999999999822 0.25479599701093369 0 0.4773892092864393 0.25382476209635851 0 0.48256988444445548 0.27260298093857299 0 0.49999999999999822 0.25479599701093369 0 0.4773892092864393 0.25382476209635851 0 0.49999999999999822 0.25479599701093369 0 0.48900449778462368 0.2470959262234203 0 0.48503153830757462 0.30863900732465671 0 0.5 0.30145015708602391 0 0.4790808143885133 0.29232386830678758 0 0.48503153830757462 0.30863900732465671 0 0.5 0.30145015708602391 0 0.5 0.32477723712356898 0 0.5 0.27812307704847877 0 0.5 0.30145015708602391 0 0.48860059940692407 0.28383904182552627 0 0.5 0.30145015708602391 0 0.48860059940692407 0.28383904182552627 0 0.4790808143885133 0.29232386830678758 0 0.48256988444445548 0.27260298093857299 0 0.48860059940692407 0.28383904182552627 0 0.4790808143885133 0.29232386830678758 0 0.48256988444445548 0.27260298093857299 0 0.4790808143885133 0.29232386830678758 0 0.46513976888891351 0.29040996486621329 0 0.48256988444445548 0.27260298093857299 0 0.46513976888891351 0.29040996486621329 0 0.4790808143885133 0.29232386830678758 0 0.46821009019310539 0.30661141618089832 0 0.46513976888891351 0.29040996486621329 0 0.4790808143885133 0.29232386830678758 0 0.46513976888891351 0.29040996486621329 0 0.48503153830757462 0.30863900732465671 0 0.4790808143885133 0.29232386830678758 0 0.46821009019310539 0.30661141618089832 0 0.48503153830757462 0.30863900732465671 0 0.46821009019310539 0.30661141618089832 0 0.47375720294860107 0.31986971892853933 0 0.46821009019310539 0.30661141618089832 0 0.45005158825656399 0.30582437730435458 0 0.45574608277674311 0.32505798448625722 0 0.46821009019310539 0.30661141618089832 0 0.46513976888891351 0.29040996486621329 0 0.45005158825656399 0.30582437730435458 0 0.46513976888891351 0.29040996486621329 0 0.45005158825656399 0.30582437730435458 0 0.43566973827515088 0.28636415689670769 0 0.46135801204473509 0.26835131951828062 0 0.46513976888891351 0.29040996486621329 0 0.43566973827515088 0.28636415689670769 0 0.46513976888891351 0.29040996486621329 0 0.45005158825656399 0.30582437730435458 0 0.43566973827515088 0.28636415689670769 0 0.46513976888891351 0.29040996486621329 0 0.43633433636922081 0.29916028666672828 0 0.43417091513760131 0.30777746479326018 0 0.45005158825656399 0.30582437730435458 0 0.43417091513760131 0.30777746479326018 0 0.45005158825656399 0.30582437730435458 0 0.43496340762421681 0.32123878974249842 0 0.43633433636922081 0.29916028666672828 0 0.43566973827515088 0.28636415689670769 0 0.45005158825656399 0.30582437730435458 0 0.45005158825656399 0.30582437730435458 0 0.45574608277674311 0.32505798448625722 0 0.43496340762421681 0.32123878974249842 0 0.45005158825656399 0.30582437730435458 0 0.43496340762421681 0.32123878974249842 0 0.45574608277674311 0.32505798448625722 0 0.44890678538646372 0.34550057251924338 0 0.43496340762421681 0.32123878974249842 0 0.44890678538646372 0.34550057251924338 0 0.43496340762421681 0.32123878974249842 0 0.44890678538646372 0.34550057251924338 0 0.43767682045278261 0.34492828593978703 0 0.43496340762421681 0.32123878974249842 0 0.45574608277674311 0.32505798448625722 0 0.47445339269323122 0.34680244484017791 0 0.44890678538646372 0.34550057251924338 0 0.45574608277674311 0.32505798448625722 0 0.47375720294860107 0.31986971892853933 0 0.47445339269323122 0.34680244484017791 0 0.46821009019310539 0.30661141618089832 0 0.45574608277674311 0.32505798448625722 0 0.47375720294860107 0.31986971892853933 0 0.48503153830757462 0.30863900732465671 0 0.47375720294860107 0.31986971892853933 0 0.48600465377661128 0.33045772317780447 0 0.47375720294860107 0.31986971892853933 0 0.48600465377661128 0.33045772317780447 0 0.47445339269323122 0.34680244484017791 0 0.48600465377661128 0.33045772317780447 0 0.49999999999999839 0.34810431716111401 0 0.47445339269323122 0.34680244484017791 0 0.48600465377661128 0.33045772317780447 0 0.5 0.32477723712356898 0 0.49999999999999839 0.34810431716111401 0 0.48503153830757462 0.30863900732465671 0 0.48600465377661128 0.33045772317780447 0 0.5 0.32477723712356898 0 0.49999999999999839 0.34810431716111401 0 0.48211737488526141 0.36589124629838232 0 0.5 0.37687083987176467 0 0.49999999999999839 0.34810431716111401 0 0.47445339269323122 0.34680244484017791 0 0.48211737488526141 0.36589124629838232 0 0.49999999999999839 0.34810431716111401 0 0.47445339269323122 0.34680244484017791 0 0.48211737488526141 0.36589124629838232 0 0.46168008903984681 0.36772640071269952 0 0.4744533926932305 0.38995222890615522 0 0.47445339269323122 0.34680244484017791 0 0.48211737488526141 0.36589124629838232 0 0.46168008903984681 0.36772640071269952 0 0.46168008903984681 0.36772640071269952 0 0.44890678538646372 0.34550057251924338 0 0.47445339269323122 0.34680244484017791 0 0.46168008903984681 0.36772640071269952 0 0.44890678538646372 0.34550057251924338 0 0.47445339269323122 0.34680244484017791 0 0.44890678538646372 0.34550057251924338 0 0.43767682045278261 0.34492828593978703 0 0.44779056125279421 0.36811767582096422 0 0.43547656182120681 0.36074643631243852 0 0.44890678538646372 0.34550057251924338 0 0.43767682045278261 0.34492828593978703 0 0.44779056125279421 0.36811767582096422 0 0.43767682045278261 0.34492828593978703 0 0.44779056125279421 0.36811767582096422 0 0.44890678538646372 0.34550057251924338 0 0.43767682045278261 0.34492828593978703 0 0.46168008903984681 0.36772640071269952 0 0.44890678538646372 0.34550057251924338 0 0.44779056125279421 0.36811767582096422 0 0.44779056125279421 0.36811767582096422 0 0.43559017737992622 0.37296445495002789 0 0.43547656182120681 0.36074643631243852 0 0.43559017737992622 0.37296445495002789 0 0.43547656182120681 0.36074643631243852 0 0.42609647118864541 0.36447844546656849 0 0.43547656182120681 0.36074643631243852 0 0.42609647118864541 0.36447844546656849 0 0.4251810742647168 0.35429807494202098 0 0.43559017737992622 0.37296445495002789 0 0.42609647118864541 0.36447844546656849 0 0.42678753511665052 0.37604082488216611 0 0.42609647118864541 0.36447844546656849 0 0.41326865945053731 0.37167090891251808 0 0.42678753511665052 0.37604082488216611 0 0.41326865945053731 0.37167090891251808 0 0.41439753757581221 0.35865221425442051 0 0.39593143764671762 0.36111469646489491 0 0.42609647118864541 0.36447844546656849 0 0.41326865945053731 0.37167090891251808 0 0.41439753757581221 0.35865221425442051 0 0.41439753757581221 0.35865221425442051 0 0.41300591524182928 0.34367103998767962 0 0.39593143764671762 0.36111469646489491 0 0.41439753757581221 0.35865221425442051 0 0.4251810742647168 0.35429807494202098 0 0.41300591524182928 0.34367103998767962 0 0.43767682045278261 0.34492828593978703 0 0.4251810742647168 0.35429807494202098 0 0.41300591524182928 0.34367103998767962 0 0.43767682045278261 0.34492828593978703 0 0.43547656182120681 0.36074643631243852 0 0.4251810742647168 0.35429807494202098 0 0.43767682045278261 0.34492828593978703 0 0.41300591524182928 0.34367103998767962 0 0.42609647118864541 0.36447844546656849 0 0.41439753757581221 0.35865221425442051 0 0.4251810742647168 0.35429807494202098 0 0.43767682045278261 0.34492828593978703 0 0.42969319538341622 0.32662295282323123 0 0.41300591524182928 0.34367103998767962 0 0.43767682045278261 0.34492828593978703 0 0.43496340762421681 0.32123878974249842 0 0.42969319538341622 0.32662295282323123 0 0.43767682045278261 0.34492828593978703 0 0.42969319538341622 0.32662295282323123 0 0.43417091513760131 0.30777746479326018 0 0.43118446769869601 0.31466335148333702 0 0.43496340762421681 0.32123878974249842 0 0.43118446769869601 0.31466335148333702 0 0.43496340762421681 0.32123878974249842 0 0.42509875051768231 0.31608853480858889 0 0.43118446769869601 0.31466335148333702 0 0.43496340762421681 0.32123878974249842 0 0.43496340762421681 0.32123878974249842 0 0.42969319538341622 0.32662295282323123 0 0.42509875051768231 0.31608853480858889 0 0.43496340762421681 0.32123878974249842 0 0.42969319538341622 0.32662295282323123 0 0.42969319538341622 0.32662295282323123 0 0.42509875051768231 0.31608853480858889 0 0.41944016241142251 0.324290192470293 0 0.42969319538341622 0.32662295282323123 0 0.42509875051768231 0.31608853480858889 0 0.41979131307241291 0.31193954899133791 0 0.42725666622258007 0.31133144697000781 0 0.42509875051768231 0.31608853480858889 0 0.42725666622258007 0.31133144697000781 0 0.43118446769869601 0.31466335148333702 0 0.42509875051768231 0.31608853480858889 0 0.41979131307241291 0.31193954899133791 0 0.41944016241142251 0.324290192470293 0 0.40961163784176913 0.32312888574062498 0 0.41979131307241291 0.31193954899133791 0 0.42509875051768231 0.31608853480858889 0 0.41944016241142251 0.324290192470293 0 0.39792667063024112 0.3088145248632419 0 0.41200620321190079 0.30905263445214548 0 0.40961163784176913 0.32312888574062498 0 0.41200620321190079 0.30905263445214548 0 0.41979131307241291 0.31193954899133791 0 0.40961163784176913 0.32312888574062498 0 0.41944016241142251 0.324290192470293 0 0.40961163784176913 0.32312888574062498 0 0.41300591524182928 0.34367103998767962 0 0.42969319538341622 0.32662295282323123 0 0.41300591524182928 0.34367103998767962 0 0.42969319538341622 0.32662295282323123 0 0.41944016241142251 0.324290192470293 0 0.41300591524182928 0.34367103998767962 0 0.41300591524182928 0.34367103998767962 0 0.3869100726114898 0.34234117826459309 0 0.41300591524182928 0.34367103998767962 0 0.39256055954773361 0.32548199824600499 0 0.3869100726114898 0.34234117826459309 0 0.40961163784176913 0.32312888574062498 0 0.41300591524182928 0.34367103998767962 0 0.39256055954773361 0.32548199824600499 0 0.39792667063024112 0.3088145248632419 0 0.40961163784176913 0.32312888574062498 0 0.39256055954773361 0.32548199824600499 0 0.39792667063024112 0.3088145248632419 0 0.39256055954773361 0.32548199824600499 0 0.37770196461637651 0.31508206408079309 0 0.36773956904724048 0.33524014793352219 0 0.39256055954773361 0.32548199824600499 0 0.37770196461637651 0.31508206408079309 0 0.36773956904724048 0.33524014793352219 0 0.39256055954773361 0.32548199824600499 0 0.3869100726114898 0.34234117826459309 0 0.37477864882003298 0.35531329869654638 0 0.3869100726114898 0.34234117826459309 0 0.39593143764671762 0.36111469646489491 0 0.37477864882003298 0.35531329869654638 0 0.36773956904724048 0.33524014793352219 0 0.3869100726114898 0.34234117826459309 0 0.37477864882003298 0.35531329869654638 0 0.39593143764671762 0.36111469646489491 0 0.37885696005160502 0.37855835294210938 0 0.39593143764671762 0.36111469646489491 0 0.37885696005160502 0.37855835294210938 0 0.39593143764671762 0.36111469646489491 0 0.3993286526139091 0.38279503882665461 0 0.37885696005160502 0.37855835294210938 0 0.41326865945053731 0.37167090891251808 0 0.39593143764671762 0.36111469646489491 0 0.3993286526139091 0.38279503882665461 0 0.41300591524182928 0.34367103998767962 0 0.3869100726114898 0.34234117826459309 0 0.39593143764671762 0.36111469646489491 0 0.41300591524182928 0.34367103998767962 0 0.39593143764671762 0.36111469646489491 0 0.39240479702664999 0.39913835572693313 0 0.3993286526139091 0.38279503882665461 0 0.40854580206929619 0.3956993034933165 0 0.39240479702664999 0.39913835572693313 0 0.40996007647379101 0.41480198438957427 0 0.40854580206929619 0.3956993034933165 0 0.39240479702664999 0.39913835572693313 0 0.3993286526139091 0.38279503882665461 0 0.38658056993712953 0.3893063319410906 0 0.3993286526139091 0.38279503882665461 0 0.37885696005160502 0.37855835294210938 0 0.38658056993712953 0.3893063319410906 0 0.37885696005160502 0.37855835294210938 0 0.38658056993712953 0.3893063319410906 0 0.3770936397415714 0.39757018257312848 0 0.39240479702664999 0.39913835572693313 0 0.38658056993712953 0.3893063319410906 0 0.3770936397415714 0.39757018257312848 0 0.39240479702664999 0.39913835572693313 0 0.3770936397415714 0.39757018257312848 0 0.39240479702664999 0.39913835572693313 0 0.3770936397415714 0.39757018257312848 0 0.38338737442038062 0.41165089208724498 0 0.38338737442038062 0.41165089208724498 0 0.38412966039658891 0.43117856677581101 0 0.39583070172739682 0.42009676379078198 0 0.36765703329215083 0.41417550023012373 0 0.3770936397415714 0.39757018257312848 0 0.38338737442038062 0.41165089208724498 0 0.39240479702664999 0.39913835572693313 0 0.38338737442038062 0.41165089208724498 0 0.39583070172739682 0.42009676379078198 0 0.36765703329215083 0.41417550023012373 0 0.38338737442038062 0.41165089208724498 0 0.38412966039658891 0.43117856677581101 0 0.38412966039658891 0.43117856677581101 0 0.39583070172739682 0.42009676379078198 0 0.40962078461758339 0.43868732015437861 0 0.39583070172739682 0.42009676379078198 0 0.40996007647379101 0.41480198438957427 0 0.40962078461758339 0.43868732015437861 0 0.39240479702664999 0.39913835572693313 0 0.39583070172739682 0.42009676379078198 0 0.40996007647379101 0.41480198438957427 0 0.40996007647379101 0.41480198438957427 0 0.43420250722106762 0.43142211594820651 0 0.40962078461758339 0.43868732015437861 0 0.40996007647379101 0.41480198438957427 0 0.43420250722106762 0.43142211594820651 0 0.40996007647379101 0.41480198438957427 0 0.43659163999383649 0.40682067778851738 0 0.42281597722021352 0.39768245615062492 0 0.40996007647379101 0.41480198438957427 0 0.43420250722106762 0.43142211594820651 0 0.43659163999383649 0.40682067778851738 0 0.43659163999383649 0.40682067778851738 0 0.42281597722021352 0.39768245615062492 0 0.43814744969885278 0.38614599900885288 0 0.40996007647379101 0.41480198438957427 0 0.42281597722021352 0.39768245615062492 0 0.40854580206929619 0.3956993034933165 0 0.42281597722021352 0.39768245615062492 0 0.40854580206929619 0.3956993034933165 0 0.42083491786529098 0.38494431607286289 0 0.41326865945053731 0.37167090891251808 0 0.3993286526139091 0.38279503882665461 0 0.42083491786529098 0.38494431607286289 0 0.3993286526139091 0.38279503882665461 0 0.40854580206929619 0.3956993034933165 0 0.42083491786529098 0.38494431607286289 0 0.41326865945053731 0.37167090891251808 0 0.42083491786529098 0.38494431607286289 0 0.42678753511665052 0.37604082488216611 0 0.42281597722021352 0.39768245615062492 0 0.42083491786529098 0.38494431607286289 0 0.43814744969885278 0.38614599900885288 0 0.42083491786529098 0.38494431607286289 0 0.42678753511665052 0.37604082488216611 0 0.43814744969885278 0.38614599900885288 0 0.43559017737992622 0.37296445495002789 0 0.42678753511665052 0.37604082488216611 0 0.43814744969885278 0.38614599900885288 0 0.44779056125279421 0.36811767582096422 0 0.45790430205280541 0.39130706570214158 0 0.44779056125279421 0.36811767582096422 0 0.43814744969885278 0.38614599900885288 0 0.45790430205280541 0.39130706570214158 0 0.44779056125279421 0.36811767582096422 0 0.43559017737992622 0.37296445495002789 0 0.43814744969885278 0.38614599900885288 0 0.43659163999383649 0.40682067778851738 0 0.43814744969885278 0.38614599900885288 0 0.44640523705968549 0.39788243077319979 0 0.43814744969885278 0.38614599900885288 0 0.44640523705968549 0.39788243077319979 0 0.45790430205280541 0.39130706570214158 0 0.43659163999383649 0.40682067778851738 0 0.44640523705968549 0.39788243077319979 0 0.45297755649324711 0.4072559805932876 0 0.44640523705968549 0.39788243077319979 0 0.45790430205280541 0.39130706570214158 0 0.45297755649324711 0.4072559805932876 0 0.45790430205280541 0.39130706570214158 0 0.46801804285281662 0.41449645558331882 0 0.45790430205280541 0.39130706570214158 0 0.4744533926932305 0.38995222890615522 0 0.46801804285281662 0.41449645558331882 0 0.45790430205280541 0.39130706570214158 0 0.46801804285281662 0.41449645558331882 0 0.45297755649324711 0.4072559805932876 0 0.46168008903984681 0.36772640071269952 0 0.4744533926932305 0.38995222890615522 0 0.46168008903984681 0.36772640071269952 0 0.45790430205280541 0.39130706570214158 0 0.4744533926932305 0.38995222890615522 0 0.46168008903984681 0.36772640071269952 0 0.44779056125279421 0.36811767582096422 0 0.45790430205280541 0.39130706570214158 0 0.4744533926932305 0.38995222890615522 0 0.48722669634661431 0.41217805709961097 0 0.4744533926932305 0.38995222890615522 0 0.48722669634661431 0.41217805709961097 0 0.46801804285281662 0.41449645558331882 0 0.4744533926932305 0.38995222890615522 0 0.5 0.40563736258241562 0 0.5 0.37687083987176467 0 0.4744533926932305 0.38995222890615522 0 0.5 0.40563736258241562 0 0.48722669634661431 0.41217805709961097 0 0.48211737488526141 0.36589124629838232 0 0.4744533926932305 0.38995222890615522 0 0.5 0.37687083987176467 0 0.49999999999999889 0.43440388529306623 0 0.48722669634661431 0.41217805709961097 0 0.49999999999999889 0.43440388529306623 0 0.48722669634661431 0.41217805709961097 0 0.48352927975318932 0.4282912524675912 0 0.49999999999999889 0.43440388529306623 0 0.48352927975318932 0.4282912524675912 0 0.48403743182842529 0.44553228415588059 0 0.5 0.40563736258241562 0 0.49999999999999889 0.43440388529306623 0 0.48722669634661431 0.41217805709961097 0 0.48722669634661431 0.41217805709961097 0 0.48352927975318932 0.4282912524675912 0 0.46801804285281662 0.41449645558331882 0 0.48352927975318932 0.4282912524675912 0 0.47071567412918702 0.43542482589546361 0 0.46801804285281662 0.41449645558331882 0 0.48352927975318932 0.4282912524675912 0 0.47071567412918702 0.43542482589546361 0 0.48403743182842529 0.44553228415588059 0 0.47071567412918702 0.43542482589546361 0 0.45349172644308322 0.42391038388593871 0 0.4584449379683444 0.44804224750683819 0 0.47071567412918702 0.43542482589546361 0 0.45349172644308322 0.42391038388593871 0 0.46801804285281662 0.41449645558331882 0 0.45349172644308322 0.42391038388593871 0 0.46801804285281662 0.41449645558331882 0 0.45297755649324711 0.4072559805932876 0 0.43420250722106762 0.43142211594820651 0 0.43659163999383649 0.40682067778851738 0 0.45349172644308322 0.42391038388593871 0 0.43659163999383649 0.40682067778851738 0 0.45349172644308322 0.42391038388593871 0 0.45297755649324711 0.4072559805932876 0 0.43420250722106762 0.43142211594820651 0 0.45349172644308322 0.42391038388593871 0 0.4584449379683444 0.44804224750683819 0 0.43420250722106762 0.43142211594820651 0 0.4584449379683444 0.44804224750683819 0 0.43420250722106762 0.43142211594820651 0 0.44416906266739842 0.46272145951029059 0 0.4584449379683444 0.44804224750683819 0 0.44416906266739842 0.46272145951029059 0 0.4584449379683444 0.44804224750683819 0 0.4584449379683444 0.44804224750683819 0 0.48018043947426681 0.46294367790741298 0 0.46209169765254288 0.476291706115332 0 0.44416906266739842 0.46272145951029059 0 0.4584449379683444 0.44804224750683819 0 0.46209169765254288 0.476291706115332 0 0.47071567412918702 0.43542482589546361 0 0.4584449379683444 0.44804224750683819 0 0.47071567412918702 0.43542482589546361 0 0.4584449379683444 0.44804224750683819 0 0.48403743182842529 0.44553228415588059 0 0.4584449379683444 0.44804224750683819 0 0.48403743182842529 0.44553228415588059 0 0.48018043947426681 0.46294367790741298 0 0.4584449379683444 0.44804224750683819 0 0.48018043947426681 0.46294367790741298 0 0.48018043947426681 0.46294367790741298 0 0.5 0.46354650622918242 0 0.48290505970178971 0.47836311619997529 0 0.48403743182842529 0.44553228415588059 0 0.48018043947426681 0.46294367790741298 0 0.5 0.46354650622918242 0 0.49999999999999889 0.43440388529306623 0 0.48403743182842529 0.44553228415588059 0 0.5 0.46354650622918242 0 0.5 0.5 0 0.47225316138213391 0.49634456358265 0 0.44450632276426322 0.50000000000000044 0 0.50000000000000455 0.49268912716529861 0 0.47225316138213391 0.49634456358265 0 0.50000000000000455 0.49268912716529861 0 0.48290505970178971 0.47836311619997529 0 0.47225316138213391 0.49634456358265 0 0.5 0.5 0 0.50000000000000455 0.49268912716529861 0 0.47225316138213391 0.49634456358265 0 0.5 0.46354650622918242 0 0.50000000000000455 0.49268912716529861 0 0.48290505970178971 0.47836311619997529 0 0.48018043947426681 0.46294367790741298 0 0.48290505970178971 0.47836311619997529 0 0.46209169765254288 0.476291706115332 0 0.48290505970178971 0.47836311619997529 0 0.47225316138213391 0.49634456358265 0 0.46209169765254288 0.476291706115332 0 0.47225316138213391 0.49634456358265 0 0.46209169765254288 0.476291706115332 0 0.44450632276426322 0.50000000000000044 0 0.47225316138213391 0.49634456358265 0 0.44450632276426322 0.50000000000000044 0 0.44416906266739842 0.46272145951029059 0 0.46209169765254288 0.476291706115332 0 0.44516506761266428 0.4791034592848416 0 0.44416906266739842 0.46272145951029059 0 0.44516506761266428 0.4791034592848416 0 0.42989318736645249 0.47740067151374321 0 0.46209169765254288 0.476291706115332 0 0.44516506761266428 0.4791034592848416 0 0.44450632276426322 0.50000000000000044 0 0.44516506761266428 0.4791034592848416 0 0.44450632276426322 0.50000000000000044 0 0.42989318736645249 0.47740067151374321 0 0.44450632276426322 0.50000000000000044 0 0.41561731206550662 0.49207988351719578 0 0.42989318736645249 0.47740067151374321 0 0.44450632276426322 0.50000000000000044 0 0.4156687619417756 0.5 0 0.41561731206550662 0.49207988351719578 0 0.41561731206550662 0.49207988351719578 0 0.42989318736645249 0.47740067151374321 0 0.41561731206550662 0.49207988351719578 0 0.4164449967846372 0.47840056862047903 0 0.39846223394157959 0.48600121434404192 0 0.4156687619417756 0.5 0 0.41561731206550662 0.49207988351719578 0 0.39846223394157959 0.48600121434404192 0 0.4164449967846372 0.47840056862047903 0 0.40818652818443812 0.46773808926864657 0 0.39846223394157959 0.48600121434404192 0 0.41561731206550662 0.49207988351719578 0 0.4164449967846372 0.47840056862047903 0 0.42989318736645249 0.47740067151374321 0 0.4164449967846372 0.47840056862047903 0 0.42989318736645249 0.47740067151374321 0 0.42170454484851438 0.45888277067896871 0 0.44416906266739842 0.46272145951029059 0 0.42989318736645249 0.47740067151374321 0 0.44416906266739842 0.46272145951029059 0 0.42989318736645249 0.47740067151374321 0 0.42170454484851438 0.45888277067896871 0 0.43420250722106762 0.43142211594820651 0 0.44416906266739842 0.46272145951029059 0 0.42170454484851438 0.45888277067896871 0 0.43420250722106762 0.43142211594820651 0 0.40962078461758339 0.43868732015437861 0 0.42170454484851438 0.45888277067896871 0 0.40962078461758339 0.43868732015437861 0 0.42170454484851438 0.45888277067896871 0 0.40790969290328172 0.45506542207190209 0 0.4164449967846372 0.47840056862047903 0 0.42170454484851438 0.45888277067896871 0 0.40818652818443812 0.46773808926864657 0 0.42170454484851438 0.45888277067896871 0 0.40790969290328172 0.45506542207190209 0 0.40818652818443812 0.46773808926864657 0 0.40790969290328172 0.45506542207190209 0 0.40818652818443812 0.46773808926864657 0 0.39212691396259097 0.45495350818561447 0 0.38412966039658891 0.43117856677581101 0 0.40962078461758339 0.43868732015437861 0 0.39212691396259097 0.45495350818561447 0 0.40962078461758339 0.43868732015437861 0 0.40790969290328172 0.45506542207190209 0 0.39212691396259097 0.45495350818561447 0 0.37352615650895737 0.4496494333111688 0 0.38412966039658891 0.43117856677581101 0 0.39212691396259097 0.45495350818561447 0 0.37403712975126852 0.47416619929372961 0 0.37352615650895737 0.4496494333111688 0 0.39212691396259097 0.45495350818561447 0 0.37403712975126852 0.47416619929372961 0 0.39212691396259097 0.45495350818561447 0 0.39846223394157959 0.48600121434404192 0 0.37403712975126852 0.47416619929372961 0 0.38683120111928809 0.5 0 0.39846223394157959 0.48600121434404192 0 0.4156687619417756 0.5 0 0.38683120111928809 0.5 0 0.39846223394157959 0.48600121434404192 0 0.40818652818443812 0.46773808926864657 0 0.39212691396259097 0.45495350818561447 0 0.39846223394157959 0.48600121434404192 0 0.33029420881882288 0.087732195465149529 0 0.35348348306596222 0.067106762879053289 0 0.33369924176703358 0.061117700755960173 0 0.33029420881882288 0.087732195465149529 0 0.31342769206835941 0.065161132677322292 0 0.33369924176703358 0.061117700755960173 0 0.33029420881882288 0.087732195465149529 0 0.31342769206835941 0.065161132677322292 0 0.33029420881882288 0.087732195465149529 0 0.31342769206835941 0.065161132677322292 0 0.3116932570859075 0.086188613933784838 0 0.33029420881882288 0.087732195465149529 0 0.32439048018018019 0.1061026572791248 0 0.3116932570859075 0.086188613933784838 0 0.32439048018018019 0.1061026572791248 0 0.3116932570859075 0.086188613933784838 0 0.30162023479107519 0.1019020563052714 0 0.32439048018018019 0.1061026572791248 0 0.30162023479107519 0.1019020563052714 0 0.32439048018018019 0.1061026572791248 0 0.32811757756596371 0.1209263192888396 0 0.30759215895168629 0.1178197106880772 0 0.32811757756596371 0.1209263192888396 0 0.30759215895168629 0.1178197106880772 0 0.31441762387405442 0.12784206027677719 0 0.32811757756596371 0.1209263192888396 0 0.34234188430787632 0.1223027054481302 0 0.34716072556928518 0.1103032582529774 0 0.32439048018018019 0.1061026572791248 0 0.32811757756596371 0.1209263192888396 0 0.34716072556928518 0.1103032582529774 0 0.32811757756596371 0.1209263192888396 0 0.34234188430787632 0.1223027054481302 0 0.33592192362080242 0.12892239572034311 0 0.33029420881882288 0.087732195465149529 0 0.34716072556928518 0.1103032582529774 0 0.32439048018018019 0.1061026572791248 0 0.34716072556928518 0.1103032582529774 0 0.33029420881882288 0.087732195465149529 0 0.32439048018018019 0.1061026572791248 0 0.34716072556928518 0.1103032582529774 0 0.33029420881882288 0.087732195465149529 0 0.34716072556928518 0.1103032582529774 0 0.35740970563256103 0.090012514480756867 0 0.34716072556928518 0.1103032582529774 0 0.36133592819916699 0.1129182660824592 0 0.35740970563256103 0.090012514480756867 0 0.36133592819916699 0.1129182660824592 0 0.35740970563256103 0.090012514480756867 0 0.34234188430787632 0.1223027054481302 0 0.34716072556928518 0.1103032582529774 0 0.3548163759371577 0.12054818123804591 0 0.34716072556928518 0.1103032582529774 0 0.3548163759371577 0.12054818123804591 0 0.34716072556928518 0.1103032582529774 0 0.3548163759371577 0.12054818123804591 0 0.36133592819916699 0.1129182660824592 0 0.34716072556928518 0.1103032582529774 0 0.36133592819916699 0.1129182660824592 0 0.36133592819916699 0.1129182660824592 0 0.37247014126068251 0.1246251006265711 0 0.365152973936892 0.13518707536103849 0 0.36133592819916699 0.1129182660824592 0 0.36991294537310099 0.1025604628089055 0 0.37726298488593019 0.11585645180183619 0 0.36133592819916699 0.1129182660824592 0 0.365152973936892 0.13518707536103849 0 0.36133592819916699 0.1129182660824592 0 0.37726298488593019 0.11585645180183619 0 0.36133592819916699 0.1129182660824592 0 0.37247014126068251 0.1246251006265711 0 0.37726298488593019 0.11585645180183619 0 0.3548163759371577 0.12054818123804591 0 0.36133592819916699 0.1129182660824592 0 0.365152973936892 0.13518707536103849 0 0.36133592819916699 0.1129182660824592 0 0.36991294537310099 0.1025604628089055 0 0.35740970563256103 0.090012514480756867 0 0.36991294537310099 0.1025604628089055 0 0.36833574440908268 0.091737787143768623 0 0.35740970563256103 0.090012514480756867 0 0.36991294537310099 0.1025604628089055 0 0.36833574440908268 0.091737787143768623 0 0.37721626601910069 0.096071646977501271 0 0.36833574440908268 0.091737787143768623 0 0.37576215416196801 0.083992335024357823 0 0.37721626601910069 0.096071646977501271 0 0.36833574440908268 0.091737787143768623 0 0.36313425482260447 0.084185006196512313 0 0.37576215416196801 0.083992335024357823 0 0.36313425482260447 0.084185006196512313 0 0.37130064958923908 0.07700426738662966 0 0.37576215416196801 0.083992335024357823 0 0.36833574440908268 0.091737787143768623 0 0.36313425482260447 0.084185006196512313 0 0.35740970563256103 0.090012514480756867 0 0.33029420881882288 0.087732195465149529 0 0.35740970563256103 0.090012514480756867 0 0.35348348306596222 0.067106762879053289 0 0.35740970563256103 0.090012514480756867 0 0.35348348306596222 0.067106762879053289 0 0.36313425482260447 0.084185006196512313 0 0.35740970563256103 0.090012514480756867 0 0.35348348306596222 0.067106762879053289 0 0.36313425482260447 0.084185006196512313 0 0.35348348306596222 0.067106762879053289 0 0.36022990292148732 0.059507590159601553 0 0.36313425482260447 0.084185006196512313 0 0.36809977155078438 0.068823275057174671 0 0.36022990292148732 0.059507590159601553 0 0.36313425482260447 0.084185006196512313 0 0.36022990292148732 0.059507590159601553 0 0.36313425482260447 0.084185006196512313 0 0.37130064958923908 0.07700426738662966 0 0.36809977155078438 0.068823275057174671 0 0.37130064958923908 0.07700426738662966 0 0.36809977155078438 0.068823275057174671 0 0.37820641782159958 0.071016453268473848 0 0.36809977155078438 0.068823275057174671 0 0.37246663029228039 0.059062908495388013 0 0.37820641782159958 0.071016453268473848 0 0.36022990292148732 0.059507590159601553 0 0.36626487714310307 0.050875354729434191 0 0.35732555102037022 0.034830174122690682 0 0.36809977155078438 0.068823275057174671 0 0.37246663029228039 0.059062908495388013 0 0.36022990292148732 0.059507590159601553 0 0.37246663029228039 0.059062908495388013 0 0.36022990292148732 0.059507590159601553 0 0.36626487714310307 0.050875354729434191 0 0.37246663029228039 0.059062908495388013 0 0.36626487714310307 0.050875354729434191 0 0.37224398962557842 0.051829009213322508 0 0.37246663029228039 0.059062908495388013 0 0.37224398962557842 0.051829009213322508 0 0.37940256762744512 0.050063293852370253 0 0.36626487714310307 0.050875354729434191 0 0.37224398962557842 0.051829009213322508 0 0.36958065927037848 0.044161358683195727 0 0.37224398962557842 0.051829009213322508 0 0.36958065927037848 0.044161358683195727 0 0.37940256762744512 0.050063293852370253 0 0.36626487714310307 0.050875354729434191 0 0.36958065927037848 0.044161358683195727 0 0.35732555102037022 0.034830174122690682 0 0.36958065927037848 0.044161358683195727 0 0.37529397556204641 0.038114381301599047 0 0.37940256762744512 0.050063293852370253 0 0.36958065927037848 0.044161358683195727 0 0.36705791452932718 0.036013531037335039 0 0.37529397556204641 0.038114381301599047 0 0.37116260168924731 0.033915444046326862 0 0.37378174681558091 0.02964853611818416 0 0.37529397556204641 0.038114381301599047 0 0.37116260168924731 0.033915444046326862 0 0.36705791452932718 0.036013531037335039 0 0.37529397556204641 0.038114381301599047 0 0.37116260168924731 0.033915444046326862 0 0.36759915938137921 0.031450649657664392 0 0.36705791452932718 0.036013531037335039 0 0.37116260168924731 0.033915444046326862 0 0.36759915938137921 0.031450649657664392 0 0.37378174681558091 0.02964853611818416 0 0.36402114057901791 0.032173081368850338 0 0.36705791452932718 0.036013531037335039 0 0.35732555102037022 0.034830174122690682 0 0.36958065927037848 0.044161358683195727 0 0.36705791452932718 0.036013531037335039 0 0.35732555102037022 0.034830174122690682 0 0.36759915938137921 0.031450649657664392 0 0.36402114057901791 0.032173081368850338 0 0.36705791452932718 0.036013531037335039 0 0.36022990292148732 0.059507590159601553 0 0.35395678620864418 0.039139380331824569 0 0.35732555102037022 0.034830174122690682 0 0.35395678620864418 0.039139380331824569 0 0.352081971080349 0.044277755828445738 0 0.34913099909158618 0.041714183860330302 0 0.35395678620864418 0.039139380331824569 0 0.35732555102037022 0.034830174122690682 0 0.34722029318730491 0.031558608042387318 0 0.35395678620864418 0.039139380331824569 0 0.34722029318730491 0.031558608042387318 0 0.34913099909158618 0.041714183860330302 0 0.352081971080349 0.044277755828445738 0 0.34955726049936398 0.044201011277349558 0 0.34913099909158618 0.041714183860330302 0 0.352081971080349 0.044277755828445738 0 0.34955726049936398 0.044201011277349558 0 0.34955726049936398 0.044201011277349558 0 0.34913099909158618 0.041714183860330302 0 0.35348348306596222 0.067106762879053289 0 0.34955726049936398 0.044201011277349558 0 0.33369924176703358 0.061117700755960173 0 0.35348348306596222 0.067106762879053289 0 0.34955726049936398 0.044201011277349558 0 0.36022990292148732 0.059507590159601553 0 0.35732555102037022 0.034830174122690682 0 0.35348348306596222 0.067106762879053289 0 0.36022990292148732 0.059507590159601553 0 0.34955726049936398 0.044201011277349558 0 0.36022990292148732 0.059507590159601553 0 0.35395678620864418 0.039139380331824569 0 0.352081971080349 0.044277755828445738 0 0.36022990292148732 0.059507590159601553 0 0.352081971080349 0.044277755828445738 0 0.34955726049936398 0.044201011277349558 0 0.35972357636319868 0.001014994291064928 0 0.36657527361723552 0.0066316304337984931 0 0.36127196396234612 0.0098130609559922075 0 0.36657527361723552 0.0066316304337984931 0 0.37542626696592107 0.001506786463406601 0 0.37661767953208142 0.01454533555671802 0 0.36657527361723552 0.0066316304337984931 0 0.37542626696592107 0.001506786463406601 0 0.36566436567187399 -0.0077892248182957324 0 0.36657527361723552 0.0066316304337984931 0 0.36757605381535419 0.01511305904730334 0 0.37661767953208142 0.01454533555671802 0 0.36657527361723552 0.0066316304337984931 0 0.36757605381535419 0.01511305904730334 0 0.36127196396234612 0.0098130609559922075 0 0.36757605381535419 0.01511305904730334 0 0.36127196396234612 0.0098130609559922075 0 0.35806371689668848 0.016152862922014569 0 0.35806371689668848 0.016152862922014569 0 0.37618340284127028 0.02763100061881239 0 0.36757605381535419 0.01511305904730334 0 0.35806371689668848 0.016152862922014569 0 0.37618340284127028 0.02763100061881239 0 0.36410193738499491 0.02639797065771126 0 0.35806371689668848 0.016152862922014569 0 0.37618340284127028 0.02763100061881239 0 0.35732555102037022 0.034830174122690682 0 0.36410193738499491 0.02639797065771126 0 0.35806371689668848 0.016152862922014569 0 0.36757605381535419 0.01511305904730334 0 0.37661767953208142 0.01454533555671802 0 0.37618340284127028 0.02763100061881239 0 0.36759915938137921 0.031450649657664392 0 0.37378174681558091 0.02964853611818416 0 0.36410193738499491 0.02639797065771126 0 0.37378174681558091 0.02964853611818416 0 0.36410193738499491 0.02639797065771126 0 0.37618340284127028 0.02763100061881239 0 0.37378174681558091 0.02964853611818416 0 0.37618340284127028 0.02763100061881239 0 0.36402114057901791 0.032173081368850338 0 0.35732555102037022 0.034830174122690682 0 0.36410193738499491 0.02639797065771126 0 0.36759915938137921 0.031450649657664392 0 0.36402114057901791 0.032173081368850338 0 0.36410193738499491 0.02639797065771126 0 0.35732555102037022 0.034830174122690682 0 0.34882139602353129 0.022528931925856661 0 0.35442119911925313 0.010152758085779701 0 0.35732555102037022 0.034830174122690682 0 0.35806371689668848 0.016152862922014569 0 0.35442119911925313 0.010152758085779701 0 0.35732555102037022 0.034830174122690682 0 0.35442119911925313 0.010152758085779701 0 0.35732555102037022 0.034830174122690682 0 0.34722029318730491 0.031558608042387318 0 0.34882139602353129 0.022528931925856661 0 0.34722029318730491 0.031558608042387318 0 0.34882139602353129 0.022528931925856661 0 0.34137765872061282 0.02279110309808274 0 0.34882139602353129 0.022528931925856661 0 0.34376227807011578 0.01331201628034284 0 0.34137765872061282 0.02279110309808274 0 0.36127196396234612 0.0098130609559922075 0 0.35806371689668848 0.016152862922014569 0 0.35442119911925313 0.010152758085779701 0 0.35442119911925313 0.010152758085779701 0 0.34376227807011578 0.01331201628034284 0 0.34599437775586189 0.0020470163621230781 0 0.34882139602353129 0.022528931925856661 0 0.35442119911925313 0.010152758085779701 0 0.34376227807011578 0.01331201628034284 0 0.35972357636319868 0.001014994291064928 0 0.36127196396234612 0.0098130609559922075 0 0.35442119911925313 0.010152758085779701 0 0.33698201915977682 0.0057542275375357301 0 0.32442839135338958 0.008768584673577157 0 0.33291430651264159 -0.0036579080878239071 0 0.34376227807011578 0.01331201628034284 0 0.34599437775586189 0.0020470163621230781 0 0.33698201915977682 0.0057542275375357301 0 0.34599437775586189 0.0020470163621230781 0 0.33698201915977682 0.0057542275375357301 0 0.34200915790852332 -0.0056609164176762636 0 0.34376227807011578 0.01331201628034284 0 0.33698201915977682 0.0057542275375357301 0 0.33263957741758943 0.01667438963280982 0 0.33698201915977682 0.0057542275375357301 0 0.33263957741758943 0.01667438963280982 0 0.32442839135338958 0.008768584673577157 0 0.33263957741758943 0.01667438963280982 0 0.33254603757323292 0.029227634023540321 0 0.32145677601813122 0.019895378021815211 0 0.33263957741758943 0.01667438963280982 0 0.34137765872061282 0.02279110309808274 0 0.33254603757323292 0.029227634023540321 0 0.34376227807011578 0.01331201628034284 0 0.33263957741758943 0.01667438963280982 0 0.34137765872061282 0.02279110309808274 0 0.34722029318730491 0.031558608042387318 0 0.34137765872061282 0.02279110309808274 0 0.33254603757323292 0.029227634023540321 0 0.33254603757323292 0.029227634023540321 0 0.31355795638377593 0.027997355720234641 0 0.32145677601813122 0.019895378021815211 0 0.31355795638377593 0.027997355720234641 0 0.32145677601813122 0.019895378021815211 0 0.30715572847116152 0.01052503055920586 0 0.32145677601813122 0.019895378021815211 0 0.32442839135338958 0.008768584673577157 0 0.30715572847116152 0.01052503055920586 0 0.32442839135338958 0.008768584673577157 0 0.30715572847116152 0.01052503055920586 0 0.32195886580257599 -0.0033287223728924288 0 0.33263957741758943 0.01667438963280982 0 0.32145677601813122 0.019895378021815211 0 0.32442839135338958 0.008768584673577157 0 0.32442839135338958 0.008768584673577157 0 0.33291430651264159 -0.0036579080878239071 0 0.32195886580257599 -0.0033287223728924288 0 0.34955726049936398 0.044201011277349558 0 0.33369924176703358 0.061117700755960173 0 0.32305921790862951 0.043395540583422133 0 0.34913099909158618 0.041714183860330302 0 0.33254603757323292 0.029227634023540321 0 0.32305921790862951 0.043395540583422133 0 0.34955726049936398 0.044201011277349558 0 0.34913099909158618 0.041714183860330302 0 0.32305921790862951 0.043395540583422133 0 0.34955726049936398 0.044201011277349558 0 0.32305921790862951 0.043395540583422133 0 0.34722029318730491 0.031558608042387318 0 0.34913099909158618 0.041714183860330302 0 0.33254603757323292 0.029227634023540321 0 0.31355795638377593 0.027997355720234641 0 0.32305921790862951 0.043395540583422133 0 0.30201158795404009 0.034828970537977712 0 0.33254603757323292 0.029227634023540321 0 0.31355795638377593 0.027997355720234641 0 0.32305921790862951 0.043395540583422133 0 0.31342769206835941 0.065161132677322292 0 0.33369924176703358 0.061117700755960173 0 0.32305921790862951 0.043395540583422133 0 0.31342769206835941 0.065161132677322292 0 0.32305921790862951 0.043395540583422133 0 0.29656117531789522 0.042590069889495728 0 0.31342769206835941 0.065161132677322292 0 0.29656117531789522 0.042590069889495728 0 0.31342769206835941 0.065161132677322292 0 0.29656117531789522 0.042590069889495728 0 0.28695953494341242 0.061033851531691163 0 0.32305921790862951 0.043395540583422133 0 0.30201158795404009 0.034828970537977712 0 0.29656117531789522 0.042590069889495728 0 0.32305921790862951 0.043395540583422133 0 0.29656117531789522 0.042590069889495728 0 0.30201158795404009 0.034828970537977712 0 0.29462726585991622 0.040002078993222168 0 0.29414710481303741 0.035073758239908978 0 0.30201158795404009 0.034828970537977712 0 0.29656117531789522 0.042590069889495728 0 0.29462726585991622 0.040002078993222168 0 0.29656117531789522 0.042590069889495728 0 0.27849587166182332 0.042040932245762802 0 0.29462726585991622 0.040002078993222168 0 0.28651435499206568 0.035818314750365392 0 0.27849587166182332 0.042040932245762802 0 0.29656117531789522 0.042590069889495728 0 0.29462726585991622 0.040002078993222168 0 0.27849587166182332 0.042040932245762802 0 0.29656117531789522 0.042590069889495728 0 0.29462726585991622 0.040002078993222168 0 0.29462726585991622 0.040002078993222168 0 0.29414710481303741 0.035073758239908978 0 0.28651435499206568 0.035818314750365392 0 0.30201158795404009 0.034828970537977712 0 0.29414710481303741 0.035073758239908978 0 0.29343521044612758 0.029645668678070641 0 0.29414710481303741 0.035073758239908978 0 0.28651435499206568 0.035818314750365392 0 0.29343521044612758 0.029645668678070641 0 0.28513721092327521 0.026794641429411511 0 0.27849587166182332 0.042040932245762802 0 0.28651435499206568 0.035818314750365392 0 0.28513721092327521 0.026794641429411511 0 0.27849587166182332 0.042040932245762802 0 0.29656117531789522 0.042590069889495728 0 0.28695953494341242 0.061033851531691163 0 0.27849587166182332 0.042040932245762802 0 0.30715572847116152 0.01052503055920586 0 0.29177855018472748 0.01154835061306045 0 0.30744806318967782 -0.0048833871531276177 0 0.28638353419584511 0.0066019004253063899 0 0.30744806318967782 -0.0048833871531276177 0 0.30715572847116152 0.01052503055920586 0 0.32195886580257599 -0.0033287223728924288 0 0.30744806318967782 -0.0048833871531276177 0 0.30715572847116152 0.01052503055920586 0 0.29923357036005149 0.01625633273028132 0 0.29177855018472748 0.01154835061306045 0 0.31355795638377593 0.027997355720234641 0 0.30715572847116152 0.01052503055920586 0 0.30160832761921452 0.024179756587000511 0 0.29923357036005149 0.01625633273028132 0 0.30160832761921452 0.024179756587000511 0 0.29434516307788833 0.021540754124114068 0 0.30715572847116152 0.01052503055920586 0 0.29923357036005149 0.01625633273028132 0 0.30160832761921452 0.024179756587000511 0 0.31355795638377593 0.027997355720234641 0 0.30201158795404009 0.034828970537977712 0 0.30160832761921452 0.024179756587000511 0 0.30201158795404009 0.034828970537977712 0 0.30160832761921452 0.024179756587000511 0 0.29343521044612758 0.029645668678070641 0 0.30160832761921452 0.024179756587000511 0 0.29343521044612758 0.029645668678070641 0 0.29434516307788833 0.021540754124114068 0 0.29343521044612758 0.029645668678070641 0 0.28513721092327521 0.026794641429411511 0 0.29434516307788833 0.021540754124114068 0 0.28651435499206568 0.035818314750365392 0 0.29343521044612758 0.029645668678070641 0 0.28513721092327521 0.026794641429411511 0 0.28513721092327521 0.026794641429411511 0 0.29177855018472748 0.01154835061306045 0 0.28087480106622448 0.017715699486297521 0 0.28513721092327521 0.026794641429411511 0 0.29177855018472748 0.01154835061306045 0 0.29923357036005149 0.01625633273028132 0 0.29434516307788833 0.021540754124114068 0 0.29177855018472748 0.01154835061306045 0 0.28513721092327521 0.026794641429411511 0 0.29434516307788833 0.021540754124114068 0 0.29177855018472748 0.01154835061306045 0 0.29177855018472748 0.01154835061306045 0 0.28638353419584511 0.0066019004253063899 0 0.30744806318967782 -0.0048833871531276177 0 0.29177855018472748 0.01154835061306045 0 0.28638353419584511 0.0066019004253063899 0 0.28087480106622448 0.017715699486297521 0 0.28638353419584511 0.0066019004253063899 0 0.26531900520201229 0.018087188003740391 0 0.27000083873318742 -0.00079472129316973726 0 0.28638353419584511 0.0066019004253063899 0 0.28087480106622448 0.017715699486297521 0 0.26531900520201229 0.018087188003740391 0 0.28638353419584511 0.0066019004253063899 0 0.26531900520201229 0.018087188003740391 0 0.27575570482526268 0.025546416959968871 0 0.26000509051672099 0.02755944627107082 0 0.27575570482526268 0.025546416959968871 0 0.26000509051672099 0.02755944627107082 0 0.26531900520201229 0.018087188003740391 0 0.27575570482526268 0.025546416959968871 0 0.26000509051672099 0.02755944627107082 0 0.26642646124747321 0.034091394870227401 0 0.28087480106622448 0.017715699486297521 0 0.27575570482526268 0.025546416959968871 0 0.26531900520201229 0.018087188003740391 0 0.28513721092327521 0.026794641429411511 0 0.28087480106622448 0.017715699486297521 0 0.27575570482526268 0.025546416959968871 0 0.24425447620817919 0.02957247558217364 0 0.26000509051672099 0.02755944627107082 0 0.24425447620817919 0.02957247558217364 0 0.26531900520201229 0.018087188003740391 0 0.24425447620817919 0.02957247558217364 0 0.26000509051672099 0.02755944627107082 0 0.26531900520201229 0.018087188003740391 0 0.24425447620817919 0.02957247558217364 0 0.26531900520201229 0.018087188003740391 0 0.2511759112382515 0.0019848408324899792 0 0.26531900520201229 0.018087188003740391 0 0.2511759112382515 0.0019848408324899792 0 0.27000083873318742 -0.00079472129316973726 0 0.28695953494341242 0.061033851531691163 0 0.27849587166182332 0.042040932245762802 0 0.26728780783734563 0.067770893301664706 0 0.27849587166182332 0.042040932245762802 0 0.26728780783734563 0.067770893301664706 0 0.27849587166182332 0.042040932245762802 0 0.25144917798608579 0.041218784004105682 0 0.26728780783734563 0.067770893301664706 0 0.27575570482526268 0.025546416959968871 0 0.27849587166182332 0.042040932245762802 0 0.26642646124747321 0.034091394870227401 0 0.28513721092327521 0.026794641429411511 0 0.27575570482526268 0.025546416959968871 0 0.27849587166182332 0.042040932245762802 0 0.27849587166182332 0.042040932245762802 0 0.25144917798608579 0.041218784004105682 0 0.24425447620817919 0.02957247558217364 0 0.26000509051672099 0.02755944627107082 0 0.25144917798608579 0.041218784004105682 0 0.27849587166182332 0.042040932245762802 0 0.26642646124747321 0.034091394870227401 0 0.25144917798608579 0.041218784004105682 0 0.26000509051672099 0.02755944627107082 0 0.26642646124747321 0.034091394870227401 0 0.25144917798608579 0.041218784004105682 0 0.2491044708874488 0.062566927981710041 0 0.25144917798608579 0.041218784004105682 0 0.26728780783734563 0.067770893301664706 0 0.24476738979683069 0.077615841558942855 0 0.2491044708874488 0.062566927981710041 0 0.26728780783734563 0.067770893301664706 0 0.25607974401286498 0.093500854357565222 0 0.26728780783734563 0.067770893301664706 0 0.24476738979683069 0.077615841558942855 0 0.25607974401286498 0.093500854357565222 0 0.26728780783734563 0.067770893301664706 0 0.26728780783734563 0.067770893301664706 0 0.29330641935467838 0.07995966718019204 0 0.27884998940197031 0.097701455331417872 0 0.25607974401286498 0.093500854357565222 0 0.26728780783734563 0.067770893301664706 0 0.27884998940197031 0.097701455331417872 0 0.28695953494341242 0.061033851531691163 0 0.26728780783734563 0.067770893301664706 0 0.29330641935467838 0.07995966718019204 0 0.29330641935467838 0.07995966718019204 0 0.30162023479107519 0.1019020563052714 0 0.27884998940197031 0.097701455331417872 0 0.29330641935467838 0.07995966718019204 0 0.3116932570859075 0.086188613933784838 0 0.30162023479107519 0.1019020563052714 0 0.31342769206835941 0.065161132677322292 0 0.29330641935467838 0.07995966718019204 0 0.3116932570859075 0.086188613933784838 0 0.31342769206835941 0.065161132677322292 0 0.28695953494341242 0.061033851531691163 0 0.29330641935467838 0.07995966718019204 0 0.30759215895168629 0.1178197106880772 0 0.30162023479107519 0.1019020563052714 0 0.2825779707506722 0.11940376517531399 0 0.32439048018018019 0.1061026572791248 0 0.30759215895168629 0.1178197106880772 0 0.30162023479107519 0.1019020563052714 0 0.30162023479107519 0.1019020563052714 0 0.27884998940197031 0.097701455331417872 0 0.30162023479107519 0.1019020563052714 0 0.2825779707506722 0.11940376517531399 0 0.27884998940197031 0.097701455331417872 0 0.30759215895168629 0.1178197106880772 0 0.2825779707506722 0.11940376517531399 0 0.29699382583846079 0.13280197250107059 0 0.2825779707506722 0.11940376517531399 0 0.27884998940197031 0.097701455331417872 0 0.26448162298322819 0.1122020728794378 0 0.2825779707506722 0.11940376517531399 0 0.26448162298322819 0.1122020728794378 0 0.25995151029996372 0.13135074598120669 0 0.25607974401286498 0.093500854357565222 0 0.27884998940197031 0.097701455331417872 0 0.25607974401286498 0.093500854357565222 0 0.27884998940197031 0.097701455331417872 0 0.26448162298322819 0.1122020728794378 0 0.24494890045066961 0.1190535435516859 0 0.25607974401286498 0.093500854357565222 0 0.26448162298322819 0.1122020728794378 0 0.24494890045066961 0.1190535435516859 0 0.25607974401286498 0.093500854357565222 0 0.24494890045066961 0.1190535435516859 0 0.26448162298322819 0.1122020728794378 0 0.25995151029996372 0.13135074598120669 0 0.2825779707506722 0.11940376517531399 0 0.25995151029996372 0.13135074598120669 0 0.27588867502557252 0.1433765063044842 0 0.27588867502557252 0.1433765063044842 0 0.25487321133675822 0.1521976876698912 0 0.27067371864342132 0.16670125591401491 0 0.25995151029996372 0.13135074598120669 0 0.27588867502557252 0.1433765063044842 0 0.25487321133675822 0.1521976876698912 0 0.25487321133675822 0.1521976876698912 0 0.25097495819152282 0.17143955510476089 0 0.27067371864342132 0.16670125591401491 0 0.25097495819152282 0.17143955510476089 0 0.27067371864342132 0.16670125591401491 0 0.25097495819152282 0.17143955510476089 0 0.26070627754536763 0.18405779471959521 0 0.27067371864342132 0.16670125591401491 0 0.24768121447060321 0.1845470262951292 0 0.25097495819152282 0.17143955510476089 0 0.26070627754536763 0.18405779471959521 0 0.24768121447060321 0.1845470262951292 0 0.26070627754536763 0.18405779471959521 0 0.25158898072416952 0.19074595044934109 0 0.26070627754536763 0.18405779471959521 0 0.27768757360812329 0.17813630734094571 0 0.27067371864342132 0.16670125591401491 0 0.26070627754536763 0.18405779471959521 0 0.27768757360812329 0.17813630734094571 0 0.27126249478174602 0.18964714053497689 0 0.27768757360812329 0.17813630734094571 0 0.27126249478174602 0.18964714053497689 0 0.28232054623718977 0.1899698629601537 0 0.27067371864342132 0.16670125591401491 0 0.29037247909531982 0.1619629567232688 0 0.27588867502557252 0.1433765063044842 0 0.27067371864342132 0.16670125591401491 0 0.29037247909531982 0.1619629567232688 0 0.27768757360812329 0.17813630734094571 0 0.27067371864342132 0.16670125591401491 0 0.29037247909531982 0.1619629567232688 0 0.29037247909531982 0.1619629567232688 0 0.29107174677854308 0.1768728538608671 0 0.30141857404570788 0.16865809253719061 0 0.27768757360812329 0.17813630734094571 0 0.29037247909531982 0.1619629567232688 0 0.29107174677854308 0.1768728538608671 0 0.29107174677854308 0.1768728538608671 0 0.30388418942123901 0.18391390497839821 0 0.29533275073796428 0.19884666938430151 0 0.27768757360812329 0.17813630734094571 0 0.29107174677854308 0.1768728538608671 0 0.28232054623718977 0.1899698629601537 0 0.30388418942123901 0.18391390497839821 0 0.30141857404570788 0.16865809253719061 0 0.31448600744015531 0.1670049393314223 0 0.30388418942123901 0.18391390497839821 0 0.31823462159836419 0.1913530753945995 0 0.31448600744015531 0.1670049393314223 0 0.29107174677854308 0.1768728538608671 0 0.30388418942123901 0.18391390497839821 0 0.30141857404570788 0.16865809253719061 0 0.30141857404570788 0.16865809253719061 0 0.30687171764112059 0.15231574698898309 0 0.31448600744015531 0.1670049393314223 0 0.29037247909531982 0.1619629567232688 0 0.30141857404570788 0.16865809253719061 0 0.30687171764112059 0.15231574698898309 0 0.30687171764112059 0.15231574698898309 0 0.29699382583846079 0.13280197250107059 0 0.29129071783485749 0.1468599003968957 0 0.30687171764112059 0.15231574698898309 0 0.29699382583846079 0.13280197250107059 0 0.31333331483847587 0.13946933283755811 0 0.30759215895168629 0.1178197106880772 0 0.29699382583846079 0.13280197250107059 0 0.31441762387405442 0.12784206027677719 0 0.29699382583846079 0.13280197250107059 0 0.31441762387405442 0.12784206027677719 0 0.31333331483847587 0.13946933283755811 0 0.2825779707506722 0.11940376517531399 0 0.27588867502557252 0.1433765063044842 0 0.29699382583846079 0.13280197250107059 0 0.27588867502557252 0.1433765063044842 0 0.29699382583846079 0.13280197250107059 0 0.29129071783485749 0.1468599003968957 0 0.29037247909531982 0.1619629567232688 0 0.30687171764112059 0.15231574698898309 0 0.29129071783485749 0.1468599003968957 0 0.27588867502557252 0.1433765063044842 0 0.29037247909531982 0.1619629567232688 0 0.29129071783485749 0.1468599003968957 0 0.27825515619852259 0.23501837084578731 0 0.27266650452682639 0.24477938378231609 0 0.28937060934680581 0.24269140785945001 0 0.27825515619852259 0.23501837084578731 0 0.27147339614615101 0.23472290123178671 0 0.27266650452682639 0.24477938378231609 0 0.27147339614615101 0.23472290123178671 0 0.27266650452682639 0.24477938378231609 0 0.26438412718898863 0.2353022854946519 0 0.27266650452682639 0.24477938378231609 0 0.25435681544483307 0.2481099579607853 0 0.26438412718898863 0.2353022854946519 0 0.25435681544483307 0.2481099579607853 0 0.25216089697706501 0.22431877160547281 0 0.25435681544483307 0.2481099579607853 0 0.26438412718898863 0.2353022854946519 0 0.25216089697706501 0.22431877160547281 0 0.2685596202312559 0.22248873964002791 0 0.25150782782575809 0.2172432402914844 0 0.26438412718898863 0.2353022854946519 0 0.25216089697706501 0.22431877160547281 0 0.27238839981640328 0.2258951597070773 0 0.25216089697706501 0.22431877160547281 0 0.27238839981640328 0.2258951597070773 0 0.25216089697706501 0.22431877160547281 0 0.2685596202312559 0.22248873964002791 0 0.27238839981640328 0.2258951597070773 0 0.25216089697706501 0.22431877160547281 0 0.2685596202312559 0.22248873964002791 0 0.25150782782575809 0.2172432402914844 0 0.25216089697706501 0.22431877160547281 0 0.25150782782575809 0.2172432402914844 0 0.2685596202312559 0.22248873964002791 0 0.27238839981640328 0.2258951597070773 0 0.2856114126367536 0.22773423898857159 0 0.2685596202312559 0.22248873964002791 0 0.28020428904241101 0.2170644019977527 0 0.2856114126367536 0.22773423898857159 0 0.2685596202312559 0.22248873964002791 0 0.2856114126367536 0.22773423898857159 0 0.27147339614615101 0.23472290123178671 0 0.26438412718898863 0.2353022854946519 0 0.27238839981640328 0.2258951597070773 0 0.27825515619852259 0.23501837084578731 0 0.27147339614615101 0.23472290123178671 0 0.27238839981640328 0.2258951597070773 0 0.27825515619852259 0.23501837084578731 0 0.27238839981640328 0.2258951597070773 0 0.2856114126367536 0.22773423898857159 0 0.2685596202312559 0.22248873964002791 0 0.28020428904241101 0.2170644019977527 0 0.27189457294915992 0.21467189218089039 0 0.28020428904241101 0.2170644019977527 0 0.27707240558106438 0.20482153552304469 0 0.27189457294915992 0.21467189218089039 0 0.27707240558106438 0.20482153552304469 0 0.27189457294915992 0.21467189218089039 0 0.26174197694190898 0.21431289156273781 0 0.2685596202312559 0.22248873964002791 0 0.27189457294915992 0.21467189218089039 0 0.26174197694190898 0.21431289156273781 0 0.2685596202312559 0.22248873964002791 0 0.26174197694190898 0.21431289156273781 0 0.25684004914058151 0.21533834871490551 0 0.27707240558106438 0.20482153552304469 0 0.25114435800409107 0.2133053079917574 0 0.26151010548723341 0.20400822904969851 0 0.27707240558106438 0.20482153552304469 0 0.26174197694190898 0.21431289156273781 0 0.25114435800409107 0.2133053079917574 0 0.2685596202312559 0.22248873964002791 0 0.25684004914058151 0.21533834871490551 0 0.25150782782575809 0.2172432402914844 0 0.27707240558106438 0.20482153552304469 0 0.25114435800409107 0.2133053079917574 0 0.26174197694190898 0.21431289156273781 0 0.25684004914058151 0.21533834871490551 0 0.25114435800409107 0.2133053079917574 0 0.25684004914058151 0.21533834871490551 0 0.25114435800409107 0.2133053079917574 0 0.25150782782575809 0.2172432402914844 0 0.25114435800409107 0.2133053079917574 0 0.25150782782575809 0.2172432402914844 0 0.2499011110407604 0.19983562748019881 0 0.25114435800409107 0.2133053079917574 0 0.25576942523754842 0.201582676735029 0 0.25114435800409107 0.2133053079917574 0 0.26151010548723341 0.20400822904969851 0 0.25576942523754842 0.201582676735029 0 0.2499011110407604 0.19983562748019881 0 0.25114435800409107 0.2133053079917574 0 0.26151010548723341 0.20400822904969851 0 0.26252978985489211 0.1968484477707575 0 0.25576942523754842 0.201582676735029 0 0.26252978985489211 0.1968484477707575 0 0.25576942523754842 0.201582676735029 0 0.25471287525808922 0.19496587502631929 0 0.2499011110407604 0.19983562748019881 0 0.25576942523754842 0.201582676735029 0 0.25471287525808922 0.19496587502631929 0 0.2499011110407604 0.19983562748019881 0 0.2488946947107113 0.1980074131548116 0 0.25471287525808922 0.19496587502631929 0 0.26070627754536763 0.18405779471959521 0 0.25158898072416952 0.19074595044934109 0 0.25471287525808922 0.19496587502631929 0 0.2488946947107113 0.1980074131548116 0 0.25158898072416952 0.19074595044934109 0 0.25471287525808922 0.19496587502631929 0 0.26070627754536763 0.18405779471959521 0 0.26252978985489211 0.1968484477707575 0 0.27126249478174602 0.18964714053497689 0 0.26070627754536763 0.18405779471959521 0 0.26252978985489211 0.1968484477707575 0 0.25471287525808922 0.19496587502631929 0 0.27707240558106438 0.20482153552304469 0 0.26252978985489211 0.1968484477707575 0 0.27707240558106438 0.20482153552304469 0 0.26151010548723341 0.20400822904969851 0 0.26252978985489211 0.1968484477707575 0 0.27707240558106438 0.20482153552304469 0 0.26252978985489211 0.1968484477707575 0 0.27126249478174602 0.18964714053497689 0 0.27707240558106438 0.20482153552304469 0 0.27126249478174602 0.18964714053497689 0 0.28232054623718977 0.1899698629601537 0 0.29107174677854308 0.1768728538608671 0 0.29533275073796428 0.19884666938430151 0 0.28232054623718977 0.1899698629601537 0 0.27707240558106438 0.20482153552304469 0 0.29533275073796428 0.19884666938430151 0 0.28232054623718977 0.1899698629601537 0 0.27707240558106438 0.20482153552304469 0 0.29533275073796428 0.19884666938430151 0 0.29107174677854308 0.1768728538608671 0 0.29533275073796428 0.19884666938430151 0 0.29533275073796428 0.19884666938430151 0 0.31074347343275971 0.20306760492444459 0 0.31823462159836419 0.1913530753945995 0 0.30388418942123901 0.18391390497839821 0 0.29533275073796428 0.19884666938430151 0 0.31823462159836419 0.1913530753945995 0 0.29533275073796428 0.19884666938430151 0 0.31823462159836419 0.1913530753945995 0 0.29533275073796428 0.19884666938430151 0 0.31660110580184608 0.21901895450618411 0 0.29533275073796428 0.19884666938430151 0 0.29880145611123837 0.21673463492092401 0 0.29533275073796428 0.19884666938430151 0 0.29880145611123837 0.21673463492092401 0 0.31660110580184608 0.21901895450618411 0 0.29533275073796428 0.19884666938430151 0 0.31074347343275971 0.20306760492444459 0 0.31660110580184608 0.21901895450618411 0 0.28020428904241101 0.2170644019977527 0 0.27707240558106438 0.20482153552304469 0 0.29880145611123837 0.21673463492092401 0 0.27707240558106438 0.20482153552304469 0 0.29533275073796428 0.19884666938430151 0 0.29880145611123837 0.21673463492092401 0 0.27707240558106438 0.20482153552304469 0 0.29880145611123837 0.21673463492092401 0 0.28020428904241101 0.2170644019977527 0 0.29880145611123837 0.21673463492092401 0 0.2856114126367536 0.22773423898857159 0 0.29880145611123837 0.21673463492092401 0 0.2856114126367536 0.22773423898857159 0 0.30238386930468408 0.23520898683216421 0 0.29880145611123837 0.21673463492092401 0 0.31168787531566428 0.23414887561868861 0 0.30238386930468408 0.23520898683216421 0 0.29880145611123837 0.21673463492092401 0 0.30238386930468408 0.23520898683216421 0 0.29880145611123837 0.21673463492092401 0 0.31807618826616829 0.22730213761554291 0 0.31660110580184608 0.21901895450618411 0 0.29880145611123837 0.21673463492092401 0 0.31168787531566428 0.23414887561868861 0 0.31807618826616829 0.22730213761554291 0 0.29880145611123837 0.21673463492092401 0 0.31807618826616829 0.22730213761554291 0 0.30596628249813013 0.25368333874340432 0 0.30238386930468408 0.23520898683216421 0 0.30596628249813013 0.25368333874340432 0 0.30238386930468408 0.23520898683216421 0 0.31488834249029091 0.24344894755231691 0 0.30596628249813013 0.25368333874340432 0 0.30238386930468408 0.23520898683216421 0 0.28937060934680581 0.24269140785945001 0 0.31168787531566428 0.23414887561868861 0 0.30238386930468408 0.23520898683216421 0 0.31488834249029091 0.24344894755231691 0 0.28449420888810989 0.25676903337645263 0 0.27266650452682639 0.24477938378231609 0 0.28937060934680581 0.24269140785945001 0 0.2856114126367536 0.22773423898857159 0 0.30238386930468408 0.23520898683216421 0 0.28937060934680581 0.24269140785945001 0 0.27825515619852259 0.23501837084578731 0 0.2856114126367536 0.22773423898857159 0 0.28937060934680581 0.24269140785945001 0 0.3385387061886081 0.2576031054685507 0 0.35503702002048859 0.2540130652783073 0 0.3373509204210981 0.23786964031016189 0 0.3385387061886081 0.2576031054685507 0 0.3373509204210981 0.23786964031016189 0 0.32686470914906779 0.24607216482192279 0 0.3373509204210981 0.23786964031016189 0 0.32686470914906779 0.24607216482192279 0 0.32177360712845787 0.23776835318372661 0 0.32686470914906779 0.24607216482192279 0 0.31488834249029091 0.24344894755231691 0 0.32177360712845787 0.23776835318372661 0 0.32166548962575542 0.25655327196524152 0 0.32686470914906779 0.24607216482192279 0 0.31488834249029091 0.24344894755231691 0 0.31168787531566428 0.23414887561868861 0 0.31488834249029091 0.24344894755231691 0 0.32177360712845787 0.23776835318372661 0 0.3373509204210981 0.23786964031016189 0 0.31807618826616829 0.22730213761554291 0 0.31660110580184608 0.21901895450618411 0 0.3373509204210981 0.23786964031016189 0 0.31807618826616829 0.22730213761554291 0 0.3373509204210981 0.23786964031016189 0 0.32177360712845787 0.23776835318372661 0 0.31807618826616829 0.22730213761554291 0 0.3373509204210981 0.23786964031016189 0 0.31660110580184608 0.21901895450618411 0 0.31168787531566428 0.23414887561868861 0 0.32177360712845787 0.23776835318372661 0 0.31807618826616829 0.22730213761554291 0 0.3373509204210981 0.23786964031016189 0 0.33133805838523361 0.2182193537406385 0 0.34409119294163598 0.2108152298981377 0 0.3373509204210981 0.23786964031016189 0 0.31660110580184608 0.21901895450618411 0 0.33133805838523361 0.2182193537406385 0 0.33133805838523361 0.2182193537406385 0 0.3273090143763539 0.2051735902480703 0 0.34409119294163598 0.2108152298981377 0 0.31660110580184608 0.21901895450618411 0 0.33133805838523361 0.2182193537406385 0 0.3273090143763539 0.2051735902480703 0 0.31074347343275971 0.20306760492444459 0 0.31660110580184608 0.21901895450618411 0 0.3273090143763539 0.2051735902480703 0 0.31074347343275971 0.20306760492444459 0 0.3273090143763539 0.2051735902480703 0 0.31823462159836419 0.1913530753945995 0 0.3273090143763539 0.2051735902480703 0 0.34409119294163598 0.2108152298981377 0 0.34113649245876421 0.18385948140489719 0 0.31823462159836419 0.1913530753945995 0 0.34113649245876421 0.18385948140489719 0 0.3273090143763539 0.2051735902480703 0 0.31823462159836419 0.1913530753945995 0 0.34113649245876421 0.18385948140489719 0 0.36285982614758028 0.1986831470381164 0 0.34409119294163598 0.2108152298981377 0 0.34113649245876421 0.18385948140489719 0 0.36285982614758028 0.1986831470381164 0 0.36654249361224839 0.22910422742748349 0 0.38498629073017371 0.20284702346571051 0 0.36285982614758028 0.1986831470381164 0 0.34409119294163598 0.2108152298981377 0 0.36654249361224839 0.22910422742748349 0 0.3373509204210981 0.23786964031016189 0 0.34409119294163598 0.2108152298981377 0 0.36654249361224839 0.22910422742748349 0 0.34409119294163598 0.2108152298981377 0 0.36654249361224839 0.22910422742748349 0 0.37385290070494792 0.26012865249644151 0 0.35503702002048859 0.2540130652783073 0 0.36654249361224839 0.22910422742748349 0 0.35503702002048859 0.2540130652783073 0 0.3373509204210981 0.23786964031016189 0 0.36654249361224839 0.22910422742748349 0 0.35503702002048859 0.2540130652783073 0 0.3373509204210981 0.23786964031016189 0 0.33611909085942732 0.15265082968105451 0 0.33601360887910492 0.13943907800616229 0 0.32475018925905808 0.14461006470693261 0 0.33611909085942732 0.15265082968105451 0 0.33601360887910492 0.13943907800616229 0 0.34630496266619948 0.14570143809202521 0 0.33601360887910492 0.13943907800616229 0 0.33592192362080242 0.12892239572034311 0 0.34825757813646069 0.1328739394383783 0 0.33601360887910492 0.13943907800616229 0 0.34630496266619948 0.14570143809202521 0 0.34825757813646069 0.1328739394383783 0 0.34234188430787632 0.1223027054481302 0 0.33592192362080242 0.12892239572034311 0 0.34825757813646069 0.1328739394383783 0 0.32811757756596371 0.1209263192888396 0 0.33592192362080242 0.12892239572034311 0 0.32499824645786179 0.13319144735644639 0 0.33601360887910492 0.13943907800616229 0 0.32499824645786179 0.13319144735644639 0 0.32475018925905808 0.14461006470693261 0 0.33601360887910492 0.13943907800616229 0 0.33592192362080242 0.12892239572034311 0 0.32499824645786179 0.13319144735644639 0 0.32499824645786179 0.13319144735644639 0 0.31333331483847587 0.13946933283755811 0 0.32475018925905808 0.14461006470693261 0 0.32811757756596371 0.1209263192888396 0 0.32499824645786179 0.13319144735644639 0 0.31441762387405442 0.12784206027677719 0 0.32499824645786179 0.13319144735644639 0 0.31441762387405442 0.12784206027677719 0 0.31333331483847587 0.13946933283755811 0 0.30687171764112059 0.15231574698898309 0 0.31333331483847587 0.13946933283755811 0 0.32475018925905808 0.14461006470693261 0 0.30687171764112059 0.15231574698898309 0 0.32475018925905808 0.14461006470693261 0 0.32343164486156012 0.15850035149382599 0 0.33611909085942732 0.15265082968105451 0 0.32475018925905808 0.14461006470693261 0 0.32343164486156012 0.15850035149382599 0 0.30687171764112059 0.15231574698898309 0 0.31448600744015531 0.1670049393314223 0 0.32343164486156012 0.15850035149382599 0 0.31448600744015531 0.1670049393314223 0 0.32343164486156012 0.15850035149382599 0 0.3270762820715426 0.17659434520007619 0 0.31823462159836419 0.1913530753945995 0 0.31448600744015531 0.1670049393314223 0 0.3270762820715426 0.17659434520007619 0 0.3270762820715426 0.17659434520007619 0 0.34113649245876421 0.18385948140489719 0 0.33557430972607483 0.16619470818328269 0 0.31823462159836419 0.1913530753945995 0 0.3270762820715426 0.17659434520007619 0 0.34113649245876421 0.18385948140489719 0 0.32343164486156012 0.15850035149382599 0 0.3270762820715426 0.17659434520007619 0 0.33557430972607483 0.16619470818328269 0 0.34113649245876421 0.18385948140489719 0 0.33557430972607483 0.16619470818328269 0 0.35063982976456631 0.16145933760409831 0 0.33611909085942732 0.15265082968105451 0 0.32343164486156012 0.15850035149382599 0 0.33557430972607483 0.16619470818328269 0 0.33611909085942732 0.15265082968105451 0 0.33557430972607483 0.16619470818328269 0 0.35063982976456631 0.16145933760409831 0 0.34113649245876421 0.18385948140489719 0 0.36403836331916412 0.17636588741519499 0 0.36285982614758028 0.1986831470381164 0 0.34113649245876421 0.18385948140489719 0 0.36403836331916412 0.17636588741519499 0 0.34113649245876421 0.18385948140489719 0 0.35063982976456631 0.16145933760409831 0 0.36403836331916412 0.17636588741519499 0 0.36403836331916412 0.17636588741519499 0 0.37624206043615233 0.16945048498002749 0 0.37990071338797199 0.18484393721093931 0 0.36285982614758028 0.1986831470381164 0 0.36403836331916412 0.17636588741519499 0 0.37990071338797199 0.18484393721093931 0 0.35063982976456631 0.16145933760409831 0 0.36403836331916412 0.17636588741519499 0 0.36897001967462428 0.15745588463961641 0 0.36403836331916412 0.17636588741519499 0 0.36897001967462428 0.15745588463961641 0 0.37624206043615233 0.16945048498002749 0 0.36897001967462428 0.15745588463961641 0 0.365152973936892 0.13518707536103849 0 0.36897001967462428 0.15745588463961641 0 0.35696376056710322 0.1468343824534816 0 0.365152973936892 0.13518707536103849 0 0.36897001967462428 0.15745588463961641 0 0.365152973936892 0.13518707536103849 0 0.37720995944023078 0.14497296550888611 0 0.35063982976456631 0.16145933760409831 0 0.36897001967462428 0.15745588463961641 0 0.35696376056710322 0.1468343824534816 0 0.35063982976456631 0.16145933760409831 0 0.35696376056710322 0.1468343824534816 0 0.34630496266619948 0.14570143809202521 0 0.33611909085942732 0.15265082968105451 0 0.35063982976456631 0.16145933760409831 0 0.34630496266619948 0.14570143809202521 0 0.35696376056710322 0.1468343824534816 0 0.34630496266619948 0.14570143809202521 0 0.34825757813646069 0.1328739394383783 0 0.35696376056710322 0.1468343824534816 0 0.34825757813646069 0.1328739394383783 0 0.365152973936892 0.13518707536103849 0 0.3548163759371577 0.12054818123804591 0 0.34825757813646069 0.1328739394383783 0 0.365152973936892 0.13518707536103849 0 0.34234188430787632 0.1223027054481302 0 0.3548163759371577 0.12054818123804591 0 0.34825757813646069 0.1328739394383783 0 0.365152973936892 0.13518707536103849 0 0.37910311841646632 0.13298497349193611 0 0.37720995944023078 0.14497296550888611 0 0.37247014126068251 0.1246251006265711 0 0.365152973936892 0.13518707536103849 0 0.37910311841646632 0.13298497349193611 0 0.37247014126068251 0.1246251006265711 0 0.37910311841646632 0.13298497349193611 0 0.38210660122829138 0.124439647968437 0 0.37910311841646632 0.13298497349193611 0 0.38916375853672658 0.1423329477928155 0 0.37720995944023078 0.14497296550888611 0 0.37910311841646632 0.13298497349193611 0 0.39097296983389079 0.12851252042137309 0 0.38916375853672658 0.1423329477928155 0 0.37910311841646632 0.13298497349193611 0 0.39097296983389079 0.12851252042137309 0 0.38210660122829138 0.124439647968437 0 0.39097296983389079 0.12851252042137309 0 0.39971918636932008 0.1330707377977268 0 0.39319004157269338 0.1187946375212133 0 0.39971918636932008 0.1330707377977268 0 0.40037955424582378 0.14439967973246101 0 0.38916375853672658 0.1423329477928155 0 0.39097296983389079 0.12851252042137309 0 0.39971918636932008 0.1330707377977268 0 0.38916375853672658 0.1423329477928155 0 0.39971918636932008 0.1330707377977268 0 0.40037955424582378 0.14439967973246101 0 0.41520155514631818 0.14396491793842761 0 0.40037955424582378 0.14439967973246101 0 0.39835672966560309 0.15722329441548319 0 0.41520155514631818 0.14396491793842761 0 0.40037955424582378 0.14439967973246101 0 0.38916375853672658 0.1423329477928155 0 0.39835672966560309 0.15722329441548319 0 0.38916375853672658 0.1423329477928155 0 0.38365992663644488 0.1569039462590239 0 0.39835672966560309 0.15722329441548319 0 0.38916375853672658 0.1423329477928155 0 0.37720995944023078 0.14497296550888611 0 0.38365992663644488 0.1569039462590239 0 0.36897001967462428 0.15745588463961641 0 0.37720995944023078 0.14497296550888611 0 0.38365992663644488 0.1569039462590239 0 0.37624206043615233 0.16945048498002749 0 0.38365992663644488 0.1569039462590239 0 0.39454281244924522 0.17275905928620089 0 0.36897001967462428 0.15745588463961641 0 0.37624206043615233 0.16945048498002749 0 0.38365992663644488 0.1569039462590239 0 0.37624206043615233 0.16945048498002749 0 0.37990071338797199 0.18484393721093931 0 0.39454281244924522 0.17275905928620089 0 0.39454281244924522 0.17275905928620089 0 0.41387387215519789 0.18593928710838389 0 0.39925135950078527 0.19159387125513419 0 0.37990071338797199 0.18484393721093931 0 0.39454281244924522 0.17275905928620089 0 0.39925135950078527 0.19159387125513419 0 0.38365992663644488 0.1569039462590239 0 0.39454281244924522 0.17275905928620089 0 0.39835672966560309 0.15722329441548319 0 0.39454281244924522 0.17275905928620089 0 0.39835672966560309 0.15722329441548319 0 0.41453771365075798 0.16495210252340581 0 0.41453771365075798 0.16495210252340581 0 0.41387387215519789 0.18593928710838389 0 0.42899609683042061 0.1740300596163325 0 0.39454281244924522 0.17275905928620089 0 0.41453771365075798 0.16495210252340581 0 0.41387387215519789 0.18593928710838389 0 0.41453771365075798 0.16495210252340581 0 0.41387387215519789 0.18593928710838389 0 0.42899609683042061 0.1740300596163325 0 0.43545803514430281 0.19435974165239009 0 0.44409584704878757 0.17640155042128461 0 0.41387387215519789 0.18593928710838389 0 0.42899609683042061 0.1740300596163325 0 0.43545803514430281 0.19435974165239009 0 0.41453771365075798 0.16495210252340581 0 0.42899609683042061 0.1740300596163325 0 0.42572537770622898 0.15679814257868771 0 0.42899609683042061 0.1740300596163325 0 0.42572537770622898 0.15679814257868771 0 0.43881673130976179 0.16104513969780521 0 0.42899609683042061 0.1740300596163325 0 0.43881673130976179 0.16104513969780521 0 0.44409584704878757 0.17640155042128461 0 0.42572537770622898 0.15679814257868771 0 0.4338118603730946 0.1486137183404426 0 0.43881673130976179 0.16104513969780521 0 0.42572537770622898 0.15679814257868771 0 0.4259058427856045 0.1472332971474892 0 0.41520155514631818 0.14396491793842761 0 0.42572537770622898 0.15679814257868771 0 0.4338118603730946 0.1486137183404426 0 0.4259058427856045 0.1472332971474892 0 0.4259058427856045 0.1472332971474892 0 0.42888457791677631 0.13955640973239899 0 0.41520155514631818 0.14396491793842761 0 0.4338118603730946 0.1486137183404426 0 0.4259058427856045 0.1472332971474892 0 0.42888457791677631 0.13955640973239899 0 0.4338118603730946 0.1486137183404426 0 0.42888457791677631 0.13955640973239899 0 0.43771293655770588 0.1382775664758312 0 0.4316530312425364 0.1317051335428282 0 0.42888457791677631 0.13955640973239899 0 0.43771293655770588 0.1382775664758312 0 0.4316530312425364 0.1317051335428282 0 0.43890813245659382 0.12781704339536121 0 0.43771293655770588 0.1382775664758312 0 0.4316530312425364 0.1317051335428282 0 0.42914519419033881 0.12505097274085589 0 0.43890813245659382 0.12781704339536121 0 0.4316530312425364 0.1317051335428282 0 0.42914519419033881 0.12505097274085589 0 0.42278547262044941 0.130084590795703 0 0.42914519419033881 0.12505097274085589 0 0.42278547262044941 0.130084590795703 0 0.42236770557394993 0.1227714631355576 0 0.4316530312425364 0.1317051335428282 0 0.42278547262044941 0.130084590795703 0 0.42888457791677631 0.13955640973239899 0 0.42278547262044941 0.130084590795703 0 0.42888457791677631 0.13955640973239899 0 0.41520155514631818 0.14396491793842761 0 0.41520155514631818 0.14396491793842761 0 0.41586539664187988 0.1229777333534495 0 0.42278547262044941 0.130084590795703 0 0.41520155514631818 0.14396491793842761 0 0.41586539664187988 0.1229777333534495 0 0.39971918636932008 0.1330707377977268 0 0.41520155514631818 0.14396491793842761 0 0.41586539664187988 0.1229777333534495 0 0.42278547262044941 0.130084590795703 0 0.42236770557394993 0.1227714631355576 0 0.41586539664187988 0.1229777333534495 0 0.41453771365075798 0.16495210252340581 0 0.41520155514631818 0.14396491793842761 0 0.41453771365075798 0.16495210252340581 0 0.42572537770622898 0.15679814257868771 0 0.41520155514631818 0.14396491793842761 0 0.39835672966560309 0.15722329441548319 0 0.41453771365075798 0.16495210252340581 0 0.41520155514631818 0.14396491793842761 0 0.40416580474135388 0.23724715554249551 0 0.38899379428286079 0.24739322495682919 0 0.41559125593060858 0.24912957250618531 0 0.40416580474135388 0.23724715554249551 0 0.38899379428286079 0.24739322495682919 0 0.39082779978804699 0.2337188889568286 0 0.37385290070494792 0.26012865249644151 0 0.36654249361224839 0.22910422742748349 0 0.38899379428286079 0.24739322495682919 0 0.36654249361224839 0.22910422742748349 0 0.38899379428286079 0.24739322495682919 0 0.39082779978804699 0.2337188889568286 0 0.36654249361224839 0.22910422742748349 0 0.38899379428286079 0.24739322495682919 0 0.36654249361224839 0.22910422742748349 0 0.39339530871864431 0.22016311752450921 0 0.39082779978804699 0.2337188889568286 0 0.40416580474135388 0.23724715554249551 0 0.39339530871864431 0.22016311752450921 0 0.41310227884580741 0.2248997963996695 0 0.40416580474135388 0.23724715554249551 0 0.39339530871864431 0.22016311752450921 0 0.39082779978804699 0.2337188889568286 0 0.39339530871864431 0.22016311752450921 0 0.38498629073017371 0.20284702346571051 0 0.40853136837606208 0.2099533222254201 0 0.39339530871864431 0.22016311752450921 0 0.40853136837606208 0.2099533222254201 0 0.41310227884580741 0.2248997963996695 0 0.36654249361224839 0.22910422742748349 0 0.39339530871864431 0.22016311752450921 0 0.38498629073017371 0.20284702346571051 0 0.37990071338797199 0.18484393721093931 0 0.38498629073017371 0.20284702346571051 0 0.39925135950078527 0.19159387125513419 0 0.36285982614758028 0.1986831470381164 0 0.37990071338797199 0.18484393721093931 0 0.38498629073017371 0.20284702346571051 0 0.38498629073017371 0.20284702346571051 0 0.39925135950078527 0.19159387125513419 0 0.40853136837606208 0.2099533222254201 0 0.39925135950078527 0.19159387125513419 0 0.41971253731870523 0.1995466386535463 0 0.40853136837606208 0.2099533222254201 0 0.41387387215519789 0.18593928710838389 0 0.39925135950078527 0.19159387125513419 0 0.41971253731870523 0.1995466386535463 0 0.41387387215519789 0.18593928710838389 0 0.41971253731870523 0.1995466386535463 0 0.43545803514430281 0.19435974165239009 0 0.41971253731870523 0.1995466386535463 0 0.43545803514430281 0.19435974165239009 0 0.4292904307233012 0.21520351186281089 0 0.4292904307233012 0.21520351186281089 0 0.40853136837606208 0.2099533222254201 0 0.41310227884580741 0.2248997963996695 0 0.41971253731870523 0.1995466386535463 0 0.4292904307233012 0.21520351186281089 0 0.40853136837606208 0.2099533222254201 0 0.40416580474135388 0.23724715554249551 0 0.41310227884580741 0.2248997963996695 0 0.42621630301462471 0.23419813018020191 0 0.4292904307233012 0.21520351186281089 0 0.42621630301462471 0.23419813018020191 0 0.44826680128789548 0.23114910481790879 0 0.4292904307233012 0.21520351186281089 0 0.41310227884580741 0.2248997963996695 0 0.42621630301462471 0.23419813018020191 0 0.42621630301462471 0.23419813018020191 0 0.44826680128789548 0.23114910481790879 0 0.4255128489523522 0.25974241898116529 0 0.42621630301462471 0.23419813018020191 0 0.41559125593060858 0.24912957250618531 0 0.40416580474135388 0.23724715554249551 0 0.42621630301462471 0.23419813018020191 0 0.40416580474135388 0.23724715554249551 0 0.42621630301462471 0.23419813018020191 0 0.41559125593060858 0.24912957250618531 0 0.45870782022739159 0.24931750321282031 0 0.44826680128789548 0.23114910481790879 0 0.47682125924216762 0.22720074657991521 0 0.4419682697815222 0.25875663085730788 0 0.44826680128789548 0.23114910481790879 0 0.4419682697815222 0.25875663085730788 0 0.42621630301462471 0.23419813018020191 0 0.44826680128789548 0.23114910481790879 0 0.4419682697815222 0.25875663085730788 0 0.45870782022739159 0.24931750321282031 0 0.44826680128789548 0.23114910481790879 0 0.44826680128789548 0.23114910481790879 0 0.45293065385590869 0.2107066523057668 0 0.4292904307233012 0.21520351186281089 0 0.44826680128789548 0.23114910481790879 0 0.45293065385590869 0.2107066523057668 0 0.44826680128789548 0.23114910481790879 0 0.47682125924216762 0.22720074657991521 0 0.44826680128789548 0.23114910481790879 0 0.45293065385590869 0.2107066523057668 0 0.47682125924216762 0.22720074657991521 0 0.45293065385590869 0.2107066523057668 0 0.47619494582408739 0.19784080844929169 0 0.47682125924216762 0.22720074657991521 0 0.43545803514430281 0.19435974165239009 0 0.4292904307233012 0.21520351186281089 0 0.45293065385590869 0.2107066523057668 0 0.43545803514430281 0.19435974165239009 0 0.45293065385590869 0.2107066523057668 0 0.45759450642392052 0.19026419979362441 0 0.45293065385590869 0.2107066523057668 0 0.45759450642392052 0.19026419979362441 0 0.47619494582408739 0.19784080844929169 0 0.45293065385590869 0.2107066523057668 0 0.45759450642392052 0.19026419979362441 0 0.45759450642392052 0.19026419979362441 0 0.47619494582408739 0.19784080844929169 0 0.47274712599730823 0.17449979199616941 0 0.47619494582408739 0.19784080844929169 0 0.5 0.19451282174919499 0 0.48777365423225583 0.21129282414710651 0 0.47619494582408739 0.19784080844929169 0 0.5 0.19451282174919499 0 0.48624690584602032 0.18293972816570389 0 0.5 0.19451282174919499 0 0.48777365423225583 0.21129282414710651 0 0.49999999999999761 0.2239957138608899 0 0.47619494582408739 0.19784080844929169 0 0.47682125924216762 0.22720074657991521 0 0.47619494582408739 0.19784080844929169 0 0.48777365423225583 0.21129282414710651 0 0.47682125924216762 0.22720074657991521 0 0.47682125924216762 0.22720074657991521 0 0.49999999999999761 0.2239957138608899 0 0.48777365423225583 0.21129282414710651 0 0.47682125924216762 0.22720074657991521 0 0.49999999999999761 0.2239957138608899 0 0.47682125924216762 0.22720074657991521 0 0.49999999999999761 0.2239957138608899 0 0.5 0.2393958554359118 0 0.47682125924216762 0.22720074657991521 0 0.5 0.2393958554359118 0 0.48900449778462368 0.2470959262234203 0 0.49999999999999822 0.25479599701093369 0 0.5 0.2393958554359118 0 0.48900449778462368 0.2470959262234203 0 0.4773892092864393 0.25382476209635851 0 0.47682125924216762 0.22720074657991521 0 0.48900449778462368 0.2470959262234203 0 0.4773892092864393 0.25382476209635851 0 0.47682125924216762 0.22720074657991521 0 0.4773892092864393 0.25382476209635851 0 0.45870782022739159 0.24931750321282031 0 0.47682125924216762 0.22720074657991521 0 0.45850579595647289 0.1503821856996142 0 0.46138489250033288 0.13648675036390931 0 0.4746847959778191 0.14909435618657371 0 0.45850579595647289 0.1503821856996142 0 0.4618458613428616 0.16093932140145961 0 0.4746847959778191 0.14909435618657371 0 0.45387806512550638 0.14216028622075591 0 0.45850579595647289 0.1503821856996142 0 0.46138489250033288 0.13648675036390931 0 0.46138489250033288 0.13648675036390931 0 0.47683347981744012 0.1209222474623481 0 0.4525666945016768 0.1193436631297375 0 0.46138489250033288 0.13648675036390931 0 0.44855780853604948 0.13559664072473501 0 0.4525666945016768 0.1193436631297375 0 0.45387806512550638 0.14216028622075591 0 0.46138489250033288 0.13648675036390931 0 0.44855780853604948 0.13559664072473501 0 0.44855780853604948 0.13559664072473501 0 0.43890813245659382 0.12781704339536121 0 0.4525666945016768 0.1193436631297375 0 0.44855780853604948 0.13559664072473501 0 0.43890813245659382 0.12781704339536121 0 0.43771293655770588 0.1382775664758312 0 0.4338118603730946 0.1486137183404426 0 0.43771293655770588 0.1382775664758312 0 0.44603542649955458 0.14821254658575539 0 0.44855780853604948 0.13559664072473501 0 0.43771293655770588 0.1382775664758312 0 0.44603542649955458 0.14821254658575539 0 0.45387806512550638 0.14216028622075591 0 0.44855780853604948 0.13559664072473501 0 0.44603542649955458 0.14821254658575539 0 0.45387806512550638 0.14216028622075591 0 0.45850579595647289 0.1503821856996142 0 0.44603542649955458 0.14821254658575539 0 0.45850579595647289 0.1503821856996142 0 0.44603542649955458 0.14821254658575539 0 0.45152982335013858 0.16235653840870101 0 0.4338118603730946 0.1486137183404426 0 0.44603542649955458 0.14821254658575539 0 0.43881673130976179 0.16104513969780521 0 0.43881673130976179 0.16104513969780521 0 0.45152982335013858 0.16235653840870101 0 0.44409584704878757 0.17640155042128461 0 0.45152982335013858 0.16235653840870101 0 0.44409584704878757 0.17640155042128461 0 0.45365139182252873 0.1723962008770035 0 0.44603542649955458 0.14821254658575539 0 0.43881673130976179 0.16104513969780521 0 0.45152982335013858 0.16235653840870101 0 0.45759450642392052 0.19026419979362441 0 0.44409584704878757 0.17640155042128461 0 0.45365139182252873 0.1723962008770035 0 0.43545803514430281 0.19435974165239009 0 0.45759450642392052 0.19026419979362441 0 0.44409584704878757 0.17640155042128461 0 0.45759450642392052 0.19026419979362441 0 0.46597398520596461 0.1747130329250659 0 0.46225835899193207 0.16982174728148211 0 0.45759450642392052 0.19026419979362441 0 0.45365139182252873 0.1723962008770035 0 0.46225835899193207 0.16982174728148211 0 0.45759450642392052 0.19026419979362441 0 0.46225835899193207 0.16982174728148211 0 0.45759450642392052 0.19026419979362441 0 0.46597398520596461 0.1747130329250659 0 0.47274712599730823 0.17449979199616941 0 0.46597398520596461 0.1747130329250659 0 0.46689386631507518 0.16802960325073579 0 0.47274712599730823 0.17449979199616941 0 0.46689386631507518 0.16802960325073579 0 0.4618458613428616 0.16093932140145961 0 0.4746847959778191 0.14909435618657371 0 0.45152982335013858 0.16235653840870101 0 0.45732135887686531 0.1663784519921615 0 0.4618458613428616 0.16093932140145961 0 0.45850579595647289 0.1503821856996142 0 0.45152982335013858 0.16235653840870101 0 0.4618458613428616 0.16093932140145961 0 0.45732135887686531 0.1663784519921615 0 0.46225835899193207 0.16982174728148211 0 0.4618458613428616 0.16093932140145961 0 0.45152982335013858 0.16235653840870101 0 0.45365139182252873 0.1723962008770035 0 0.45732135887686531 0.1663784519921615 0 0.45365139182252873 0.1723962008770035 0 0.45732135887686531 0.1663784519921615 0 0.46225835899193207 0.16982174728148211 0 0.46225835899193207 0.16982174728148211 0 0.46689386631507518 0.16802960325073579 0 0.4618458613428616 0.16093932140145961 0 0.46597398520596461 0.1747130329250659 0 0.46225835899193207 0.16982174728148211 0 0.46689386631507518 0.16802960325073579 0 0.46689386631507518 0.16802960325073579 0 0.4746847959778191 0.14909435618657371 0 0.47556863240600761 0.16848087031866829 0 0.47274712599730823 0.17449979199616941 0 0.4746847959778191 0.14909435618657371 0 0.47274712599730823 0.17449979199616941 0 0.4746847959778191 0.14909435618657371 0 0.46689386631507518 0.16802960325073579 0 0.47274712599730823 0.17449979199616941 0 0.4746847959778191 0.14909435618657371 0 0.47556863240600761 0.16848087031866829 0 0.48524656138661532 0.1594228812931659 0 0.4746847959778191 0.14909435618657371 0 0.47556863240600761 0.16848087031866829 0 0.48524656138661532 0.1594228812931659 0 0.4867655249096608 0.16896835235375951 0 0.47619494582408739 0.19784080844929169 0 0.47556863240600761 0.16848087031866829 0 0.47274712599730823 0.17449979199616941 0 0.47619494582408739 0.19784080844929169 0 0.47556863240600761 0.16848087031866829 0 0.48624690584602032 0.18293972816570389 0 0.47619494582408739 0.19784080844929169 0 0.47556863240600761 0.16848087031866829 0 0.47556863240600761 0.16848087031866829 0 0.48624690584602032 0.18293972816570389 0 0.4867655249096608 0.16896835235375951 0 0.48624690584602032 0.18293972816570389 0 0.4867655249096608 0.16896835235375951 0 0.5 0.1650299296375001 0 0.5 0.19451282174919499 0 0.48624690584602032 0.18293972816570389 0 0.5 0.1650299296375001 0 0.48524656138661532 0.1594228812931659 0 0.5 0.1650299296375001 0 0.48885105925960681 0.146952275093445 0 0.48524656138661532 0.1594228812931659 0 0.4867655249096608 0.16896835235375951 0 0.5 0.1650299296375001 0 0.5 0.1650299296375001 0 0.48885105925960681 0.146952275093445 0 0.5 0.13554703752580499 0 0.48524656138661532 0.1594228812931659 0 0.48885105925960681 0.146952275093445 0 0.4746847959778191 0.14909435618657371 0 0.4746847959778191 0.14909435618657371 0 0.4843239389335996 0.12566717082418041 0 0.4746847959778191 0.14909435618657371 0 0.4843239389335996 0.12566717082418041 0 0.47683347981744012 0.1209222474623481 0 0.48885105925960681 0.146952275093445 0 0.4746847959778191 0.14909435618657371 0 0.4843239389335996 0.12566717082418041 0 0.46138489250033288 0.13648675036390931 0 0.4746847959778191 0.14909435618657371 0 0.47683347981744012 0.1209222474623481 0 0.4746847959778191 0.14909435618657371 0 0.47683347981744012 0.1209222474623481 0 0.48885105925960681 0.146952275093445 0 0.4843239389335996 0.12566717082418041 0 0.5 0.13554703752580499 0 0.4843239389335996 0.12566717082418041 0 0.5 0.13554703752580499 0 0.49999999999999623 0.10606414541410999 0 0.4843239389335996 0.12566717082418041 0 0.4939630818893751 0.1022399854617851 0 0.4843239389335996 0.12566717082418041 0 0.49999999999999623 0.10606414541410999 0 0.4939630818893751 0.1022399854617851 0 0.4843239389335996 0.12566717082418041 0 0.4939630818893751 0.1022399854617851 0 0.47683347981744012 0.1209222474623481 0 0.49999999999999623 0.10606414541410999 0 0.4939630818893751 0.1022399854617851 0 0.49999999999999889 0.088308851599161756 0 0.49999999999999623 0.10606414541410999 0 0.4939630818893751 0.1022399854617851 0 0.4939630818893751 0.1022399854617851 0 0.49999999999999889 0.088308851599161756 0 0.4939630818893751 0.1022399854617851 0 0.49999999999999889 0.088308851599161756 0 0.49198421006872761 0.092527906051071265 0 0.4939630818893751 0.1022399854617851 0 0.49198421006872761 0.092527906051071265 0 0.47898216365706059 0.09275013873812249 0 0.4939630818893751 0.1022399854617851 0 0.47898216365706059 0.09275013873812249 0 0.47683347981744012 0.1209222474623481 0 0.47898216365706059 0.09275013873812249 0 0.4939630818893751 0.1022399854617851 0 0.47683347981744012 0.1209222474623481 0 0.47898216365706059 0.09275013873812249 0 0.47683347981744012 0.1209222474623481 0 0.47898216365706059 0.09275013873812249 0 0.46296435625750432 0.1026402968244771 0 0.48998111154906682 0.068921161133098305 0 0.5 0.081497553455068483 0 0.5 0.056930961496026833 0 0.48998111154906682 0.068921161133098305 0 0.48284234340339621 0.069450769587915934 0 0.48109604399297817 0.063658538041336032 0 0.48998111154906682 0.068921161133098305 0 0.48109604399297817 0.063658538041336032 0 0.48793071209045469 0.057286443683235211 0 0.48998111154906682 0.068921161133098305 0 0.49098645518512107 0.07925372855005608 0 0.5 0.081497553455068483 0 0.48998111154906682 0.068921161133098305 0 0.48695458254486029 0.073963108153874302 0 0.49098645518512107 0.07925372855005608 0 0.48998111154906682 0.068921161133098305 0 0.48695458254486029 0.073963108153874302 0 0.48284234340339621 0.069450769587915934 0 0.48695458254486029 0.073963108153874302 0 0.4851864727278028 0.081852707411019271 0 0.49098645518512107 0.07925372855005608 0 0.4851864727278028 0.081852707411019271 0 0.49098645518512107 0.07925372855005608 0 0.48884161541983639 0.086088376080050752 0 0.49098645518512107 0.07925372855005608 0 0.4943014687933503 0.085535283147081656 0 0.48884161541983639 0.086088376080050752 0 0.49098645518512107 0.07925372855005608 0 0.5 0.081497553455068483 0 0.4943014687933503 0.085535283147081656 0 0.5 0.081497553455068483 0 0.4943014687933503 0.085535283147081656 0 0.49999999999999889 0.088308851599161756 0 0.4943014687933503 0.085535283147081656 0 0.49999999999999889 0.088308851599161756 0 0.49198421006872761 0.092527906051071265 0 0.49198421006872761 0.092527906051071265 0 0.48884161541983639 0.086088376080050752 0 0.47898216365706059 0.09275013873812249 0 0.4943014687933503 0.085535283147081656 0 0.49198421006872761 0.092527906051071265 0 0.48884161541983639 0.086088376080050752 0 0.47898216365706059 0.09275013873812249 0 0.46551031483808492 0.084216230576162898 0 0.46296435625750432 0.1026402968244771 0 0.4851864727278028 0.081852707411019271 0 0.48884161541983639 0.086088376080050752 0 0.47898216365706059 0.09275013873812249 0 0.47898216365706059 0.09275013873812249 0 0.46551031483808492 0.084216230576162898 0 0.48016754683213481 0.077208185532992385 0 0.46551031483808492 0.084216230576162898 0 0.47898216365706059 0.09275013873812249 0 0.48016754683213481 0.077208185532992385 0 0.46551031483808492 0.084216230576162898 0 0.48016754683213481 0.077208185532992385 0 0.47293432311357508 0.074670689949118144 0 0.46551031483808492 0.084216230576162898 0 0.47898216365706059 0.09275013873812249 0 0.48016754683213481 0.077208185532992385 0 0.4851864727278028 0.081852707411019271 0 0.47898216365706059 0.09275013873812249 0 0.48016754683213481 0.077208185532992385 0 0.48695458254486029 0.073963108153874302 0 0.4851864727278028 0.081852707411019271 0 0.48016754683213481 0.077208185532992385 0 0.48695458254486029 0.073963108153874302 0 0.48029128656943282 0.075585792666992849 0 0.48016754683213481 0.077208185532992385 0 0.48695458254486029 0.073963108153874302 0 0.48016754683213481 0.077208185532992385 0 0.48695458254486029 0.073963108153874302 0 0.48029128656943282 0.075585792666992849 0 0.48284234340339621 0.069450769587915934 0 0.48029128656943282 0.075585792666992849 0 0.47553089131614029 0.068644538195410582 0 0.48284234340339621 0.069450769587915934 0 0.48029128656943282 0.075585792666992849 0 0.48016754683213481 0.077208185532992385 0 0.47293432311357508 0.074670689949118144 0 0.48029128656943282 0.075585792666992849 0 0.48016754683213481 0.077208185532992385 0 0.48029128656943282 0.075585792666992849 0 0.47293432311357508 0.074670689949118144 0 0.47553089131614029 0.068644538195410582 0 0.47553089131614029 0.068644538195410582 0 0.48109604399297817 0.063658538041336032 0 0.4725703224000678 0.059815873830256362 0 0.47553089131614029 0.068644538195410582 0 0.46338557648767242 0.066647074297733547 0 0.4725703224000678 0.059815873830256362 0 0.47293432311357508 0.074670689949118144 0 0.47553089131614029 0.068644538195410582 0 0.46338557648767242 0.066647074297733547 0 0.47553089131614029 0.068644538195410582 0 0.48284234340339621 0.069450769587915934 0 0.48109604399297817 0.063658538041336032 0 0.46338557648767242 0.066647074297733547 0 0.46551031483808492 0.084216230576162898 0 0.44339853329606838 0.070209250872595969 0 0.46551031483808492 0.084216230576162898 0 0.44339853329606838 0.070209250872595969 0 0.47293432311357508 0.074670689949118144 0 0.46338557648767242 0.066647074297733547 0 0.46551031483808492 0.084216230576162898 0 0.46551031483808492 0.084216230576162898 0 0.44092912847325788 0.095969204216014681 0 0.46551031483808492 0.084216230576162898 0 0.44339853329606838 0.070209250872595969 0 0.44092912847325788 0.095969204216014681 0 0.46338557648767242 0.066647074297733547 0 0.44339853329606838 0.070209250872595969 0 0.45248541571184642 0.055282155050284609 0 0.47683347981744012 0.1209222474623481 0 0.46296435625750432 0.1026402968244771 0 0.4525666945016768 0.1193436631297375 0 0.46551031483808492 0.084216230576162898 0 0.46296435625750432 0.1026402968244771 0 0.44092912847325788 0.095969204216014681 0 0.46296435625750432 0.1026402968244771 0 0.44092912847325788 0.095969204216014681 0 0.4525666945016768 0.1193436631297375 0 0.44092912847325788 0.095969204216014681 0 0.4525666945016768 0.1193436631297375 0 0.43510733962454878 0.1163184664422808 0 0.43890813245659382 0.12781704339536121 0 0.4525666945016768 0.1193436631297375 0 0.43510733962454878 0.1163184664422808 0 0.42914519419033881 0.12505097274085589 0 0.43890813245659382 0.12781704339536121 0 0.43510733962454878 0.1163184664422808 0 0.42914519419033881 0.12505097274085589 0 0.43510733962454878 0.1163184664422808 0 0.42558236973749042 0.1183094841087123 0 0.43510733962454878 0.1163184664422808 0 0.42558236973749042 0.1183094841087123 0 0.4163479421084304 0.10772217785586551 0 0.42914519419033881 0.12505097274085589 0 0.42558236973749042 0.1183094841087123 0 0.42236770557394993 0.1227714631355576 0 0.41586539664187988 0.1229777333534495 0 0.4163479421084304 0.10772217785586551 0 0.39319004157269338 0.1187946375212133 0 0.42236770557394993 0.1227714631355576 0 0.41586539664187988 0.1229777333534495 0 0.4163479421084304 0.10772217785586551 0 0.42558236973749042 0.1183094841087123 0 0.42236770557394993 0.1227714631355576 0 0.4163479421084304 0.10772217785586551 0 0.41586539664187988 0.1229777333534495 0 0.4163479421084304 0.10772217785586551 0 0.41665042166300931 0.098159361599814116 0 0.40690740095505851 0.091369438711050854 0 0.40614797871500358 0.1035647228892862 0 0.4163479421084304 0.10772217785586551 0 0.41665042166300931 0.098159361599814116 0 0.40614797871500358 0.1035647228892862 0 0.4163479421084304 0.10772217785586551 0 0.41665042166300931 0.098159361599814116 0 0.44092912847325788 0.095969204216014681 0 0.43510733962454878 0.1163184664422808 0 0.4163479421084304 0.10772217785586551 0 0.44092912847325788 0.095969204216014681 0 0.4163479421084304 0.10772217785586551 0 0.44092912847325788 0.095969204216014681 0 0.4163479421084304 0.10772217785586551 0 0.41665042166300931 0.098159361599814116 0 0.44339853329606838 0.070209250872595969 0 0.44092912847325788 0.095969204216014681 0 0.42761204924253532 0.084008755376389688 0 0.44092912847325788 0.095969204216014681 0 0.41665042166300931 0.098159361599814116 0 0.42761204924253532 0.084008755376389688 0 0.44339853329606838 0.070209250872595969 0 0.42128675175405222 0.056202271169028921 0 0.44339853329606838 0.070209250872595969 0 0.42761204924253532 0.084008755376389688 0 0.42128675175405222 0.056202271169028921 0 0.42761204924253532 0.084008755376389688 0 0.41239994247121542 0.077234427053749569 0 0.42128675175405222 0.056202271169028921 0 0.41239994247121542 0.077234427053749569 0 0.40378368131546633 0.068590023670622988 0 0.42128675175405222 0.056202271169028921 0 0.41665042166300931 0.098159361599814116 0 0.42761204924253532 0.084008755376389688 0 0.41662374063729879 0.086817731935713252 0 0.42761204924253532 0.084008755376389688 0 0.41239994247121542 0.077234427053749569 0 0.41662374063729879 0.086817731935713252 0 0.41239994247121542 0.077234427053749569 0 0.41662374063729879 0.086817731935713252 0 0.40690740095505851 0.091369438711050854 0 0.41239994247121542 0.077234427053749569 0 0.40690740095505851 0.091369438711050854 0 0.40023305922889568 0.081207098579512901 0 0.41665042166300931 0.098159361599814116 0 0.41662374063729879 0.086817731935713252 0 0.40690740095505851 0.091369438711050854 0 0.40690740095505851 0.091369438711050854 0 0.40023305922889568 0.081207098579512901 0 0.39663796131576601 0.092007106704591599 0 0.40023305922889568 0.081207098579512901 0 0.39091598617255591 0.085454781259413443 0 0.39183048221324113 0.071964000341827303 0 0.39091598617255591 0.085454781259413443 0 0.39663796131576601 0.092007106704591599 0 0.38822754657943082 0.097206119377103301 0 0.40023305922889568 0.081207098579512901 0 0.39091598617255591 0.085454781259413443 0 0.39663796131576601 0.092007106704591599 0 0.40023305922889568 0.081207098579512901 0 0.40378368131546633 0.068590023670622988 0 0.39183048221324113 0.071964000341827303 0 0.41239994247121542 0.077234427053749569 0 0.40023305922889568 0.081207098579512901 0 0.40378368131546633 0.068590023670622988 0 0.40378368131546633 0.068590023670622988 0 0.39183048221324113 0.071964000341827303 0 0.3945840954168468 0.058116790574746557 0 0.39183048221324113 0.071964000341827303 0 0.38374828894987029 0.060207224064756329 0 0.3945840954168468 0.058116790574746557 0 0.39183048221324113 0.071964000341827303 0 0.37820641782159958 0.071016453268473848 0 0.38374828894987029 0.060207224064756329 0 0.39183048221324113 0.071964000341827303 0 0.37820641782159958 0.071016453268473848 0 0.38506432916482097 0.078739144136018929 0 0.37130064958923908 0.07700426738662966 0 0.37820641782159958 0.071016453268473848 0 0.37576215416196801 0.083992335024357823 0 0.37820641782159958 0.071016453268473848 0 0.38506432916482097 0.078739144136018929 0 0.37576215416196801 0.083992335024357823 0 0.37246663029228039 0.059062908495388013 0 0.37820641782159958 0.071016453268473848 0 0.38374828894987029 0.060207224064756329 0 0.39091598617255591 0.085454781259413443 0 0.3831969207603399 0.089620363154807758 0 0.38822754657943082 0.097206119377103301 0 0.39091598617255591 0.085454781259413443 0 0.3831969207603399 0.089620363154807758 0 0.38506432916482097 0.078739144136018929 0 0.39091598617255591 0.085454781259413443 0 0.39183048221324113 0.071964000341827303 0 0.38506432916482097 0.078739144136018929 0 0.3831969207603399 0.089620363154807758 0 0.38506432916482097 0.078739144136018929 0 0.37576215416196801 0.083992335024357823 0 0.3831969207603399 0.089620363154807758 0 0.37576215416196801 0.083992335024357823 0 0.37721626601910069 0.096071646977501271 0 0.37721626601910069 0.096071646977501271 0 0.38822754657943082 0.097206119377103301 0 0.38039297071878081 0.1039432120721248 0 0.36991294537310099 0.1025604628089055 0 0.37721626601910069 0.096071646977501271 0 0.38039297071878081 0.1039432120721248 0 0.3831969207603399 0.089620363154807758 0 0.37721626601910069 0.096071646977501271 0 0.38822754657943082 0.097206119377103301 0 0.38822754657943082 0.097206119377103301 0 0.38934511073634143 0.10802137939527789 0 0.38039297071878081 0.1039432120721248 0 0.38934511073634143 0.10802137939527789 0 0.38039297071878081 0.1039432120721248 0 0.37726298488593019 0.11585645180183619 0 0.36991294537310099 0.1025604628089055 0 0.38039297071878081 0.1039432120721248 0 0.37726298488593019 0.11585645180183619 0 0.37726298488593019 0.11585645180183619 0 0.38210660122829138 0.124439647968437 0 0.39319004157269338 0.1187946375212133 0 0.37726298488593019 0.11585645180183619 0 0.39319004157269338 0.1187946375212133 0 0.38934511073634143 0.10802137939527789 0 0.37726298488593019 0.11585645180183619 0 0.39319004157269338 0.1187946375212133 0 0.37247014126068251 0.1246251006265711 0 0.37726298488593019 0.11585645180183619 0 0.38210660122829138 0.124439647968437 0 0.39097296983389079 0.12851252042137309 0 0.38210660122829138 0.124439647968437 0 0.39319004157269338 0.1187946375212133 0 0.39971918636932008 0.1330707377977268 0 0.41586539664187988 0.1229777333534495 0 0.39319004157269338 0.1187946375212133 0 0.41586539664187988 0.1229777333534495 0 0.39319004157269338 0.1187946375212133 0 0.38934511073634143 0.10802137939527789 0 0.39319004157269338 0.1187946375212133 0 0.39764408727582617 0.1017779987584838 0 0.4163479421084304 0.10772217785586551 0 0.39319004157269338 0.1187946375212133 0 0.4163479421084304 0.10772217785586551 0 0.39319004157269338 0.1187946375212133 0 0.40614797871500358 0.1035647228892862 0 0.39319004157269338 0.1187946375212133 0 0.40614797871500358 0.1035647228892862 0 0.39764408727582617 0.1017779987584838 0 0.40690740095505851 0.091369438711050854 0 0.40614797871500358 0.1035647228892862 0 0.39764408727582617 0.1017779987584838 0 0.40690740095505851 0.091369438711050854 0 0.39663796131576601 0.092007106704591599 0 0.39764408727582617 0.1017779987584838 0 0.39663796131576601 0.092007106704591599 0 0.38822754657943082 0.097206119377103301 0 0.39764408727582617 0.1017779987584838 0 0.38822754657943082 0.097206119377103301 0 0.38934511073634143 0.10802137939527789 0 0.39764408727582617 0.1017779987584838 0 0.4056206315133275 0.019841253238411571 0 0.39917497021203607 0.042195291465461672 0 0.4056206315133275 0.019841253238411571 0 0.39976398058418838 0.026861863752091489 0 0.39784875952316889 0.0094307980316360833 0 0.4056206315133275 0.019841253238411571 0 0.39976398058418838 0.026861863752091489 0 0.39917497021203607 0.042195291465461672 0 0.39976398058418838 0.026861863752091489 0 0.39784875952316889 0.0094307980316360833 0 0.37618340284127028 0.02763100061881239 0 0.39976398058418838 0.026861863752091489 0 0.39784875952316889 0.0094307980316360833 0 0.4056206315133275 0.019841253238411571 0 0.39784875952316889 0.0094307980316360833 0 0.41206629281461821 -0.0025127849886386559 0 0.39784875952316889 0.0094307980316360833 0 0.39589629820870148 -0.0083392036573279836 0 0.39784875952316889 0.0094307980316360833 0 0.38613498530897328 0.0047967785454649612 0 0.39589629820870148 -0.0083392036573279836 0 0.39784875952316889 0.0094307980316360833 0 0.41206629281461821 -0.0025127849886386559 0 0.4041671736167915 -0.0059418597504846222 0 0.39784875952316889 0.0094307980316360833 0 0.41206629281461821 -0.0025127849886386559 0 0.39784875952316889 0.0094307980316360833 0 0.38613498530897328 0.0047967785454649612 0 0.37661767953208142 0.01454533555671802 0 0.38613498530897328 0.0047967785454649612 0 0.37542626696592107 0.001506786463406601 0 0.37661767953208142 0.01454533555671802 0 0.38613498530897328 0.0047967785454649612 0 0.37542626696592107 0.001506786463406601 0 0.38416964962084288 -0.0040222420093890873 0 0.39784875952316889 0.0094307980316360833 0 0.37618340284127028 0.02763100061881239 0 0.39784875952316889 0.0094307980316360833 0 0.37661767953208142 0.01454533555671802 0 0.37618340284127028 0.02763100061881239 0 0.37618340284127028 0.02763100061881239 0 0.39917497021203607 0.042195291465461672 0 0.37618340284127028 0.02763100061881239 0 0.38397549735300263 0.041503069378355101 0 0.39917497021203607 0.042195291465461672 0 0.37378174681558091 0.02964853611818416 0 0.37618340284127028 0.02763100061881239 0 0.37529397556204641 0.038114381301599047 0 0.37618340284127028 0.02763100061881239 0 0.37529397556204641 0.038114381301599047 0 0.38397549735300263 0.041503069378355101 0 0.37529397556204641 0.038114381301599047 0 0.38397549735300263 0.041503069378355101 0 0.37940256762744512 0.050063293852370253 0 0.37246663029228039 0.059062908495388013 0 0.37940256762744512 0.050063293852370253 0 0.38374828894987029 0.060207224064756329 0 0.38397549735300263 0.041503069378355101 0 0.37940256762744512 0.050063293852370253 0 0.38952528132859821 0.049317101008874549 0 0.37940256762744512 0.050063293852370253 0 0.38952528132859821 0.049317101008874549 0 0.38374828894987029 0.060207224064756329 0 0.38952528132859821 0.049317101008874549 0 0.38374828894987029 0.060207224064756329 0 0.3945840954168468 0.058116790574746557 0 0.38952528132859821 0.049317101008874549 0 0.3945840954168468 0.058116790574746557 0 0.39917497021203607 0.042195291465461672 0 0.3945840954168468 0.058116790574746557 0 0.39917497021203607 0.042195291465461672 0 0.42128675175405222 0.056202271169028921 0 0.3945840954168468 0.058116790574746557 0 0.39917497021203607 0.042195291465461672 0 0.39976398058418838 0.026861863752091489 0 0.37618340284127028 0.02763100061881239 0 0.39917497021203607 0.042195291465461672 0 0.38397549735300263 0.041503069378355101 0 0.38952528132859821 0.049317101008874549 0 0.39917497021203607 0.042195291465461672 0 0.39917497021203607 0.042195291465461672 0 0.42128675175405222 0.056202271169028921 0 0.42731229846472613 0.033375253002885498 0 0.4056206315133275 0.019841253238411571 0 0.39917497021203607 0.042195291465461672 0 0.42731229846472613 0.033375253002885498 0 0.40378368131546633 0.068590023670622988 0 0.3945840954168468 0.058116790574746557 0 0.42128675175405222 0.056202271169028921 0 0.39917497021203607 0.042195291465461672 0 0.42128675175405222 0.056202271169028921 0 0.44339853329606838 0.070209250872595969 0 0.42128675175405222 0.056202271169028921 0 0.43838999993106409 0.048917064159209538 0 0.42128675175405222 0.056202271169028921 0 0.42731229846472613 0.033375253002885498 0 0.43838999993106409 0.048917064159209538 0 0.42731229846472613 0.033375253002885498 0 0.42850392072748639 0.010326550527349231 0 0.44733741422014428 0.02029231641237432 0 0.4056206315133275 0.019841253238411571 0 0.42731229846472613 0.033375253002885498 0 0.42850392072748639 0.010326550527349231 0 0.4056206315133275 0.019841253238411571 0 0.42850392072748639 0.010326550527349231 0 0.41206629281461821 -0.0025127849886386559 0 0.4056206315133275 0.019841253238411571 0 0.41206629281461821 -0.0025127849886386559 0 0.42850392072748639 0.010326550527349231 0 0.45134209303798889 0.002942339624587384 0 0.42701313955698278 -0.01176867533161138 0 0.42850392072748639 0.010326550527349231 0 0.45134209303798889 0.002942339624587384 0 0.44733741422014428 0.02029231641237432 0 0.42731229846472613 0.033375253002885498 0 0.44733741422014428 0.02029231641237432 0 0.4538577123515255 0.03716408432626335 0 0.44733741422014428 0.02029231641237432 0 0.4538577123515255 0.03716408432626335 0 0.47567104651899489 0.01765335458078611 0 0.45134209303798889 0.002942339624587384 0 0.47567104651899489 0.01765335458078611 0 0.46803972493234969 -0.00050691327811040504 0 0.45134209303798889 0.002942339624587384 0 0.44733741422014428 0.02029231641237432 0 0.47567104651899489 0.01765335458078611 0 0.45134209303798889 0.002942339624587384 0 0.47567104651899489 0.01765335458078611 0 0.45248541571184642 0.055282155050284609 0 0.43838999993106409 0.048917064159209538 0 0.4538577123515255 0.03716408432626335 0 0.44339853329606838 0.070209250872595969 0 0.45248541571184642 0.055282155050284609 0 0.43838999993106409 0.048917064159209538 0 0.42731229846472613 0.033375253002885498 0 0.43838999993106409 0.048917064159209538 0 0.4538577123515255 0.03716408432626335 0 0.4538577123515255 0.03716408432626335 0 0.4657051824921361 0.050543312877400048 0 0.47748671949134819 0.036635150197911998 0 0.46338557648767242 0.066647074297733547 0 0.4657051824921361 0.050543312877400048 0 0.4725703224000678 0.059815873830256362 0 0.46338557648767242 0.066647074297733547 0 0.45248541571184642 0.055282155050284609 0 0.4657051824921361 0.050543312877400048 0 0.45248541571184642 0.055282155050284609 0 0.4538577123515255 0.03716408432626335 0 0.4657051824921361 0.050543312877400048 0 0.48109604399297817 0.063658538041336032 0 0.47873166791779598 0.05194759119707254 0 0.48793071209045469 0.057286443683235211 0 0.48109604399297817 0.063658538041336032 0 0.4725703224000678 0.059815873830256362 0 0.47873166791779598 0.05194759119707254 0 0.4657051824921361 0.050543312877400048 0 0.4725703224000678 0.059815873830256362 0 0.47873166791779598 0.05194759119707254 0 0.47873166791779598 0.05194759119707254 0 0.47748671949134819 0.036635150197911998 0 0.48984473699243242 0.044973966548642337 0 0.4657051824921361 0.050543312877400048 0 0.47873166791779598 0.05194759119707254 0 0.47748671949134819 0.036635150197911998 0 0.47748671949134819 0.036635150197911998 0 0.50000000000000089 0.032364369536985287 0 0.48984473699243242 0.044973966548642337 0 0.50000000000000089 0.032364369536985287 0 0.48984473699243242 0.044973966548642337 0 0.5 0.056930961496026833 0 0.47873166791779598 0.05194759119707254 0 0.48984473699243242 0.044973966548642337 0 0.48793071209045469 0.057286443683235211 0 0.48984473699243242 0.044973966548642337 0 0.5 0.056930961496026833 0 0.48793071209045469 0.057286443683235211 0 0.48998111154906682 0.068921161133098305 0 0.5 0.056930961496026833 0 0.48793071209045469 0.057286443683235211 0 0.47567104651899489 0.01765335458078611 0 0.48117780009827749 -0.0042826672001312262 0 0.46803972493234969 -0.00050691327811040504 0 0.4538577123515255 0.03716408432626335 0 0.47748671949134819 0.036635150197911998 0 0.47567104651899489 0.01765335458078611 0 0.50000000000000089 0.032364369536985287 0 0.47567104651899489 0.01765335458078611 0 0.5 0.0085519818642604273 0 0.50000000000000089 0.032364369536985287 0 0.47567104651899489 0.01765335458078611 0 0.47748671949134819 0.036635150197911998 0 0.50000000000000089 0.032364369536985287 0 0.47567104651899489 0.01765335458078611 0 0.47567104651899489 0.01765335458078611 0 0.5 0.0085519818642604273 0 0.48117780009827749 -0.0042826672001312262 0 0.5 -0.01526040580846438 0 0.48117780009827749 -0.0042826672001312262 0 0.48497145765251393 -0.018840017842272891 0 0.5 0.0085519818642604273 0 0.5 -0.01526040580846438 0 0.48117780009827749 -0.0042826672001312262 0 0.48117780009827749 -0.0042826672001312262 0 0.46803972493234969 -0.00050691327811040504 0 0.46396796007413771 -0.018340680117683889 0 0.48117780009827749 -0.0042826672001312262 0 0.48497145765251393 -0.018840017842272891 0 0.46396796007413771 -0.018340680117683889 0 0.48497145765251393 -0.018840017842272891 0 0.47581791871067369 -0.031285235085977151 0 0.46396796007413771 -0.018340680117683889 0 0.5 -0.01526040580846438 0 0.48497145765251393 -0.018840017842272891 0 0.5 -0.039072793481189187 0 0.48497145765251393 -0.018840017842272891 0 0.5 -0.039072793481189187 0 0.47581791871067369 -0.031285235085977151 0 0.5 -0.039072793481189187 0 0.48377439780405113 -0.048017737084094271 0 0.47581791871067369 -0.031285235085977151 0 0.48377439780405113 -0.048017737084094271 0 0.49999999999999639 -0.062885181153914005 0 0.47358994691147521 -0.063495435320493537 0 0.5 -0.039072793481189187 0 0.48377439780405113 -0.048017737084094271 0 0.49999999999999639 -0.062885181153914005 0 0.48377439780405113 -0.048017737084094271 0 0.46918517137358501 -0.057343970044801323 0 0.45647237375124988 -0.039589981797728352 0 0.48377439780405113 -0.048017737084094271 0 0.46918517137358501 -0.057343970044801323 0 0.47358994691147521 -0.063495435320493537 0 0.46918517137358501 -0.057343970044801323 0 0.47358994691147521 -0.063495435320493537 0 0.48377439780405113 -0.048017737084094271 0 0.47581791871067369 -0.031285235085977151 0 0.45647237375124988 -0.039589981797728352 0 0.47581791871067369 -0.031285235085977151 0 0.45647237375124988 -0.039589981797728352 0 0.47581791871067369 -0.031285235085977151 0 0.45647237375124988 -0.039589981797728352 0 0.45727523528988318 -0.027710901642503508 0 0.46918517137358501 -0.057343970044801323 0 0.45647237375124988 -0.039589981797728352 0 0.46918517137358501 -0.057343970044801323 0 0.45647237375124988 -0.039589981797728352 0 0.4551911690018714 -0.054234280207603437 0 0.46918517137358501 -0.057343970044801323 0 0.45930288149609327 -0.05999083135087499 0 0.46918517137358501 -0.057343970044801323 0 0.4551911690018714 -0.054234280207603437 0 0.45930288149609327 -0.05999083135087499 0 0.46918517137358501 -0.057343970044801323 0 0.45930288149609327 -0.05999083135087499 0 0.47358994691147521 -0.063495435320493537 0 0.4551911690018714 -0.054234280207603437 0 0.45930288149609327 -0.05999083135087499 0 0.4551911690018714 -0.054234280207603437 0 0.45930288149609327 -0.05999083135087499 0 0.43977080884374331 -0.064987933557510216 0 0.45647237375124988 -0.039589981797728352 0 0.44527207197540158 -0.05247873064434521 0 0.42965393630474169 -0.051102727014538871 0 0.45930288149609327 -0.05999083135087499 0 0.43977080884374331 -0.064987933557510216 0 0.4551911690018714 -0.054234280207603437 0 0.44527207197540158 -0.05247873064434521 0 0.43977080884374331 -0.064987933557510216 0 0.45647237375124988 -0.039589981797728352 0 0.4551911690018714 -0.054234280207603437 0 0.44527207197540158 -0.05247873064434521 0 0.44527207197540158 -0.05247873064434521 0 0.43977080884374331 -0.064987933557510216 0 0.42965393630474169 -0.051102727014538871 0 0.45647237375124988 -0.039589981797728352 0 0.42965393630474169 -0.051102727014538871 0 0.45647237375124988 -0.039589981797728352 0 0.44202753336073253 -0.036004690611236748 0 0.42965393630474169 -0.051102727014538871 0 0.45647237375124988 -0.039589981797728352 0 0.44490134711620782 -0.02343052760141635 0 0.45647237375124988 -0.039589981797728352 0 0.44202753336073253 -0.036004690611236748 0 0.44490134711620782 -0.02343052760141635 0 0.44202753336073253 -0.036004690611236748 0 0.43831129415615327 -0.029058171810830789 0 0.43278403828134071 -0.036187846570994303 0 0.44202753336073253 -0.036004690611236748 0 0.43831129415615327 -0.029058171810830789 0 0.44490134711620782 -0.02343052760141635 0 0.44490134711620782 -0.02343052760141635 0 0.44103274622748828 -0.020885128791943219 0 0.46396796007413771 -0.018340680117683889 0 0.44103274622748828 -0.020885128791943219 0 0.46396796007413771 -0.018340680117683889 0 0.45647237375124988 -0.039589981797728352 0 0.44490134711620782 -0.02343052760141635 0 0.45727523528988318 -0.027710901642503508 0 0.43831129415615327 -0.029058171810830789 0 0.44490134711620782 -0.02343052760141635 0 0.44103274622748828 -0.020885128791943219 0 0.45134209303798889 0.002942339624587384 0 0.44103274622748828 -0.020885128791943219 0 0.46396796007413771 -0.018340680117683889 0 0.45134209303798889 0.002942339624587384 0 0.44103274622748828 -0.020885128791943219 0 0.42701313955698278 -0.01176867533161138 0 0.45134209303798889 0.002942339624587384 0 0.42701313955698278 -0.01176867533161138 0 0.45134209303798889 0.002942339624587384 0 0.46803972493234969 -0.00050691327811040504 0 0.46396796007413771 -0.018340680117683889 0 0.47581791871067369 -0.031285235085977151 0 0.46396796007413771 -0.018340680117683889 0 0.45727523528988318 -0.027710901642503508 0 0.44490134711620782 -0.02343052760141635 0 0.46396796007413771 -0.018340680117683889 0 0.45727523528988318 -0.027710901642503508 0 0.47714353557555811 -0.1231858118752872 0 0.48660734421079799 -0.098218099497118572 0 0.47714353557555811 -0.1231858118752872 0 0.50000000000000233 -0.11696831807469089 0 0.48660734421079799 -0.098218099497118572 0 0.50000000000000233 -0.11696831807469089 0 0.50000000000000033 -0.1003782510521368 0 0.48660734421079799 -0.098218099497118572 0 0.50000000000000233 -0.11696831807469089 0 0.48660734421079799 -0.098218099497118572 0 0.50000000000000033 -0.1003782510521368 0 0.49070752007170482 -0.087400888843255642 0 0.50000000000000033 -0.1003782510521368 0 0.48660734421079799 -0.098218099497118572 0 0.49070752007170482 -0.087400888843255642 0 0.47714353557555811 -0.1231858118752872 0 0.48660734421079799 -0.098218099497118572 0 0.46827398155606492 -0.1008922046363228 0 0.48660734421079799 -0.098218099497118572 0 0.47295511285344738 -0.07910446542399549 0 0.48660734421079799 -0.098218099497118572 0 0.47295511285344738 -0.07910446542399549 0 0.46827398155606492 -0.1008922046363228 0 0.48660734421079799 -0.098218099497118572 0 0.47295511285344738 -0.07910446542399549 0 0.49070752007170482 -0.087400888843255642 0 0.50000000000000033 -0.1003782510521368 0 0.49070752007170482 -0.087400888843255642 0 0.5 -0.081631716103025387 0 0.48660734421079799 -0.098218099497118572 0 0.49070752007170482 -0.087400888843255642 0 0.49070752007170482 -0.087400888843255642 0 0.49999999999999639 -0.062885181153914005 0 0.47358994691147521 -0.063495435320493537 0 0.49070752007170482 -0.087400888843255642 0 0.5 -0.081631716103025387 0 0.49999999999999639 -0.062885181153914005 0 0.49070752007170482 -0.087400888843255642 0 0.49999999999999639 -0.062885181153914005 0 0.49070752007170482 -0.087400888843255642 0 0.47358994691147521 -0.063495435320493537 0 0.47295511285344738 -0.07910446542399549 0 0.49070752007170482 -0.087400888843255642 0 0.47358994691147521 -0.063495435320493537 0 0.45930288149609327 -0.05999083135087499 0 0.47295511285344738 -0.07910446542399549 0 0.45484940674075502 -0.075348547797143089 0 0.45930288149609327 -0.05999083135087499 0 0.47295511285344738 -0.07910446542399549 0 0.45930288149609327 -0.05999083135087499 0 0.47295511285344738 -0.07910446542399549 0 0.47358994691147521 -0.063495435320493537 0 0.45930288149609327 -0.05999083135087499 0 0.45484940674075502 -0.075348547797143089 0 0.43977080884374331 -0.064987933557510216 0 0.45484940674075502 -0.075348547797143089 0 0.43977080884374331 -0.064987933557510216 0 0.44355514540906449 -0.084962931744084091 0 0.43977080884374331 -0.064987933557510216 0 0.44355514540906449 -0.084962931744084091 0 0.42953598278715249 -0.081149337305265606 0 0.45484940674075502 -0.075348547797143089 0 0.44355514540906449 -0.084962931744084091 0 0.4586630851014265 -0.087696576909251242 0 0.44355514540906449 -0.084962931744084091 0 0.4586630851014265 -0.087696576909251242 0 0.45427304814514641 -0.1022385885111402 0 0.47295511285344738 -0.07910446542399549 0 0.45484940674075502 -0.075348547797143089 0 0.4586630851014265 -0.087696576909251242 0 0.47295511285344738 -0.07910446542399549 0 0.4586630851014265 -0.087696576909251242 0 0.46827398155606492 -0.1008922046363228 0 0.46827398155606492 -0.1008922046363228 0 0.45427304814514641 -0.1022385885111402 0 0.46000176345001642 -0.11490968560114539 0 0.4586630851014265 -0.087696576909251242 0 0.46827398155606492 -0.1008922046363228 0 0.45427304814514641 -0.1022385885111402 0 0.45427304814514641 -0.1022385885111402 0 0.43788895477534068 -0.10448249308583971 0 0.44588330862648778 -0.1180076359783393 0 0.44355514540906449 -0.084962931744084091 0 0.45427304814514641 -0.1022385885111402 0 0.43788895477534068 -0.10448249308583971 0 0.43788895477534068 -0.10448249308583971 0 0.44588330862648778 -0.1180076359783393 0 0.43094981822918821 -0.1206840253198377 0 0.44588330862648778 -0.1180076359783393 0 0.46000176345001642 -0.11490968560114539 0 0.45239641302864392 -0.131914933188607 0 0.44588330862648778 -0.1180076359783393 0 0.43094981822918821 -0.1206840253198377 0 0.43699381618396771 -0.1328358591547868 0 0.45427304814514641 -0.1022385885111402 0 0.44588330862648778 -0.1180076359783393 0 0.46000176345001642 -0.11490968560114539 0 0.47714353557555811 -0.1231858118752872 0 0.46000176345001642 -0.11490968560114539 0 0.45239641302864392 -0.131914933188607 0 0.47714353557555811 -0.1231858118752872 0 0.46827398155606492 -0.1008922046363228 0 0.46000176345001642 -0.11490968560114539 0 0.41253392001925848 -0.1165342270688198 0 0.4014974095201716 -0.1219223874842269 0 0.4104020400152254 -0.12645048000692549 0 0.41253392001925848 -0.1165342270688198 0 0.41801274653533999 -0.1246265127833686 0 0.4104020400152254 -0.12645048000692549 0 0.41253392001925848 -0.1165342270688198 0 0.41271735993286962 -0.1021735170757912 0 0.40349786387612202 -0.110518683156512 0 0.41253392001925848 -0.1165342270688198 0 0.42110710447898991 -0.117282529099871 0 0.42351823631287078 -0.1089274689077486 0 0.41253392001925848 -0.1165342270688198 0 0.41801274653533999 -0.1246265127833686 0 0.42110710447898991 -0.117282529099871 0 0.41801274653533999 -0.1246265127833686 0 0.42110710447898991 -0.117282529099871 0 0.43094981822918821 -0.1206840253198377 0 0.43788895477534068 -0.10448249308583971 0 0.43094981822918821 -0.1206840253198377 0 0.42351823631287078 -0.1089274689077486 0 0.42110710447898991 -0.117282529099871 0 0.43094981822918821 -0.1206840253198377 0 0.42351823631287078 -0.1089274689077486 0 0.44355514540906449 -0.084962931744084091 0 0.43788895477534068 -0.10448249308583971 0 0.42608063166477678 -0.094904741770023768 0 0.43788895477534068 -0.10448249308583971 0 0.42351823631287078 -0.1089274689077486 0 0.42608063166477678 -0.094904741770023768 0 0.41271735993286962 -0.1021735170757912 0 0.41403750112424492 -0.086516888450342055 0 0.39714909781578389 -0.095648474041500897 0 0.42608063166477678 -0.094904741770023768 0 0.41271735993286962 -0.1021735170757912 0 0.41403750112424492 -0.086516888450342055 0 0.41253392001925848 -0.1165342270688198 0 0.42351823631287078 -0.1089274689077486 0 0.41271735993286962 -0.1021735170757912 0 0.42351823631287078 -0.1089274689077486 0 0.42608063166477678 -0.094904741770023768 0 0.41271735993286962 -0.1021735170757912 0 0.41403750112424492 -0.086516888450342055 0 0.42953598278715249 -0.081149337305265606 0 0.4202387361913934 -0.069985035764146025 0 0.44355514540906449 -0.084962931744084091 0 0.42608063166477678 -0.094904741770023768 0 0.42953598278715249 -0.081149337305265606 0 0.42608063166477678 -0.094904741770023768 0 0.41403750112424492 -0.086516888450342055 0 0.42953598278715249 -0.081149337305265606 0 0.43977080884374331 -0.064987933557510216 0 0.42953598278715249 -0.081149337305265606 0 0.4202387361913934 -0.069985035764146025 0 0.43977080884374331 -0.064987933557510216 0 0.4202387361913934 -0.069985035764146025 0 0.4202387361913934 -0.069985035764146025 0 0.40070666353904338 -0.07498213797078114 0 0.4202387361913934 -0.069985035764146025 0 0.402835498858233 -0.062615472231348376 0 0.40070666353904338 -0.07498213797078114 0 0.41403750112424492 -0.086516888450342055 0 0.4202387361913934 -0.069985035764146025 0 0.40070666353904338 -0.07498213797078114 0 0.402835498858233 -0.062615472231348376 0 0.40070666353904338 -0.07498213797078114 0 0.40070666353904338 -0.07498213797078114 0 0.39071092265010449 -0.077539456886297334 0 0.38929403358468162 -0.068428616262117714 0 0.40070666353904338 -0.07498213797078114 0 0.39071092265010449 -0.077539456886297334 0 0.402835498858233 -0.062615472231348376 0 0.38929403358468162 -0.068428616262117714 0 0.402835498858233 -0.062615472231348376 0 0.40070666353904338 -0.07498213797078114 0 0.38929403358468162 -0.068428616262117714 0 0.38929403358468162 -0.068428616262117714 0 0.37977859843197409 -0.072513447108757831 0 0.38084039863712221 -0.06186155349752389 0 0.37977859843197409 -0.072513447108757831 0 0.38084039863712221 -0.06186155349752389 0 0.37267480359395733 -0.066426459970780005 0 0.38929403358468162 -0.068428616262117714 0 0.37977859843197409 -0.072513447108757831 0 0.38929403358468162 -0.068428616262117714 0 0.37977859843197409 -0.072513447108757831 0 0.38243116928385551 -0.078809663413806672 0 0.38929403358468162 -0.068428616262117714 0 0.38701067696397279 -0.089210206507164908 0 0.39071092265010449 -0.077539456886297334 0 0.38929403358468162 -0.068428616262117714 0 0.38701067696397279 -0.089210206507164908 0 0.38929403358468162 -0.068428616262117714 0 0.38243116928385551 -0.078809663413806672 0 0.38701067696397279 -0.089210206507164908 0 0.38243116928385551 -0.078809663413806672 0 0.38701067696397279 -0.089210206507164908 0 0.37364136815479387 -0.085086383777186775 0 0.37977859843197409 -0.072513447108757831 0 0.38243116928385551 -0.078809663413806672 0 0.37364136815479387 -0.085086383777186775 0 0.38701067696397279 -0.089210206507164908 0 0.3764083098757825 -0.098457761873174635 0 0.37364136815479387 -0.085086383777186775 0 0.41403750112424492 -0.086516888450342055 0 0.40070666353904338 -0.07498213797078114 0 0.39714909781578389 -0.095648474041500897 0 0.40070666353904338 -0.07498213797078114 0 0.39071092265010449 -0.077539456886297334 0 0.39714909781578389 -0.095648474041500897 0 0.40070666353904338 -0.07498213797078114 0 0.39714909781578389 -0.095648474041500897 0 0.39071092265010449 -0.077539456886297334 0 0.38701067696397279 -0.089210206507164908 0 0.39714909781578389 -0.095648474041500897 0 0.39714909781578389 -0.095648474041500897 0 0.39359153209252629 -0.116314810112221 0 0.40349786387612202 -0.110518683156512 0 0.39714909781578389 -0.095648474041500897 0 0.38472732034326268 -0.10999179675221191 0 0.39359153209252629 -0.116314810112221 0 0.39714909781578389 -0.095648474041500897 0 0.39359153209252629 -0.116314810112221 0 0.41271735993286962 -0.1021735170757912 0 0.39714909781578389 -0.095648474041500897 0 0.40349786387612202 -0.110518683156512 0 0.38701067696397279 -0.089210206507164908 0 0.39714909781578389 -0.095648474041500897 0 0.38472732034326268 -0.10999179675221191 0 0.38701067696397279 -0.089210206507164908 0 0.3764083098757825 -0.098457761873174635 0 0.38472732034326268 -0.10999179675221191 0 0.38701067696397279 -0.089210206507164908 0 0.38472732034326268 -0.10999179675221191 0 0.3764083098757825 -0.098457761873174635 0 0.38472732034326268 -0.10999179675221191 0 0.37426481265994183 -0.10887826825805109 0 0.38472732034326268 -0.10999179675221191 0 0.37396651444505941 -0.11847151095922941 0 0.38244396372255268 -0.13077338699725899 0 0.38472732034326268 -0.10999179675221191 0 0.3919134153006304 -0.1255713837943695 0 0.38244396372255268 -0.13077338699725899 0 0.38472732034326268 -0.10999179675221191 0 0.38244396372255268 -0.13077338699725899 0 0.38472732034326268 -0.10999179675221191 0 0.37396651444505941 -0.11847151095922941 0 0.37426481265994183 -0.10887826825805109 0 0.38472732034326268 -0.10999179675221191 0 0.39359153209252629 -0.116314810112221 0 0.3919134153006304 -0.1255713837943695 0 0.39359153209252629 -0.116314810112221 0 0.4014974095201716 -0.1219223874842269 0 0.3919134153006304 -0.1255713837943695 0 0.39359153209252629 -0.116314810112221 0 0.40349786387612202 -0.110518683156512 0 0.4014974095201716 -0.1219223874842269 0 0.41253392001925848 -0.1165342270688198 0 0.40349786387612202 -0.110518683156512 0 0.4014974095201716 -0.1219223874842269 0 0.41809753238083908 -0.0234295774662031 0 0.42211002143520371 -0.037345191320892819 0 0.41809753238083908 -0.0234295774662031 0 0.42211002143520371 -0.037345191320892819 0 0.41464935562603111 -0.031960136118367129 0 0.41809753238083908 -0.0234295774662031 0 0.4094152665074946 -0.024392794118059911 0 0.41464935562603111 -0.031960136118367129 0 0.41809753238083908 -0.0234295774662031 0 0.4094152665074946 -0.024392794118059911 0 0.4094152665074946 -0.024392794118059911 0 0.41196109923824792 -0.0096037392175100308 0 0.4033956868130486 -0.015742914295180311 0 0.4094152665074946 -0.024392794118059911 0 0.41196109923824792 -0.0096037392175100308 0 0.41809753238083908 -0.0234295774662031 0 0.4094152665074946 -0.024392794118059911 0 0.41196109923824792 -0.0096037392175100308 0 0.41809753238083908 -0.0234295774662031 0 0.41206629281461821 -0.0025127849886386559 0 0.43358116302575361 -0.0205865698899774 0 0.41809753238083908 -0.0234295774662031 0 0.41206629281461821 -0.0025127849886386559 0 0.41196109923824792 -0.0096037392175100308 0 0.4033956868130486 -0.015742914295180311 0 0.4041671736167915 -0.0059418597504846222 0 0.41809753238083908 -0.0234295774662031 0 0.41196109923824792 -0.0096037392175100308 0 0.41206629281461821 -0.0025127849886386559 0 0.41196109923824792 -0.0096037392175100308 0 0.41206629281461821 -0.0025127849886386559 0 0.4041671736167915 -0.0059418597504846222 0 0.41206629281461821 -0.0025127849886386559 0 0.42701313955698278 -0.01176867533161138 0 0.43358116302575361 -0.0205865698899774 0 0.42850392072748639 0.010326550527349231 0 0.41206629281461821 -0.0025127849886386559 0 0.42701313955698278 -0.01176867533161138 0 0.41206629281461821 -0.0025127849886386559 0 0.43358116302575361 -0.0205865698899774 0 0.44103274622748828 -0.020885128791943219 0 0.41809753238083908 -0.0234295774662031 0 0.43358116302575361 -0.0205865698899774 0 0.44103274622748828 -0.020885128791943219 0 0.41809753238083908 -0.0234295774662031 0 0.43046712649620511 -0.029381183192172849 0 0.44103274622748828 -0.020885128791943219 0 0.42701313955698278 -0.01176867533161138 0 0.43358116302575361 -0.0205865698899774 0 0.44103274622748828 -0.020885128791943219 0 0.41809753238083908 -0.0234295774662031 0 0.41809753238083908 -0.0234295774662031 0 0.43046712649620511 -0.029381183192172849 0 0.42211002143520371 -0.037345191320892819 0 0.43831129415615327 -0.029058171810830789 0 0.44103274622748828 -0.020885128791943219 0 0.43046712649620511 -0.029381183192172849 0 0.43831129415615327 -0.029058171810830789 0 0.43046712649620511 -0.029381183192172849 0 0.43278403828134071 -0.036187846570994303 0 0.44202753336073253 -0.036004690611236748 0 0.43278403828134071 -0.036187846570994303 0 0.42965393630474169 -0.051102727014538871 0 0.43278403828134071 -0.036187846570994303 0 0.42211002143520371 -0.037345191320892819 0 0.42965393630474169 -0.051102727014538871 0 0.43046712649620511 -0.029381183192172849 0 0.43278403828134071 -0.036187846570994303 0 0.42211002143520371 -0.037345191320892819 0 0.43977080884374331 -0.064987933557510216 0 0.4202387361913934 -0.069985035764146025 0 0.42965393630474169 -0.051102727014538871 0 0.4202387361913934 -0.069985035764146025 0 0.402835498858233 -0.062615472231348376 0 0.42965393630474169 -0.051102727014538871 0 0.402835498858233 -0.062615472231348376 0 0.42965393630474169 -0.051102727014538871 0 0.40612538268286319 -0.043504133174704043 0 0.402835498858233 -0.062615472231348376 0 0.42965393630474169 -0.051102727014538871 0 0.4094152665074946 -0.024392794118059911 0 0.41464935562603111 -0.031960136118367129 0 0.40612538268286319 -0.043504133174704043 0 0.42211002143520371 -0.037345191320892819 0 0.42965393630474169 -0.051102727014538871 0 0.40612538268286319 -0.043504133174704043 0 0.4094152665074946 -0.024392794118059911 0 0.40612538268286319 -0.043504133174704043 0 0.42211002143520371 -0.037345191320892819 0 0.41464935562603111 -0.031960136118367129 0 0.40612538268286319 -0.043504133174704043 0 0.4094152665074946 -0.024392794118059911 0 0.40612538268286319 -0.043504133174704043 0 0.39394383689423662 -0.026109205346292332 0 0.39161893523945951 -0.047268910804205068 0 0.39394383689423662 -0.026109205346292332 0 0.40612538268286319 -0.043504133174704043 0 0.39161893523945951 -0.047268910804205068 0 0.39394383689423662 -0.026109205346292332 0 0.402835498858233 -0.062615472231348376 0 0.40612538268286319 -0.043504133174704043 0 0.402835498858233 -0.062615472231348376 0 0.38929403358468162 -0.068428616262117714 0 0.39161893523945951 -0.047268910804205068 0 0.402835498858233 -0.062615472231348376 0 0.40612538268286319 -0.043504133174704043 0 0.39161893523945951 -0.047268910804205068 0 0.39161893523945951 -0.047268910804205068 0 0.37853989659115911 -0.040150087144079527 0 0.3711252768777018 -0.054937157491233991 0 0.38929403358468162 -0.068428616262117714 0 0.39161893523945951 -0.047268910804205068 0 0.38084039863712221 -0.06186155349752389 0 0.39161893523945951 -0.047268910804205068 0 0.38084039863712221 -0.06186155349752389 0 0.3711252768777018 -0.054937157491233991 0 0.38929403358468162 -0.068428616262117714 0 0.39161893523945951 -0.047268910804205068 0 0.37853989659115911 -0.040150087144079527 0 0.39394383689423662 -0.026109205346292332 0 0.36878357884658242 -0.02890050198130386 0 0.39161893523945951 -0.047268910804205068 0 0.37853989659115911 -0.040150087144079527 0 0.39394383689423662 -0.026109205346292332 0 0.39394383689423662 -0.026109205346292332 0 0.36878357884658242 -0.02890050198130386 0 0.39394383689423662 -0.026109205346292332 0 0.39589629820870148 -0.0083392036573279836 0 0.37922104799977568 -0.014053329389099929 0 0.39394383689423662 -0.026109205346292332 0 0.37922104799977568 -0.014053329389099929 0 0.36878357884658242 -0.02890050198130386 0 0.39394383689423662 -0.026109205346292332 0 0.39589629820870148 -0.0083392036573279836 0 0.39394383689423662 -0.026109205346292332 0 0.4033956868130486 -0.015742914295180311 0 0.39589629820870148 -0.0083392036573279836 0 0.4094152665074946 -0.024392794118059911 0 0.39394383689423662 -0.026109205346292332 0 0.4033956868130486 -0.015742914295180311 0 0.4094152665074946 -0.024392794118059911 0 0.39394383689423662 -0.026109205346292332 0 0.39784875952316889 0.0094307980316360833 0 0.4041671736167915 -0.0059418597504846222 0 0.39589629820870148 -0.0083392036573279836 0 0.4033956868130486 -0.015742914295180311 0 0.4041671736167915 -0.0059418597504846222 0 0.39589629820870148 -0.0083392036573279836 0 0.38613498530897328 0.0047967785454649612 0 0.39589629820870148 -0.0083392036573279836 0 0.38416964962084288 -0.0040222420093890873 0 0.39589629820870148 -0.0083392036573279836 0 0.38416964962084288 -0.0040222420093890873 0 0.37922104799977568 -0.014053329389099929 0 0.37542626696592107 0.001506786463406601 0 0.38416964962084288 -0.0040222420093890873 0 0.37922104799977568 -0.014053329389099929 0 0.37542626696592107 0.001506786463406601 0 0.37922104799977568 -0.014053329389099929 0 0.36566436567187399 -0.0077892248182957324 0 0.35972357636319868 0.001014994291064928 0 0.36657527361723552 0.0066316304337984931 0 0.36566436567187399 -0.0077892248182957324 0 0.36566436567187399 -0.0077892248182957324 0 0.36878357884658242 -0.02890050198130386 0 0.35151684721813597 -0.014524657951131279 0 0.37922104799977568 -0.014053329389099929 0 0.36566436567187399 -0.0077892248182957324 0 0.36878357884658242 -0.02890050198130386 0 0.36878357884658242 -0.02890050198130386 0 0.34844275084235282 -0.029400204489208579 0 0.35151684721813597 -0.014524657951131279 0 0.34844275084235282 -0.029400204489208579 0 0.35151684721813597 -0.014524657951131279 0 0.34323061110729142 -0.02093284544021768 0 0.35151684721813597 -0.014524657951131279 0 0.34007879517651629 -0.01349199714516584 0 0.34323061110729142 -0.02093284544021768 0 0.34844275084235282 -0.029400204489208579 0 0.34323061110729142 -0.02093284544021768 0 0.33979812892841832 -0.02767476972833573 0 0.35442119911925313 0.010152758085779701 0 0.35151684721813597 -0.014524657951131279 0 0.34599437775586189 0.0020470163621230781 0 0.35151684721813597 -0.014524657951131279 0 0.34200915790852332 -0.0056609164176762636 0 0.35972357636319868 0.001014994291064928 0 0.35442119911925313 0.010152758085779701 0 0.35151684721813597 -0.014524657951131279 0 0.35442119911925313 0.010152758085779701 0 0.34599437775586189 0.0020470163621230781 0 0.35151684721813597 -0.014524657951131279 0 0.35972357636319868 0.001014994291064928 0 0.36566436567187399 -0.0077892248182957324 0 0.35151684721813597 -0.014524657951131279 0 0.35151684721813597 -0.014524657951131279 0 0.34200915790852332 -0.0056609164176762636 0 0.34007879517651629 -0.01349199714516584 0 0.34200915790852332 -0.0056609164176762636 0 0.33291430651264159 -0.0036579080878239071 0 0.34007879517651629 -0.01349199714516584 0 0.33698201915977682 0.0057542275375357301 0 0.34200915790852332 -0.0056609164176762636 0 0.33291430651264159 -0.0036579080878239071 0 0.33291430651264159 -0.0036579080878239071 0 0.33202860967506792 -0.013988624802321801 0 0.32195886580257599 -0.0033287223728924288 0 0.33291430651264159 -0.0036579080878239071 0 0.33202860967506792 -0.013988624802321801 0 0.34007879517651629 -0.01349199714516584 0 0.33202860967506792 -0.013988624802321801 0 0.32851259218350998 -0.016368674731562571 0 0.33202860967506792 -0.013988624802321801 0 0.34007879517651629 -0.01349199714516584 0 0.33602617334573193 -0.020465402477873089 0 0.34323061110729142 -0.02093284544021768 0 0.33602617334573193 -0.020465402477873089 0 0.33979812892841832 -0.02767476972833573 0 0.34007879517651629 -0.01349199714516584 0 0.34323061110729142 -0.02093284544021768 0 0.33602617334573193 -0.020465402477873089 0 0.33602617334573193 -0.020465402477873089 0 0.33979812892841832 -0.02767476972833573 0 0.3332407314786312 -0.03015609529866578 0 0.33602617334573193 -0.020465402477873089 0 0.3332407314786312 -0.03015609529866578 0 0.32405958992266071 -0.026405514576613439 0 0.33602617334573193 -0.020465402477873089 0 0.32851259218350998 -0.016368674731562571 0 0.32405958992266071 -0.026405514576613439 0 0.33202860967506792 -0.013988624802321801 0 0.33602617334573193 -0.020465402477873089 0 0.32851259218350998 -0.016368674731562571 0 0.33602617334573193 -0.020465402477873089 0 0.32851259218350998 -0.016368674731562571 0 0.32851259218350998 -0.016368674731562571 0 0.30814877944353658 -0.030153273695386399 0 0.32851259218350998 -0.016368674731562571 0 0.30744806318967782 -0.0048833871531276177 0 0.30814877944353658 -0.030153273695386399 0 0.32851259218350998 -0.016368674731562571 0 0.32405958992266071 -0.026405514576613439 0 0.30814877944353658 -0.030153273695386399 0 0.32851259218350998 -0.016368674731562571 0 0.30744806318967782 -0.0048833871531276177 0 0.32851259218350998 -0.016368674731562571 0 0.32195886580257599 -0.0033287223728924288 0 0.30744806318967782 -0.0048833871531276177 0 0.33202860967506792 -0.013988624802321801 0 0.32851259218350998 -0.016368674731562571 0 0.32195886580257599 -0.0033287223728924288 0 0.32150567672814317 -0.05095432494753406 0 0.33297348288497147 -0.049271466213523137 0 0.325177803893548 -0.062576115657189083 0 0.32150567672814317 -0.05095432494753406 0 0.3146940880162441 -0.058802602440293429 0 0.325177803893548 -0.062576115657189083 0 0.32150567672814317 -0.05095432494753406 0 0.3146940880162441 -0.058802602440293429 0 0.3085591824684773 -0.046662241721677912 0 0.32405958992266071 -0.026405514576613439 0 0.30814877944353658 -0.030153273695386399 0 0.3085591824684773 -0.046662241721677912 0 0.32150567672814317 -0.05095432494753406 0 0.32698292090474862 -0.04012964563939031 0 0.3085591824684773 -0.046662241721677912 0 0.32405958992266071 -0.026405514576613439 0 0.32698292090474862 -0.04012964563939031 0 0.3085591824684773 -0.046662241721677912 0 0.32405958992266071 -0.026405514576613439 0 0.3085591824684773 -0.046662241721677912 0 0.3332407314786312 -0.03015609529866578 0 0.32405958992266071 -0.026405514576613439 0 0.32698292090474862 -0.04012964563939031 0 0.32150567672814317 -0.05095432494753406 0 0.32698292090474862 -0.04012964563939031 0 0.33297348288497147 -0.049271466213523137 0 0.32698292090474862 -0.04012964563939031 0 0.33805037786808428 -0.037419300935713502 0 0.33297348288497147 -0.049271466213523137 0 0.3332407314786312 -0.03015609529866578 0 0.32698292090474862 -0.04012964563939031 0 0.33805037786808428 -0.037419300935713502 0 0.34844275084235282 -0.029400204489208579 0 0.33979812892841832 -0.02767476972833573 0 0.33805037786808428 -0.037419300935713502 0 0.33979812892841832 -0.02767476972833573 0 0.3332407314786312 -0.03015609529866578 0 0.33805037786808428 -0.037419300935713502 0 0.33805037786808428 -0.037419300935713502 0 0.33297348288497147 -0.049271466213523137 0 0.34638893735061549 -0.045717518758833543 0 0.33297348288497147 -0.049271466213523137 0 0.34054754348205041 -0.058627343637129049 0 0.34638893735061549 -0.045717518758833543 0 0.33297348288497147 -0.049271466213523137 0 0.34054754348205041 -0.058627343637129049 0 0.325177803893548 -0.062576115657189083 0 0.34054754348205041 -0.058627343637129049 0 0.35472910705694299 -0.05622475234929681 0 0.34849662938819109 -0.067166986006009455 0 0.34054754348205041 -0.058627343637129049 0 0.35472910705694299 -0.05622475234929681 0 0.34638893735061549 -0.045717518758833543 0 0.35472910705694299 -0.05622475234929681 0 0.34638893735061549 -0.045717518758833543 0 0.36019611027688309 -0.043404794570611187 0 0.34844275084235282 -0.029400204489208579 0 0.34638893735061549 -0.045717518758833543 0 0.36019611027688309 -0.043404794570611187 0 0.34844275084235282 -0.029400204489208579 0 0.33805037786808428 -0.037419300935713502 0 0.34638893735061549 -0.045717518758833543 0 0.36878357884658242 -0.02890050198130386 0 0.34844275084235282 -0.029400204489208579 0 0.36019611027688309 -0.043404794570611187 0 0.37853989659115911 -0.040150087144079527 0 0.36878357884658242 -0.02890050198130386 0 0.36019611027688309 -0.043404794570611187 0 0.37853989659115911 -0.040150087144079527 0 0.36019611027688309 -0.043404794570611187 0 0.3711252768777018 -0.054937157491233991 0 0.35472910705694299 -0.05622475234929681 0 0.3711252768777018 -0.054937157491233991 0 0.36179588046238492 -0.066869757358282697 0 0.35472910705694299 -0.05622475234929681 0 0.36019611027688309 -0.043404794570611187 0 0.3711252768777018 -0.054937157491233991 0 0.38084039863712221 -0.06186155349752389 0 0.3711252768777018 -0.054937157491233991 0 0.37267480359395733 -0.066426459970780005 0 0.3711252768777018 -0.054937157491233991 0 0.37267480359395733 -0.066426459970780005 0 0.36179588046238492 -0.066869757358282697 0 0.37267480359395733 -0.066426459970780005 0 0.36179588046238492 -0.066869757358282697 0 0.3688641274910836 -0.074970116164560327 0 0.36179588046238492 -0.066869757358282697 0 0.3688641274910836 -0.074970116164560327 0 0.35696156100974019 -0.078085591148876476 0 0.37977859843197409 -0.072513447108757831 0 0.3688641274910836 -0.074970116164560327 0 0.37364136815479387 -0.085086383777186775 0 0.37977859843197409 -0.072513447108757831 0 0.37267480359395733 -0.066426459970780005 0 0.3688641274910836 -0.074970116164560327 0 0.3688641274910836 -0.074970116164560327 0 0.37364136815479387 -0.085086383777186775 0 0.36565781408641229 -0.083053338081719705 0 0.37364136815479387 -0.085086383777186775 0 0.36746316880549112 -0.092817879773081507 0 0.36565781408641229 -0.083053338081719705 0 0.3764083098757825 -0.098457761873174635 0 0.37364136815479387 -0.085086383777186775 0 0.36746316880549112 -0.092817879773081507 0 0.36746316880549112 -0.092817879773081507 0 0.35995360522126219 -0.088309844183764863 0 0.36565781408641229 -0.083053338081719705 0 0.36746316880549112 -0.092817879773081507 0 0.35995360522126219 -0.088309844183764863 0 0.35955485770180801 -0.099642193637322671 0 0.35995360522126219 -0.088309844183764863 0 0.36565781408641229 -0.083053338081719705 0 0.35696156100974019 -0.078085591148876476 0 0.3688641274910836 -0.074970116164560327 0 0.36565781408641229 -0.083053338081719705 0 0.35696156100974019 -0.078085591148876476 0 0.35995360522126219 -0.088309844183764863 0 0.34858191571721009 -0.088903679114641324 0 0.35696156100974019 -0.078085591148876476 0 0.35995360522126219 -0.088309844183764863 0 0.34858191571721009 -0.088903679114641324 0 0.35955485770180801 -0.099642193637322671 0 0.34858191571721009 -0.088903679114641324 0 0.34521980335419611 -0.077784491059633018 0 0.35696156100974019 -0.078085591148876476 0 0.34521980335419611 -0.077784491059633018 0 0.34849662938819109 -0.067166986006009455 0 0.35696156100974019 -0.078085591148876476 0 0.35472910705694299 -0.05622475234929681 0 0.36179588046238492 -0.066869757358282697 0 0.34849662938819109 -0.067166986006009455 0 0.36179588046238492 -0.066869757358282697 0 0.34849662938819109 -0.067166986006009455 0 0.35696156100974019 -0.078085591148876476 0 0.36383408026036601 -0.1208727620164439 0 0.37396651444505941 -0.11847151095922941 0 0.37099310867195878 -0.1274253247237109 0 0.36383408026036601 -0.1208727620164439 0 0.37396651444505941 -0.11847151095922941 0 0.36559171100568422 -0.110921994148027 0 0.37396651444505941 -0.11847151095922941 0 0.36559171100568422 -0.110921994148027 0 0.37426481265994183 -0.10887826825805109 0 0.36383408026036601 -0.1208727620164439 0 0.36559171100568422 -0.110921994148027 0 0.35542136378649819 -0.11336757428557991 0 0.36559171100568422 -0.110921994148027 0 0.36940190644544652 -0.1028168310117966 0 0.35955485770180801 -0.099642193637322671 0 0.36559171100568422 -0.110921994148027 0 0.35955485770180801 -0.099642193637322671 0 0.35542136378649819 -0.11336757428557991 0 0.36559171100568422 -0.110921994148027 0 0.36940190644544652 -0.1028168310117966 0 0.37426481265994183 -0.10887826825805109 0 0.3764083098757825 -0.098457761873174635 0 0.36940190644544652 -0.1028168310117966 0 0.37426481265994183 -0.10887826825805109 0 0.3764083098757825 -0.098457761873174635 0 0.36746316880549112 -0.092817879773081507 0 0.36940190644544652 -0.1028168310117966 0 0.36746316880549112 -0.092817879773081507 0 0.36940190644544652 -0.1028168310117966 0 0.35955485770180801 -0.099642193637322671 0 0.34858191571721009 -0.088903679114641324 0 0.35955485770180801 -0.099642193637322671 0 0.34940933733226132 -0.099355784347317858 0 0.34858191571721009 -0.088903679114641324 0 0.34940933733226132 -0.099355784347317858 0 0.33995267848273281 -0.1001866220691963 0 0.34940933733226132 -0.099355784347317858 0 0.34664856802495009 -0.10874199834939451 0 0.33995267848273281 -0.1001866220691963 0 0.34940933733226132 -0.099355784347317858 0 0.34664856802495009 -0.10874199834939451 0 0.35542136378649819 -0.11336757428557991 0 0.35955485770180801 -0.099642193637322671 0 0.34940933733226132 -0.099355784347317858 0 0.35542136378649819 -0.11336757428557991 0 0.34664856802495009 -0.10874199834939451 0 0.35542136378649819 -0.11336757428557991 0 0.34432768411913262 -0.12241355917740659 0 0.35542136378649819 -0.11336757428557991 0 0.34432768411913262 -0.12241355917740659 0 0.35451527310491898 -0.12414445521650309 0 0.36383408026036601 -0.1208727620164439 0 0.35542136378649819 -0.11336757428557991 0 0.35451527310491898 -0.12414445521650309 0 0.33419947480603007 -0.11943741623737569 0 0.32476754598761648 -0.1220280115500721 0 0.33381504450566762 -0.13188271344591659 0 0.33419947480603007 -0.11943741623737569 0 0.32686421366003882 -0.1119974257358259 0 0.32476754598761648 -0.1220280115500721 0 0.34432768411913262 -0.12241355917740659 0 0.33419947480603007 -0.11943741623737569 0 0.33754998320468887 -0.11039056057494701 0 0.34432768411913262 -0.12241355917740659 0 0.33419947480603007 -0.11943741623737569 0 0.33381504450566762 -0.13188271344591659 0 0.34664856802495009 -0.10874199834939451 0 0.34432768411913262 -0.12241355917740659 0 0.33754998320468887 -0.11039056057494701 0 0.33419947480603007 -0.11943741623737569 0 0.33754998320468887 -0.11039056057494701 0 0.32686421366003882 -0.1119974257358259 0 0.33754998320468887 -0.11039056057494701 0 0.32936951119042879 -0.101780427742415 0 0.33995267848273281 -0.1001866220691963 0 0.33754998320468887 -0.11039056057494701 0 0.32936951119042879 -0.101780427742415 0 0.32686421366003882 -0.1119974257358259 0 0.34664856802495009 -0.10874199834939451 0 0.33754998320468887 -0.11039056057494701 0 0.33995267848273281 -0.1001866220691963 0 0.32936951119042879 -0.101780427742415 0 0.33995267848273281 -0.1001866220691963 0 0.33413428317302157 -0.091669089840721474 0 0.32936951119042879 -0.101780427742415 0 0.3181323924676559 -0.1046383632761843 0 0.31960400017627988 -0.092213661903259941 0 0.32936951119042879 -0.101780427742415 0 0.33413428317302157 -0.091669089840721474 0 0.31960400017627988 -0.092213661903259941 0 0.3181323924676559 -0.1046383632761843 0 0.31960400017627988 -0.092213661903259941 0 0.31045707696124197 -0.09867720903268154 0 0.3181323924676559 -0.1046383632761843 0 0.31640118627193659 -0.1140275228042298 0 0.3055780278521365 -0.10868822999652859 0 0.32936951119042879 -0.101780427742415 0 0.3181323924676559 -0.1046383632761843 0 0.32686421366003882 -0.1119974257358259 0 0.31640118627193659 -0.1140275228042298 0 0.32476754598761648 -0.1220280115500721 0 0.30819522133572302 -0.1224039820835111 0 0.32686421366003882 -0.1119974257358259 0 0.31640118627193659 -0.1140275228042298 0 0.32476754598761648 -0.1220280115500721 0 0.3181323924676559 -0.1046383632761843 0 0.32686421366003882 -0.1119974257358259 0 0.31640118627193659 -0.1140275228042298 0 0.3344432424739423 -0.070112732522077961 0 0.33535440396878058 -0.08093128897505697 0 0.3239579632244205 -0.079085909132763477 0 0.34054754348205041 -0.058627343637129049 0 0.3344432424739423 -0.070112732522077961 0 0.325177803893548 -0.062576115657189083 0 0.34054754348205041 -0.058627343637129049 0 0.34849662938819109 -0.067166986006009455 0 0.3344432424739423 -0.070112732522077961 0 0.34521980335419611 -0.077784491059633018 0 0.34849662938819109 -0.067166986006009455 0 0.3344432424739423 -0.070112732522077961 0 0.34521980335419611 -0.077784491059633018 0 0.3344432424739423 -0.070112732522077961 0 0.33535440396878058 -0.08093128897505697 0 0.34858191571721009 -0.088903679114641324 0 0.34521980335419611 -0.077784491059633018 0 0.33535440396878058 -0.08093128897505697 0 0.34858191571721009 -0.088903679114641324 0 0.33413428317302157 -0.091669089840721474 0 0.33535440396878058 -0.08093128897505697 0 0.34858191571721009 -0.088903679114641324 0 0.33995267848273281 -0.1001866220691963 0 0.33413428317302157 -0.091669089840721474 0 0.33413428317302157 -0.091669089840721474 0 0.33535440396878058 -0.08093128897505697 0 0.3239579632244205 -0.079085909132763477 0 0.33413428317302157 -0.091669089840721474 0 0.3239579632244205 -0.079085909132763477 0 0.31960400017627988 -0.092213661903259941 0 0.31960400017627988 -0.092213661903259941 0 0.31201736871144559 -0.080786082411616514 0 0.3065648123633663 -0.089813117362417275 0 0.3239579632244205 -0.079085909132763477 0 0.31960400017627988 -0.092213661903259941 0 0.31201736871144559 -0.080786082411616514 0 0.3344432424739423 -0.070112732522077961 0 0.3239579632244205 -0.079085909132763477 0 0.325177803893548 -0.062576115657189083 0 0.3239579632244205 -0.079085909132763477 0 0.325177803893548 -0.062576115657189083 0 0.31358170924972911 -0.069803870127054968 0 0.3239579632244205 -0.079085909132763477 0 0.31358170924972911 -0.069803870127054968 0 0.31201736871144559 -0.080786082411616514 0 0.3146940880162441 -0.058802602440293429 0 0.325177803893548 -0.062576115657189083 0 0.31358170924972911 -0.069803870127054968 0 0.31358170924972911 -0.069803870127054968 0 0.30545843065868372 -0.063811912042661761 0 0.30457698260025562 -0.0733595880727861 0 0.3146940880162441 -0.058802602440293429 0 0.31358170924972911 -0.069803870127054968 0 0.30545843065868372 -0.063811912042661761 0 0.30545843065868372 -0.063811912042661761 0 0.29983474678102451 -0.070226001871908222 0 0.30457698260025562 -0.0733595880727861 0 0.30545843065868372 -0.063811912042661761 0 0.29983474678102451 -0.070226001871908222 0 0.293058775014294 -0.066918968866742257 0 0.29983474678102451 -0.070226001871908222 0 0.30457698260025562 -0.0733595880727861 0 0.29624479885086458 -0.076813538505442772 0 0.30457698260025562 -0.0733595880727861 0 0.30179546216597181 -0.082896787626714388 0 0.29624479885086458 -0.076813538505442772 0 0.31358170924972911 -0.069803870127054968 0 0.30457698260025562 -0.0733595880727861 0 0.31201736871144559 -0.080786082411616514 0 0.30457698260025562 -0.0733595880727861 0 0.31201736871144559 -0.080786082411616514 0 0.30179546216597181 -0.082896787626714388 0 0.31201736871144559 -0.080786082411616514 0 0.3065648123633663 -0.089813117362417275 0 0.30179546216597181 -0.082896787626714388 0 0.31960400017627988 -0.092213661903259941 0 0.3065648123633663 -0.089813117362417275 0 0.31045707696124197 -0.09867720903268154 0 0.3065648123633663 -0.089813117362417275 0 0.29765818094932012 -0.088933581529028471 0 0.29778355333927681 -0.097061211260317776 0 0.3065648123633663 -0.089813117362417275 0 0.29765818094932012 -0.088933581529028471 0 0.30179546216597181 -0.082896787626714388 0 0.30179546216597181 -0.082896787626714388 0 0.2933270780911657 -0.083887351221862749 0 0.29624479885086458 -0.076813538505442772 0 0.29765818094932012 -0.088933581529028471 0 0.30179546216597181 -0.082896787626714388 0 0.2933270780911657 -0.083887351221862749 0 0.2933270780911657 -0.083887351221862749 0 0.28980180366065228 -0.081160998955937411 0 0.28881999878682019 -0.091009440173830197 0 0.2933270780911657 -0.083887351221862749 0 0.28980180366065228 -0.081160998955937411 0 0.29624479885086458 -0.076813538505442772 0 0.28980180366065228 -0.081160998955937411 0 0.293058775014294 -0.066918968866742257 0 0.2775583675601152 -0.087175696011810216 0 0.29765818094932012 -0.088933581529028471 0 0.28881999878682019 -0.091009440173830197 0 0.29778355333927681 -0.097061211260317776 0 0.29765818094932012 -0.088933581529028471 0 0.2933270780911657 -0.083887351221862749 0 0.28881999878682019 -0.091009440173830197 0 0.28980180366065228 -0.081160998955937411 0 0.28881999878682019 -0.091009440173830197 0 0.2775583675601152 -0.087175696011810216 0 0.28881999878682019 -0.091009440173830197 0 0.28565529093397268 -0.10279177301669939 0 0.2775583675601152 -0.087175696011810216 0 0.293058775014294 -0.066918968866742257 0 0.2775583675601152 -0.087175696011810216 0 0.28162515425310791 -0.074577262041981937 0 0.293058775014294 -0.066918968866742257 0 0.2775583675601152 -0.087175696011810216 0 0.28162515425310791 -0.074577262041981937 0 0.28495854251790231 -0.068853346681404706 0 0.27764830145490138 -0.069655768350074532 0 0.28495854251790231 -0.068853346681404706 0 0.2875019393493059 -0.064261387466820113 0 0.27764830145490138 -0.069655768350074532 0 0.28162515425310791 -0.074577262041981937 0 0.28495854251790231 -0.068853346681404706 0 0.293058775014294 -0.066918968866742257 0 0.28495854251790231 -0.068853346681404706 0 0.2875019393493059 -0.064261387466820113 0 0.293058775014294 -0.066918968866742257 0 0.2875019393493059 -0.064261387466820113 0 0.293058775014294 -0.066918968866742257 0 0.29035831657298261 -0.06012980134029873 0 0.28980180366065228 -0.081160998955937411 0 0.293058775014294 -0.066918968866742257 0 0.29624479885086458 -0.076813538505442772 0 0.29983474678102451 -0.070226001871908222 0 0.293058775014294 -0.066918968866742257 0 0.29624479885086458 -0.076813538505442772 0 0.30819522133572302 -0.1224039820835111 0 0.29375221430782811 -0.1184078500215897 0 0.29556020592418453 -0.12899649518353209 0 0.31640118627193659 -0.1140275228042298 0 0.30819522133572302 -0.1224039820835111 0 0.3055780278521365 -0.10868822999652859 0 0.3055780278521365 -0.10868822999652859 0 0.29569227160830353 -0.10673726607378391 0 0.29375221430782811 -0.1184078500215897 0 0.30819522133572302 -0.1224039820835111 0 0.3055780278521365 -0.10868822999652859 0 0.29375221430782811 -0.1184078500215897 0 0.3055780278521365 -0.10868822999652859 0 0.29778355333927681 -0.097061211260317776 0 0.29569227160830353 -0.10673726607378391 0 0.3181323924676559 -0.1046383632761843 0 0.3055780278521365 -0.10868822999652859 0 0.31045707696124197 -0.09867720903268154 0 0.3065648123633663 -0.089813117362417275 0 0.31045707696124197 -0.09867720903268154 0 0.29778355333927681 -0.097061211260317776 0 0.3055780278521365 -0.10868822999652859 0 0.31045707696124197 -0.09867720903268154 0 0.29778355333927681 -0.097061211260317776 0 0.28881999878682019 -0.091009440173830197 0 0.29778355333927681 -0.097061211260317776 0 0.28565529093397268 -0.10279177301669939 0 0.28565529093397268 -0.10279177301669939 0 0.2775583675601152 -0.087175696011810216 0 0.28565529093397268 -0.10279177301669939 0 0.28381090085202892 -0.11483574162354659 0 0.2754854161153808 -0.1083337438125916 0 0.29778355333927681 -0.097061211260317776 0 0.28565529093397268 -0.10279177301669939 0 0.29569227160830353 -0.10673726607378391 0 0.28565529093397268 -0.10279177301669939 0 0.29569227160830353 -0.10673726607378391 0 0.29375221430782811 -0.1184078500215897 0 0.28565529093397268 -0.10279177301669939 0 0.29375221430782811 -0.1184078500215897 0 0.28565529093397268 -0.10279177301669939 0 0.28381090085202892 -0.11483574162354659 0 0.29375221430782811 -0.1184078500215897 0 0.28381090085202892 -0.11483574162354659 0 0.29375221430782811 -0.1184078500215897 0 0.28587267863697358 -0.12522074370597469 0 0.28381090085202892 -0.11483574162354659 0 0.27791840854891903 -0.1236031931398999 0 0.28587267863697358 -0.12522074370597469 0 0.29375221430782811 -0.1184078500215897 0 0.29556020592418453 -0.12899649518353209 0 0.28587267863697358 -0.12522074370597469 0 0.27263734701656578 -0.1215597853110283 0 0.2754854161153808 -0.1083337438125916 0 0.25939256348477069 -0.1109157001125084 0 0.27263734701656578 -0.1215597853110283 0 0.27791840854891903 -0.1236031931398999 0 0.2754854161153808 -0.1083337438125916 0 0.28381090085202892 -0.11483574162354659 0 0.27791840854891903 -0.1236031931398999 0 0.2754854161153808 -0.1083337438125916 0 0.27791840854891903 -0.1236031931398999 0 0.2754854161153808 -0.1083337438125916 0 0.2754854161153808 -0.1083337438125916 0 0.25939256348477069 -0.1109157001125084 0 0.27305242368184479 -0.093064294485282861 0 0.25939256348477069 -0.1109157001125084 0 0.27305242368184479 -0.093064294485282861 0 0.28565529093397268 -0.10279177301669939 0 0.2775583675601152 -0.087175696011810216 0 0.27305242368184479 -0.093064294485282861 0 0.2754854161153808 -0.1083337438125916 0 0.27305242368184479 -0.093064294485282861 0 0.28565529093397268 -0.10279177301669939 0 0.2754854161153808 -0.1083337438125916 0 0.27305242368184479 -0.093064294485282861 0 0.25939256348477069 -0.1109157001125084 0 0.27305242368184479 -0.093064294485282861 0 0.24852424003059809 -0.097708068843971707 0 0.25939256348477069 -0.1109157001125084 0 0.24573270328769531 -0.12876710573973299 0 0.25939256348477069 -0.1109157001125084 0 0.25964260513613668 -0.124303242228762 0 0.24573270328769531 -0.12876710573973299 0 0.27263734701656578 -0.1215597853110283 0 0.25939256348477069 -0.1109157001125084 0 0.25964260513613668 -0.124303242228762 0 0.2875019393493059 -0.064261387466820113 0 0.26889437264469529 -0.066968385292613813 0 0.27764830145490138 -0.069655768350074532 0 0.2875019393493059 -0.064261387466820113 0 0.26889437264469529 -0.066968385292613813 0 0.27729784393746992 -0.060771614247942307 0 0.2875019393493059 -0.064261387466820113 0 0.26889437264469529 -0.066968385292613813 0 0.26720809015831082 -0.067213702861363078 0 0.26889437264469529 -0.066968385292613813 0 0.26541275234090628 -0.05908199163435876 0 0.26969889799765512 -0.072017582709008793 0 0.26720809015831082 -0.067213702861363078 0 0.26889437264469529 -0.066968385292613813 0 0.26969889799765512 -0.072017582709008793 0 0.26889437264469529 -0.066968385292613813 0 0.26969889799765512 -0.072017582709008793 0 0.26720809015831082 -0.067213702861363078 0 0.26969889799765512 -0.072017582709008793 0 0.26889437264469529 -0.066968385292613813 0 0.27764830145490138 -0.069655768350074532 0 0.26720809015831082 -0.067213702861363078 0 0.26889437264469529 -0.066968385292613813 0 0.28162515425310791 -0.074577262041981937 0 0.27764830145490138 -0.069655768350074532 0 0.27663268031644561 -0.075856577278218512 0 0.26969889799765512 -0.072017582709008793 0 0.27764830145490138 -0.069655768350074532 0 0.27663268031644561 -0.075856577278218512 0 0.26969889799765512 -0.072017582709008793 0 0.2775583675601152 -0.087175696011810216 0 0.26969889799765512 -0.072017582709008793 0 0.27663268031644561 -0.075856577278218512 0 0.2775583675601152 -0.087175696011810216 0 0.26969889799765512 -0.072017582709008793 0 0.2775583675601152 -0.087175696011810216 0 0.27305242368184479 -0.093064294485282861 0 0.26969889799765512 -0.072017582709008793 0 0.27305242368184479 -0.093064294485282861 0 0.26969889799765512 -0.072017582709008793 0 0.27305242368184479 -0.093064294485282861 0 0.25578576146995552 -0.080494704729337119 0 0.28162515425310791 -0.074577262041981937 0 0.27663268031644561 -0.075856577278218512 0 0.2775583675601152 -0.087175696011810216 0 0.2775583675601152 -0.087175696011810216 0 0.27305242368184479 -0.093064294485282861 0 0.27305242368184479 -0.093064294485282861 0 0.25578576146995552 -0.080494704729337119 0 0.24852424003059809 -0.097708068843971707 0 0.26720809015831082 -0.067213702861363078 0 0.25578576146995552 -0.080494704729337119 0 0.24332479305183979 -0.070688205162837303 0 0.26720809015831082 -0.067213702861363078 0 0.24332479305183979 -0.070688205162837303 0 0.26969889799765512 -0.072017582709008793 0 0.26720809015831082 -0.067213702861363078 0 0.25578576146995552 -0.080494704729337119 0 0.26720809015831082 -0.067213702861363078 0 0.26541275234090628 -0.05908199163435876 0 0.2541790701865686 -0.042085370804528732 0 0.26720809015831082 -0.067213702861363078 0 0.2541790701865686 -0.042085370804528732 0 0.26720809015831082 -0.067213702861363078 0 0.2541790701865686 -0.042085370804528732 0 0.24332479305183979 -0.070688205162837303 0 0.26541275234090628 -0.05908199163435876 0 0.26742115396358712 -0.057722471623030132 0 0.2541790701865686 -0.042085370804528732 0 0.26742115396358712 -0.057722471623030132 0 0.28778496670356191 -0.043937872659208281 0 0.26742115396358712 -0.057722471623030132 0 0.28515059357922617 -0.055126716869903752 0 0.28778496670356191 -0.043937872659208281 0 0.26742115396358712 -0.057722471623030132 0 0.27729784393746992 -0.060771614247942307 0 0.28515059357922617 -0.055126716869903752 0 0.26889437264469529 -0.066968385292613813 0 0.26742115396358712 -0.057722471623030132 0 0.26742115396358712 -0.057722471623030132 0 0.26413784273548913 -0.037116425450369188 0 0.26889437264469529 -0.066968385292613813 0 0.26541275234090628 -0.05908199163435876 0 0.26742115396358712 -0.057722471623030132 0 0.26889437264469529 -0.066968385292613813 0 0.26742115396358712 -0.057722471623030132 0 0.27729784393746992 -0.060771614247942307 0 0.26541275234090628 -0.05908199163435876 0 0.26742115396358712 -0.057722471623030132 0 0.26742115396358712 -0.057722471623030132 0 0.26413784273548913 -0.037116425450369188 0 0.28778496670356191 -0.043937872659208281 0 0.26413784273548913 -0.037116425450369188 0 0.28070472206636521 -0.029980928189176768 0 0.28778496670356191 -0.043937872659208281 0 0.2541790701865686 -0.042085370804528732 0 0.26413784273548913 -0.037116425450369188 0 0.2633296646767776 -0.019952743260825179 0 0.26742115396358712 -0.057722471623030132 0 0.2541790701865686 -0.042085370804528732 0 0.26413784273548913 -0.037116425450369188 0 0.2541790701865686 -0.042085370804528732 0 0.2633296646767776 -0.019952743260825179 0 0.2411500502148263 -0.01695703874769432 0 0.2511759112382515 0.0019848408324899792 0 0.2633296646767776 -0.019952743260825179 0 0.27000083873318742 -0.00079472129316973726 0 0.2511759112382515 0.0019848408324899792 0 0.2633296646767776 -0.019952743260825179 0 0.2411500502148263 -0.01695703874769432 0 0.28638353419584511 0.0066019004253063899 0 0.27000083873318742 -0.00079472129316973726 0 0.28519844381051002 -0.01294142080974631 0 0.2633296646767776 -0.019952743260825179 0 0.27000083873318742 -0.00079472129316973726 0 0.28519844381051002 -0.01294142080974631 0 0.26413784273548913 -0.037116425450369188 0 0.2633296646767776 -0.019952743260825179 0 0.28070472206636521 -0.029980928189176768 0 0.2633296646767776 -0.019952743260825179 0 0.28070472206636521 -0.029980928189176768 0 0.28519844381051002 -0.01294142080974631 0 0.28070472206636521 -0.029980928189176768 0 0.28519844381051002 -0.01294142080974631 0 0.30814877944353658 -0.030153273695386399 0 0.28638353419584511 0.0066019004253063899 0 0.28519844381051002 -0.01294142080974631 0 0.30744806318967782 -0.0048833871531276177 0 0.28519844381051002 -0.01294142080974631 0 0.30744806318967782 -0.0048833871531276177 0 0.30814877944353658 -0.030153273695386399 0 0.30814877944353658 -0.030153273695386399 0 0.28778496670356191 -0.043937872659208281 0 0.30814877944353658 -0.030153273695386399 0 0.3085591824684773 -0.046662241721677912 0 0.28778496670356191 -0.043937872659208281 0 0.293058775014294 -0.066918968866742257 0 0.3085591824684773 -0.046662241721677912 0 0.29572195834910442 -0.054212132157728819 0 0.293058775014294 -0.066918968866742257 0 0.3085591824684773 -0.046662241721677912 0 0.30545843065868372 -0.063811912042661761 0 0.293058775014294 -0.066918968866742257 0 0.3085591824684773 -0.046662241721677912 0 0.3085591824684773 -0.046662241721677912 0 0.29572195834910442 -0.054212132157728819 0 0.28778496670356191 -0.043937872659208281 0 0.3146940880162441 -0.058802602440293429 0 0.30545843065868372 -0.063811912042661761 0 0.3085591824684773 -0.046662241721677912 0 0.29572195834910442 -0.054212132157728819 0 0.28515059357922617 -0.055126716869903752 0 0.28778496670356191 -0.043937872659208281 0 0.29572195834910442 -0.054212132157728819 0 0.29035831657298261 -0.06012980134029873 0 0.28515059357922617 -0.055126716869903752 0 0.293058775014294 -0.066918968866742257 0 0.29572195834910442 -0.054212132157728819 0 0.29035831657298261 -0.06012980134029873 0 0.2875019393493059 -0.064261387466820113 0 0.29035831657298261 -0.06012980134029873 0 0.28515059357922617 -0.055126716869903752 0 0.2875019393493059 -0.064261387466820113 0 0.27729784393746992 -0.060771614247942307 0 0.28515059357922617 -0.055126716869903752 0 0.28070472206636521 -0.029980928189176768 0 0.30814877944353658 -0.030153273695386399 0 0.28778496670356191 -0.043937872659208281 0 0.29035934561090382 -0.20638053251561481 0 0.2887897235233311 -0.2194221728976169 0 0.27955595147333351 -0.2034089250686254 0 0.2887897235233311 -0.2194221728976169 0 0.27955595147333351 -0.2034089250686254 0 0.29035934561090382 -0.20638053251561481 0 0.30176460940696348 -0.2115878390209934 0 0.2887897235233311 -0.2194221728976169 0 0.29035934561090382 -0.20638053251561481 0 0.29132709803998702 -0.19110319307522339 0 0.30176460940696348 -0.2115878390209934 0 0.29035934561090382 -0.20638053251561481 0 0.29132709803998702 -0.19110319307522339 0 0.27955595147333351 -0.2034089250686254 0 0.29132709803998702 -0.19110319307522339 0 0.31233201665663879 -0.19481070891081201 0 0.29132709803998702 -0.19110319307522339 0 0.31233201665663879 -0.19481070891081201 0 0.30176460940696348 -0.2115878390209934 0 0.29132709803998702 -0.19110319307522339 0 0.31233201665663879 -0.19481070891081201 0 0.30462197878109598 -0.18331052857990129 0 0.30176460940696348 -0.2115878390209934 0 0.30838623906972612 -0.22522156454239459 0 0.2887897235233311 -0.2194221728976169 0 0.31233201665663879 -0.19481070891081201 0 0.30176460940696348 -0.2115878390209934 0 0.31691912899819052 -0.2118427643881278 0 0.30176460940696348 -0.2115878390209934 0 0.30926355885713069 -0.2163706079912727 0 0.31691912899819052 -0.2118427643881278 0 0.30176460940696348 -0.2115878390209934 0 0.30926355885713069 -0.2163706079912727 0 0.30838623906972612 -0.22522156454239459 0 0.30838623906972612 -0.22522156454239459 0 0.29773304717576371 -0.23078580486492889 0 0.29002493940268009 -0.221564289671912 0 0.30838623906972612 -0.22522156454239459 0 0.2887897235233311 -0.2194221728976169 0 0.30838623906972612 -0.22522156454239459 0 0.30809761411507741 -0.24936988003297031 0 0.31978752230029078 -0.22744964825274261 0 0.30926355885713069 -0.2163706079912727 0 0.30838623906972612 -0.22522156454239459 0 0.31978752230029078 -0.22744964825274261 0 0.30838623906972612 -0.22522156454239459 0 0.29773304717576371 -0.23078580486492889 0 0.30809761411507741 -0.24936988003297031 0 0.29773304717576371 -0.23078580486492889 0 0.30809761411507741 -0.24936988003297031 0 0.29024965781514611 -0.24332489335153959 0 0.30809761411507741 -0.24936988003297031 0 0.29024965781514611 -0.24332489335153959 0 0.29300399442882508 -0.25527855248106529 0 0.29024965781514611 -0.24332489335153959 0 0.27726183732833348 -0.2412294206581779 0 0.27726099985521291 -0.25712932472655309 0 0.29773304717576371 -0.23078580486492889 0 0.29024965781514611 -0.24332489335153959 0 0.28657963757446142 -0.23133811025245349 0 0.29024965781514611 -0.24332489335153959 0 0.28657963757446142 -0.23133811025245349 0 0.27726183732833348 -0.2412294206581779 0 0.30838623906972612 -0.22522156454239459 0 0.29002493940268009 -0.221564289671912 0 0.2887897235233311 -0.2194221728976169 0 0.29002493940268009 -0.221564289671912 0 0.29050187205129802 -0.2273519966035179 0 0.28762632972699709 -0.2258296603235716 0 0.29002493940268009 -0.221564289671912 0 0.2887897235233311 -0.2194221728976169 0 0.29773304717576371 -0.23078580486492889 0 0.29050187205129802 -0.2273519966035179 0 0.28657963757446142 -0.23133811025245349 0 0.29773304717576371 -0.23078580486492889 0 0.29002493940268009 -0.221564289671912 0 0.29050187205129802 -0.2273519966035179 0 0.28657963757446142 -0.23133811025245349 0 0.28323169807043641 -0.22348617896977449 0 0.28762632972699709 -0.2258296603235716 0 0.28657963757446142 -0.23133811025245349 0 0.28323169807043641 -0.22348617896977449 0 0.27494365716812003 -0.2286020786162884 0 0.29050187205129802 -0.2273519966035179 0 0.28657963757446142 -0.23133811025245349 0 0.28762632972699709 -0.2258296603235716 0 0.29002493940268009 -0.221564289671912 0 0.28323169807043641 -0.22348617896977449 0 0.28762632972699709 -0.2258296603235716 0 0.29002493940268009 -0.221564289671912 0 0.28323169807043641 -0.22348617896977449 0 0.2887897235233311 -0.2194221728976169 0 0.28323169807043641 -0.22348617896977449 0 0.2887897235233311 -0.2194221728976169 0 0.27138236670173888 -0.21427064075559951 0 0.28323169807043641 -0.22348617896977449 0 0.27494365716812003 -0.2286020786162884 0 0.27138236670173888 -0.21427064075559951 0 0.28657963757446142 -0.23133811025245349 0 0.27494365716812003 -0.2286020786162884 0 0.27726183732833348 -0.2412294206581779 0 0.27494365716812003 -0.2286020786162884 0 0.26802623620387139 -0.23619397743530851 0 0.2649236179758182 -0.2250276149835399 0 0.27494365716812003 -0.2286020786162884 0 0.2649236179758182 -0.2250276149835399 0 0.27138236670173888 -0.21427064075559951 0 0.27726183732833348 -0.2412294206581779 0 0.26726700293237932 -0.2478010613629219 0 0.27726099985521291 -0.25712932472655309 0 0.27494365716812003 -0.2286020786162884 0 0.27726183732833348 -0.2412294206581779 0 0.26802623620387139 -0.23619397743530851 0 0.27726183732833348 -0.2412294206581779 0 0.26802623620387139 -0.23619397743530851 0 0.26726700293237932 -0.2478010613629219 0 0.26802623620387139 -0.23619397743530851 0 0.26726700293237932 -0.2478010613629219 0 0.25573506561470599 -0.23830971155561459 0 0.25573506561470599 -0.23830971155561459 0 0.2539750098801471 -0.20911910861358071 0 0.25573506561470599 -0.23830971155561459 0 0.2649236179758182 -0.2250276149835399 0 0.2539750098801471 -0.20911910861358071 0 0.26802623620387139 -0.23619397743530851 0 0.25573506561470599 -0.23830971155561459 0 0.2649236179758182 -0.2250276149835399 0 0.2539750098801471 -0.20911910861358071 0 0.27138236670173888 -0.21427064075559951 0 0.26554215204010778 -0.1996879841721014 0 0.2649236179758182 -0.2250276149835399 0 0.2539750098801471 -0.20911910861358071 0 0.27138236670173888 -0.21427064075559951 0 0.2539750098801471 -0.20911910861358071 0 0.27138236670173888 -0.21427064075559951 0 0.2887897235233311 -0.2194221728976169 0 0.27138236670173888 -0.21427064075559951 0 0.27955595147333351 -0.2034089250686254 0 0.2887897235233311 -0.2194221728976169 0 0.27138236670173888 -0.21427064075559951 0 0.27138236670173888 -0.21427064075559951 0 0.27955595147333351 -0.2034089250686254 0 0.26554215204010778 -0.1996879841721014 0 0.27955595147333351 -0.2034089250686254 0 0.26554215204010778 -0.1996879841721014 0 0.27032217942333542 -0.18739567723963421 0 0.29132709803998702 -0.19110319307522339 0 0.27955595147333351 -0.2034089250686254 0 0.27032217942333542 -0.18739567723963421 0 0.29132709803998702 -0.19110319307522339 0 0.27032217942333542 -0.18739567723963421 0 0.27955595147333351 -0.2034089250686254 0 0.27032217942333542 -0.18739567723963421 0 0.2539750098801471 -0.20911910861358071 0 0.26554215204010778 -0.1996879841721014 0 0.25247525272198368 -0.1842455691830677 0 0.2539750098801471 -0.20911910861358071 0 0.25247525272198368 -0.1842455691830677 0 0.26554215204010778 -0.1996879841721014 0 0.25247525272198368 -0.1842455691830677 0 0.27032217942333542 -0.18739567723963421 0 0.25247525272198368 -0.1842455691830677 0 0.27032217942333542 -0.18739567723963421 0 0.25965022295890061 -0.16888832371608151 0 0.27032217942333542 -0.18739567723963421 0 0.25247525272198368 -0.1842455691830677 0 0.25965022295890061 -0.16888832371608151 0 0.27032217942333542 -0.18739567723963421 0 0.25247525272198368 -0.1842455691830677 0 0.25185695379684492 -0.17399105390333691 0 0.25965022295890061 -0.16888832371608151 0 0.25247525272198368 -0.1842455691830677 0 0.25185695379684492 -0.17399105390333691 0 0.25965022295890061 -0.16888832371608151 0 0.24897826649446519 -0.15038097019252919 0 0.25185695379684492 -0.17399105390333691 0 0.25965022295890061 -0.16888832371608151 0 0.24897826649446519 -0.15038097019252919 0 0.25965022295890061 -0.16888832371608151 0 0.26587706831834101 -0.15170010586457819 0 0.24897826649446519 -0.15038097019252919 0 0.25965022295890061 -0.16888832371608151 0 0.27543783034862113 -0.16791605027301951 0 0.26587706831834101 -0.15170010586457819 0 0.27543783034862113 -0.16791605027301951 0 0.26587706831834101 -0.15170010586457819 0 0.28247500015691918 -0.15511991142046441 0 0.27543783034862113 -0.16791605027301951 0 0.27032217942333542 -0.18739567723963421 0 0.28493744240885549 -0.17808090437656621 0 0.25965022295890061 -0.16888832371608151 0 0.27543783034862113 -0.16791605027301951 0 0.27032217942333542 -0.18739567723963421 0 0.27263734701656578 -0.1215597853110283 0 0.25964260513613668 -0.124303242228762 0 0.26080780675551518 -0.13597037775177839 0 0.25964260513613668 -0.124303242228762 0 0.26080780675551518 -0.13597037775177839 0 0.24573270328769531 -0.12876710573973299 0 0.26080780675551518 -0.13597037775177839 0 0.24573270328769531 -0.12876710573973299 0 0.2495228965062522 -0.13942361125254341 0 0.26080780675551518 -0.13597037775177839 0 0.26587706831834101 -0.15170010586457819 0 0.26921407635646433 -0.14181679521214879 0 0.26080780675551518 -0.13597037775177839 0 0.26587706831834101 -0.15170010586457819 0 0.24897826649446519 -0.15038097019252919 0 0.26080780675551518 -0.13597037775177839 0 0.2495228965062522 -0.13942361125254341 0 0.24897826649446519 -0.15038097019252919 0 0.26080780675551518 -0.13597037775177839 0 0.24897826649446519 -0.15038097019252919 0 0.26587706831834101 -0.15170010586457819 0 0.2786121229131554 -0.14289906425819779 0 0.28247500015691918 -0.15511991142046441 0 0.26587706831834101 -0.15170010586457819 0 0.2786121229131554 -0.14289906425819779 0 0.26921407635646433 -0.14181679521214879 0 0.26080780675551518 -0.13597037775177839 0 0.26921407635646433 -0.14181679521214879 0 0.27215649094970518 -0.13272822144846541 0 0.2786121229131554 -0.14289906425819779 0 0.26921407635646433 -0.14181679521214879 0 0.27215649094970518 -0.13272822144846541 0 0.2786121229131554 -0.14289906425819779 0 0.27962156202561811 -0.1314910668787512 0 0.27215649094970518 -0.13272822144846541 0 0.27263734701656578 -0.1215597853110283 0 0.27791840854891903 -0.1236031931398999 0 0.27215649094970518 -0.13272822144846541 0 0.27791840854891903 -0.1236031931398999 0 0.27962156202561811 -0.1314910668787512 0 0.27215649094970518 -0.13272822144846541 0 0.27791840854891903 -0.1236031931398999 0 0.27962156202561811 -0.1314910668787512 0 0.28587267863697358 -0.12522074370597469 0 0.27263734701656578 -0.1215597853110283 0 0.26080780675551518 -0.13597037775177839 0 0.27215649094970518 -0.13272822144846541 0 0.27263734701656578 -0.1215597853110283 0 0.26080780675551518 -0.13597037775177839 0 0.29556020592418453 -0.12899649518353209 0 0.28587267863697358 -0.12522074370597469 0 0.28640310437831951 -0.13465844403601829 0 0.27962156202561811 -0.1314910668787512 0 0.28587267863697358 -0.12522074370597469 0 0.28640310437831951 -0.13465844403601829 0 0.2786121229131554 -0.14289906425819779 0 0.27962156202561811 -0.1314910668787512 0 0.28640310437831951 -0.13465844403601829 0 0.29556020592418453 -0.12899649518353209 0 0.28640310437831951 -0.13465844403601829 0 0.29449444415984022 -0.13786796789817099 0 0.28640310437831951 -0.13465844403601829 0 0.29449444415984022 -0.13786796789817099 0 0.28942071220786469 -0.14550334185486111 0 0.29449444415984022 -0.13786796789817099 0 0.28942071220786469 -0.14550334185486111 0 0.30040417837677352 -0.14537387530499621 0 0.2786121229131554 -0.14289906425819779 0 0.28942071220786469 -0.14550334185486111 0 0.28247500015691918 -0.15511991142046441 0 0.2786121229131554 -0.14289906425819779 0 0.28640310437831951 -0.13465844403601829 0 0.28942071220786469 -0.14550334185486111 0 0.28942071220786469 -0.14550334185486111 0 0.28247500015691918 -0.15511991142046441 0 0.29475973423119578 -0.1553395097018149 0 0.28942071220786469 -0.14550334185486111 0 0.29475973423119578 -0.1553395097018149 0 0.30040417837677352 -0.14537387530499621 0 0.29475973423119578 -0.1553395097018149 0 0.30692968608443949 -0.1547235477205233 0 0.30040417837677352 -0.14537387530499621 0 0.31217692085087823 -0.1433889012986789 0 0.30040417837677352 -0.14537387530499621 0 0.3046435727264224 -0.135419983355928 0 0.30692968608443949 -0.1547235477205233 0 0.31217692085087823 -0.1433889012986789 0 0.30040417837677352 -0.14537387530499621 0 0.29556020592418453 -0.12899649518353209 0 0.29449444415984022 -0.13786796789817099 0 0.3046435727264224 -0.135419983355928 0 0.29449444415984022 -0.13786796789817099 0 0.30040417837677352 -0.14537387530499621 0 0.3046435727264224 -0.135419983355928 0 0.31217692085087823 -0.1433889012986789 0 0.3046435727264224 -0.135419983355928 0 0.31805760324571503 -0.1325685624072642 0 0.30819522133572302 -0.1224039820835111 0 0.3046435727264224 -0.135419983355928 0 0.31805760324571503 -0.1325685624072642 0 0.30819522133572302 -0.1224039820835111 0 0.29556020592418453 -0.12899649518353209 0 0.3046435727264224 -0.135419983355928 0 0.29132709803998702 -0.19110319307522339 0 0.27032217942333542 -0.18739567723963421 0 0.28493744240885549 -0.17808090437656621 0 0.29132709803998702 -0.19110319307522339 0 0.28493744240885549 -0.17808090437656621 0 0.2973784935234654 -0.17363743670551349 0 0.28493744240885549 -0.17808090437656621 0 0.2894675654875456 -0.16569836296845669 0 0.2973784935234654 -0.17363743670551349 0 0.27543783034862113 -0.16791605027301951 0 0.28493744240885549 -0.17808090437656621 0 0.2894675654875456 -0.16569836296845669 0 0.28247500015691918 -0.15511991142046441 0 0.29475973423119578 -0.1553395097018149 0 0.2894675654875456 -0.16569836296845669 0 0.27543783034862113 -0.16791605027301951 0 0.28247500015691918 -0.15511991142046441 0 0.2894675654875456 -0.16569836296845669 0 0.29475973423119578 -0.1553395097018149 0 0.2894675654875456 -0.16569836296845669 0 0.30181689225621672 -0.16409636533336219 0 0.2894675654875456 -0.16569836296845669 0 0.30181689225621672 -0.16409636533336219 0 0.2973784935234654 -0.17363743670551349 0 0.30181689225621672 -0.16409636533336219 0 0.30696996969446888 -0.1726408169586934 0 0.2973784935234654 -0.17363743670551349 0 0.29475973423119578 -0.1553395097018149 0 0.30692968608443949 -0.1547235477205233 0 0.30181689225621672 -0.16409636533336219 0 0.30692968608443949 -0.1547235477205233 0 0.30181689225621672 -0.16409636533336219 0 0.31344219278503199 -0.16449251467755319 0 0.30181689225621672 -0.16409636533336219 0 0.30696996969446888 -0.1726408169586934 0 0.31344219278503199 -0.16449251467755319 0 0.31233201665663879 -0.19481070891081201 0 0.30462197878109598 -0.18331052857990129 0 0.31759029112653442 -0.17766723949713659 0 0.30696996969446888 -0.1726408169586934 0 0.30462197878109598 -0.18331052857990129 0 0.31759029112653442 -0.17766723949713659 0 0.29132709803998702 -0.19110319307522339 0 0.2973784935234654 -0.17363743670551349 0 0.30462197878109598 -0.18331052857990129 0 0.30696996969446888 -0.1726408169586934 0 0.2973784935234654 -0.17363743670551349 0 0.30462197878109598 -0.18331052857990129 0 0.31233201665663879 -0.19481070891081201 0 0.31759029112653442 -0.17766723949713659 0 0.32919316525288672 -0.1873925210183911 0 0.31759029112653442 -0.17766723949713659 0 0.32919316525288672 -0.1873925210183911 0 0.33098509567052808 -0.17567546223406669 0 0.31759029112653442 -0.17766723949713659 0 0.32591418401227401 -0.164278881194489 0 0.33098509567052808 -0.17567546223406669 0 0.31759029112653442 -0.17766723949713659 0 0.31344219278503199 -0.16449251467755319 0 0.32591418401227401 -0.164278881194489 0 0.30696996969446888 -0.1726408169586934 0 0.31759029112653442 -0.17766723949713659 0 0.31344219278503199 -0.16449251467755319 0 0.30692968608443949 -0.1547235477205233 0 0.31344219278503199 -0.16449251467755319 0 0.31939264125929318 -0.15381181246591549 0 0.31344219278503199 -0.16449251467755319 0 0.32591418401227401 -0.164278881194489 0 0.31939264125929318 -0.15381181246591549 0 0.32591418401227401 -0.164278881194489 0 0.31939264125929318 -0.15381181246591549 0 0.33239704567781458 -0.15335577976282491 0 0.32591418401227401 -0.164278881194489 0 0.33854469863971248 -0.16365030905179509 0 0.33098509567052808 -0.17567546223406669 0 0.32591418401227401 -0.164278881194489 0 0.33854469863971248 -0.16365030905179509 0 0.33239704567781458 -0.15335577976282491 0 0.33854469863971248 -0.16365030905179509 0 0.34368265267093212 -0.1728412337345929 0 0.33098509567052808 -0.17567546223406669 0 0.34368265267093212 -0.1728412337345929 0 0.33098509567052808 -0.17567546223406669 0 0.34451151152665549 -0.18354828332591991 0 0.32919316525288672 -0.1873925210183911 0 0.33098509567052808 -0.17567546223406669 0 0.34451151152665549 -0.18354828332591991 0 0.32476754598761648 -0.1220280115500721 0 0.30819522133572302 -0.1224039820835111 0 0.31805760324571503 -0.1325685624072642 0 0.31805760324571503 -0.1325685624072642 0 0.32549581814532158 -0.142631250141424 0 0.33381504450566762 -0.13188271344591659 0 0.32476754598761648 -0.1220280115500721 0 0.31805760324571503 -0.1325685624072642 0 0.33381504450566762 -0.13188271344591659 0 0.31217692085087823 -0.1433889012986789 0 0.31805760324571503 -0.1325685624072642 0 0.32549581814532158 -0.142631250141424 0 0.31217692085087823 -0.1433889012986789 0 0.32549581814532158 -0.142631250141424 0 0.31939264125929318 -0.15381181246591549 0 0.30692968608443949 -0.1547235477205233 0 0.31217692085087823 -0.1433889012986789 0 0.31939264125929318 -0.15381181246591549 0 0.32549581814532158 -0.142631250141424 0 0.31939264125929318 -0.15381181246591549 0 0.33239704567781458 -0.15335577976282491 0 0.33239704567781458 -0.15335577976282491 0 0.3383849505815365 -0.1431035997458199 0 0.34714664758624031 -0.15147773962066741 0 0.33854469863971248 -0.16365030905179509 0 0.33239704567781458 -0.15335577976282491 0 0.34714664758624031 -0.15147773962066741 0 0.32549581814532158 -0.142631250141424 0 0.33239704567781458 -0.15335577976282491 0 0.3383849505815365 -0.1431035997458199 0 0.32549581814532158 -0.142631250141424 0 0.3383849505815365 -0.1431035997458199 0 0.33381504450566762 -0.13188271344591659 0 0.3383849505815365 -0.1431035997458199 0 0.33381504450566762 -0.13188271344591659 0 0.34902699636578938 -0.13608629804830569 0 0.34432768411913262 -0.12241355917740659 0 0.33381504450566762 -0.13188271344591659 0 0.34902699636578938 -0.13608629804830569 0 0.35451527310491898 -0.12414445521650309 0 0.34902699636578938 -0.13608629804830569 0 0.36251651054807632 -0.13090571276561311 0 0.34432768411913262 -0.12241355917740659 0 0.35451527310491898 -0.12414445521650309 0 0.34902699636578938 -0.13608629804830569 0 0.34902699636578938 -0.13608629804830569 0 0.36180371263560762 -0.1421135085264619 0 0.36251651054807632 -0.13090571276561311 0 0.34902699636578938 -0.13608629804830569 0 0.34714664758624031 -0.15147773962066741 0 0.36180371263560762 -0.1421135085264619 0 0.3383849505815365 -0.1431035997458199 0 0.34902699636578938 -0.13608629804830569 0 0.34714664758624031 -0.15147773962066741 0 0.34714664758624031 -0.15147773962066741 0 0.36131345546017191 -0.1545384865921364 0 0.36180371263560762 -0.1421135085264619 0 0.36131345546017191 -0.1545384865921364 0 0.37254274115096492 -0.1504582848916915 0 0.36180371263560762 -0.1421135085264619 0 0.37254274115096492 -0.1504582848916915 0 0.36180371263560762 -0.1421135085264619 0 0.3735644822448595 -0.13662831838949091 0 0.36180371263560762 -0.1421135085264619 0 0.3735644822448595 -0.13662831838949091 0 0.36251651054807632 -0.13090571276561311 0 0.3735644822448595 -0.13662831838949091 0 0.37099310867195878 -0.1274253247237109 0 0.36251651054807632 -0.13090571276561311 0 0.36383408026036601 -0.1208727620164439 0 0.37099310867195878 -0.1274253247237109 0 0.36251651054807632 -0.13090571276561311 0 0.36383408026036601 -0.1208727620164439 0 0.35451527310491898 -0.12414445521650309 0 0.36251651054807632 -0.13090571276561311 0 0.35471907698835531 -0.17513848162987239 0 0.34451151152665549 -0.18354828332591991 0 0.36305787329391831 -0.1849941923808536 0 0.34451151152665549 -0.18354828332591991 0 0.36305787329391831 -0.1849941923808536 0 0.35019839544229048 -0.19376362313030371 0 0.34368265267093212 -0.1728412337345929 0 0.35471907698835531 -0.17513848162987239 0 0.34451151152665549 -0.18354828332591991 0 0.33854469863971248 -0.16365030905179509 0 0.34368265267093212 -0.1728412337345929 0 0.35265672084258898 -0.16283470151193941 0 0.34368265267093212 -0.1728412337345929 0 0.35471907698835531 -0.17513848162987239 0 0.35265672084258898 -0.16283470151193941 0 0.33854469863971248 -0.16365030905179509 0 0.34714664758624031 -0.15147773962066741 0 0.35265672084258898 -0.16283470151193941 0 0.34714664758624031 -0.15147773962066741 0 0.36131345546017191 -0.1545384865921364 0 0.35265672084258898 -0.16283470151193941 0 0.36131345546017191 -0.1545384865921364 0 0.37254274115096492 -0.1504582848916915 0 0.3709509791965479 -0.16759381929079159 0 0.35471907698835531 -0.17513848162987239 0 0.35265672084258898 -0.16283470151193941 0 0.3709509791965479 -0.16759381929079159 0 0.36131345546017191 -0.1545384865921364 0 0.35265672084258898 -0.16283470151193941 0 0.3709509791965479 -0.16759381929079159 0 0.3709509791965479 -0.16759381929079159 0 0.36305787329391831 -0.1849941923808536 0 0.38216656835948171 -0.18882795534269231 0 0.35471907698835531 -0.17513848162987239 0 0.3709509791965479 -0.16759381929079159 0 0.36305787329391831 -0.1849941923808536 0 0.36305787329391831 -0.1849941923808536 0 0.36039346798325372 -0.20075454993637659 0 0.38216656835948171 -0.18882795534269231 0 0.36039346798325372 -0.20075454993637659 0 0.37762598313290552 -0.21765538698050141 0 0.38216656835948171 -0.18882795534269231 0 0.36039346798325372 -0.20075454993637659 0 0.35524013183555991 -0.22354198302802791 0 0.37762598313290552 -0.21765538698050141 0 0.34336196437579147 -0.20547576674859849 0 0.3372011498229483 -0.22265902598741741 0 0.35524013183555991 -0.22354198302802791 0 0.36039346798325372 -0.20075454993637659 0 0.34336196437579147 -0.20547576674859849 0 0.35524013183555991 -0.22354198302802791 0 0.36305787329391831 -0.1849941923808536 0 0.36039346798325372 -0.20075454993637659 0 0.35019839544229048 -0.19376362313030371 0 0.36039346798325372 -0.20075454993637659 0 0.35019839544229048 -0.19376362313030371 0 0.34336196437579147 -0.20547576674859849 0 0.35019839544229048 -0.19376362313030371 0 0.33966716003183373 -0.19404532325977011 0 0.34336196437579147 -0.20547576674859849 0 0.34451151152665549 -0.18354828332591991 0 0.35019839544229048 -0.19376362313030371 0 0.33966716003183373 -0.19404532325977011 0 0.32919316525288672 -0.1873925210183911 0 0.34451151152665549 -0.18354828332591991 0 0.33966716003183373 -0.19404532325977011 0 0.32919316525288672 -0.1873925210183911 0 0.33966716003183373 -0.19404532325977011 0 0.33333693527329072 -0.19851822474640071 0 0.33966716003183373 -0.19404532325977011 0 0.33333693527329072 -0.19851822474640071 0 0.34336196437579147 -0.20547576674859849 0 0.34336196437579147 -0.20547576674859849 0 0.33147743048550421 -0.2055294164725148 0 0.3372011498229483 -0.22265902598741741 0 0.33147743048550421 -0.2055294164725148 0 0.31978752230029078 -0.22744964825274261 0 0.3372011498229483 -0.22265902598741741 0 0.33333693527329072 -0.19851822474640071 0 0.34336196437579147 -0.20547576674859849 0 0.33147743048550421 -0.2055294164725148 0 0.31233201665663879 -0.19481070891081201 0 0.33147743048550421 -0.2055294164725148 0 0.31691912899819052 -0.2118427643881278 0 0.33147743048550421 -0.2055294164725148 0 0.31691912899819052 -0.2118427643881278 0 0.31978752230029078 -0.22744964825274261 0 0.33147743048550421 -0.2055294164725148 0 0.31978752230029078 -0.22744964825274261 0 0.30926355885713069 -0.2163706079912727 0 0.31691912899819052 -0.2118427643881278 0 0.31978752230029078 -0.22744964825274261 0 0.31233201665663879 -0.19481070891081201 0 0.33333693527329072 -0.19851822474640071 0 0.33147743048550421 -0.2055294164725148 0 0.31233201665663879 -0.19481070891081201 0 0.32919316525288672 -0.1873925210183911 0 0.33333693527329072 -0.19851822474640071 0 0.31233201665663879 -0.19481070891081201 0 0.33333693527329072 -0.19851822474640071 0 0.30809761411507741 -0.24936988003297031 0 0.31978752230029078 -0.22744964825274261 0 0.30809761411507741 -0.24936988003297031 0 0.31978752230029078 -0.22744964825274261 0 0.33156972523072259 -0.2447401806492597 0 0.31978752230029078 -0.22744964825274261 0 0.3372011498229483 -0.22265902598741741 0 0.33156972523072259 -0.2447401806492597 0 0.3372011498229483 -0.22265902598741741 0 0.33156972523072259 -0.2447401806492597 0 0.34846647856521912 -0.24137630224584941 0 0.34846647856521912 -0.24137630224584941 0 0.35524013183555991 -0.22354198302802791 0 0.36819717378650868 -0.25014198412636379 0 0.35524013183555991 -0.22354198302802791 0 0.37762598313290552 -0.21765538698050141 0 0.36819717378650868 -0.25014198412636379 0 0.3372011498229483 -0.22265902598741741 0 0.34846647856521912 -0.24137630224584941 0 0.35524013183555991 -0.22354198302802791 0 0.35524013183555991 -0.22354198302802791 0 0.36819717378650868 -0.25014198412636379 0 0.38648854704058111 -0.23903840155553241 0 0.37762598313290552 -0.21765538698050141 0 0.36819717378650868 -0.25014198412636379 0 0.38648854704058111 -0.23903840155553241 0 0.36819717378650868 -0.25014198412636379 0 0.38648854704058111 -0.23903840155553241 0 0.38811047683140731 -0.25638735374499882 0 0.36819717378650868 -0.25014198412636379 0 0.38648854704058111 -0.23903840155553241 0 0.40450555822693862 -0.24809256005440269 0 0.38811047683140731 -0.25638735374499882 0 0.38648854704058111 -0.23903840155553241 0 0.40450555822693862 -0.24809256005440269 0 0.40477992029465337 -0.22793481898470089 0 0.39305068490854977 -0.2201685272487357 0 0.40477992029465337 -0.22793481898470089 0 0.40920855536606221 -0.21461244103392321 0 0.38648854704058111 -0.23903840155553241 0 0.39305068490854977 -0.2201685272487357 0 0.40477992029465337 -0.22793481898470089 0 0.38648854704058111 -0.23903840155553241 0 0.40477992029465337 -0.22793481898470089 0 0.38648854704058111 -0.23903840155553241 0 0.39305068490854977 -0.2201685272487357 0 0.37762598313290552 -0.21765538698050141 0 0.37762598313290552 -0.21765538698050141 0 0.38216656835948171 -0.18882795534269231 0 0.39761599428593258 -0.20598586233570701 0 0.39305068490854977 -0.2201685272487357 0 0.37762598313290552 -0.21765538698050141 0 0.39761599428593258 -0.20598586233570701 0 0.38216656835948171 -0.18882795534269231 0 0.39761599428593258 -0.20598586233570701 0 0.40945895208306221 -0.19377567173525831 0 0.39761599428593258 -0.20598586233570701 0 0.41064718250056309 -0.20603472358111119 0 0.40945895208306221 -0.19377567173525831 0 0.39305068490854977 -0.2201685272487357 0 0.39761599428593258 -0.20598586233570701 0 0.40920855536606221 -0.21461244103392321 0 0.39761599428593258 -0.20598586233570701 0 0.40920855536606221 -0.21461244103392321 0 0.41064718250056309 -0.20603472358111119 0 0.40920855536606221 -0.21461244103392321 0 0.41064718250056309 -0.20603472358111119 0 0.41590619209549989 -0.21100563855045931 0 0.41064718250056309 -0.20603472358111119 0 0.42069773696665108 -0.2065441531729352 0 0.41590619209549989 -0.21100563855045931 0 0.42069773696665108 -0.2065441531729352 0 0.42275202939924961 -0.2059250175354285 0 0.40920855536606221 -0.21461244103392321 0 0.41590619209549989 -0.21100563855045931 0 0.42307129354872453 -0.21683123641386751 0 0.42069773696665108 -0.2065441531729352 0 0.41590619209549989 -0.21100563855045931 0 0.42307129354872453 -0.21683123641386751 0 0.40945895208306221 -0.19377567173525831 0 0.42275202939924961 -0.2059250175354285 0 0.42206195168690858 -0.18235162670430119 0 0.41064718250056309 -0.20603472358111119 0 0.42069773696665108 -0.2065441531729352 0 0.40945895208306221 -0.19377567173525831 0 0.42069773696665108 -0.2065441531729352 0 0.40945895208306221 -0.19377567173525831 0 0.42275202939924961 -0.2059250175354285 0 0.42275202939924961 -0.2059250175354285 0 0.44875210966984669 -0.19808894900979621 0 0.43298169830084338 -0.19067032424202629 0 0.42275202939924961 -0.2059250175354285 0 0.44875210966984669 -0.19808894900979621 0 0.42275202939924961 -0.2059250175354285 0 0.42206195168690858 -0.18235162670430119 0 0.43298169830084338 -0.19067032424202629 0 0.42275202939924961 -0.2059250175354285 0 0.42206195168690858 -0.18235162670430119 0 0.42307129354872453 -0.21683123641386751 0 0.42275202939924961 -0.2059250175354285 0 0.44719980778081098 -0.20218427982039711 0 0.42307129354872453 -0.21683123641386751 0 0.44719980778081098 -0.20218427982039711 0 0.42307129354872453 -0.21683123641386751 0 0.43657441407889169 -0.23021652181508559 0 0.44719980778081098 -0.20218427982039711 0 0.42307129354872453 -0.21683123641386751 0 0.42275202939924961 -0.2059250175354285 0 0.42069773696665108 -0.2065441531729352 0 0.42307129354872453 -0.21683123641386751 0 0.42275202939924961 -0.2059250175354285 0 0.42307129354872453 -0.21683123641386751 0 0.43657441407889169 -0.23021652181508559 0 0.42363839589852098 -0.23620372895196909 0 0.42307129354872453 -0.21683123641386751 0 0.42363839589852098 -0.23620372895196909 0 0.43657441407889169 -0.23021652181508559 0 0.42594902037697102 -0.25824876380977357 0 0.43657441407889169 -0.23021652181508559 0 0.42363839589852098 -0.23620372895196909 0 0.42594902037697102 -0.25824876380977357 0 0.43657441407889169 -0.23021652181508559 0 0.44170889898254279 -0.25304726696358371 0 0.42594902037697102 -0.25824876380977357 0 0.40450555822693862 -0.24809256005440269 0 0.42363839589852098 -0.23620372895196909 0 0.42594902037697102 -0.25824876380977357 0 0.40450555822693862 -0.24809256005440269 0 0.40477992029465337 -0.22793481898470089 0 0.42363839589852098 -0.23620372895196909 0 0.40477992029465337 -0.22793481898470089 0 0.40920855536606221 -0.21461244103392321 0 0.42307129354872453 -0.21683123641386751 0 0.40477992029465337 -0.22793481898470089 0 0.42307129354872453 -0.21683123641386751 0 0.40477992029465337 -0.22793481898470089 0 0.42307129354872453 -0.21683123641386751 0 0.42363839589852098 -0.23620372895196909 0 0.4014974095201716 -0.1219223874842269 0 0.39757785079207558 -0.13519255175522879 0 0.4104020400152254 -0.12645048000692549 0 0.39757785079207558 -0.13519255175522879 0 0.3919134153006304 -0.1255713837943695 0 0.38244396372255268 -0.13077338699725899 0 0.4014974095201716 -0.1219223874842269 0 0.39757785079207558 -0.13519255175522879 0 0.3919134153006304 -0.1255713837943695 0 0.3735644822448595 -0.13662831838949091 0 0.39757785079207558 -0.13519255175522879 0 0.38429865342983272 -0.1457169943421672 0 0.3735644822448595 -0.13662831838949091 0 0.39757785079207558 -0.13519255175522879 0 0.38244396372255268 -0.13077338699725899 0 0.3735644822448595 -0.13662831838949091 0 0.39757785079207558 -0.13519255175522879 0 0.37396651444505941 -0.11847151095922941 0 0.37099310867195878 -0.1274253247237109 0 0.38244396372255268 -0.13077338699725899 0 0.3735644822448595 -0.13662831838949091 0 0.37099310867195878 -0.1274253247237109 0 0.38244396372255268 -0.13077338699725899 0 0.37254274115096492 -0.1504582848916915 0 0.3735644822448595 -0.13662831838949091 0 0.38429865342983272 -0.1457169943421672 0 0.37254274115096492 -0.1504582848916915 0 0.38429865342983272 -0.1457169943421672 0 0.3833251639387697 -0.1561585822091012 0 0.38429865342983272 -0.1457169943421672 0 0.3833251639387697 -0.1561585822091012 0 0.3945652857412868 -0.15205661736350809 0 0.39757785079207558 -0.13519255175522879 0 0.38429865342983272 -0.1457169943421672 0 0.3945652857412868 -0.15205661736350809 0 0.39757785079207558 -0.13519255175522879 0 0.3945652857412868 -0.15205661736350809 0 0.40844966901268809 -0.1521138418615415 0 0.39530811868608479 -0.17047089860211689 0 0.41133011308866219 -0.17149805495527831 0 0.40844966901268809 -0.1521138418615415 0 0.3945652857412868 -0.15205661736350809 0 0.39530811868608479 -0.17047089860211689 0 0.40844966901268809 -0.1521138418615415 0 0.3833251639387697 -0.1561585822091012 0 0.3945652857412868 -0.15205661736350809 0 0.39530811868608479 -0.17047089860211689 0 0.39530811868608479 -0.17047089860211689 0 0.40844966901268809 -0.1521138418615415 0 0.37254274115096492 -0.1504582848916915 0 0.3709509791965479 -0.16759381929079159 0 0.3833251639387697 -0.1561585822091012 0 0.3709509791965479 -0.16759381929079159 0 0.3833251639387697 -0.1561585822091012 0 0.39530811868608479 -0.17047089860211689 0 0.38216656835948171 -0.18882795534269231 0 0.39530811868608479 -0.17047089860211689 0 0.3709509791965479 -0.16759381929079159 0 0.38216656835948171 -0.18882795534269231 0 0.39530811868608479 -0.17047089860211689 0 0.40945895208306221 -0.19377567173525831 0 0.39530811868608479 -0.17047089860211689 0 0.41133011308866219 -0.17149805495527831 0 0.38216656835948171 -0.18882795534269231 0 0.40945895208306221 -0.19377567173525831 0 0.39530811868608479 -0.17047089860211689 0 0.40945895208306221 -0.19377567173525831 0 0.42206195168690858 -0.18235162670430119 0 0.41133011308866219 -0.17149805495527831 0 0.43298169830084338 -0.19067032424202629 0 0.42206195168690858 -0.18235162670430119 0 0.43787607040842808 -0.17127638943992879 0 0.42206195168690858 -0.18235162670430119 0 0.42137187397456788 -0.15877823587317369 0 0.43787607040842808 -0.17127638943992879 0 0.42137187397456788 -0.15877823587317369 0 0.4335532307650275 -0.1548479345938738 0 0.43787607040842808 -0.17127638943992879 0 0.42206195168690858 -0.18235162670430119 0 0.41133011308866219 -0.17149805495527831 0 0.42137187397456788 -0.15877823587317369 0 0.42206195168690858 -0.18235162670430119 0 0.42137187397456788 -0.15877823587317369 0 0.41133011308866219 -0.17149805495527831 0 0.42137187397456788 -0.15877823587317369 0 0.40844966901268809 -0.1521138418615415 0 0.42137187397456788 -0.15877823587317369 0 0.4205976821053895 -0.13514462893873061 0 0.42137187397456788 -0.15877823587317369 0 0.40844966901268809 -0.1521138418615415 0 0.4205976821053895 -0.13514462893873061 0 0.39757785079207558 -0.13519255175522879 0 0.40844966901268809 -0.1521138418615415 0 0.4205976821053895 -0.13514462893873061 0 0.40844966901268809 -0.1521138418615415 0 0.4205976821053895 -0.13514462893873061 0 0.42968430909122801 -0.13984907894859469 0 0.43699381618396771 -0.1328358591547868 0 0.44528066958588591 -0.1494880341137981 0 0.42137187397456788 -0.15877823587317369 0 0.4335532307650275 -0.1548479345938738 0 0.42968430909122801 -0.13984907894859469 0 0.42137187397456788 -0.15877823587317369 0 0.42968430909122801 -0.13984907894859469 0 0.4205976821053895 -0.13514462893873061 0 0.4335532307650275 -0.1548479345938738 0 0.42968430909122801 -0.13984907894859469 0 0.44528066958588591 -0.1494880341137981 0 0.43699381618396771 -0.1328358591547868 0 0.42159121933929161 -0.13375678512096631 0 0.42968430909122801 -0.13984907894859469 0 0.43699381618396771 -0.1328358591547868 0 0.42159121933929161 -0.13375678512096631 0 0.42968430909122801 -0.13984907894859469 0 0.42159121933929161 -0.13375678512096631 0 0.4205976821053895 -0.13514462893873061 0 0.43094981822918821 -0.1206840253198377 0 0.43699381618396771 -0.1328358591547868 0 0.42159121933929161 -0.13375678512096631 0 0.43094981822918821 -0.1206840253198377 0 0.42159121933929161 -0.13375678512096631 0 0.41801274653533999 -0.1246265127833686 0 0.43094981822918821 -0.1206840253198377 0 0.42159121933929161 -0.13375678512096631 0 0.41801274653533999 -0.1246265127833686 0 0.42159121933929161 -0.13375678512096631 0 0.4104020400152254 -0.12645048000692549 0 0.39757785079207558 -0.13519255175522879 0 0.42159121933929161 -0.13375678512096631 0 0.39757785079207558 -0.13519255175522879 0 0.42159121933929161 -0.13375678512096631 0 0.4104020400152254 -0.12645048000692549 0 0.39757785079207558 -0.13519255175522879 0 0.42159121933929161 -0.13375678512096631 0 0.4205976821053895 -0.13514462893873061 0 0.42159121933929161 -0.13375678512096631 0 0.4205976821053895 -0.13514462893873061 0 0.47714353557555811 -0.1231858118752872 0 0.45239641302864392 -0.131914933188607 0 0.46767972694032128 -0.14815352425345699 0 0.43699381618396771 -0.1328358591547868 0 0.45239641302864392 -0.131914933188607 0 0.44528066958588591 -0.1494880341137981 0 0.43699381618396771 -0.1328358591547868 0 0.45239641302864392 -0.131914933188607 0 0.44588330862648778 -0.1180076359783393 0 0.43699381618396771 -0.1328358591547868 0 0.45239641302864392 -0.131914933188607 0 0.45239641302864392 -0.131914933188607 0 0.44528066958588591 -0.1494880341137981 0 0.46767972694032128 -0.14815352425345699 0 0.44528066958588591 -0.1494880341137981 0 0.46767972694032128 -0.14815352425345699 0 0.45821591830508451 -0.17312123663162671 0 0.46767972694032128 -0.14815352425345699 0 0.45821591830508451 -0.17312123663162671 0 0.4335532307650275 -0.1548479345938738 0 0.44528066958588591 -0.1494880341137981 0 0.43787607040842808 -0.17127638943992879 0 0.44528066958588591 -0.1494880341137981 0 0.43787607040842808 -0.17127638943992879 0 0.45821591830508451 -0.17312123663162671 0 0.43787607040842808 -0.17127638943992879 0 0.45821591830508451 -0.17312123663162671 0 0.44875210966984669 -0.19808894900979621 0 0.43298169830084338 -0.19067032424202629 0 0.43787607040842808 -0.17127638943992879 0 0.44875210966984669 -0.19808894900979621 0 0.45821591830508451 -0.17312123663162671 0 0.44875210966984669 -0.19808894900979621 0 0.45821591830508451 -0.17312123663162671 0 0.47953390159202669 -0.18255621387373791 0 0.45906780318405738 -0.19497994009807021 0 0.45821591830508451 -0.17312123663162671 0 0.47953390159202669 -0.18255621387373791 0 0.4810859093674858 -0.1635027730540555 0 0.47953390159202669 -0.18255621387373791 0 0.49999999999999711 -0.17013248764940769 0 0.47953390159202669 -0.18255621387373791 0 0.50000000000000233 -0.18264353590945501 0 0.49999999999999711 -0.17013248764940769 0 0.50000000000000233 -0.18264353590945501 0 0.47953390159203002 -0.1888117380037633 0 0.47953390159202669 -0.18255621387373791 0 0.49999999999999711 -0.17013248764940769 0 0.4810859093674858 -0.1635027730540555 0 0.47953390159202669 -0.18255621387373791 0 0.50000000000000233 -0.18264353590945501 0 0.47953390159203002 -0.1888117380037633 0 0.49999999999999711 -0.17013248764940769 0 0.4810859093674858 -0.1635027730540555 0 0.5 -0.14355040286204929 0 0.46767972694032128 -0.14815352425345699 0 0.45821591830508451 -0.17312123663162671 0 0.4810859093674858 -0.1635027730540555 0 0.46767972694032128 -0.14815352425345699 0 0.4810859093674858 -0.1635027730540555 0 0.5 -0.14355040286204929 0 0.47714353557555811 -0.1231858118752872 0 0.46767972694032128 -0.14815352425345699 0 0.5 -0.14355040286204929 0 0.47714353557555811 -0.1231858118752872 0 0.50000000000000233 -0.11696831807469089 0 0.5 -0.14355040286204929 0 0.47714353557555811 -0.1231858118752872 0 0.46767972694032128 -0.14815352425345699 0 0.45517865243069339 -0.23862067762795389 0 0.45287301342852138 -0.2206932000877854 0 0.46933906599175679 -0.22555785751506041 0 0.45517865243069339 -0.23862067762795389 0 0.47711963110443101 -0.2467674972373855 0 0.45626721317446101 -0.26060207076778968 0 0.45517865243069339 -0.23862067762795389 0 0.46933906599175679 -0.22555785751506041 0 0.47711963110443101 -0.2467674972373855 0 0.43657441407889169 -0.23021652181508559 0 0.45517865243069339 -0.23862067762795389 0 0.44170889898254279 -0.25304726696358371 0 0.43657441407889169 -0.23021652181508559 0 0.45517865243069339 -0.23862067762795389 0 0.45287301342852138 -0.2206932000877854 0 0.43657441407889169 -0.23021652181508559 0 0.45287301342852138 -0.2206932000877854 0 0.44719980778081098 -0.20218427982039711 0 0.43657441407889169 -0.23021652181508559 0 0.44719980778081098 -0.20218427982039711 0 0.42275202939924961 -0.2059250175354285 0 0.44719980778081098 -0.20218427982039711 0 0.44875210966984669 -0.19808894900979621 0 0.44719980778081098 -0.20218427982039711 0 0.44875210966984669 -0.19808894900979621 0 0.45906780318405738 -0.19497994009807021 0 0.44719980778081098 -0.20218427982039711 0 0.44875210966984669 -0.19808894900979621 0 0.45821591830508451 -0.17312123663162671 0 0.44875210966984669 -0.19808894900979621 0 0.45906780318405738 -0.19497994009807021 0 0.44719980778081098 -0.20218427982039711 0 0.45906780318405738 -0.19497994009807021 0 0.44719980778081098 -0.20218427982039711 0 0.45906780318405738 -0.19497994009807021 0 0.45981754347398512 -0.20931892742742289 0 0.44875210966984669 -0.19808894900979621 0 0.45906780318405738 -0.19497994009807021 0 0.45981754347398512 -0.20931892742742289 0 0.4737223962191508 -0.20699664796421641 0 0.46933906599175679 -0.22555785751506041 0 0.45287301342852138 -0.2206932000877854 0 0.45981754347398512 -0.20931892742742289 0 0.46933906599175679 -0.22555785751506041 0 0.45287301342852138 -0.2206932000877854 0 0.44719980778081098 -0.20218427982039711 0 0.45981754347398512 -0.20931892742742289 0 0.45906780318405738 -0.19497994009807021 0 0.45981754347398512 -0.20931892742742289 0 0.4737223962191508 -0.20699664796421641 0 0.4737223962191508 -0.20699664796421641 0 0.5 -0.2141893637219994 0 0.46933906599175679 -0.22555785751506041 0 0.50000000000000233 -0.18264353590945501 0 0.47953390159203002 -0.1888117380037633 0 0.5 -0.2141893637219994 0 0.47953390159202669 -0.18255621387373791 0 0.45906780318405738 -0.19497994009807021 0 0.47953390159203002 -0.1888117380037633 0 0.47953390159202669 -0.18255621387373791 0 0.45906780318405738 -0.19497994009807021 0 0.45906780318405738 -0.19497994009807021 0 0.47953390159203002 -0.1888117380037633 0 0.45906780318405738 -0.19497994009807021 0 0.4737223962191508 -0.20699664796421641 0 0.47953390159203002 -0.1888117380037633 0 0.4737223962191508 -0.20699664796421641 0 0.47953390159203002 -0.1888117380037633 0 0.5 -0.2141893637219994 0 0.5 -0.2141893637219994 0 0.47711963110443101 -0.2467674972373855 0 0.5 -0.2570553030459386 0 0.5 -0.2141893637219994 0 0.46933906599175679 -0.22555785751506041 0 0.47711963110443101 -0.2467674972373855 0 0.5 -0.2570553030459386 0 0.47502151534792009 -0.26900938743194802 0 0.47679265989950531 -0.2939303326393361 0 0.47711963110443101 -0.2467674972373855 0 0.5 -0.2570553030459386 0 0.47502151534792009 -0.26900938743194802 0 0.47711963110443101 -0.2467674972373855 0 0.47502151534792009 -0.26900938743194802 0 0.45626721317446101 -0.26060207076778968 0 0.47502151534792009 -0.26900938743194802 0 0.45626721317446101 -0.26060207076778968 0 0.45825993714147661 -0.28420073333780982 0 0.45626721317446101 -0.26060207076778968 0 0.43782285908738278 -0.27489149661501783 0 0.45825993714147661 -0.28420073333780982 0 0.45626721317446101 -0.26060207076778968 0 0.43782285908738278 -0.27489149661501783 0 0.44170889898254279 -0.25304726696358371 0 0.45517865243069339 -0.23862067762795389 0 0.45626721317446101 -0.26060207076778968 0 0.44170889898254279 -0.25304726696358371 0 0.45876592111604259 -0.30708484919127188 0 0.47679265989950531 -0.2939303326393361 0 0.4687085857915923 -0.33090153715450621 0 0.45825993714147661 -0.28420073333780982 0 0.45876592111604259 -0.30708484919127188 0 0.43722285233944258 -0.30059280896917379 0 0.45876592111604259 -0.30708484919127188 0 0.44462565078598848 -0.32473668042225268 0 0.43722285233944258 -0.30059280896917379 0 0.43782285908738278 -0.27489149661501783 0 0.45825993714147661 -0.28420073333780982 0 0.43722285233944258 -0.30059280896917379 0 0.45825993714147661 -0.28420073333780982 0 0.45876592111604259 -0.30708484919127188 0 0.47679265989950531 -0.2939303326393361 0 0.5 -0.2570553030459386 0 0.47679265989950531 -0.2939303326393361 0 0.5 -0.3153301856745423 0 0.47502151534792009 -0.26900938743194802 0 0.45825993714147661 -0.28420073333780982 0 0.47679265989950531 -0.2939303326393361 0 0.5 -0.3153301856745423 0 0.48462012902408719 -0.35644389908108021 0 0.5 -0.39453368445473352 0 0.47679265989950531 -0.2939303326393361 0 0.5 -0.3153301856745423 0 0.4687085857915923 -0.33090153715450621 0 0.5 -0.3153301856745423 0 0.48462012902408719 -0.35644389908108021 0 0.4687085857915923 -0.33090153715450621 0 0.48462012902408719 -0.35644389908108021 0 0.46385869854788569 -0.35688281020455881 0 0.4687085857915923 -0.33090153715450621 0 0.48462012902408719 -0.35644389908108021 0 0.46870803856358778 -0.37597148065400138 0 0.48462012902408719 -0.35644389908108021 0 0.46385869854788569 -0.35688281020455881 0 0.46870803856358778 -0.37597148065400138 0 0.46385869854788569 -0.35688281020455881 0 0.44558713606121358 -0.37308650985023412 0 0.46870803856358778 -0.37597148065400138 0 0.46385869854788569 -0.35688281020455881 0 0.44788267778557439 -0.34714407042961121 0 0.4687085857915923 -0.33090153715450621 0 0.46385869854788569 -0.35688281020455881 0 0.44788267778557439 -0.34714407042961121 0 0.44558713606121358 -0.37308650985023412 0 0.44788267778557439 -0.34714407042961121 0 0.44558713606121358 -0.37308650985023412 0 0.43060516145981581 -0.35976244257753198 0 0.45876592111604259 -0.30708484919127188 0 0.4687085857915923 -0.33090153715450621 0 0.44462565078598848 -0.32473668042225268 0 0.44788267778557439 -0.34714407042961121 0 0.4687085857915923 -0.33090153715450621 0 0.44462565078598848 -0.32473668042225268 0 0.44788267778557439 -0.34714407042961121 0 0.44462565078598848 -0.32473668042225268 0 0.43009384827540231 -0.33607509624912119 0 0.44462565078598848 -0.32473668042225268 0 0.42888591323776121 -0.31687145605408562 0 0.43722285233944258 -0.30059280896917379 0 0.42888591323776121 -0.31687145605408562 0 0.41731808289717309 -0.32447113707113717 0 0.42012372256808289 -0.3074266371770194 0 0.42888591323776121 -0.31687145605408562 0 0.43009384827540231 -0.33607509624912119 0 0.41731808289717309 -0.32447113707113717 0 0.44462565078598848 -0.32473668042225268 0 0.42888591323776121 -0.31687145605408562 0 0.43009384827540231 -0.33607509624912119 0 0.41603284964687792 -0.34834565092334652 0 0.40407393068178549 -0.32379473422410088 0 0.43009384827540231 -0.33607509624912119 0 0.41731808289717309 -0.32447113707113717 0 0.41603284964687792 -0.34834565092334652 0 0.41731808289717309 -0.32447113707113717 0 0.41603284964687792 -0.34834565092334652 0 0.40407393068178549 -0.32379473422410088 0 0.41603284964687792 -0.34834565092334652 0 0.39986763046787549 -0.3460026378730226 0 0.40407393068178549 -0.32379473422410088 0 0.41731808289717309 -0.32447113707113717 0 0.40469823297312929 -0.31431324779914949 0 0.40407393068178549 -0.32379473422410088 0 0.41731808289717309 -0.32447113707113717 0 0.40469823297312929 -0.31431324779914949 0 0.42012372256808289 -0.3074266371770194 0 0.44558713606121358 -0.37308650985023412 0 0.43060516145981581 -0.35976244257753198 0 0.42503790913054679 -0.37850877003365851 0 0.44788267778557439 -0.34714407042961121 0 0.43009384827540231 -0.33607509624912119 0 0.43060516145981581 -0.35976244257753198 0 0.43009384827540231 -0.33607509624912119 0 0.43060516145981581 -0.35976244257753198 0 0.41603284964687792 -0.34834565092334652 0 0.41603284964687792 -0.34834565092334652 0 0.40755992754625681 -0.36725644876524621 0 0.39986763046787549 -0.3460026378730226 0 0.43060516145981581 -0.35976244257753198 0 0.41603284964687792 -0.34834565092334652 0 0.40755992754625681 -0.36725644876524621 0 0.43060516145981581 -0.35976244257753198 0 0.40755992754625681 -0.36725644876524621 0 0.42503790913054679 -0.37850877003365851 0 0.40755992754625681 -0.36725644876524621 0 0.39002909288983578 -0.35972890358127052 0 0.38777795312584362 -0.37866823037750891 0 0.40755992754625681 -0.36725644876524621 0 0.39986763046787549 -0.3460026378730226 0 0.39002909288983578 -0.35972890358127052 0 0.39986763046787549 -0.3460026378730226 0 0.39002909288983578 -0.35972890358127052 0 0.38707821983276258 -0.34374353319290529 0 0.3756823805396915 -0.35393983314745281 0 0.39002909288983578 -0.35972890358127052 0 0.38707821983276258 -0.34374353319290529 0 0.3756823805396915 -0.35393983314745281 0 0.38707821983276258 -0.34374353319290529 0 0.37306859486225491 -0.33939155858724163 0 0.39002909288983578 -0.35972890358127052 0 0.37750271411856678 -0.36775852889685229 0 0.38777795312584362 -0.37866823037750891 0 0.3756823805396915 -0.35393983314745281 0 0.39002909288983578 -0.35972890358127052 0 0.37750271411856678 -0.36775852889685229 0 0.40407393068178549 -0.32379473422410088 0 0.38977349215144619 -0.31525175262635208 0 0.39211501171669322 -0.29924381752485518 0 0.39316678466276672 -0.32384147930420309 0 0.40407393068178549 -0.32379473422410088 0 0.39443176220973442 -0.33314655655126629 0 0.39316678466276672 -0.32384147930420309 0 0.40407393068178549 -0.32379473422410088 0 0.38977349215144619 -0.31525175262635208 0 0.39316678466276672 -0.32384147930420309 0 0.39443176220973442 -0.33314655655126629 0 0.3847709954620594 -0.32599898413554868 0 0.39986763046787549 -0.3460026378730226 0 0.40407393068178549 -0.32379473422410088 0 0.39443176220973442 -0.33314655655126629 0 0.39986763046787549 -0.3460026378730226 0 0.39443176220973442 -0.33314655655126629 0 0.38707821983276258 -0.34374353319290529 0 0.39443176220973442 -0.33314655655126629 0 0.38707821983276258 -0.34374353319290529 0 0.3847709954620594 -0.32599898413554868 0 0.38707821983276258 -0.34374353319290529 0 0.3847709954620594 -0.32599898413554868 0 0.37306859486225491 -0.33939155858724163 0 0.3847709954620594 -0.32599898413554868 0 0.37550682194184359 -0.30903196858396342 0 0.36609202702331167 -0.32590995590695848 0 0.3847709954620594 -0.32599898413554868 0 0.38977349215144619 -0.31525175262635208 0 0.37550682194184359 -0.30903196858396342 0 0.39316678466276672 -0.32384147930420309 0 0.3847709954620594 -0.32599898413554868 0 0.38977349215144619 -0.31525175262635208 0 0.37550682194184359 -0.30903196858396342 0 0.39211501171669322 -0.29924381752485518 0 0.37370831603787841 -0.29125681433617001 0 0.38977349215144619 -0.31525175262635208 0 0.37550682194184359 -0.30903196858396342 0 0.39211501171669322 -0.29924381752485518 0 0.40407393068178549 -0.32379473422410088 0 0.39211501171669322 -0.29924381752485518 0 0.40469823297312929 -0.31431324779914949 0 0.40407393068178549 -0.32379473422410088 0 0.39211501171669322 -0.29924381752485518 0 0.40469823297312929 -0.31431324779914949 0 0.39211501171669322 -0.29924381752485518 0 0.41532362667505007 -0.28628100580446159 0 0.39211501171669322 -0.29924381752485518 0 0.38015609275160078 -0.2746929008256096 0 0.40120501235140749 -0.26997092216308571 0 0.39211501171669322 -0.29924381752485518 0 0.40120501235140749 -0.26997092216308571 0 0.41532362667505007 -0.28628100580446159 0 0.39211501171669322 -0.29924381752485518 0 0.38015609275160078 -0.2746929008256096 0 0.37370831603787841 -0.29125681433617001 0 0.39211501171669322 -0.29924381752485518 0 0.38015609275160078 -0.2746929008256096 0 0.38015609275160078 -0.2746929008256096 0 0.38811047683140731 -0.25638735374499882 0 0.40120501235140749 -0.26997092216308571 0 0.38015609275160078 -0.2746929008256096 0 0.38811047683140731 -0.25638735374499882 0 0.36819717378650868 -0.25014198412636379 0 0.40450555822693862 -0.24809256005440269 0 0.38811047683140731 -0.25638735374499882 0 0.40120501235140749 -0.26997092216308571 0 0.40120501235140749 -0.26997092216308571 0 0.42594902037697102 -0.25824876380977357 0 0.41532362667505007 -0.28628100580446159 0 0.42594902037697102 -0.25824876380977357 0 0.41532362667505007 -0.28628100580446159 0 0.40450555822693862 -0.24809256005440269 0 0.40120501235140749 -0.26997092216308571 0 0.42594902037697102 -0.25824876380977357 0 0.43782285908738278 -0.27489149661501783 0 0.44170889898254279 -0.25304726696358371 0 0.42594902037697102 -0.25824876380977357 0 0.43782285908738278 -0.27489149661501783 0 0.42594902037697102 -0.25824876380977357 0 0.41532362667505007 -0.28628100580446159 0 0.43782285908738278 -0.27489149661501783 0 0.43722285233944258 -0.30059280896917379 0 0.41532362667505007 -0.28628100580446159 0 0.43722285233944258 -0.30059280896917379 0 0.42012372256808289 -0.3074266371770194 0 0.41532362667505007 -0.28628100580446159 0 0.42888591323776121 -0.31687145605408562 0 0.43722285233944258 -0.30059280896917379 0 0.42012372256808289 -0.3074266371770194 0 0.40469823297312929 -0.31431324779914949 0 0.41532362667505007 -0.28628100580446159 0 0.40469823297312929 -0.31431324779914949 0 0.42012372256808289 -0.3074266371770194 0 0.41532362667505007 -0.28628100580446159 0 0.5 -0.5 0 0.46614115649980881 -0.45511380541675323 0 0.5 -0.39453368445473352 0 0.44497043145894749 -0.5 0 0.46614115649980881 -0.45511380541675323 0 0.43777450875275692 -0.46049112608505133 0 0.44497043145894749 -0.5 0 0.5 -0.5 0 0.46614115649980881 -0.45511380541675323 0 0.46614115649980881 -0.45511380541675323 0 0.44625360507181733 -0.43890839277114119 0 0.46041491346346047 -0.41981631773387901 0 0.46614115649980881 -0.45511380541675323 0 0.43777450875275692 -0.46049112608505133 0 0.44625360507181733 -0.43890839277114119 0 0.44625360507181733 -0.43890839277114119 0 0.46041491346346047 -0.41981631773387901 0 0.43688385764258858 -0.41502664379984427 0 0.46041491346346047 -0.41981631773387901 0 0.45279594810308821 -0.39549906222692288 0 0.43688385764258858 -0.41502664379984427 0 0.46614115649980881 -0.45511380541675323 0 0.46041491346346047 -0.41981631773387901 0 0.5 -0.39453368445473352 0 0.48462012902408719 -0.35644389908108021 0 0.5 -0.39453368445473352 0 0.46870803856358778 -0.37597148065400138 0 0.46041491346346047 -0.41981631773387901 0 0.5 -0.39453368445473352 0 0.45279594810308821 -0.39549906222692288 0 0.5 -0.39453368445473352 0 0.46870803856358778 -0.37597148065400138 0 0.45279594810308821 -0.39549906222692288 0 0.44558713606121358 -0.37308650985023412 0 0.46870803856358778 -0.37597148065400138 0 0.45279594810308821 -0.39549906222692288 0 0.46870803856358778 -0.37597148065400138 0 0.45279594810308821 -0.39549906222692288 0 0.45279594810308821 -0.39549906222692288 0 0.42832805608131053 -0.39740365589867388 0 0.43688385764258858 -0.41502664379984427 0 0.45279594810308821 -0.39549906222692288 0 0.43688385764258858 -0.41502664379984427 0 0.44558713606121358 -0.37308650985023412 0 0.45279594810308821 -0.39549906222692288 0 0.42832805608131053 -0.39740365589867388 0 0.44558713606121358 -0.37308650985023412 0 0.42503790913054679 -0.37850877003365851 0 0.42832805608131053 -0.39740365589867388 0 0.42832805608131053 -0.39740365589867388 0 0.40153623266067751 -0.3955740262696858 0 0.41616340554082237 -0.41275919952788359 0 0.42503790913054679 -0.37850877003365851 0 0.42832805608131053 -0.39740365589867388 0 0.40153623266067751 -0.3955740262696858 0 0.40755992754625681 -0.36725644876524621 0 0.42503790913054679 -0.37850877003365851 0 0.40153623266067751 -0.3955740262696858 0 0.40755992754625681 -0.36725644876524621 0 0.38777795312584362 -0.37866823037750891 0 0.40153623266067751 -0.3955740262696858 0 0.38777795312584362 -0.37866823037750891 0 0.37750040779155908 -0.39417833507100358 0 0.40153623266067751 -0.3955740262696858 0 0.37750271411856678 -0.36775852889685229 0 0.38777795312584362 -0.37866823037750891 0 0.37118146497426391 -0.3795284056837297 0 0.38777795312584362 -0.37866823037750891 0 0.37750040779155908 -0.39417833507100358 0 0.37118146497426391 -0.3795284056837297 0 0.37750040779155908 -0.39417833507100358 0 0.40153623266067751 -0.3955740262696858 0 0.38317447848362168 -0.40789497946683778 0 0.37750040779155908 -0.39417833507100358 0 0.38317447848362168 -0.40789497946683778 0 0.3659154079557202 -0.40620321687314492 0 0.40153623266067751 -0.3955740262696858 0 0.39637533570017303 -0.41930982780382781 0 0.38317447848362168 -0.40789497946683778 0 0.40153623266067751 -0.3955740262696858 0 0.39637533570017303 -0.41930982780382781 0 0.41616340554082237 -0.41275919952788359 0 0.39637533570017303 -0.41930982780382781 0 0.38317447848362168 -0.40789497946683778 0 0.37454500830997911 -0.42420949131652719 0 0.39637533570017303 -0.41930982780382781 0 0.39101398802916282 -0.44114289172932952 0 0.37454500830997911 -0.42420949131652719 0 0.39101398802916282 -0.44114289172932952 0 0.37285239115392038 -0.44263123452566833 0 0.37454500830997911 -0.42420949131652719 0 0.39637533570017303 -0.41930982780382781 0 0.42097176718208901 -0.43455422537276578 0 0.39101398802916282 -0.44114289172932952 0 0.39637533570017303 -0.41930982780382781 0 0.42097176718208901 -0.43455422537276578 0 0.41616340554082237 -0.41275919952788359 0 0.42832805608131053 -0.39740365589867388 0 0.41616340554082237 -0.41275919952788359 0 0.43688385764258858 -0.41502664379984427 0 0.42097176718208901 -0.43455422537276578 0 0.41616340554082237 -0.41275919952788359 0 0.43688385764258858 -0.41502664379984427 0 0.44625360507181733 -0.43890839277114119 0 0.42097176718208901 -0.43455422537276578 0 0.43688385764258858 -0.41502664379984427 0 0.42097176718208901 -0.43455422537276578 0 0.43688385764258858 -0.41502664379984427 0 0.44497043145894749 -0.5 0 0.41053558355112207 -0.47387920686459672 0 0.37370690303625348 -0.50000000000000011 0 0.43777450875275692 -0.46049112608505133 0 0.42097176718208901 -0.43455422537276578 0 0.41053558355112207 -0.47387920686459672 0 0.42097176718208901 -0.43455422537276578 0 0.39706142459517751 -0.45895899066097751 0 0.41053558355112207 -0.47387920686459672 0 0.43777450875275692 -0.46049112608505133 0 0.44625360507181733 -0.43890839277114119 0 0.42097176718208901 -0.43455422537276578 0 0.42097176718208901 -0.43455422537276578 0 0.39101398802916282 -0.44114289172932952 0 0.39706142459517751 -0.45895899066097751 0 0.39101398802916282 -0.44114289172932952 0 0.38075222756990662 -0.46482248907281731 0 0.37285239115392038 -0.44263123452566833 0 0.38075222756990662 -0.46482248907281731 0 0.39706142459517751 -0.45895899066097751 0 0.38203355664360678 -0.48039614026537769 0 0.39101398802916282 -0.44114289172932952 0 0.38075222756990662 -0.46482248907281731 0 0.39706142459517751 -0.45895899066097751 0 0.39706142459517751 -0.45895899066097751 0 0.38203355664360678 -0.48039614026537769 0 0.41053558355112207 -0.47387920686459672 0 0.38203355664360678 -0.48039614026537769 0 0.41053558355112207 -0.47387920686459672 0 0.37370690303625348 -0.50000000000000011 0 0.38075222756990662 -0.46482248907281731 0 0.38203355664360678 -0.48039614026537769 0 0.36841025532244859 -0.47441688479718708 0 0.44497043145894749 -0.5 0 0.43777450875275692 -0.46049112608505133 0 0.41053558355112207 -0.47387920686459672 0 0.31842426139198221 -0.5 0 0.32182618793525158 -0.48188957528005438 0 0.30691558587191747 -0.48332248702477348 0 0.31842426139198221 -0.5 0 0.32182618793525158 -0.48188957528005438 0 0.33841138682188421 -0.48461505045893333 0 0.31518611424689458 -0.47228023799869778 0 0.32182618793525158 -0.48188957528005438 0 0.30691558587191747 -0.48332248702477348 0 0.31518611424689458 -0.47228023799869778 0 0.32182618793525158 -0.48188957528005438 0 0.33019359134357978 -0.4692301009178666 0 0.33019359134357978 -0.4692301009178666 0 0.33841138682188421 -0.48461505045893333 0 0.33019359134357978 -0.4692301009178666 0 0.35094527384854379 -0.47522961766136468 0 0.34874983625421507 -0.4823519195299803 0 0.33019359134357978 -0.4692301009178666 0 0.34874983625421507 -0.4823519195299803 0 0.32182618793525158 -0.48188957528005438 0 0.33019359134357978 -0.4692301009178666 0 0.33841138682188421 -0.48461505045893333 0 0.33019359134357978 -0.4692301009178666 0 0.33841138682188421 -0.48461505045893333 0 0.34874983625421507 -0.4823519195299803 0 0.31842426139198221 -0.5 0 0.33841138682188421 -0.48461505045893333 0 0.34662918230018769 -0.50000000000000044 0 0.33841138682188421 -0.48461505045893333 0 0.34662918230018769 -0.50000000000000044 0 0.36730608116485097 -0.49547373814209322 0 0.34874983625421507 -0.4823519195299803 0 0.36730608116485097 -0.49547373814209322 0 0.35094527384854379 -0.47522961766136468 0 0.33841138682188421 -0.48461505045893333 0 0.34662918230018769 -0.50000000000000044 0 0.34874983625421507 -0.4823519195299803 0 0.34662918230018769 -0.50000000000000044 0 0.36730608116485097 -0.49547373814209322 0 0.34874983625421507 -0.4823519195299803 0 0.38203355664360678 -0.48039614026537769 0 0.37370690303625348 -0.50000000000000011 0 0.36730608116485097 -0.49547373814209322 0 0.34662918230018769 -0.50000000000000044 0 0.37096409625079829 -0.499999999999996 0 0.36730608116485097 -0.49547373814209322 0 0.37370690303625348 -0.50000000000000011 0 0.36730608116485097 -0.49547373814209322 0 0.37370690303625348 -0.50000000000000011 0 0.37096409625079829 -0.499999999999996 0 0.36730608116485097 -0.49547373814209322 0 0.37096409625079829 -0.499999999999996 0 0.36730608116485097 -0.49547373814209322 0 0.38203355664360678 -0.48039614026537769 0 0.36730608116485097 -0.49547373814209322 0 0.36841025532244859 -0.47441688479718708 0 0.36730608116485097 -0.49547373814209322 0 0.36841025532244859 -0.47441688479718708 0 0.35094527384854379 -0.47522961766136468 0 0.36730608116485097 -0.49547373814209322 0 0.35094527384854379 -0.47522961766136468 0 0.34874983625421507 -0.4823519195299803 0 0.35094527384854379 -0.47522961766136468 0 0.34821192049577848 -0.45851773401494889 0 0.33458446653223661 -0.45498549718063619 0 0.34821192049577848 -0.45851773401494889 0 0.36101413738533528 -0.45616243884428243 0 0.34127604720076382 -0.44750238861574743 0 0.35094527384854379 -0.47522961766136468 0 0.34821192049577848 -0.45851773401494889 0 0.36101413738533528 -0.45616243884428243 0 0.36841025532244859 -0.47441688479718708 0 0.35094527384854379 -0.47522961766136468 0 0.36101413738533528 -0.45616243884428243 0 0.38075222756990662 -0.46482248907281731 0 0.36841025532244859 -0.47441688479718708 0 0.36101413738533528 -0.45616243884428243 0 0.38075222756990662 -0.46482248907281731 0 0.36101413738533528 -0.45616243884428243 0 0.38075222756990662 -0.46482248907281731 0 0.36101413738533528 -0.45616243884428243 0 0.37285239115392038 -0.44263123452566833 0 0.36101413738533528 -0.45616243884428243 0 0.37285239115392038 -0.44263123452566833 0 0.36005176952325618 -0.43415237217843822 0 0.36101413738533528 -0.45616243884428243 0 0.34127604720076382 -0.44750238861574743 0 0.36101413738533528 -0.45616243884428243 0 0.34763055507707968 -0.43753420199108251 0 0.36005176952325618 -0.43415237217843822 0 0.36101413738533528 -0.45616243884428243 0 0.34763055507707968 -0.43753420199108251 0 0.34127604720076382 -0.44750238861574743 0 0.34127604720076382 -0.44750238861574743 0 0.32153795701619242 -0.43884233838721232 0 0.34127604720076382 -0.44750238861574743 0 0.32153795701619242 -0.43884233838721232 0 0.33474900067586078 -0.43555524034642618 0 0.34127604720076382 -0.44750238861574743 0 0.33458446653223661 -0.45498549718063619 0 0.32153795701619242 -0.43884233838721232 0 0.34763055507707968 -0.43753420199108251 0 0.34127604720076382 -0.44750238861574743 0 0.33474900067586078 -0.43555524034642618 0 0.35094527384854379 -0.47522961766136468 0 0.33458446653223661 -0.45498549718063619 0 0.34821192049577848 -0.45851773401494889 0 0.34127604720076382 -0.44750238861574743 0 0.33458446653223661 -0.45498549718063619 0 0.33019359134357978 -0.4692301009178666 0 0.35094527384854379 -0.47522961766136468 0 0.33458446653223661 -0.45498549718063619 0 0.33019359134357978 -0.4692301009178666 0 0.33458446653223661 -0.45498549718063619 0 0.32301104422760152 -0.4557832920690108 0 0.33458446653223661 -0.45498549718063619 0 0.32301104422760152 -0.4557832920690108 0 0.33019359134357978 -0.4692301009178666 0 0.31222883482734548 -0.45652654599325693 0 0.33019359134357978 -0.4692301009178666 0 0.32301104422760152 -0.4557832920690108 0 0.31222883482734548 -0.45652654599325693 0 0.31518611424689458 -0.47228023799869778 0 0.33019359134357978 -0.4692301009178666 0 0.31222883482734548 -0.45652654599325693 0 0.33019359134357978 -0.4692301009178666 0 0.32301104422760152 -0.4557832920690108 0 0.32301104422760152 -0.4557832920690108 0 0.31217310264251402 -0.45301192403714641 0 0.31222883482734548 -0.45652654599325693 0 0.32301104422760152 -0.4557832920690108 0 0.31222883482734548 -0.45652654599325693 0 0.32301104422760152 -0.4557832920690108 0 0.31164323828973173 -0.43450104901386799 0 0.32301104422760152 -0.4557832920690108 0 0.31164323828973173 -0.43450104901386799 0 0.31079527661095591 -0.44530975017587943 0 0.32301104422760152 -0.4557832920690108 0 0.32153795701619242 -0.43884233838721232 0 0.31164323828973173 -0.43450104901386799 0 0.33458446653223661 -0.45498549718063619 0 0.32153795701619242 -0.43884233838721232 0 0.33458446653223661 -0.45498549718063619 0 0.32301104422760152 -0.4557832920690108 0 0.32153795701619242 -0.43884233838721232 0 0.32301104422760152 -0.4557832920690108 0 0.31079527661095591 -0.44530975017587943 0 0.31217310264251402 -0.45301192403714641 0 0.32153795701619242 -0.43884233838721232 0 0.306774763025353 -0.4205750321319135 0 0.32153795701619242 -0.43884233838721232 0 0.31803304219197892 -0.42372570865396308 0 0.306774763025353 -0.4205750321319135 0 0.3234704897596839 -0.42218123144291148 0 0.32659779690860979 -0.43098660119785931 0 0.33115210919690619 -0.41698782788092231 0 0.3234704897596839 -0.42218123144291148 0 0.32659779690860979 -0.43098660119785931 0 0.31803304219197892 -0.42372570865396308 0 0.32153795701619242 -0.43884233838721232 0 0.32659779690860979 -0.43098660119785931 0 0.33474900067586078 -0.43555524034642618 0 0.32153795701619242 -0.43884233838721232 0 0.32659779690860979 -0.43098660119785931 0 0.31803304219197892 -0.42372570865396308 0 0.32153795701619242 -0.43884233838721232 0 0.31164323828973173 -0.43450104901386799 0 0.32153795701619242 -0.43884233838721232 0 0.30917456932135678 -0.42987932928230099 0 0.31164323828973173 -0.43450104901386799 0 0.31803304219197892 -0.42372570865396308 0 0.31741624065263452 -0.41270093585459849 0 0.306774763025353 -0.4205750321319135 0 0.3234704897596839 -0.42218123144291148 0 0.31803304219197892 -0.42372570865396308 0 0.31741624065263452 -0.41270093585459849 0 0.31741624065263452 -0.41270093585459849 0 0.33115210919690619 -0.41698782788092231 0 0.32490987928249349 -0.4030291481115269 0 0.3234704897596839 -0.42218123144291148 0 0.31741624065263452 -0.41270093585459849 0 0.33115210919690619 -0.41698782788092231 0 0.33115210919690619 -0.41698782788092231 0 0.33811484735428271 -0.40882280320675413 0 0.32490987928249349 -0.4030291481115269 0 0.33115210919690619 -0.41698782788092231 0 0.33811484735428271 -0.40882280320675413 0 0.33938304037342137 -0.42416166966532493 0 0.33811484735428271 -0.40882280320675413 0 0.33938304037342137 -0.42416166966532493 0 0.34656845291978039 -0.41486408341876302 0 0.32659779690860979 -0.43098660119785931 0 0.33115210919690619 -0.41698782788092231 0 0.33938304037342137 -0.42416166966532493 0 0.32659779690860979 -0.43098660119785931 0 0.33938304037342137 -0.42416166966532493 0 0.33474900067586078 -0.43555524034642618 0 0.34763055507707968 -0.43753420199108251 0 0.33938304037342137 -0.42416166966532493 0 0.33474900067586078 -0.43555524034642618 0 0.34996837041327772 -0.42628905456849719 0 0.36005176952325618 -0.43415237217843822 0 0.35752610439172411 -0.4179688501333193 0 0.34763055507707968 -0.43753420199108251 0 0.33938304037342137 -0.42416166966532493 0 0.34996837041327772 -0.42628905456849719 0 0.34763055507707968 -0.43753420199108251 0 0.34996837041327772 -0.42628905456849719 0 0.36005176952325618 -0.43415237217843822 0 0.37285239115392038 -0.44263123452566833 0 0.36005176952325618 -0.43415237217843822 0 0.37454500830997911 -0.42420949131652719 0 0.36005176952325618 -0.43415237217843822 0 0.37454500830997911 -0.42420949131652719 0 0.35752610439172411 -0.4179688501333193 0 0.37454500830997911 -0.42420949131652719 0 0.35752610439172411 -0.4179688501333193 0 0.3659154079557202 -0.40620321687314492 0 0.38317447848362168 -0.40789497946683778 0 0.37454500830997911 -0.42420949131652719 0 0.3659154079557202 -0.40620321687314492 0 0.35752610439172411 -0.4179688501333193 0 0.35010013564113091 -0.40267084368029388 0 0.3659154079557202 -0.40620321687314492 0 0.34996837041327772 -0.42628905456849719 0 0.35752610439172411 -0.4179688501333193 0 0.34656845291978039 -0.41486408341876302 0 0.33938304037342137 -0.42416166966532493 0 0.34996837041327772 -0.42628905456849719 0 0.34656845291978039 -0.41486408341876302 0 0.35752610439172411 -0.4179688501333193 0 0.34656845291978039 -0.41486408341876302 0 0.35010013564113091 -0.40267084368029388 0 0.33811484735428271 -0.40882280320675413 0 0.34656845291978039 -0.41486408341876302 0 0.35010013564113091 -0.40267084368029388 0 0.35010013564113091 -0.40267084368029388 0 0.3659154079557202 -0.40620321687314492 0 0.36161164805348728 -0.39177508049380771 0 0.35010013564113091 -0.40267084368029388 0 0.34823756708141829 -0.38882712604911562 0 0.3367902777698174 -0.3938105572838983 0 0.35010013564113091 -0.40267084368029388 0 0.36161164805348728 -0.39177508049380771 0 0.34823756708141829 -0.38882712604911562 0 0.37750040779155908 -0.39417833507100358 0 0.3659154079557202 -0.40620321687314492 0 0.36161164805348728 -0.39177508049380771 0 0.36161164805348728 -0.39177508049380771 0 0.37118146497426391 -0.3795284056837297 0 0.35552902059215569 -0.37784893566975591 0 0.37750040779155908 -0.39417833507100358 0 0.36161164805348728 -0.39177508049380771 0 0.37118146497426391 -0.3795284056837297 0 0.35552902059215569 -0.37784893566975591 0 0.34823756708141829 -0.38882712604911562 0 0.33863406501306498 -0.37806035023931472 0 0.36161164805348728 -0.39177508049380771 0 0.35552902059215569 -0.37784893566975591 0 0.34823756708141829 -0.38882712604911562 0 0.33863406501306498 -0.37806035023931472 0 0.3367902777698174 -0.3938105572838983 0 0.32090210258274671 -0.38534996841328251 0 0.33863406501306498 -0.37806035023931472 0 0.32090210258274671 -0.38534996841328251 0 0.3248423605868605 -0.37357013433747133 0 0.34823756708141829 -0.38882712604911562 0 0.33863406501306498 -0.37806035023931472 0 0.3367902777698174 -0.3938105572838983 0 0.33811484735428271 -0.40882280320675413 0 0.35010013564113091 -0.40267084368029388 0 0.3367902777698174 -0.3938105572838983 0 0.33811484735428271 -0.40882280320675413 0 0.3367902777698174 -0.3938105572838983 0 0.32490987928249349 -0.4030291481115269 0 0.32490987928249349 -0.4030291481115269 0 0.32090210258274671 -0.38534996841328251 0 0.30973858848274127 -0.40130137831333967 0 0.3367902777698174 -0.3938105572838983 0 0.32490987928249349 -0.4030291481115269 0 0.32090210258274671 -0.38534996841328251 0 0.31741624065263452 -0.41270093585459849 0 0.32490987928249349 -0.4030291481115269 0 0.30973858848274127 -0.40130137831333967 0 0.32090210258274671 -0.38534996841328251 0 0.3248423605868605 -0.37357013433747133 0 0.30981510289686642 -0.36991674060995311 0 0.32090210258274671 -0.38534996841328251 0 0.29725181067882811 -0.38374250641616869 0 0.30981510289686642 -0.36991674060995311 0 0.32090210258274671 -0.38534996841328251 0 0.29725181067882811 -0.38374250641616869 0 0.30973858848274127 -0.40130137831333967 0 0.29725181067882811 -0.38374250641616869 0 0.30973858848274127 -0.40130137831333967 0 0.29201156903451359 -0.40230772587661467 0 0.29201156903451359 -0.40230772587661467 0 0.27724837504367422 -0.38404041962131602 0 0.29201156903451359 -0.40230772587661467 0 0.27724837504367422 -0.38404041962131602 0 0.27519008918488908 -0.40607747244169318 0 0.29725181067882811 -0.38374250641616869 0 0.29201156903451359 -0.40230772587661467 0 0.27724837504367422 -0.38404041962131602 0 0.29725181067882811 -0.38374250641616869 0 0.27724837504367422 -0.38404041962131602 0 0.28802871793874901 -0.35778349689905881 0 0.27724837504367422 -0.38404041962131602 0 0.25837947248807758 -0.40073025194356771 0 0.2461703249918252 -0.38334112881256072 0 0.27724837504367422 -0.38404041962131602 0 0.26248518105283469 -0.3657731133660172 0 0.2461703249918252 -0.38334112881256072 0 0.27724837504367422 -0.38404041962131602 0 0.25837947248807758 -0.40073025194356771 0 0.27519008918488908 -0.40607747244169318 0 0.27519008918488908 -0.40607747244169318 0 0.26359080406578322 -0.42340780026734831 0 0.28472022529239699 -0.41990116449961951 0 0.25837947248807758 -0.40073025194356771 0 0.27519008918488908 -0.40607747244169318 0 0.26359080406578322 -0.42340780026734831 0 0.25837947248807758 -0.40073025194356771 0 0.26359080406578322 -0.42340780026734831 0 0.2466552716555708 -0.41428653093542461 0 0.26359080406578322 -0.42340780026734831 0 0.26343562551043392 -0.44390321080411282 0 0.23481069364868901 -0.43021540123481961 0 0.26359080406578322 -0.42340780026734831 0 0.27745267079951608 -0.43647177799071668 0 0.28472022529239699 -0.41990116449961951 0 0.26359080406578322 -0.42340780026734831 0 0.27745267079951608 -0.43647177799071668 0 0.26343562551043392 -0.44390321080411282 0 0.27745267079951608 -0.43647177799071668 0 0.28472022529239699 -0.41990116449961951 0 0.29137726882131848 -0.43792654690217031 0 0.28472022529239699 -0.41990116449961951 0 0.29999393767241311 -0.42938994011073212 0 0.29137726882131848 -0.43792654690217031 0 0.28472022529239699 -0.41990116449961951 0 0.29572566114775822 -0.41909107647416027 0 0.29999393767241311 -0.42938994011073212 0 0.29201156903451359 -0.40230772587661467 0 0.28472022529239699 -0.41990116449961951 0 0.29572566114775822 -0.41909107647416027 0 0.29201156903451359 -0.40230772587661467 0 0.27519008918488908 -0.40607747244169318 0 0.28472022529239699 -0.41990116449961951 0 0.30973858848274127 -0.40130137831333967 0 0.29201156903451359 -0.40230772587661467 0 0.306774763025353 -0.4205750321319135 0 0.29201156903451359 -0.40230772587661467 0 0.29572566114775822 -0.41909107647416027 0 0.306774763025353 -0.4205750321319135 0 0.31741624065263452 -0.41270093585459849 0 0.30973858848274127 -0.40130137831333967 0 0.306774763025353 -0.4205750321319135 0 0.29201156903451359 -0.40230772587661467 0 0.306774763025353 -0.4205750321319135 0 0.306774763025353 -0.4205750321319135 0 0.30477521067413471 -0.42605239870334188 0 0.30917456932135678 -0.42987932928230099 0 0.32153795701619242 -0.43884233838721232 0 0.306774763025353 -0.4205750321319135 0 0.30917456932135678 -0.42987932928230099 0 0.30917456932135678 -0.42987932928230099 0 0.31164323828973173 -0.43450104901386799 0 0.31164323828973173 -0.43450104901386799 0 0.29999393767241311 -0.42938994011073212 0 0.30917456932135678 -0.42987932928230099 0 0.31164323828973173 -0.43450104901386799 0 0.29999393767241311 -0.42938994011073212 0 0.31164323828973173 -0.43450104901386799 0 0.29999393767241311 -0.42938994011073212 0 0.30299892176107668 -0.43799937696082802 0 0.29999393767241311 -0.42938994011073212 0 0.30299892176107668 -0.43799937696082802 0 0.29137726882131848 -0.43792654690217031 0 0.30477521067413471 -0.42605239870334188 0 0.30917456932135678 -0.42987932928230099 0 0.29999393767241311 -0.42938994011073212 0 0.29572566114775822 -0.41909107647416027 0 0.30477521067413471 -0.42605239870334188 0 0.29999393767241311 -0.42938994011073212 0 0.29572566114775822 -0.41909107647416027 0 0.306774763025353 -0.4205750321319135 0 0.30477521067413471 -0.42605239870334188 0 0.30317948172552778 -0.45132218250264589 0 0.2990546519270163 -0.44593573067177922 0 0.31079527661095591 -0.44530975017587943 0 0.2990546519270163 -0.44593573067177922 0 0.30299892176107668 -0.43799937696082802 0 0.31079527661095591 -0.44530975017587943 0 0.2990546519270163 -0.44593573067177922 0 0.30299892176107668 -0.43799937696082802 0 0.29137726882131848 -0.43792654690217031 0 0.31164323828973173 -0.43450104901386799 0 0.30299892176107668 -0.43799937696082802 0 0.31079527661095591 -0.44530975017587943 0 0.30317948172552778 -0.45132218250264589 0 0.31079527661095591 -0.44530975017587943 0 0.31217310264251402 -0.45301192403714641 0 0.30317948172552778 -0.45132218250264589 0 0.31222883482734548 -0.45652654599325693 0 0.28359940641633641 -0.45850006869398968 0 0.31518611424689458 -0.47228023799869778 0 0.31222883482734548 -0.45652654599325693 0 0.30261808889381608 -0.46988281969740903 0 0.31222883482734548 -0.45652654599325693 0 0.28359940641633641 -0.45850006869398968 0 0.30261808889381608 -0.46988281969740903 0 0.30317948172552778 -0.45132218250264589 0 0.31217310264251402 -0.45301192403714641 0 0.31222883482734548 -0.45652654599325693 0 0.31222883482734548 -0.45652654599325693 0 0.28359940641633641 -0.45850006869398968 0 0.27745267079951608 -0.43647177799071668 0 0.28359940641633641 -0.45850006869398968 0 0.29137726882131848 -0.43792654690217031 0 0.2990546519270163 -0.44593573067177922 0 0.28359940641633641 -0.45850006869398968 0 0.29137726882131848 -0.43792654690217031 0 0.30317948172552778 -0.45132218250264589 0 0.2990546519270163 -0.44593573067177922 0 0.28359940641633641 -0.45850006869398968 0 0.27745267079951608 -0.43647177799071668 0 0.28359940641633641 -0.45850006869398968 0 0.26343562551043392 -0.44390321080411282 0 0.26343562551043392 -0.44390321080411282 0 0.25496997800532728 -0.46047359139472188 0 0.23688347584265829 -0.45424155226339941 0 0.28359940641633641 -0.45850006869398968 0 0.26343562551043392 -0.44390321080411282 0 0.25496997800532728 -0.46047359139472188 0 0.28359940641633641 -0.45850006869398968 0 0.25496997800532728 -0.46047359139472188 0 0.27341715771861702 -0.48047751468972127 0 0.28359940641633641 -0.45850006869398968 0 0.25496997800532728 -0.46047359139472188 0 0.25496997800532728 -0.46047359139472188 0 0.27341715771861702 -0.48047751468972127 0 0.24245302517549339 -0.47827313909241609 0 0.27341715771861702 -0.48047751468972127 0 0.26201441957557109 -0.5 0 0.24245302517549339 -0.47827313909241609 0 0.27341715771861702 -0.48047751468972127 0 0.26201441957557109 -0.5 0 0.29021934048377662 -0.5 0 0.27341715771861702 -0.48047751468972127 0 0.29021934048377662 -0.5 0 0.29135391587689269 -0.47843657802117873 0 0.29021934048377662 -0.5 0 0.29135391587689269 -0.47843657802117873 0 0.30691558587191747 -0.48332248702477348 0 0.28359940641633641 -0.45850006869398968 0 0.29135391587689269 -0.47843657802117873 0 0.30261808889381608 -0.46988281969740903 0 0.28359940641633641 -0.45850006869398968 0 0.27341715771861702 -0.48047751468972127 0 0.29135391587689269 -0.47843657802117873 0 0.29135391587689269 -0.47843657802117873 0 0.30261808889381608 -0.46988281969740903 0 0.30691558587191747 -0.48332248702477348 0 0.31518611424689458 -0.47228023799869778 0 0.30261808889381608 -0.46988281969740903 0 0.30691558587191747 -0.48332248702477348 0 0.31842426139198221 -0.5 0 0.29021934048377662 -0.5 0 0.30691558587191747 -0.48332248702477348 0 0.34071507084512381 -0.29301000824436918 0 0.32258332174497589 -0.30320149791500978 0 0.33611859885641948 -0.31627943827027749 0 0.32258332174497589 -0.30320149791500978 0 0.30898990014615491 -0.31325518308330491 0 0.31028954219028593 -0.29624707121635618 0 0.32258332174497589 -0.30320149791500978 0 0.31798427643825322 -0.28062318660813551 0 0.31028954219028593 -0.29624707121635618 0 0.34071507084512381 -0.29301000824436918 0 0.32258332174497589 -0.30320149791500978 0 0.31798427643825322 -0.28062318660813551 0 0.31798427643825322 -0.28062318660813551 0 0.32355208494558491 -0.26167144231655282 0 0.29640770592986421 -0.27129011181319801 0 0.30809761411507741 -0.24936988003297031 0 0.33156972523072259 -0.2447401806492597 0 0.32355208494558491 -0.26167144231655282 0 0.33156972523072259 -0.2447401806492597 0 0.34846647856521912 -0.24137630224584941 0 0.34309072511238098 -0.26538258536724962 0 0.33156972523072259 -0.2447401806492597 0 0.32355208494558491 -0.26167144231655282 0 0.34309072511238098 -0.26538258536724962 0 0.31798427643825322 -0.28062318660813551 0 0.32355208494558491 -0.26167144231655282 0 0.34309072511238098 -0.26538258536724962 0 0.31798427643825322 -0.28062318660813551 0 0.34309072511238098 -0.26538258536724962 0 0.34071507084512381 -0.29301000824436918 0 0.31798427643825322 -0.28062318660813551 0 0.34309072511238098 -0.26538258536724962 0 0.34071507084512381 -0.29301000824436918 0 0.34309072511238098 -0.26538258536724962 0 0.36025142275760852 -0.27717847662635131 0 0.34846647856521912 -0.24137630224584941 0 0.34309072511238098 -0.26538258536724962 0 0.36819717378650868 -0.25014198412636379 0 0.34309072511238098 -0.26538258536724962 0 0.36819717378650868 -0.25014198412636379 0 0.34309072511238098 -0.26538258536724962 0 0.36819717378650868 -0.25014198412636379 0 0.36025142275760852 -0.27717847662635131 0 0.38015609275160078 -0.2746929008256096 0 0.36819717378650868 -0.25014198412636379 0 0.38015609275160078 -0.2746929008256096 0 0.36819717378650868 -0.25014198412636379 0 0.36025142275760852 -0.27717847662635131 0 0.38015609275160078 -0.2746929008256096 0 0.36025142275760852 -0.27717847662635131 0 0.37370831603787841 -0.29125681433617001 0 0.36025142275760852 -0.27717847662635131 0 0.36081573223098973 -0.29660734609121753 0 0.37370831603787841 -0.29125681433617001 0 0.34071507084512381 -0.29301000824436918 0 0.36025142275760852 -0.27717847662635131 0 0.36081573223098973 -0.29660734609121753 0 0.34071507084512381 -0.29301000824436918 0 0.36081573223098973 -0.29660734609121753 0 0.35470378576376987 -0.31348082243781228 0 0.34071507084512381 -0.29301000824436918 0 0.35470378576376987 -0.31348082243781228 0 0.33611859885641948 -0.31627943827027749 0 0.37550682194184359 -0.30903196858396342 0 0.36081573223098973 -0.29660734609121753 0 0.35470378576376987 -0.31348082243781228 0 0.37550682194184359 -0.30903196858396342 0 0.36081573223098973 -0.29660734609121753 0 0.37370831603787841 -0.29125681433617001 0 0.37550682194184359 -0.30903196858396342 0 0.36609202702331167 -0.32590995590695848 0 0.35470378576376987 -0.31348082243781228 0 0.3847709954620594 -0.32599898413554868 0 0.36609202702331167 -0.32590995590695848 0 0.37306859486225491 -0.33939155858724163 0 0.37306859486225491 -0.33939155858724163 0 0.36032299455420608 -0.33768176996047577 0 0.36255116107658453 -0.35004166146975652 0 0.36609202702331167 -0.32590995590695848 0 0.37306859486225491 -0.33939155858724163 0 0.36032299455420608 -0.33768176996047577 0 0.35057789375107729 -0.32882867193686899 0 0.34932529605780199 -0.34423700190155332 0 0.33300399404326841 -0.33537901806781317 0 0.36609202702331167 -0.32590995590695848 0 0.36032299455420608 -0.33768176996047577 0 0.35057789375107729 -0.32882867193686899 0 0.36032299455420608 -0.33768176996047577 0 0.35057789375107729 -0.32882867193686899 0 0.34932529605780199 -0.34423700190155332 0 0.35057789375107729 -0.32882867193686899 0 0.35470378576376987 -0.31348082243781228 0 0.33611859885641948 -0.31627943827027749 0 0.36609202702331167 -0.32590995590695848 0 0.35057789375107729 -0.32882867193686899 0 0.35470378576376987 -0.31348082243781228 0 0.37750271411856678 -0.36775852889685229 0 0.37118146497426391 -0.3795284056837297 0 0.36427292388074811 -0.36359663574752332 0 0.37118146497426391 -0.3795284056837297 0 0.35552902059215569 -0.37784893566975591 0 0.36427292388074811 -0.36359663574752332 0 0.3756823805396915 -0.35393983314745281 0 0.37750271411856678 -0.36775852889685229 0 0.36427292388074811 -0.36359663574752332 0 0.3756823805396915 -0.35393983314745281 0 0.36427292388074811 -0.36359663574752332 0 0.36255116107658453 -0.35004166146975652 0 0.3756823805396915 -0.35393983314745281 0 0.37306859486225491 -0.33939155858724163 0 0.36255116107658453 -0.35004166146975652 0 0.34932529605780199 -0.34423700190155332 0 0.34894837368456783 -0.36167065612644789 0 0.33750472238737622 -0.35112155500970788 0 0.36255116107658453 -0.35004166146975652 0 0.34932529605780199 -0.34423700190155332 0 0.34894837368456783 -0.36167065612644789 0 0.36032299455420608 -0.33768176996047577 0 0.36255116107658453 -0.35004166146975652 0 0.34932529605780199 -0.34423700190155332 0 0.36427292388074811 -0.36359663574752332 0 0.36255116107658453 -0.35004166146975652 0 0.34894837368456783 -0.36167065612644789 0 0.35552902059215569 -0.37784893566975591 0 0.33863406501306498 -0.37806035023931472 0 0.34894837368456783 -0.36167065612644789 0 0.35552902059215569 -0.37784893566975591 0 0.36427292388074811 -0.36359663574752332 0 0.34894837368456783 -0.36167065612644789 0 0.33863406501306498 -0.37806035023931472 0 0.34894837368456783 -0.36167065612644789 0 0.33377502232883799 -0.36346604617755018 0 0.33863406501306498 -0.37806035023931472 0 0.33377502232883799 -0.36346604617755018 0 0.3248423605868605 -0.37357013433747133 0 0.33377502232883799 -0.36346604617755018 0 0.33750472238737622 -0.35112155500970788 0 0.31894558997232042 -0.35290753517480888 0 0.33750472238737622 -0.35112155500970788 0 0.31894558997232042 -0.35290753517480888 0 0.33300399404326841 -0.33537901806781317 0 0.34894837368456783 -0.36167065612644789 0 0.33377502232883799 -0.36346604617755018 0 0.33750472238737622 -0.35112155500970788 0 0.33377502232883799 -0.36346604617755018 0 0.31894558997232042 -0.35290753517480888 0 0.3248423605868605 -0.37357013433747133 0 0.31894558997232042 -0.35290753517480888 0 0.3248423605868605 -0.37357013433747133 0 0.30981510289686642 -0.36991674060995311 0 0.35057789375107729 -0.32882867193686899 0 0.33611859885641948 -0.31627943827027749 0 0.33300399404326841 -0.33537901806781317 0 0.33611859885641948 -0.31627943827027749 0 0.33300399404326841 -0.33537901806781317 0 0.32132308003684112 -0.32160782527224102 0 0.34932529605780199 -0.34423700190155332 0 0.33750472238737622 -0.35112155500970788 0 0.33300399404326841 -0.33537901806781317 0 0.33300399404326841 -0.33537901806781317 0 0.31715331528426449 -0.33448482411386038 0 0.32132308003684112 -0.32160782527224102 0 0.31894558997232042 -0.35290753517480888 0 0.33300399404326841 -0.33537901806781317 0 0.31715331528426449 -0.33448482411386038 0 0.31715331528426449 -0.33448482411386038 0 0.32132308003684112 -0.32160782527224102 0 0.30932609568537328 -0.32635269780621351 0 0.32258332174497589 -0.30320149791500978 0 0.33611859885641948 -0.31627943827027749 0 0.32132308003684112 -0.32160782527224102 0 0.32258332174497589 -0.30320149791500978 0 0.32132308003684112 -0.32160782527224102 0 0.30898990014615491 -0.31325518308330491 0 0.32132308003684112 -0.32160782527224102 0 0.30898990014615491 -0.31325518308330491 0 0.30932609568537328 -0.32635269780621351 0 0.30932609568537328 -0.32635269780621351 0 0.30005341523793971 -0.33598414495034268 0 0.28826644834560339 -0.31656700551937322 0 0.30898990014615491 -0.31325518308330491 0 0.30932609568537328 -0.32635269780621351 0 0.28826644834560339 -0.31656700551937322 0 0.31715331528426449 -0.33448482411386038 0 0.30932609568537328 -0.32635269780621351 0 0.30005341523793971 -0.33598414495034268 0 0.31894558997232042 -0.35290753517480888 0 0.31715331528426449 -0.33448482411386038 0 0.30005341523793971 -0.33598414495034268 0 0.30005341523793971 -0.33598414495034268 0 0.28469600606712508 -0.33176242817819068 0 0.28802871793874901 -0.35778349689905881 0 0.30005341523793971 -0.33598414495034268 0 0.28469600606712508 -0.33176242817819068 0 0.28826644834560339 -0.31656700551937322 0 0.29725181067882811 -0.38374250641616869 0 0.30981510289686642 -0.36991674060995311 0 0.28802871793874901 -0.35778349689905881 0 0.30981510289686642 -0.36991674060995311 0 0.30317498358955219 -0.3515061227109349 0 0.28802871793874901 -0.35778349689905881 0 0.31894558997232042 -0.35290753517480888 0 0.30981510289686642 -0.36991674060995311 0 0.30317498358955219 -0.3515061227109349 0 0.30005341523793971 -0.33598414495034268 0 0.30317498358955219 -0.3515061227109349 0 0.28802871793874901 -0.35778349689905881 0 0.31894558997232042 -0.35290753517480888 0 0.30005341523793971 -0.33598414495034268 0 0.30317498358955219 -0.3515061227109349 0 0.27724837504367422 -0.38404041962131602 0 0.26248518105283469 -0.3657731133660172 0 0.27724837504367422 -0.38404041962131602 0 0.28802871793874901 -0.35778349689905881 0 0.26248518105283469 -0.3657731133660172 0 0.28802871793874901 -0.35778349689905881 0 0.26248518105283469 -0.3657731133660172 0 0.26965675611824952 -0.33959600006671242 0 0.26248518105283469 -0.3657731133660172 0 0.26965675611824952 -0.33959600006671242 0 0.24951766854159241 -0.34404406054459408 0 0.28469600606712508 -0.33176242817819068 0 0.28826644834560339 -0.31656700551937322 0 0.26777137908999771 -0.31110438908990717 0 0.28469600606712508 -0.33176242817819068 0 0.26965675611824952 -0.33959600006671242 0 0.26777137908999771 -0.31110438908990717 0 0.28469600606712508 -0.33176242817819068 0 0.28802871793874901 -0.35778349689905881 0 0.26965675611824952 -0.33959600006671242 0 0.26965675611824952 -0.33959600006671242 0 0.25484490963391249 -0.3246512814362339 0 0.24951766854159241 -0.34404406054459408 0 0.26965675611824952 -0.33959600006671242 0 0.25484490963391249 -0.3246512814362339 0 0.26777137908999771 -0.31110438908990717 0 0.25484490963391249 -0.3246512814362339 0 0.26777137908999771 -0.31110438908990717 0 0.24806847164918011 -0.30526308002230812 0 0.25985893058145831 -0.2926780710294814 0 0.26777137908999771 -0.31110438908990717 0 0.24806847164918011 -0.30526308002230812 0 0.25985893058145831 -0.2926780710294814 0 0.24914904344722719 -0.28812310958931397 0 0.24806847164918011 -0.30526308002230812 0 0.25717130826973589 -0.28442007302545841 0 0.25985893058145831 -0.2926780710294814 0 0.24914904344722719 -0.28812310958931397 0 0.25717130826973589 -0.28442007302545841 0 0.25552712494813862 -0.27415747655227812 0 0.24914904344722719 -0.28812310958931397 0 0.25717130826973589 -0.28442007302545841 0 0.25985893058145831 -0.2926780710294814 0 0.26415013410211952 -0.28272163493076008 0 0.25985893058145831 -0.2926780710294814 0 0.26415013410211952 -0.28272163493076008 0 0.27249551855967041 -0.28970278412455031 0 0.26415013410211952 -0.28272163493076008 0 0.27249551855967041 -0.28970278412455031 0 0.275198268997222 -0.27573201453392587 0 0.27249551855967041 -0.28970278412455031 0 0.28220482280785192 -0.28248381351627488 0 0.275198268997222 -0.27573201453392587 0 0.27249551855967041 -0.28970278412455031 0 0.28471779774465089 -0.29321034359342568 0 0.28220482280785192 -0.28248381351627488 0 0.27249551855967041 -0.28970278412455031 0 0.26777137908999771 -0.31110438908990717 0 0.28471779774465089 -0.29321034359342568 0 0.25985893058145831 -0.2926780710294814 0 0.27249551855967041 -0.28970278412455031 0 0.26777137908999771 -0.31110438908990717 0 0.26777137908999771 -0.31110438908990717 0 0.29287782776412552 -0.29586378784902129 0 0.28826644834560339 -0.31656700551937322 0 0.26777137908999771 -0.31110438908990717 0 0.29287782776412552 -0.29586378784902129 0 0.26777137908999771 -0.31110438908990717 0 0.29287782776412552 -0.29586378784902129 0 0.28471779774465089 -0.29321034359342568 0 0.28826644834560339 -0.31656700551937322 0 0.29287782776412552 -0.29586378784902129 0 0.30010592961154242 -0.30548326191701392 0 0.28471779774465089 -0.29321034359342568 0 0.29640770592986421 -0.27129011181319801 0 0.28471779774465089 -0.29321034359342568 0 0.28220482280785192 -0.28248381351627488 0 0.29640770592986421 -0.27129011181319801 0 0.29287782776412552 -0.29586378784902129 0 0.28471779774465089 -0.29321034359342568 0 0.29640770592986421 -0.27129011181319801 0 0.31798427643825322 -0.28062318660813551 0 0.29287782776412552 -0.29586378784902129 0 0.31798427643825322 -0.28062318660813551 0 0.29287782776412552 -0.29586378784902129 0 0.29640770592986421 -0.27129011181319801 0 0.31798427643825322 -0.28062318660813551 0 0.29287782776412552 -0.29586378784902129 0 0.31028954219028593 -0.29624707121635618 0 0.30898990014615491 -0.31325518308330491 0 0.31028954219028593 -0.29624707121635618 0 0.30010592961154242 -0.30548326191701392 0 0.29287782776412552 -0.29586378784902129 0 0.31028954219028593 -0.29624707121635618 0 0.30010592961154242 -0.30548326191701392 0 0.30898990014615491 -0.31325518308330491 0 0.28826644834560339 -0.31656700551937322 0 0.30010592961154242 -0.30548326191701392 0 0.30809761411507741 -0.24936988003297031 0 0.29640770592986421 -0.27129011181319801 0 0.30809761411507741 -0.24936988003297031 0 0.32355208494558491 -0.26167144231655282 0 0.29640770592986421 -0.27129011181319801 0 0.30809761411507741 -0.24936988003297031 0 0.29640770592986421 -0.27129011181319801 0 0.29300399442882508 -0.25527855248106529 0 0.29640770592986421 -0.27129011181319801 0 0.27726099985521291 -0.25712932472655309 0 0.275198268997222 -0.27573201453392587 0 0.28220482280785192 -0.28248381351627488 0 0.29640770592986421 -0.27129011181319801 0 0.275198268997222 -0.27573201453392587 0 0.29024965781514611 -0.24332489335153959 0 0.29300399442882508 -0.25527855248106529 0 0.27726099985521291 -0.25712932472655309 0 0.29640770592986421 -0.27129011181319801 0 0.29300399442882508 -0.25527855248106529 0 0.27726099985521291 -0.25712932472655309 0 0.26726700293237932 -0.2478010613629219 0 0.27726099985521291 -0.25712932472655309 0 0.2574951213492645 -0.26750031449764872 0 0.27726099985521291 -0.25712932472655309 0 0.25552712494813862 -0.27415747655227812 0 0.27726099985521291 -0.25712932472655309 0 0.275198268997222 -0.27573201453392587 0 0.25552712494813862 -0.27415747655227812 0 0.26415013410211952 -0.28272163493076008 0 0.275198268997222 -0.27573201453392587 0 0.25552712494813862 -0.27415747655227812 0 0.27726099985521291 -0.25712932472655309 0 0.2574951213492645 -0.26750031449764872 0 0.25552712494813862 -0.27415747655227812 0 0.25717130826973589 -0.28442007302545841 0 0.26415013410211952 -0.28272163493076008 0 0.25552712494813862 -0.27415747655227812 0 0.2574951213492645 -0.26750031449764872 0 0.25552712494813862 -0.27415747655227812 0 0.24934694560200649 -0.26664732628419169 0 0.25573506561470599 -0.23830971155561459 0 0.2574951213492645 -0.26750031449764872 0 0.24729019271448721 -0.25871699687992478 0 0.25573506561470599 -0.23830971155561459 0 0.2574951213492645 -0.26750031449764872 0 0.26726700293237932 -0.2478010613629219 0 0.25573506561470599 -0.23830971155561459 0 0.2574951213492645 -0.26750031449764872 0 0.2574951213492645 -0.26750031449764872 0 0.24729019271448721 -0.25871699687992478 0 0.24934694560200649 -0.26664732628419169 0 0.24729019271448721 -0.25871699687992478 0 0.24264040509813101 -0.27135292628529528 0 0.23872218031306711 -0.24833064043005099 0 0.24264040509813101 -0.27135292628529528 0 0.23872218031306711 -0.24833064043005099 0 0.24729019271448721 -0.25871699687992478 0 0.24934694560200649 -0.26664732628419169 0 0.24264040509813101 -0.27135292628529528 0 0.25552712494813862 -0.27415747655227812 0 0.24264040509813101 -0.27135292628529528 0 0.2337932500410641 -0.29118562837800332 0 0.24264040509813101 -0.27135292628529528 0 0.2285317124756886 -0.27685658643935318 0 0.2337932500410641 -0.29118562837800332 0 0.25552712494813862 -0.27415747655227812 0 0.24934694560200649 -0.26664732628419169 0 0.24264040509813101 -0.27135292628529528 0 0.24264040509813101 -0.27135292628529528 0 0.2285317124756886 -0.27685658643935318 0 0.2215470545740986 -0.26239410947196612 0 0.2285317124756886 -0.27685658643935318 0 0.2215470545740986 -0.26239410947196612 0 0.21614614018946049 -0.28249368162214789 0 0.24264040509813101 -0.27135292628529528 0 0.2215470545740986 -0.26239410947196612 0 0.23872218031306711 -0.24833064043005099 0 0.2215470545740986 -0.26239410947196612 0 0.19841711378944399 -0.25476520294789679 0 0.2067512508871337 -0.2388591140830596 0 0.2215470545740986 -0.26239410947196612 0 0.20197889010273809 -0.27151659480230261 0 0.19841711378944399 -0.25476520294789679 0 0.2215470545740986 -0.26239410947196612 0 0.20197889010273809 -0.27151659480230261 0 0.21614614018946049 -0.28249368162214789 0 0.20197889010273809 -0.27151659480230261 0 0.18770502870592309 -0.2850915090333816 0 0.18271044357752389 -0.26554790683306051 0 0.20197889010273809 -0.27151659480230261 0 0.18770502870592309 -0.2850915090333816 0 0.20197889010273809 -0.27151659480230261 0 0.19841711378944399 -0.25476520294789679 0 0.18271044357752389 -0.26554790683306051 0 0.19134211295339529 -0.30128148300358942 0 0.20925305859768339 -0.30389654274272332 0 0.2048483305776525 -0.30983043848282499 0 0.19134211295339529 -0.30128148300358942 0 0.20925305859768339 -0.30389654274272332 0 0.19134211295339529 -0.30128148300358942 0 0.2026527372862193 -0.29021189921289742 0 0.20925305859768339 -0.30389654274272332 0 0.19134211295339529 -0.30128148300358942 0 0.2048483305776525 -0.30983043848282499 0 0.196955779276134 -0.31425898558895021 0 0.19134211295339529 -0.30128148300358942 0 0.196955779276134 -0.31425898558895021 0 0.18328045324040651 -0.30823009058924239 0 0.19134211295339529 -0.30128148300358942 0 0.18770502870592309 -0.2850915090333816 0 0.2026527372862193 -0.29021189921289742 0 0.20197889010273809 -0.27151659480230261 0 0.18770502870592309 -0.2850915090333816 0 0.2026527372862193 -0.29021189921289742 0 0.20197889010273809 -0.27151659480230261 0 0.2026527372862193 -0.29021189921289742 0 0.21614614018946049 -0.28249368162214789 0 0.2026527372862193 -0.29021189921289742 0 0.2147809122496834 -0.29520030643189998 0 0.20925305859768339 -0.30389654274272332 0 0.2026527372862193 -0.29021189921289742 0 0.21614614018946049 -0.28249368162214789 0 0.2147809122496834 -0.29520030643189998 0 0.2147809122496834 -0.29520030643189998 0 0.20925305859768339 -0.30389654274272332 0 0.2120593751339897 -0.30821378020372842 0 0.2048483305776525 -0.30983043848282499 0 0.2120593751339897 -0.30821378020372842 0 0.2101172463044354 -0.31644161439748331 0 0.20925305859768339 -0.30389654274272332 0 0.2048483305776525 -0.30983043848282499 0 0.2120593751339897 -0.30821378020372842 0 0.2120593751339897 -0.30821378020372842 0 0.22956274363991411 -0.31047678442906868 0 0.2337932500410641 -0.29118562837800332 0 0.2147809122496834 -0.29520030643189998 0 0.2120593751339897 -0.30821378020372842 0 0.2337932500410641 -0.29118562837800332 0 0.2120593751339897 -0.30821378020372842 0 0.2337932500410641 -0.29118562837800332 0 0.2120593751339897 -0.30821378020372842 0 0.22956274363991411 -0.31047678442906868 0 0.2188350887939409 -0.31509646299237282 0 0.21614614018946049 -0.28249368162214789 0 0.2147809122496834 -0.29520030643189998 0 0.2337932500410641 -0.29118562837800332 0 0.2285317124756886 -0.27685658643935318 0 0.21614614018946049 -0.28249368162214789 0 0.2337932500410641 -0.29118562837800332 0 0.2337932500410641 -0.29118562837800332 0 0.24914904344722719 -0.28812310958931397 0 0.24806847164918011 -0.30526308002230812 0 0.25552712494813862 -0.27415747655227812 0 0.2337932500410641 -0.29118562837800332 0 0.25552712494813862 -0.27415747655227812 0 0.2337932500410641 -0.29118562837800332 0 0.24914904344722719 -0.28812310958931397 0 0.22956274363991411 -0.31047678442906868 0 0.2337932500410641 -0.29118562837800332 0 0.24806847164918011 -0.30526308002230812 0 0.22956274363991411 -0.31047678442906868 0 0.24806847164918011 -0.30526308002230812 0 0.2392102727705428 -0.32324887745764752 0 0.25484490963391249 -0.3246512814362339 0 0.24806847164918011 -0.30526308002230812 0 0.2392102727705428 -0.32324887745764752 0 0.25484490963391249 -0.3246512814362339 0 0.2392102727705428 -0.32324887745764752 0 0.24951766854159241 -0.34404406054459408 0 0.2392102727705428 -0.32324887745764752 0 0.24951766854159241 -0.34404406054459408 0 0.23023212424805459 -0.34655111486603779 0 0.2392102727705428 -0.32324887745764752 0 0.22392707306373241 -0.33127679368575269 0 0.23023212424805459 -0.34655111486603779 0 0.22392707306373241 -0.33127679368575269 0 0.23023212424805459 -0.34655111486603779 0 0.21392196867058871 -0.34124129440628531 0 0.22392707306373241 -0.33127679368575269 0 0.2254100034507672 -0.31985287752035207 0 0.21301544614219051 -0.32528883755697963 0 0.22956274363991411 -0.31047678442906868 0 0.2188350887939409 -0.31509646299237282 0 0.2254100034507672 -0.31985287752035207 0 0.2188350887939409 -0.31509646299237282 0 0.2254100034507672 -0.31985287752035207 0 0.21301544614219051 -0.32528883755697963 0 0.22956274363991411 -0.31047678442906868 0 0.2392102727705428 -0.32324887745764752 0 0.2254100034507672 -0.31985287752035207 0 0.2392102727705428 -0.32324887745764752 0 0.22392707306373241 -0.33127679368575269 0 0.2254100034507672 -0.31985287752035207 0 0.26248518105283469 -0.3657731133660172 0 0.23783475731751061 -0.36409877651193939 0 0.2461703249918252 -0.38334112881256072 0 0.26248518105283469 -0.3657731133660172 0 0.23783475731751061 -0.36409877651193939 0 0.24951766854159241 -0.34404406054459408 0 0.23783475731751061 -0.36409877651193939 0 0.24951766854159241 -0.34404406054459408 0 0.23023212424805459 -0.34655111486603779 0 0.23783475731751061 -0.36409877651193939 0 0.23023212424805459 -0.34655111486603779 0 0.2096616847011257 -0.35638598978132913 0 0.23783475731751061 -0.36409877651193939 0 0.2096616847011257 -0.35638598978132913 0 0.21445884056910741 -0.37826696687271499 0 0.23783475731751061 -0.36409877651193939 0 0.21445884056910741 -0.37826696687271499 0 0.2096616847011257 -0.35638598978132913 0 0.1855653944978447 -0.37327413278226562 0 0.21445884056910741 -0.37826696687271499 0 0.23023212424805459 -0.34655111486603779 0 0.2096616847011257 -0.35638598978132913 0 0.21392196867058871 -0.34124129440628531 0 0.2096616847011257 -0.35638598978132913 0 0.21392196867058871 -0.34124129440628531 0 0.19808319113346001 -0.33546664486511768 0 0.2096616847011257 -0.35638598978132913 0 0.19808319113346001 -0.33546664486511768 0 0.18710622074453859 -0.35468796339529052 0 0.2096616847011257 -0.35638598978132913 0 0.1855653944978447 -0.37327413278226562 0 0.18710622074453859 -0.35468796339529052 0 0.21301544614219051 -0.32528883755697963 0 0.19808319113346001 -0.33546664486511768 0 0.20075895726514531 -0.32311333287107608 0 0.2101172463044354 -0.31644161439748331 0 0.21301544614219051 -0.32528883755697963 0 0.20075895726514531 -0.32311333287107608 0 0.2048483305776525 -0.30983043848282499 0 0.2101172463044354 -0.31644161439748331 0 0.196955779276134 -0.31425898558895021 0 0.2120593751339897 -0.30821378020372842 0 0.2188350887939409 -0.31509646299237282 0 0.2101172463044354 -0.31644161439748331 0 0.2188350887939409 -0.31509646299237282 0 0.2101172463044354 -0.31644161439748331 0 0.21301544614219051 -0.32528883755697963 0 0.21301544614219051 -0.32528883755697963 0 0.21392196867058871 -0.34124129440628531 0 0.19808319113346001 -0.33546664486511768 0 0.22392707306373241 -0.33127679368575269 0 0.21301544614219051 -0.32528883755697963 0 0.21392196867058871 -0.34124129440628531 0 0.19808319113346001 -0.33546664486511768 0 0.17831362220418639 -0.34044319400378109 0 0.18710622074453859 -0.35468796339529052 0 0.20075895726514531 -0.32311333287107608 0 0.196955779276134 -0.31425898558895021 0 0.18562312346950641 -0.32411058194684972 0 0.196955779276134 -0.31425898558895021 0 0.18562312346950641 -0.32411058194684972 0 0.18328045324040651 -0.30823009058924239 0 0.19808319113346001 -0.33546664486511768 0 0.20075895726514531 -0.32311333287107608 0 0.18562312346950641 -0.32411058194684972 0 0.2101172463044354 -0.31644161439748331 0 0.20075895726514531 -0.32311333287107608 0 0.196955779276134 -0.31425898558895021 0 0.18562312346950641 -0.32411058194684972 0 0.16892423803155421 -0.33151640739923388 0 0.1661198871786152 -0.31873430863344088 0 0.18562312346950641 -0.32411058194684972 0 0.16905008319388859 -0.30283297914236218 0 0.18562312346950641 -0.32411058194684972 0 0.1661198871786152 -0.31873430863344088 0 0.16905008319388859 -0.30283297914236218 0 0.18562312346950641 -0.32411058194684972 0 0.17831362220418639 -0.34044319400378109 0 0.16892423803155421 -0.33151640739923388 0 0.19808319113346001 -0.33546664486511768 0 0.18562312346950641 -0.32411058194684972 0 0.17831362220418639 -0.34044319400378109 0 0.17831362220418639 -0.34044319400378109 0 0.16892423803155421 -0.33151640739923388 0 0.16074453037082501 -0.34247565256961882 0 0.16892423803155421 -0.33151640739923388 0 0.16074453037082501 -0.34247565256961882 0 0.15382002693463809 -0.33181829984247901 0 0.1661198871786152 -0.31873430863344088 0 0.15128857511761731 -0.31972476070356992 0 0.15382002693463809 -0.33181829984247901 0 0.1661198871786152 -0.31873430863344088 0 0.15128857511761731 -0.31972476070356992 0 0.16905008319388859 -0.30283297914236218 0 0.16892423803155421 -0.33151640739923388 0 0.1661198871786152 -0.31873430863344088 0 0.15382002693463809 -0.33181829984247901 0 0.1661198871786152 -0.31873430863344088 0 0.15128857511761731 -0.31972476070356992 0 0.1855653944978447 -0.37327413278226562 0 0.17132477672073601 -0.3579687217924622 0 0.17014188571517611 -0.37459729633452071 0 0.1855653944978447 -0.37327413278226562 0 0.18710622074453859 -0.35468796339529052 0 0.17132477672073601 -0.3579687217924622 0 0.17831362220418639 -0.34044319400378109 0 0.18710622074453859 -0.35468796339529052 0 0.17132477672073601 -0.3579687217924622 0 0.17831362220418639 -0.34044319400378109 0 0.16074453037082501 -0.34247565256961882 0 0.17132477672073601 -0.3579687217924622 0 0.16074453037082501 -0.34247565256961882 0 0.17132477672073601 -0.3579687217924622 0 0.15445313296993909 -0.35686544732165898 0 0.17132477672073601 -0.3579687217924622 0 0.16033308870967711 -0.36676849516605547 0 0.17014188571517611 -0.37459729633452071 0 0.17132477672073601 -0.3579687217924622 0 0.16033308870967711 -0.36676849516605547 0 0.15445313296993909 -0.35686544732165898 0 0.16033308870967711 -0.36676849516605547 0 0.17014188571517611 -0.37459729633452071 0 0.15632936734588279 -0.38030572092643827 0 0.14966366633191791 -0.36921896611457677 0 0.13938279146928509 -0.362881124674723 0 0.13781995116480569 -0.37927404248400831 0 0.16033308870967711 -0.36676849516605547 0 0.14966366633191791 -0.36921896611457677 0 0.15632936734588279 -0.38030572092643827 0 0.16033308870967711 -0.36676849516605547 0 0.14966366633191791 -0.36921896611457677 0 0.15445313296993909 -0.35686544732165898 0 0.14966366633191791 -0.36921896611457677 0 0.15445313296993909 -0.35686544732165898 0 0.13938279146928509 -0.362881124674723 0 0.15445313296993909 -0.35686544732165898 0 0.14329378344719729 -0.34592300163971818 0 0.13938279146928509 -0.362881124674723 0 0.16074453037082501 -0.34247565256961882 0 0.15445313296993909 -0.35686544732165898 0 0.14329378344719729 -0.34592300163971818 0 0.14329378344719729 -0.34592300163971818 0 0.1299583838812346 -0.35491717118830868 0 0.13938279146928509 -0.362881124674723 0 0.14329378344719729 -0.34592300163971818 0 0.1299583838812346 -0.35491717118830868 0 0.12658916248888669 -0.3432147189336468 0 0.1299583838812346 -0.35491717118830868 0 0.13938279146928509 -0.362881124674723 0 0.12358731258309009 -0.36805458174380751 0 0.13938279146928509 -0.362881124674723 0 0.13781995116480569 -0.37927404248400831 0 0.12358731258309009 -0.36805458174380751 0 0.15128857511761731 -0.31972476070356992 0 0.13893886880325279 -0.33146973981860911 0 0.15128857511761731 -0.31972476070356992 0 0.15382002693463809 -0.33181829984247901 0 0.13893886880325279 -0.33146973981860911 0 0.16074453037082501 -0.34247565256961882 0 0.14329378344719729 -0.34592300163971818 0 0.15382002693463809 -0.33181829984247901 0 0.14329378344719729 -0.34592300163971818 0 0.15382002693463809 -0.33181829984247901 0 0.13893886880325279 -0.33146973981860911 0 0.14329378344719729 -0.34592300163971818 0 0.13893886880325279 -0.33146973981860911 0 0.12658916248888669 -0.3432147189336468 0 0.13893886880325279 -0.33146973981860911 0 0.12658916248888669 -0.3432147189336468 0 0.13893886880325279 -0.33146973981860911 0 0.12658916248888669 -0.3432147189336468 0 0.12843350088817429 -0.33188624650992438 0 0.13893886880325279 -0.33146973981860911 0 0.12843350088817429 -0.33188624650992438 0 0.12942857019677351 -0.32118459696335377 0 0.12843350088817429 -0.33188624650992438 0 0.12942857019677351 -0.32118459696335377 0 0.1187774020637843 -0.33167593032408821 0 0.15128857511761731 -0.31972476070356992 0 0.13893886880325279 -0.33146973981860911 0 0.12942857019677351 -0.32118459696335377 0 0.15128857511761731 -0.31972476070356992 0 0.12942857019677351 -0.32118459696335377 0 0.13940469101616151 -0.30716940911274732 0 0.15128857511761731 -0.31972476070356992 0 0.12942857019677351 -0.32118459696335377 0 0.13940469101616151 -0.30716940911274732 0 0.13219428834137839 -0.29264569693890408 0 0.1198814268086526 -0.3076450650810198 0 0.13940469101616151 -0.30716940911274732 0 0.14851024392833681 -0.2950278826374354 0 0.13219428834137839 -0.29264569693890408 0 0.12942857019677351 -0.32118459696335377 0 0.13940469101616151 -0.30716940911274732 0 0.1198814268086526 -0.3076450650810198 0 0.13219428834137839 -0.29264569693890408 0 0.1198814268086526 -0.3076450650810198 0 0.1548653054032158 -0.30558670114516873 0 0.14851024392833681 -0.2950278826374354 0 0.16482619951529559 -0.29741006833596378 0 0.13940469101616151 -0.30716940911274732 0 0.1548653054032158 -0.30558670114516873 0 0.14851024392833681 -0.2950278826374354 0 0.15128857511761731 -0.31972476070356992 0 0.13940469101616151 -0.30716940911274732 0 0.1548653054032158 -0.30558670114516873 0 0.14703437059986091 -0.27456770130298441 0 0.16482619951529559 -0.29741006833596378 0 0.14851024392833681 -0.2950278826374354 0 0.13219428834137839 -0.29264569693890408 0 0.14703437059986091 -0.27456770130298441 0 0.14851024392833681 -0.2950278826374354 0 0.14703437059986091 -0.27456770130298441 0 0.16482619951529559 -0.29741006833596378 0 0.13219428834137839 -0.29264569693890408 0 0.14703437059986091 -0.27456770130298441 0 0.1243309433842668 -0.28758435527247189 0 0.13219428834137839 -0.29264569693890408 0 0.14703437059986091 -0.27456770130298441 0 0.14851024392833681 -0.2950278826374354 0 0.13219428834137839 -0.29264569693890408 0 0.13219428834137839 -0.29264569693890408 0 0.1215251075448288 -0.29108795980403912 0 0.13219428834137839 -0.29264569693890408 0 0.1243309433842668 -0.28758435527247189 0 0.1215251075448288 -0.29108795980403912 0 0.14054329615180799 -0.26623401589683371 0 0.14703437059986091 -0.27456770130298441 0 0.1243309433842668 -0.28758435527247189 0 0.14054329615180799 -0.26623401589683371 0 0.1243309433842668 -0.28758435527247189 0 0.14054329615180799 -0.26623401589683371 0 0.1270399055490482 -0.26372856320023991 0 0.1243309433842668 -0.28758435527247189 0 0.14054329615180799 -0.26623401589683371 0 0.12404506998703969 -0.24505246456562069 0 0.13901741785215849 -0.2392417037168651 0 0.14054329615180799 -0.26623401589683371 0 0.12404506998703969 -0.24505246456562069 0 0.14054329615180799 -0.26623401589683371 0 0.1270399055490482 -0.26372856320023991 0 0.12404506998703969 -0.24505246456562069 0 0.14054329615180799 -0.26623401589683371 0 0.16306615020279311 -0.25503799542603939 0 0.15552024419897631 -0.24666137234188421 0 0.14703437059986091 -0.27456770130298441 0 0.16306615020279311 -0.25503799542603939 0 0.14054329615180799 -0.26623401589683371 0 0.15552024419897631 -0.24666137234188421 0 0.14054329615180799 -0.26623401589683371 0 0.15552024419897631 -0.24666137234188421 0 0.13901741785215849 -0.2392417037168651 0 0.14054329615180799 -0.26623401589683371 0 0.14703437059986091 -0.27456770130298441 0 0.16306615020279311 -0.25503799542603939 0 0.14054329615180799 -0.26623401589683371 0 0.14703437059986091 -0.27456770130298441 0 0.14703437059986091 -0.27456770130298441 0 0.16306615020279311 -0.25503799542603939 0 0.17143073547842011 -0.28227113776396112 0 0.16306615020279311 -0.25503799542603939 0 0.16467156390884649 -0.25183616643835061 0 0.15552024419897631 -0.24666137234188421 0 0.16306615020279311 -0.25503799542603939 0 0.18271044357752389 -0.26554790683306051 0 0.17909792980572559 -0.23550828954909489 0 0.19841711378944399 -0.25476520294789679 0 0.18271044357752389 -0.26554790683306051 0 0.17909792980572559 -0.23550828954909489 0 0.16306615020279311 -0.25503799542603939 0 0.18271044357752389 -0.26554790683306051 0 0.17143073547842011 -0.28227113776396112 0 0.18770502870592309 -0.2850915090333816 0 0.18271044357752389 -0.26554790683306051 0 0.17143073547842011 -0.28227113776396112 0 0.18770502870592309 -0.2850915090333816 0 0.1734311673091066 -0.29866642326445908 0 0.17143073547842011 -0.28227113776396112 0 0.19134211295339529 -0.30128148300358942 0 0.18770502870592309 -0.2850915090333816 0 0.1734311673091066 -0.29866642326445908 0 0.18770502870592309 -0.2850915090333816 0 0.1734311673091066 -0.29866642326445908 0 0.18562312346950641 -0.32411058194684972 0 0.18328045324040651 -0.30823009058924239 0 0.16905008319388859 -0.30283297914236218 0 0.19134211295339529 -0.30128148300358942 0 0.18328045324040651 -0.30823009058924239 0 0.1734311673091066 -0.29866642326445908 0 0.19134211295339529 -0.30128148300358942 0 0.1734311673091066 -0.29866642326445908 0 0.18328045324040651 -0.30823009058924239 0 0.1734311673091066 -0.29866642326445908 0 0.16905008319388859 -0.30283297914236218 0 0.15128857511761731 -0.31972476070356992 0 0.1548653054032158 -0.30558670114516873 0 0.16905008319388859 -0.30283297914236218 0 0.1734311673091066 -0.29866642326445908 0 0.16905008319388859 -0.30283297914236218 0 0.15128857511761731 -0.31972476070356992 0 0.16905008319388859 -0.30283297914236218 0 0.1734311673091066 -0.29866642326445908 0 0.16905008319388859 -0.30283297914236218 0 0.16482619951529559 -0.29741006833596378 0 0.1734311673091066 -0.29866642326445908 0 0.16482619951529559 -0.29741006833596378 0 0.16905008319388859 -0.30283297914236218 0 0.16482619951529559 -0.29741006833596378 0 0.1548653054032158 -0.30558670114516873 0 0.16905008319388859 -0.30283297914236218 0 0.16482619951529559 -0.29741006833596378 0 0.14851024392833681 -0.2950278826374354 0 0.16482619951529559 -0.29741006833596378 0 0.14703437059986091 -0.27456770130298441 0 0.16482619951529559 -0.29741006833596378 0 0.17143073547842011 -0.28227113776396112 0 0.1734311673091066 -0.29866642326445908 0 0.16482619951529559 -0.29741006833596378 0 0.17143073547842011 -0.28227113776396112 0 0.19497119762799439 -0.47852637293881572 0 0.2056045777591603 -0.5 0 0.17739965685095499 -0.5 0 0.19497119762799439 -0.47852637293881572 0 0.2174086495600453 -0.47137731104748698 0 0.2056045777591603 -0.5 0 0.2174086495600453 -0.47137731104748698 0 0.2056045777591603 -0.5 0 0.23380949866736569 -0.5 0 0.26201441957557109 -0.5 0 0.23380949866736569 -0.5 0 0.24245302517549339 -0.47827313909241609 0 0.2174086495600453 -0.47137731104748698 0 0.23380949866736569 -0.5 0 0.24245302517549339 -0.47827313909241609 0 0.2174086495600453 -0.47137731104748698 0 0.23688347584265829 -0.45424155226339941 0 0.2096179322079407 -0.44102666369260513 0 0.2174086495600453 -0.47137731104748698 0 0.24245302517549339 -0.47827313909241609 0 0.23688347584265829 -0.45424155226339941 0 0.25496997800532728 -0.46047359139472188 0 0.24245302517549339 -0.47827313909241609 0 0.23688347584265829 -0.45424155226339941 0 0.26343562551043392 -0.44390321080411282 0 0.23688347584265829 -0.45424155226339941 0 0.23481069364868901 -0.43021540123481961 0 0.23688347584265829 -0.45424155226339941 0 0.2096179322079407 -0.44102666369260513 0 0.23481069364868901 -0.43021540123481961 0 0.2174086495600453 -0.47137731104748698 0 0.2096179322079407 -0.44102666369260513 0 0.19349561664379131 -0.45492879326681079 0 0.19497119762799439 -0.47852637293881572 0 0.19349561664379131 -0.45492879326681079 0 0.1824575940321789 -0.4654720172091964 0 0.19497119762799439 -0.47852637293881572 0 0.2174086495600453 -0.47137731104748698 0 0.19349561664379131 -0.45492879326681079 0 0.2096179322079407 -0.44102666369260513 0 0.19349561664379131 -0.45492879326681079 0 0.1862152148453762 -0.43611046155869199 0 0.19887435795222561 -0.42347980955959402 0 0.180972367669507 -0.42325007551006838 0 0.1862152148453762 -0.43611046155869199 0 0.2096179322079407 -0.44102666369260513 0 0.19887435795222561 -0.42347980955959402 0 0.1862152148453762 -0.43611046155869199 0 0.19887435795222561 -0.42347980955959402 0 0.18875978632701729 -0.41075029079719699 0 0.21097413432857701 -0.4057396672182742 0 0.19887435795222561 -0.42347980955959402 0 0.18875978632701729 -0.41075029079719699 0 0.180972367669507 -0.42325007551006838 0 0.18875978632701729 -0.41075029079719699 0 0.21097413432857701 -0.4057396672182742 0 0.19887435795222561 -0.42347980955959402 0 0.21710794078318971 -0.42208150393185051 0 0.21097413432857701 -0.4057396672182742 0 0.2096179322079407 -0.44102666369260513 0 0.19887435795222561 -0.42347980955959402 0 0.21710794078318971 -0.42208150393185051 0 0.2096179322079407 -0.44102666369260513 0 0.21710794078318971 -0.42208150393185051 0 0.23481069364868901 -0.43021540123481961 0 0.26359080406578322 -0.42340780026734831 0 0.23481069364868901 -0.43021540123481961 0 0.2466552716555708 -0.41428653093542461 0 0.23481069364868901 -0.43021540123481961 0 0.2466552716555708 -0.41428653093542461 0 0.23318848233013659 -0.40072904363935141 0 0.21710794078318971 -0.42208150393185051 0 0.23481069364868901 -0.43021540123481961 0 0.23318848233013659 -0.40072904363935141 0 0.21710794078318971 -0.42208150393185051 0 0.23318848233013659 -0.40072904363935141 0 0.21097413432857701 -0.4057396672182742 0 0.23318848233013659 -0.40072904363935141 0 0.2461703249918252 -0.38334112881256072 0 0.21445884056910741 -0.37826696687271499 0 0.23318848233013659 -0.40072904363935141 0 0.21097413432857701 -0.4057396672182742 0 0.23783475731751061 -0.36409877651193939 0 0.2461703249918252 -0.38334112881256072 0 0.21445884056910741 -0.37826696687271499 0 0.23318848233013659 -0.40072904363935141 0 0.21445884056910741 -0.37826696687271499 0 0.21097413432857701 -0.4057396672182742 0 0.25837947248807758 -0.40073025194356771 0 0.2466552716555708 -0.41428653093542461 0 0.23318848233013659 -0.40072904363935141 0 0.25837947248807758 -0.40073025194356771 0 0.23318848233013659 -0.40072904363935141 0 0.2461703249918252 -0.38334112881256072 0 0.21445884056910741 -0.37826696687271499 0 0.21097413432857701 -0.4057396672182742 0 0.1910829238207041 -0.39243515723349059 0 0.18875978632701729 -0.41075029079719699 0 0.21097413432857701 -0.4057396672182742 0 0.1910829238207041 -0.39243515723349059 0 0.1855653944978447 -0.37327413278226562 0 0.21445884056910741 -0.37826696687271499 0 0.1910829238207041 -0.39243515723349059 0 0.21445884056910741 -0.37826696687271499 0 0.1910829238207041 -0.39243515723349059 0 0.1855653944978447 -0.37327413278226562 0 0.1910829238207041 -0.39243515723349059 0 0.1775269914674418 -0.38426602172296281 0 0.1910829238207041 -0.39243515723349059 0 0.1775269914674418 -0.38426602172296281 0 0.17237999752816399 -0.39478987690800948 0 0.1775269914674418 -0.38426602172296281 0 0.17237999752816399 -0.39478987690800948 0 0.1675312273652092 -0.38711433088480413 0 0.1855653944978447 -0.37327413278226562 0 0.17014188571517611 -0.37459729633452071 0 0.1775269914674418 -0.38426602172296281 0 0.1910829238207041 -0.39243515723349059 0 0.17237999752816399 -0.39478987690800948 0 0.16770700707230091 -0.4066033475942662 0 0.18875978632701729 -0.41075029079719699 0 0.1910829238207041 -0.39243515723349059 0 0.16770700707230091 -0.4066033475942662 0 0.1910829238207041 -0.39243515723349059 0 0.16770700707230091 -0.4066033475942662 0 0.1598668837663251 -0.39536538390771109 0 0.14866798736617781 -0.4033553824556268 0 0.16770700707230091 -0.4066033475942662 0 0.17237999752816399 -0.39478987690800948 0 0.1598668837663251 -0.39536538390771109 0 0.1675312273652092 -0.38711433088480413 0 0.17237999752816399 -0.39478987690800948 0 0.1598668837663251 -0.39536538390771109 0 0.16770700707230091 -0.4066033475942662 0 0.1598668837663251 -0.39536538390771109 0 0.1675312273652092 -0.38711433088480413 0 0.15632936734588279 -0.38030572092643827 0 0.17014188571517611 -0.37459729633452071 0 0.1675312273652092 -0.38711433088480413 0 0.15632936734588279 -0.38030572092643827 0 0.17014188571517611 -0.37459729633452071 0 0.1775269914674418 -0.38426602172296281 0 0.1675312273652092 -0.38711433088480413 0 0.14966366633191791 -0.36921896611457677 0 0.15632936734588279 -0.38030572092643827 0 0.13781995116480569 -0.37927404248400831 0 0.15632936734588279 -0.38030572092643827 0 0.14816948620302089 -0.39012739269866559 0 0.13781995116480569 -0.37927404248400831 0 0.1598668837663251 -0.39536538390771109 0 0.15632936734588279 -0.38030572092643827 0 0.14816948620302089 -0.39012739269866559 0 0.14816948620302089 -0.39012739269866559 0 0.13781995116480569 -0.37927404248400831 0 0.13419239596676491 -0.39267866553128428 0 0.13781995116480569 -0.37927404248400831 0 0.13419239596676491 -0.39267866553128428 0 0.123554794072062 -0.38275141816214292 0 0.13781995116480569 -0.37927404248400831 0 0.123554794072062 -0.38275141816214292 0 0.12358731258309009 -0.36805458174380751 0 0.13419239596676491 -0.39267866553128428 0 0.14866798736617781 -0.4033553824556268 0 0.12967215292559589 -0.40817285250210278 0 0.13419239596676491 -0.39267866553128428 0 0.12967215292559589 -0.40817285250210278 0 0.11377627396932991 -0.39472461005798781 0 0.14816948620302089 -0.39012739269866559 0 0.13419239596676491 -0.39267866553128428 0 0.14866798736617781 -0.4033553824556268 0 0.1598668837663251 -0.39536538390771109 0 0.14816948620302089 -0.39012739269866559 0 0.14866798736617781 -0.4033553824556268 0 0.14866798736617781 -0.4033553824556268 0 0.1443310903238979 -0.42077153795504219 0 0.16770700707230091 -0.4066033475942662 0 0.1443310903238979 -0.42077153795504219 0 0.16770700707230091 -0.4066033475942662 0 0.1443310903238979 -0.42077153795504219 0 0.16654543832545771 -0.41576091437611978 0 0.14866798736617781 -0.4033553824556268 0 0.1443310903238979 -0.42077153795504219 0 0.12967215292559589 -0.40817285250210278 0 0.1443310903238979 -0.42077153795504219 0 0.12967215292559589 -0.40817285250210278 0 0.1194072656597665 -0.42639330563106298 0 0.1443310903238979 -0.42077153795504219 0 0.13893281782979411 -0.44455593354230138 0 0.12112550503403741 -0.43483649007472341 0 0.1443310903238979 -0.42077153795504219 0 0.1194072656597665 -0.42639330563106298 0 0.1443310903238979 -0.42077153795504219 0 0.12112550503403741 -0.43483649007472341 0 0.1443310903238979 -0.42077153795504219 0 0.1194072656597665 -0.42639330563106298 0 0.12112550503403741 -0.43483649007472341 0 0.1443310903238979 -0.42077153795504219 0 0.15646923479237321 -0.44132826111032641 0 0.13893281782979411 -0.44455593354230138 0 0.1443310903238979 -0.42077153795504219 0 0.16787772546775459 -0.43124822982622768 0 0.15646923479237321 -0.44132826111032641 0 0.1443310903238979 -0.42077153795504219 0 0.16787772546775459 -0.43124822982622768 0 0.16654543832545771 -0.41576091437611978 0 0.16787772546775459 -0.43124822982622768 0 0.16654543832545771 -0.41576091437611978 0 0.180972367669507 -0.42325007551006838 0 0.1443310903238979 -0.42077153795504219 0 0.16770700707230091 -0.4066033475942662 0 0.16654543832545771 -0.41576091437611978 0 0.18875978632701729 -0.41075029079719699 0 0.16654543832545771 -0.41576091437611978 0 0.180972367669507 -0.42325007551006838 0 0.18875978632701729 -0.41075029079719699 0 0.16654543832545771 -0.41576091437611978 0 0.18875978632701729 -0.41075029079719699 0 0.16770700707230091 -0.4066033475942662 0 0.16654543832545771 -0.41576091437611978 0 0.16787772546775459 -0.43124822982622768 0 0.180972367669507 -0.42325007551006838 0 0.1862152148453762 -0.43611046155869199 0 0.19349561664379131 -0.45492879326681079 0 0.1862152148453762 -0.43611046155869199 0 0.1736225483259492 -0.44804061004066231 0 0.16787772546775459 -0.43124822982622768 0 0.1862152148453762 -0.43611046155869199 0 0.1736225483259492 -0.44804061004066231 0 0.19349561664379131 -0.45492879326681079 0 0.1736225483259492 -0.44804061004066231 0 0.1824575940321789 -0.4654720172091964 0 0.1736225483259492 -0.44804061004066231 0 0.1824575940321789 -0.4654720172091964 0 0.1566030028145281 -0.46373117930880142 0 0.1824575940321789 -0.4654720172091964 0 0.1566030028145281 -0.46373117930880142 0 0.1736225483259492 -0.44804061004066231 0 0.1566030028145281 -0.46373117930880142 0 0.15646923479237321 -0.44132826111032641 0 0.16787772546775459 -0.43124822982622768 0 0.1736225483259492 -0.44804061004066231 0 0.15646923479237321 -0.44132826111032641 0 0.1566030028145281 -0.46373117930880142 0 0.15646923479237321 -0.44132826111032641 0 0.13893281782979411 -0.44455593354230138 0 0.13893281782979411 -0.44455593354230138 0 0.13074841159687731 -0.46199034140840639 0 0.11849919350454111 -0.45104924499953247 0 0.13893281782979411 -0.44455593354230138 0 0.11849919350454111 -0.45104924499953247 0 0.12112550503403741 -0.43483649007472341 0 0.1566030028145281 -0.46373117930880142 0 0.13074841159687731 -0.46199034140840639 0 0.1418832697078998 -0.48005213995041079 0 0.1566030028145281 -0.46373117930880142 0 0.13074841159687731 -0.46199034140840639 0 0.1566030028145281 -0.46373117930880142 0 0.13893281782979411 -0.44455593354230138 0 0.13074841159687731 -0.46199034140840639 0 0.1566030028145281 -0.46373117930880142 0 0.1418832697078998 -0.48005213995041079 0 0.16842276067865031 -0.4810505368080244 0 0.13074841159687731 -0.46199034140840639 0 0.1418832697078998 -0.48005213995041079 0 0.1208647505199376 -0.48072591126602948 0 0.1418832697078998 -0.48005213995041079 0 0.13323314280128279 -0.49019451280411008 0 0.1208647505199376 -0.48072591126602948 0 0.13323314280128279 -0.49019451280411008 0 0.1491947359427496 -0.5 0 0.1209898150345442 -0.49999999999999989 0 0.13323314280128279 -0.49019451280411008 0 0.1209898150345442 -0.49999999999999989 0 0.1208647505199376 -0.48072591126602948 0 0.1418832697078998 -0.48005213995041079 0 0.13323314280128279 -0.49019451280411008 0 0.1491947359427496 -0.5 0 0.1418832697078998 -0.48005213995041079 0 0.1491947359427496 -0.5 0 0.16842276067865031 -0.4810505368080244 0 0.1491947359427496 -0.5 0 0.16842276067865031 -0.4810505368080244 0 0.17739965685095499 -0.5 0 0.1824575940321789 -0.4654720172091964 0 0.1566030028145281 -0.46373117930880142 0 0.16842276067865031 -0.4810505368080244 0 0.19497119762799439 -0.47852637293881572 0 0.1824575940321789 -0.4654720172091964 0 0.16842276067865031 -0.4810505368080244 0 0.19497119762799439 -0.47852637293881572 0 0.16842276067865031 -0.4810505368080244 0 0.17739965685095499 -0.5 0 0.074843683348262191 -0.5 0 0.069131096873129433 -0.48121986119879739 0 0.047583230572463282 -0.5 0 0.069131096873129433 -0.48121986119879739 0 0.073321585543077078 -0.4725485222032324 0 0.085046458759844734 -0.47678653743566812 0 0.069131096873129433 -0.48121986119879739 0 0.064272110070086694 -0.46929544760675829 0 0.073321585543077078 -0.4725485222032324 0 0.073321585543077078 -0.4725485222032324 0 0.085046458759844734 -0.47678653743566812 0 0.07483667646925013 -0.4628922425717038 0 0.069131096873129433 -0.48121986119879739 0 0.085046458759844734 -0.47678653743566812 0 0.095256241050442281 -0.49068083229963022 0 0.085046458759844734 -0.47678653743566812 0 0.07483667646925013 -0.4628922425717038 0 0.085046458759844734 -0.47678653743566812 0 0.095256241050442281 -0.49068083229963022 0 0.069131096873129433 -0.48121986119879739 0 0.095256241050442281 -0.49068083229963022 0 0.074843683348262191 -0.5 0 0.095256241050442281 -0.49068083229963022 0 0.102104136124061 -0.49999999999999989 0 0.074843683348262191 -0.5 0 0.069131096873129433 -0.48121986119879739 0 0.095256241050442281 -0.49068083229963022 0 0.095256241050442281 -0.49068083229963022 0 0.1073106638874966 -0.49504622624059819 0 0.095256241050442281 -0.49068083229963022 0 0.102104136124061 -0.49999999999999989 0 0.1073106638874966 -0.49504622624059819 0 0.095256241050442281 -0.49068083229963022 0 0.102104136124061 -0.49999999999999989 0 0.095256241050442281 -0.49068083229963022 0 0.1073106638874966 -0.49504622624059819 0 0.1026152918158363 -0.47197383421750128 0 0.102104136124061 -0.49999999999999989 0 0.1073106638874966 -0.49504622624059819 0 0.1083187869696632 -0.50000000000000289 0 0.1073106638874966 -0.49504622624059819 0 0.1083187869696632 -0.50000000000000289 0 0.1073106638874966 -0.49504622624059819 0 0.1209898150345442 -0.49999999999999989 0 0.1073106638874966 -0.49504622624059819 0 0.1209898150345442 -0.49999999999999989 0 0.1208647505199376 -0.48072591126602948 0 0.1073106638874966 -0.49504622624059819 0 0.1083187869696632 -0.50000000000000289 0 0.1209898150345442 -0.49999999999999989 0 0.1073106638874966 -0.49504622624059819 0 0.1208647505199376 -0.48072591126602948 0 0.1026152918158363 -0.47197383421750128 0 0.1208647505199376 -0.48072591126602948 0 0.1026152918158363 -0.47197383421750128 0 0.11478056857796939 -0.4687348975999871 0 0.13074841159687731 -0.46199034140840639 0 0.1208647505199376 -0.48072591126602948 0 0.11478056857796939 -0.4687348975999871 0 0.085046458759844734 -0.47678653743566812 0 0.095256241050442281 -0.49068083229963022 0 0.1026152918158363 -0.47197383421750128 0 0.1073106638874966 -0.49504622624059819 0 0.1026152918158363 -0.47197383421750128 0 0.085046458759844734 -0.47678653743566812 0 0.1026152918158363 -0.47197383421750128 0 0.097919919744176909 -0.44890144219440409 0 0.1048938203792264 -0.46024950350801141 0 0.11849919350454111 -0.45104924499953247 0 0.097919919744176909 -0.44890144219440409 0 0.1026152918158363 -0.47197383421750128 0 0.097919919744176909 -0.44890144219440409 0 0.1026152918158363 -0.47197383421750128 0 0.1048938203792264 -0.46024950350801141 0 0.097919919744176909 -0.44890144219440409 0 0.1026152918158363 -0.47197383421750128 0 0.1048938203792264 -0.46024950350801141 0 0.11478056857796939 -0.4687348975999871 0 0.13074841159687731 -0.46199034140840639 0 0.1048938203792264 -0.46024950350801141 0 0.13074841159687731 -0.46199034140840639 0 0.1048938203792264 -0.46024950350801141 0 0.11478056857796939 -0.4687348975999871 0 0.13074841159687731 -0.46199034140840639 0 0.1048938203792264 -0.46024950350801141 0 0.11849919350454111 -0.45104924499953247 0 0.097919919744176909 -0.44890144219440409 0 0.12112550503403741 -0.43483649007472341 0 0.11849919350454111 -0.45104924499953247 0 0.097919919744176909 -0.44890144219440409 0 0.12112550503403741 -0.43483649007472341 0 0.097919919744176909 -0.44890144219440409 0 0.094483440995635104 -0.4320150733070835 0 0.12112550503403741 -0.43483649007472341 0 0.097919919744176909 -0.44890144219440409 0 0.094483440995635104 -0.4320150733070835 0 0.097919919744176909 -0.44890144219440409 0 0.088588203091385015 -0.44123378435076271 0 0.094483440995635104 -0.4320150733070835 0 0.097919919744176909 -0.44890144219440409 0 0.088588203091385015 -0.44123378435076271 0 0.081419367782673599 -0.44885625746763952 0 0.081419367782673599 -0.44885625746763952 0 0.08053008384305424 -0.43516236443392309 0 0.088588203091385015 -0.44123378435076271 0 0.081419367782673599 -0.44885625746763952 0 0.08053008384305424 -0.43516236443392309 0 0.081419367782673599 -0.44885625746763952 0 0.073010885666224018 -0.44646526256203872 0 0.08053008384305424 -0.43516236443392309 0 0.097919919744176909 -0.44890144219440409 0 0.081419367782673599 -0.44885625746763952 0 0.07483667646925013 -0.4628922425717038 0 0.097919919744176909 -0.44890144219440409 0 0.07483667646925013 -0.4628922425717038 0 0.085046458759844734 -0.47678653743566812 0 0.097919919744176909 -0.44890144219440409 0 0.07483667646925013 -0.4628922425717038 0 0.064272110070086694 -0.46929544760675829 0 0.07483667646925013 -0.4628922425717038 0 0.057203789902087403 -0.45789019138901021 0 0.07483667646925013 -0.4628922425717038 0 0.062344562730345381 -0.44589196706903322 0 0.057203789902087403 -0.45789019138901021 0 0.07483667646925013 -0.4628922425717038 0 0.062344562730345381 -0.44589196706903322 0 0.064272110070086694 -0.46929544760675829 0 0.073321585543077078 -0.4725485222032324 0 0.07483667646925013 -0.4628922425717038 0 0.064272110070086694 -0.46929544760675829 0 0.07483667646925013 -0.4628922425717038 0 0.081419367782673599 -0.44885625746763952 0 0.07483667646925013 -0.4628922425717038 0 0.073010885666224018 -0.44646526256203872 0 0.071008591870285909 -0.43731001297989641 0 0.061795479021207383 -0.42967056521915981 0 0.062344562730345381 -0.44589196706903322 0 0.07483667646925013 -0.4628922425717038 0 0.073010885666224018 -0.44646526256203872 0 0.062344562730345381 -0.44589196706903322 0 0.073010885666224018 -0.44646526256203872 0 0.071008591870285909 -0.43731001297989641 0 0.062344562730345381 -0.44589196706903322 0 0.073010885666224018 -0.44646526256203872 0 0.071008591870285909 -0.43731001297989641 0 0.08053008384305424 -0.43516236443392309 0 0.071008591870285909 -0.43731001297989641 0 0.08053008384305424 -0.43516236443392309 0 0.071008591870285909 -0.43731001297989641 0 0.068633837976301265 -0.42260509751678232 0 0.08053008384305424 -0.43516236443392309 0 0.071008591870285909 -0.43731001297989641 0 0.068633837976301265 -0.42260509751678232 0 0.061795479021207383 -0.42967056521915981 0 0.068633837976301265 -0.42260509751678232 0 0.078724306054332824 -0.40735557879469148 0 0.08053008384305424 -0.43516236443392309 0 0.068633837976301265 -0.42260509751678232 0 0.063996356035720584 -0.40879435595081848 0 0.078724306054332824 -0.40735557879469148 0 0.078724306054332824 -0.40735557879469148 0 0.094483440995635104 -0.4320150733070835 0 0.088944232370406148 -0.40479618821161112 0 0.078724306054332824 -0.40735557879469148 0 0.08053008384305424 -0.43516236443392309 0 0.094483440995635104 -0.4320150733070835 0 0.088944232370406148 -0.40479618821161112 0 0.078724306054332824 -0.40735557879469148 0 0.08053008384305424 -0.43516236443392309 0 0.094483440995635104 -0.4320150733070835 0 0.088588203091385015 -0.44123378435076271 0 0.08053008384305424 -0.43516236443392309 0 0.094483440995635104 -0.4320150733070835 0 0.08053008384305424 -0.43516236443392309 0 0.094483440995635104 -0.4320150733070835 0 0.094483440995635104 -0.4320150733070835 0 0.1194072656597665 -0.42639330563106298 0 0.10151585028123471 -0.4162045763677012 0 0.094483440995635104 -0.4320150733070835 0 0.1194072656597665 -0.42639330563106298 0 0.094483440995635104 -0.4320150733070835 0 0.1194072656597665 -0.42639330563106298 0 0.12112550503403741 -0.43483649007472341 0 0.1194072656597665 -0.42639330563106298 0 0.112554681672607 -0.40959100291557432 0 0.10151585028123471 -0.4162045763677012 0 0.12967215292559589 -0.40817285250210278 0 0.1194072656597665 -0.42639330563106298 0 0.112554681672607 -0.40959100291557432 0 0.112554681672607 -0.40959100291557432 0 0.10151585028123471 -0.4162045763677012 0 0.10323034053183471 -0.40423275774850848 0 0.094483440995635104 -0.4320150733070835 0 0.10151585028123471 -0.4162045763677012 0 0.088944232370406148 -0.40479618821161112 0 0.10151585028123471 -0.4162045763677012 0 0.10323034053183471 -0.40423275774850848 0 0.088944232370406148 -0.40479618821161112 0 0.099360664365595791 -0.39584741118966832 0 0.10323034053183471 -0.40423275774850848 0 0.088944232370406148 -0.40479618821161112 0 0.099360664365595791 -0.39584741118966832 0 0.10323034053183471 -0.40423275774850848 0 0.11377627396932991 -0.39472461005798781 0 0.099360664365595791 -0.39584741118966832 0 0.11377627396932991 -0.39472461005798781 0 0.10120324627996349 -0.38632439673983671 0 0.12967215292559589 -0.40817285250210278 0 0.112554681672607 -0.40959100291557432 0 0.11377627396932991 -0.39472461005798781 0 0.112554681672607 -0.40959100291557432 0 0.10323034053183471 -0.40423275774850848 0 0.11377627396932991 -0.39472461005798781 0 0.13419239596676491 -0.39267866553128428 0 0.11377627396932991 -0.39472461005798781 0 0.123554794072062 -0.38275141816214292 0 0.11377627396932991 -0.39472461005798781 0 0.123554794072062 -0.38275141816214292 0 0.1088438451499317 -0.37705056518381869 0 0.123554794072062 -0.38275141816214292 0 0.1088438451499317 -0.37705056518381869 0 0.12358731258309009 -0.36805458174380751 0 0.1088438451499317 -0.37705056518381869 0 0.10120324627996349 -0.38632439673983671 0 0.096326104853635602 -0.37857200319286288 0 0.11377627396932991 -0.39472461005798781 0 0.1088438451499317 -0.37705056518381869 0 0.10120324627996349 -0.38632439673983671 0 0.10120324627996349 -0.38632439673983671 0 0.096326104853635602 -0.37857200319286288 0 0.09260973507624233 -0.3872853464939881 0 0.099360664365595791 -0.39584741118966832 0 0.10120324627996349 -0.38632439673983671 0 0.09260973507624233 -0.3872853464939881 0 0.096326104853635602 -0.37857200319286288 0 0.090351790131140267 -0.3789458344753488 0 0.090704622710117491 -0.37138099823969462 0 0.090351790131140267 -0.3789458344753488 0 0.083405023745175347 -0.37757730311613902 0 0.09260973507624233 -0.3872853464939881 0 0.096326104853635602 -0.37857200319286288 0 0.090351790131140267 -0.3789458344753488 0 0.09260973507624233 -0.3872853464939881 0 0.083405023745175347 -0.37757730311613902 0 0.088944232370406148 -0.40479618821161112 0 0.076918528265611533 -0.37954879315545997 0 0.083405023745175347 -0.37757730311613902 0 0.09260973507624233 -0.3872853464939881 0 0.088944232370406148 -0.40479618821161112 0 0.090351790131140267 -0.3789458344753488 0 0.083405023745175347 -0.37757730311613902 0 0.090704622710117491 -0.37138099823969462 0 0.099360664365595791 -0.39584741118966832 0 0.09260973507624233 -0.3872853464939881 0 0.088944232370406148 -0.40479618821161112 0 0.078724306054332824 -0.40735557879469148 0 0.088944232370406148 -0.40479618821161112 0 0.076918528265611533 -0.37954879315545997 0 0.083405023745175347 -0.37757730311613902 0 0.088944232370406148 -0.40479618821161112 0 0.078724306054332824 -0.40735557879469148 0 0.076918528265611533 -0.37954879315545997 0 0.078724306054332824 -0.40735557879469148 0 0.063830753678215668 -0.39411941100268311 0 0.076918528265611533 -0.37954879315545997 0 0.063996356035720584 -0.40879435595081848 0 0.078724306054332824 -0.40735557879469148 0 0.063830753678215668 -0.39411941100268311 0 0.076918528265611533 -0.37954879315545997 0 0.06047672768096949 -0.3830374665515397 0 0.058776783510593317 -0.37309068666967887 0 0.063830753678215668 -0.39411941100268311 0 0.076918528265611533 -0.37954879315545997 0 0.06047672768096949 -0.3830374665515397 0 0.052679782883331798 -0.38957275886474563 0 0.050177790067095128 -0.37885568306513068 0 0.042930282803566797 -0.38487883326224459 0 0.052679782883331798 -0.38957275886474563 0 0.050177790067095128 -0.37885568306513068 0 0.06047672768096949 -0.3830374665515397 0 0.052679782883331798 -0.38957275886474563 0 0.045044158288308968 -0.39555353608880151 0 0.042930282803566797 -0.38487883326224459 0 0.050177790067095128 -0.37885568306513068 0 0.06047672768096949 -0.3830374665515397 0 0.058776783510593317 -0.37309068666967887 0 0.063830753678215668 -0.39411941100268311 0 0.052679782883331798 -0.38957275886474563 0 0.06047672768096949 -0.3830374665515397 0 0.063830753678215668 -0.39411941100268311 0 0.052679782883331798 -0.38957275886474563 0 0.054168908001567449 -0.40333629689116118 0 0.063996356035720584 -0.40879435595081848 0 0.063830753678215668 -0.39411941100268311 0 0.054168908001567449 -0.40333629689116118 0 0.054168908001567449 -0.40333629689116118 0 0.045044158288308968 -0.39555353608880151 0 0.046068597136488948 -0.40433470067312938 0 0.054168908001567449 -0.40333629689116118 0 0.046068597136488948 -0.40433470067312938 0 0.050256128618743297 -0.40985159250624048 0 0.052679782883331798 -0.38957275886474563 0 0.054168908001567449 -0.40333629689116118 0 0.045044158288308968 -0.39555353608880151 0 0.045044158288308968 -0.39555353608880151 0 0.038158337298963327 -0.40213331177508432 0 0.034703280955222043 -0.39139543438812968 0 0.045044158288308968 -0.39555353608880151 0 0.046068597136488948 -0.40433470067312938 0 0.038158337298963327 -0.40213331177508432 0 0.046068597136488948 -0.40433470067312938 0 0.038158337298963327 -0.40213331177508432 0 0.042715453474861741 -0.41079876610435923 0 0.028179311339698521 -0.39939713853970937 0 0.037360335252539831 -0.41189141606368918 0 0.038158337298963327 -0.40213331177508432 0 0.028179311339698521 -0.39939713853970937 0 0.037360335252539831 -0.41189141606368918 0 0.038158337298963327 -0.40213331177508432 0 0.034703280955222043 -0.39139543438812968 0 0.028179311339698521 -0.39939713853970937 0 0.034703280955222043 -0.39139543438812968 0 0.042930282803566797 -0.38487883326224459 0 0.032737701919447831 -0.38184020173839422 0 0.045044158288308968 -0.39555353608880151 0 0.034703280955222043 -0.39139543438812968 0 0.042930282803566797 -0.38487883326224459 0 0.050177790067095128 -0.37885568306513068 0 0.042930282803566797 -0.38487883326224459 0 0.039245733129828222 -0.37425993325410623 0 0.042930282803566797 -0.38487883326224459 0 0.032737701919447831 -0.38184020173839422 0 0.039245733129828222 -0.37425993325410623 0 0.032737701919447831 -0.38184020173839422 0 0.039245733129828222 -0.37425993325410623 0 0.025499770436595941 -0.37271331452608347 0 0.018998287426858159 -0.3869028610157289 0 0.012540009556676369 -0.36928923032980759 0 0.034703280955222043 -0.39139543438812968 0 0.032737701919447831 -0.38184020173839422 0 0.018998287426858159 -0.3869028610157289 0 0.018998287426858159 -0.3869028610157289 0 0.025499770436595941 -0.37271331452608347 0 0.012540009556676369 -0.36928923032980759 0 0.032737701919447831 -0.38184020173839422 0 0.018998287426858159 -0.3869028610157289 0 0.025499770436595941 -0.37271331452608347 0 0.018998287426858159 -0.3869028610157289 0 0.012272570753077401 -0.37774996353200979 0 0.018998287426858159 -0.3869028610157289 0 0.012272570753077401 -0.37774996353200979 0 0.012540009556676369 -0.36928923032980759 0 0.018998287426858159 -0.3869028610157289 0 0.012272570753077401 -0.37774996353200979 0 0.0089352287609890304 -0.38857586088439722 0 0.0089352287609890304 -0.38857586088439722 0 0.0010500141983273851 -0.3827803795847553 0 0.00074553601579404271 -0.39468089658491429 0 0.012272570753077401 -0.37774996353200979 0 0.0089352287609890304 -0.38857586088439722 0 0.0010500141983273851 -0.3827803795847553 0 0.012272570753077401 -0.37774996353200979 0 0.0010500141983273851 -0.3827803795847553 0 0.0040116864224377441 -0.37451211819115138 0 0.0025016804319674961 -0.40514504311622868 0 0.00074553601579404271 -0.39468089658491429 0 0.01160973541088552 -0.4007652037045788 0 0.0089352287609890304 -0.38857586088439722 0 0.00074553601579404271 -0.39468089658491429 0 0.01160973541088552 -0.4007652037045788 0 0.018998287426858159 -0.3869028610157289 0 0.0089352287609890304 -0.38857586088439722 0 0.01160973541088552 -0.4007652037045788 0 0.034703280955222043 -0.39139543438812968 0 0.018998287426858159 -0.3869028610157289 0 0.028179311339698521 -0.39939713853970937 0 0.018998287426858159 -0.3869028610157289 0 0.01160973541088552 -0.4007652037045788 0 0.028801033027668611 -0.4136378427231277 0 0.018998287426858159 -0.3869028610157289 0 0.028801033027668611 -0.4136378427231277 0 0.018998287426858159 -0.3869028610157289 0 0.028179311339698521 -0.39939713853970937 0 0.028801033027668611 -0.4136378427231277 0 0.018998287426858159 -0.3869028610157289 0 0.028179311339698521 -0.39939713853970937 0 0.01160973541088552 -0.4007652037045788 0 0.028801033027668611 -0.4136378427231277 0 0.0086117684402545348 -0.41775722874123722 0 0.028801033027668611 -0.4136378427231277 0 0.0086117684402545348 -0.41775722874123722 0 0.023041493150988759 -0.4255353219312642 0 0.028801033027668611 -0.4136378427231277 0 0.0086117684402545348 -0.41775722874123722 0 0.0025016804319674961 -0.40514504311622868 0 0.01160973541088552 -0.4007652037045788 0 0.0086117684402545348 -0.41775722874123722 0 -0.0003296034887381483 -0.43693858821846748 0 0.001674167645876754 -0.42911232185463949 0 0.018010203479647852 -0.43544837279221182 0 0.0086117684402545348 -0.41775722874123722 0 0.001674167645876754 -0.42911232185463949 0 0.018010203479647852 -0.43544837279221182 0 0.028801033027668611 -0.4136378427231277 0 0.023041493150988759 -0.4255353219312642 0 0.036742967656383997 -0.43529784346848011 0 0.018010203479647852 -0.43544837279221182 0 0.023041493150988759 -0.4255353219312642 0 0.036742967656383997 -0.43529784346848011 0 0.0086117684402545348 -0.41775722874123722 0 0.018010203479647852 -0.43544837279221182 0 0.023041493150988759 -0.4255353219312642 0 0.028801033027668611 -0.4136378427231277 0 0.036742967656383997 -0.43529784346848011 0 0.038813393079691227 -0.42320562543537599 0 0.028801033027668611 -0.4136378427231277 0 0.036742967656383997 -0.43529784346848011 0 0.036742967656383997 -0.43529784346848011 0 0.049852448991443317 -0.42889169156636081 0 0.049075987449078123 -0.44345700673462629 0 0.036742967656383997 -0.43529784346848011 0 0.038813393079691227 -0.42320562543537599 0 0.049852448991443317 -0.42889169156636081 0 0.028801033027668611 -0.4136378427231277 0 0.038813393079691227 -0.42320562543537599 0 0.037360335252539831 -0.41189141606368918 0 0.037360335252539831 -0.41189141606368918 0 0.042715453474861741 -0.41079876610435923 0 0.049852448991443317 -0.42889169156636081 0 0.038813393079691227 -0.42320562543537599 0 0.037360335252539831 -0.41189141606368918 0 0.049852448991443317 -0.42889169156636081 0 0.037360335252539831 -0.41189141606368918 0 0.049852448991443317 -0.42889169156636081 0 0.028179311339698521 -0.39939713853970937 0 0.028801033027668611 -0.4136378427231277 0 0.037360335252539831 -0.41189141606368918 0 0.028801033027668611 -0.4136378427231277 0 0.037360335252539831 -0.41189141606368918 0 0.038158337298963327 -0.40213331177508432 0 0.037360335252539831 -0.41189141606368918 0 0.042715453474861741 -0.41079876610435923 0 0.037360335252539831 -0.41189141606368918 0 0.042715453474861741 -0.41079876610435923 0 0.046068597136488948 -0.40433470067312938 0 0.042715453474861741 -0.41079876610435923 0 0.050256128618743297 -0.40985159250624048 0 0.042715453474861741 -0.41079876610435923 0 0.05462397446818569 -0.41655539554877402 0 0.049852448991443317 -0.42889169156636081 0 0.054168908001567449 -0.40333629689116118 0 0.05462397446818569 -0.41655539554877402 0 0.050256128618743297 -0.40985159250624048 0 0.042715453474861741 -0.41079876610435923 0 0.05462397446818569 -0.41655539554877402 0 0.050256128618743297 -0.40985159250624048 0 0.063996356035720584 -0.40879435595081848 0 0.054168908001567449 -0.40333629689116118 0 0.05462397446818569 -0.41655539554877402 0 0.068633837976301265 -0.42260509751678232 0 0.063996356035720584 -0.40879435595081848 0 0.05462397446818569 -0.41655539554877402 0 0.049852448991443317 -0.42889169156636081 0 0.062344562730345381 -0.44589196706903322 0 0.068633837976301265 -0.42260509751678232 0 0.05462397446818569 -0.41655539554877402 0 0.061795479021207383 -0.42967056521915981 0 0.05462397446818569 -0.41655539554877402 0 0.061795479021207383 -0.42967056521915981 0 0.049852448991443317 -0.42889169156636081 0 0.061795479021207383 -0.42967056521915981 0 0.049852448991443317 -0.42889169156636081 0 0.062344562730345381 -0.44589196706903322 0 0.049852448991443317 -0.42889169156636081 0 0.049075987449078123 -0.44345700673462629 0 0.062344562730345381 -0.44589196706903322 0 0.049075987449078123 -0.44345700673462629 0 0.057203789902087403 -0.45789019138901021 0 0.044684902285098069 -0.45695784421383301 0 0.049075987449078123 -0.44345700673462629 0 0.062344562730345381 -0.44589196706903322 0 0.057203789902087403 -0.45789019138901021 0 0.064272110070086694 -0.46929544760675829 0 0.057203789902087403 -0.45789019138901021 0 0.048008500408668733 -0.46884664013810468 0 0.057203789902087403 -0.45789019138901021 0 0.044684902285098069 -0.45695784421383301 0 0.048008500408668733 -0.46884664013810468 0 0.044684902285098069 -0.45695784421383301 0 0.031708632774786798 -0.46688757358274008 0 0.048008500408668733 -0.46884664013810468 0 0.044684902285098069 -0.45695784421383301 0 0.031708632774786798 -0.46688757358274008 0 0.023594232968352141 -0.45177180229529468 0 0.036742967656383997 -0.43529784346848011 0 0.044684902285098069 -0.45695784421383301 0 0.036742967656383997 -0.43529784346848011 0 0.049075987449078123 -0.44345700673462629 0 0.044684902285098069 -0.45695784421383301 0 0.036742967656383997 -0.43529784346848011 0 0.044684902285098069 -0.45695784421383301 0 0.023594232968352141 -0.45177180229529468 0 0.018010203479647852 -0.43544837279221182 0 0.036742967656383997 -0.43529784346848011 0 0.023594232968352141 -0.45177180229529468 0 0.018010203479647852 -0.43544837279221182 0 0.023594232968352141 -0.45177180229529468 0 0.0084246261773208066 -0.44742121297713588 0 -0.0068896025298082631 -0.44658062186466119 0 0.018010203479647852 -0.43544837279221182 0 -0.0068896025298082631 -0.44658062186466119 0 0.018010203479647852 -0.43544837279221182 0 0.0084246261773208066 -0.44742121297713588 0 -0.0003296034887381483 -0.43693858821846748 0 -0.0068896025298082631 -0.44658062186466119 0 0.018010203479647852 -0.43544837279221182 0 0.023594232968352141 -0.45177180229529468 0 0.0084246261773208066 -0.44742121297713588 0 0.01015998599053395 -0.45681835587113462 0 -0.0068896025298082631 -0.44658062186466119 0 0.0084246261773208066 -0.44742121297713588 0 0.001836813946430961 -0.45364484976599062 0 0.0084246261773208066 -0.44742121297713588 0 0.001836813946430961 -0.45364484976599062 0 0.01015998599053395 -0.45681835587113462 0 -0.0048593620346090282 -0.46423594082265429 0 0.0025144738502857859 -0.4608460050054406 0 0.0029860898260974859 -0.47135691133017638 0 0.0025144738502857859 -0.4608460050054406 0 0.016250490961792381 -0.46492553880755871 0 0.0029860898260974859 -0.47135691133017638 0 0.0025144738502857859 -0.4608460050054406 0 0.001836813946430961 -0.45364484976599062 0 0.01015998599053395 -0.45681835587113462 0 0.0025144738502857859 -0.4608460050054406 0 0.01015998599053395 -0.45681835587113462 0 0.016250490961792381 -0.46492553880755871 0 0.023594232968352141 -0.45177180229529468 0 0.01015998599053395 -0.45681835587113462 0 0.016250490961792381 -0.46492553880755871 0 0.031708632774786798 -0.46688757358274008 0 0.023594232968352141 -0.45177180229529468 0 0.016250490961792381 -0.46492553880755871 0 0.031708632774786798 -0.46688757358274008 0 0.018064726217536811 -0.47867377220450052 0 0.036345203673725117 -0.4808430673926134 0 0.031708632774786798 -0.46688757358274008 0 0.016250490961792381 -0.46492553880755871 0 0.018064726217536811 -0.47867377220450052 0 -3.3139809501259172e-05 -0.48447452236021971 0 0.018064726217536811 -0.47867377220450052 0 0.0029860898260974859 -0.47135691133017638 0 0.016250490961792381 -0.46492553880755871 0 0.018064726217536811 -0.47867377220450052 0 0.0029860898260974859 -0.47135691133017638 0 -3.3139809501259172e-05 -0.48447452236021971 0 0.018064726217536811 -0.47867377220450052 0 0.020322777796664249 -0.5 0 -0.006937674979134778 -0.5 0 -3.3139809501259172e-05 -0.48447452236021971 0 0.020322777796664249 -0.5 0 0.018064726217536811 -0.47867377220450052 0 0.020322777796664249 -0.5 0 0.036345203673725117 -0.4808430673926134 0 0.036345203673725117 -0.4808430673926134 0 0.05230028940757827 -0.48112593416710159 0 0.047583230572463282 -0.5 0 0.020322777796664249 -0.5 0 0.036345203673725117 -0.4808430673926134 0 0.047583230572463282 -0.5 0 0.031708632774786798 -0.46688757358274008 0 0.036345203673725117 -0.4808430673926134 0 0.048008500408668733 -0.46884664013810468 0 0.036345203673725117 -0.4808430673926134 0 0.05230028940757827 -0.48112593416710159 0 0.048008500408668733 -0.46884664013810468 0 0.069131096873129433 -0.48121986119879739 0 0.064272110070086694 -0.46929544760675829 0 0.05230028940757827 -0.48112593416710159 0 0.064272110070086694 -0.46929544760675829 0 0.05230028940757827 -0.48112593416710159 0 0.048008500408668733 -0.46884664013810468 0 0.069131096873129433 -0.48121986119879739 0 0.05230028940757827 -0.48112593416710159 0 0.047583230572463282 -0.5 0 0.07858890537307478 -0.29341645354186352 0 0.082792548357463691 -0.30315465952397408 0 0.0981069329387671 -0.28766882567274071 0 0.07858890537307478 -0.29341645354186352 0 0.07468875833270619 -0.28424969154143659 0 0.0981069329387671 -0.28766882567274071 0 0.07468875833270619 -0.28424969154143659 0 0.082378822866506191 -0.27723417999255717 0 0.0981069329387671 -0.28766882567274071 0 0.07468875833270619 -0.28424969154143659 0 0.0981069329387671 -0.28766882567274071 0 0.082792548357463691 -0.30315465952397408 0 0.0981069329387671 -0.28766882567274071 0 0.095430499430514279 -0.30669657322001359 0 0.082792548357463691 -0.30315465952397408 0 0.095430499430514279 -0.30669657322001359 0 0.08494367999863342 -0.31436986769611552 0 0.082792548357463691 -0.30315465952397408 0 0.08494367999863342 -0.31436986769611552 0 0.07394497235983849 -0.31340691745879978 0 0.07858890537307478 -0.29341645354186352 0 0.082792548357463691 -0.30315465952397408 0 0.066889852757357038 -0.3040131455232013 0 0.066889852757357038 -0.3040131455232013 0 0.07394497235983849 -0.31340691745879978 0 0.063313271035633403 -0.32003034559843752 0 0.082792548357463691 -0.30315465952397408 0 0.066889852757357038 -0.3040131455232013 0 0.07394497235983849 -0.31340691745879978 0 0.066889852757357038 -0.3040131455232013 0 0.063313271035633403 -0.32003034559843752 0 0.066889852757357038 -0.3040131455232013 0 0.063844911179756464 -0.2927856278749062 0 0.070466434479079826 -0.28799594544796497 0 0.07858890537307478 -0.29341645354186352 0 0.066889852757357038 -0.3040131455232013 0 0.070466434479079826 -0.28799594544796497 0 0.066889852757357038 -0.3040131455232013 0 0.070466434479079826 -0.28799594544796497 0 0.063844911179756464 -0.2927856278749062 0 0.064869297267103318 -0.28541860637141808 0 0.060220580395670562 -0.28942758705698962 0 0.07858890537307478 -0.29341645354186352 0 0.07468875833270619 -0.28424969154143659 0 0.070466434479079826 -0.28799594544796497 0 0.07468875833270619 -0.28424969154143659 0 0.070466434479079826 -0.28799594544796497 0 0.070152196180370718 -0.2834228910484658 0 0.07468875833270619 -0.28424969154143659 0 0.070152196180370718 -0.2834228910484658 0 0.072518307119902925 -0.27845134266938393 0 0.070152196180370718 -0.2834228910484658 0 0.064869297267103318 -0.28541860637141808 0 0.06716873125026912 -0.27997776570529392 0 0.070466434479079826 -0.28799594544796497 0 0.070152196180370718 -0.2834228910484658 0 0.064869297267103318 -0.28541860637141808 0 0.063844911179756464 -0.2927856278749062 0 0.070466434479079826 -0.28799594544796497 0 0.064869297267103318 -0.28541860637141808 0 0.06716873125026912 -0.27997776570529392 0 0.065577878721473401 -0.27443919518146598 0 0.060376513619269323 -0.27784150059845791 0 0.064869297267103318 -0.28541860637141808 0 0.06716873125026912 -0.27997776570529392 0 0.060376513619269323 -0.27784150059845791 0 0.070152196180370718 -0.2834228910484658 0 0.06716873125026912 -0.27997776570529392 0 0.072518307119902925 -0.27845134266938393 0 0.06716873125026912 -0.27997776570529392 0 0.065577878721473401 -0.27443919518146598 0 0.072518307119902925 -0.27845134266938393 0 0.065577878721473401 -0.27443919518146598 0 0.073662506537603381 -0.27074917223552791 0 0.061781365573661762 -0.26570325364420411 0 0.073662506537603381 -0.27074917223552791 0 0.072518307119902925 -0.27845134266938393 0 0.082378822866506191 -0.27723417999255717 0 0.065577878721473401 -0.27443919518146598 0 0.073662506537603381 -0.27074917223552791 0 0.072518307119902925 -0.27845134266938393 0 0.07468875833270619 -0.28424969154143659 0 0.072518307119902925 -0.27845134266938393 0 0.082378822866506191 -0.27723417999255717 0 0.073662506537603381 -0.27074917223552791 0 0.056913894766214189 -0.24944734687024761 0 0.073662506537603381 -0.27074917223552791 0 0.082201808222947037 -0.2550304981012918 0 0.056913894766214189 -0.24944734687024761 0 0.073662506537603381 -0.27074917223552791 0 0.061781365573661762 -0.26570325364420411 0 0.056913894766214189 -0.24944734687024761 0 0.082201808222947037 -0.2550304981012918 0 0.097966874415280319 -0.25260250093329351 0 0.090556491947906562 -0.24252181098264369 0 0.073662506537603381 -0.27074917223552791 0 0.082201808222947037 -0.2550304981012918 0 0.085797441011540049 -0.26895313619862982 0 0.082201808222947037 -0.2550304981012918 0 0.085797441011540049 -0.26895313619862982 0 0.1032663758036069 -0.27130742668688179 0 0.082201808222947037 -0.2550304981012918 0 0.1032663758036069 -0.27130742668688179 0 0.082378822866506191 -0.27723417999255717 0 0.091520290889998426 -0.27622141929835919 0 0.0981069329387671 -0.28766882567274071 0 0.085797441011540049 -0.26895313619862982 0 0.091520290889998426 -0.27622141929835919 0 0.1032663758036069 -0.27130742668688179 0 0.073662506537603381 -0.27074917223552791 0 0.082378822866506191 -0.27723417999255717 0 0.085797441011540049 -0.26895313619862982 0 0.082378822866506191 -0.27723417999255717 0 0.085797441011540049 -0.26895313619862982 0 0.091520290889998426 -0.27622141929835919 0 0.091520290889998426 -0.27622141929835919 0 0.1032663758036069 -0.27130742668688179 0 0.0981069329387671 -0.28766882567274071 0 0.1032663758036069 -0.27130742668688179 0 0.097966874415280319 -0.25260250093329351 0 0.1139277095520875 -0.25964332549321012 0 0.082201808222947037 -0.2550304981012918 0 0.1032663758036069 -0.27130742668688179 0 0.097966874415280319 -0.25260250093329351 0 0.1270399055490482 -0.26372856320023991 0 0.1139277095520875 -0.25964332549321012 0 0.12404506998703969 -0.24505246456562069 0 0.1270399055490482 -0.26372856320023991 0 0.1139277095520875 -0.25964332549321012 0 0.1171215422459246 -0.27055084989933131 0 0.1032663758036069 -0.27130742668688179 0 0.1171215422459246 -0.27055084989933131 0 0.1243309433842668 -0.28758435527247189 0 0.1270399055490482 -0.26372856320023991 0 0.1171215422459246 -0.27055084989933131 0 0.1243309433842668 -0.28758435527247189 0 0.1032663758036069 -0.27130742668688179 0 0.1243309433842668 -0.28758435527247189 0 0.1032663758036069 -0.27130742668688179 0 0.1139277095520875 -0.25964332549321012 0 0.1171215422459246 -0.27055084989933131 0 0.1215251075448288 -0.29108795980403912 0 0.0981069329387671 -0.28766882567274071 0 0.1032663758036069 -0.27130742668688179 0 0.1243309433842668 -0.28758435527247189 0 0.1215251075448288 -0.29108795980403912 0 0.1215251075448288 -0.29108795980403912 0 0.0981069329387671 -0.28766882567274071 0 0.10917724147920101 -0.30722478423620242 0 0.1243309433842668 -0.28758435527247189 0 0.1215251075448288 -0.29108795980403912 0 0.1032663758036069 -0.27130742668688179 0 0.1215251075448288 -0.29108795980403912 0 0.0981069329387671 -0.28766882567274071 0 0.095430499430514279 -0.30669657322001359 0 0.10917724147920101 -0.30722478423620242 0 0.096829375413575156 -0.32336160866836738 0 0.0981069329387671 -0.28766882567274071 0 0.095430499430514279 -0.30669657322001359 0 0.10917724147920101 -0.30722478423620242 0 0.1215251075448288 -0.29108795980403912 0 0.10917724147920101 -0.30722478423620242 0 0.1198814268086526 -0.3076450650810198 0 0.13219428834137839 -0.29264569693890408 0 0.1215251075448288 -0.29108795980403912 0 0.1198814268086526 -0.3076450650810198 0 0.1215251075448288 -0.29108795980403912 0 0.10917724147920101 -0.30722478423620242 0 0.12942857019677351 -0.32118459696335377 0 0.1187774020637843 -0.33167593032408821 0 0.1075685652759296 -0.32264443322313779 0 0.12942857019677351 -0.32118459696335377 0 0.1075685652759296 -0.32264443322313779 0 0.12942857019677351 -0.32118459696335377 0 0.1198814268086526 -0.3076450650810198 0 0.1075685652759296 -0.32264443322313779 0 0.10917724147920101 -0.30722478423620242 0 0.1198814268086526 -0.3076450650810198 0 0.1075685652759296 -0.32264443322313779 0 0.1198814268086526 -0.3076450650810198 0 0.1075685652759296 -0.32264443322313779 0 0.12658916248888669 -0.3432147189336468 0 0.12843350088817429 -0.33188624650992438 0 0.1187774020637843 -0.33167593032408821 0 0.12658916248888669 -0.3432147189336468 0 0.1187774020637843 -0.33167593032408821 0 0.1130256336862181 -0.34306820990688081 0 0.1187774020637843 -0.33167593032408821 0 0.1130256336862181 -0.34306820990688081 0 0.1073011165516658 -0.33574378070648853 0 0.1187774020637843 -0.33167593032408821 0 0.1073011165516658 -0.33574378070648853 0 0.1075685652759296 -0.32264443322313779 0 0.1073011165516658 -0.33574378070648853 0 0.095379817886691351 -0.33749260712621437 0 0.1075685652759296 -0.32264443322313779 0 0.1130256336862181 -0.34306820990688081 0 0.1073011165516658 -0.33574378070648853 0 0.1024145589476355 -0.34403636617798189 0 0.1073011165516658 -0.33574378070648853 0 0.095379817886691351 -0.33749260712621437 0 0.1024145589476355 -0.34403636617798189 0 0.095379817886691351 -0.33749260712621437 0 0.1024145589476355 -0.34403636617798189 0 0.094277056027922607 -0.34819292349950842 0 0.095379817886691351 -0.33749260712621437 0 0.1075685652759296 -0.32264443322313779 0 0.095379817886691351 -0.33749260712621437 0 0.096829375413575156 -0.32336160866836738 0 0.1075685652759296 -0.32264443322313779 0 0.10917724147920101 -0.30722478423620242 0 0.096829375413575156 -0.32336160866836738 0 0.1075685652759296 -0.32264443322313779 0 0.10917724147920101 -0.30722478423620242 0 0.096829375413575156 -0.32336160866836738 0 0.096829375413575156 -0.32336160866836738 0 0.1075685652759296 -0.32264443322313779 0 0.1088438451499317 -0.37705056518381869 0 0.12358731258309009 -0.36805458174380751 0 0.1078548445859409 -0.36411340855813429 0 0.12358731258309009 -0.36805458174380751 0 0.1178959746901227 -0.35562642432548258 0 0.1078548445859409 -0.36411340855813429 0 0.1299583838812346 -0.35491717118830868 0 0.12358731258309009 -0.36805458174380751 0 0.1178959746901227 -0.35562642432548258 0 0.1178959746901227 -0.35562642432548258 0 0.1063610597313525 -0.35314940931985173 0 0.1078548445859409 -0.36411340855813429 0 0.1299583838812346 -0.35491717118830868 0 0.12658916248888669 -0.3432147189336468 0 0.1178959746901227 -0.35562642432548258 0 0.12658916248888669 -0.3432147189336468 0 0.1130256336862181 -0.34306820990688081 0 0.1178959746901227 -0.35562642432548258 0 0.1130256336862181 -0.34306820990688081 0 0.1178959746901227 -0.35562642432548258 0 0.1063610597313525 -0.35314940931985173 0 0.1130256336862181 -0.34306820990688081 0 0.1024145589476355 -0.34403636617798189 0 0.1063610597313525 -0.35314940931985173 0 0.1024145589476355 -0.34403636617798189 0 0.098597615967250918 -0.35156278333437452 0 0.1063610597313525 -0.35314940931985173 0 0.1024145589476355 -0.34403636617798189 0 0.094277056027922607 -0.34819292349950842 0 0.098597615967250918 -0.35156278333437452 0 0.098597615967250918 -0.35156278333437452 0 0.099050877534561946 -0.35966022636220962 0 0.091802216840580431 -0.35553207982967838 0 0.098597615967250918 -0.35156278333437452 0 0.1063610597313525 -0.35314940931985173 0 0.099050877534561946 -0.35966022636220962 0 0.094277056027922607 -0.34819292349950842 0 0.098597615967250918 -0.35156278333437452 0 0.091802216840580431 -0.35553207982967838 0 0.1063610597313525 -0.35314940931985173 0 0.1078548445859409 -0.36411340855813429 0 0.099050877534561946 -0.35966022636220962 0 0.1078548445859409 -0.36411340855813429 0 0.099050877534561946 -0.35966022636220962 0 0.099148852264925494 -0.36909309380434141 0 0.099050877534561946 -0.35966022636220962 0 0.099148852264925494 -0.36909309380434141 0 0.092112818755365325 -0.36378136128932859 0 0.099050877534561946 -0.35966022636220962 0 0.092112818755365325 -0.36378136128932859 0 0.091802216840580431 -0.35553207982967838 0 0.1088438451499317 -0.37705056518381869 0 0.096326104853635602 -0.37857200319286288 0 0.099148852264925494 -0.36909309380434141 0 0.096326104853635602 -0.37857200319286288 0 0.099148852264925494 -0.36909309380434141 0 0.090704622710117491 -0.37138099823969462 0 0.099148852264925494 -0.36909309380434141 0 0.090704622710117491 -0.37138099823969462 0 0.092112818755365325 -0.36378136128932859 0 0.1088438451499317 -0.37705056518381869 0 0.1078548445859409 -0.36411340855813429 0 0.099148852264925494 -0.36909309380434141 0 0.076918528265611533 -0.37954879315545997 0 0.084749575898742158 -0.36455761773940298 0 0.075112750476891255 -0.35174200751622819 0 0.083405023745175347 -0.37757730311613902 0 0.076918528265611533 -0.37954879315545997 0 0.084749575898742158 -0.36455761773940298 0 0.083405023745175347 -0.37757730311613902 0 0.090704622710117491 -0.37138099823969462 0 0.084749575898742158 -0.36455761773940298 0 0.092112818755365325 -0.36378136128932859 0 0.084749575898742158 -0.36455761773940298 0 0.091802216840580431 -0.35553207982967838 0 0.090704622710117491 -0.37138099823969462 0 0.092112818755365325 -0.36378136128932859 0 0.084749575898742158 -0.36455761773940298 0 0.084749575898742158 -0.36455761773940298 0 0.083191070497454875 -0.35234078102929262 0 0.075112750476891255 -0.35174200751622819 0 0.094277056027922607 -0.34819292349950842 0 0.083191070497454875 -0.35234078102929262 0 0.091802216840580431 -0.35553207982967838 0 0.084749575898742158 -0.36455761773940298 0 0.083191070497454875 -0.35234078102929262 0 0.091802216840580431 -0.35553207982967838 0 0.095379817886691351 -0.33749260712621437 0 0.083191070497454875 -0.35234078102929262 0 0.095379817886691351 -0.33749260712621437 0 0.094277056027922607 -0.34819292349950842 0 0.083191070497454875 -0.35234078102929262 0 0.075112750476891255 -0.35174200751622819 0 0.085971062945233823 -0.33755180809229818 0 0.074954488229844032 -0.34930496105022152 0 0.075112750476891255 -0.35174200751622819 0 0.085971062945233823 -0.33755180809229818 0 0.074954488229844032 -0.34930496105022152 0 0.073980900772459945 -0.34778601906737472 0 0.085971062945233823 -0.33755180809229818 0 0.083191070497454875 -0.35234078102929262 0 0.075112750476891255 -0.35174200751622819 0 0.085971062945233823 -0.33755180809229818 0 0.073980900772459945 -0.34778601906737472 0 0.075112750476891255 -0.35174200751622819 0 0.056745530551364692 -0.3494430143317841 0 0.075112750476891255 -0.35174200751622819 0 0.058776783510593317 -0.37309068666967887 0 0.056745530551364692 -0.3494430143317841 0 0.074954488229844032 -0.34930496105022152 0 0.073980900772459945 -0.34778601906737472 0 0.075112750476891255 -0.35174200751622819 0 0.074954488229844032 -0.34930496105022152 0 0.075112750476891255 -0.35174200751622819 0 0.076918528265611533 -0.37954879315545997 0 0.075112750476891255 -0.35174200751622819 0 0.058776783510593317 -0.37309068666967887 0 0.075112750476891255 -0.35174200751622819 0 0.058776783510593317 -0.37309068666967887 0 0.076918528265611533 -0.37954879315545997 0 0.075112750476891255 -0.35174200751622819 0 0.096829375413575156 -0.32336160866836738 0 0.08494367999863342 -0.31436986769611552 0 0.074359153126004551 -0.32486219594543431 0 0.095430499430514279 -0.30669657322001359 0 0.096829375413575156 -0.32336160866836738 0 0.08494367999863342 -0.31436986769611552 0 0.096829375413575156 -0.32336160866836738 0 0.074359153126004551 -0.32486219594543431 0 0.096829375413575156 -0.32336160866836738 0 0.083136922015066908 -0.32977857826736018 0 0.074359153126004551 -0.32486219594543431 0 0.096829375413575156 -0.32336160866836738 0 0.085971062945233823 -0.33755180809229818 0 0.083136922015066908 -0.32977857826736018 0 0.095379817886691351 -0.33749260712621437 0 0.096829375413575156 -0.32336160866836738 0 0.085971062945233823 -0.33755180809229818 0 0.096829375413575156 -0.32336160866836738 0 0.085971062945233823 -0.33755180809229818 0 0.095379817886691351 -0.33749260712621437 0 0.083191070497454875 -0.35234078102929262 0 0.085971062945233823 -0.33755180809229818 0 0.073980900772459945 -0.34778601906737472 0 0.085971062945233823 -0.33755180809229818 0 0.075388096575453922 -0.3333387003633409 0 0.085971062945233823 -0.33755180809229818 0 0.083136922015066908 -0.32977857826736018 0 0.075388096575453922 -0.3333387003633409 0 0.073980900772459945 -0.34778601906737472 0 0.063313271035633403 -0.32003034559843752 0 0.056745530551364692 -0.3494430143317841 0 0.083136922015066908 -0.32977857826736018 0 0.075388096575453922 -0.3333387003633409 0 0.074359153126004551 -0.32486219594543431 0 0.073980900772459945 -0.34778601906737472 0 0.063313271035633403 -0.32003034559843752 0 0.073980900772459945 -0.34778601906737472 0 0.075388096575453922 -0.3333387003633409 0 0.063313271035633403 -0.32003034559843752 0 0.075388096575453922 -0.3333387003633409 0 0.074359153126004551 -0.32486219594543431 0 0.063313271035633403 -0.32003034559843752 0 0.08494367999863342 -0.31436986769611552 0 0.074359153126004551 -0.32486219594543431 0 0.07394497235983849 -0.31340691745879978 0 0.074359153126004551 -0.32486219594543431 0 0.07394497235983849 -0.31340691745879978 0 0.063313271035633403 -0.32003034559843752 0 0.063313271035633403 -0.32003034559843752 0 0.052195727970533172 -0.32074158477033549 0 0.050088457400898408 -0.31226439191364708 0 0.052195727970533172 -0.32074158477033549 0 0.044780799549114819 -0.3204362253277504 0 0.050088457400898408 -0.31226439191364708 0 0.052195727970533172 -0.32074158477033549 0 0.050600383896486058 -0.33023537624150701 0 0.044780799549114819 -0.3204362253277504 0 0.063313271035633403 -0.32003034559843752 0 0.052195727970533172 -0.32074158477033549 0 0.050600383896486058 -0.33023537624150701 0 0.050600383896486058 -0.33023537624150701 0 0.044550186223767912 -0.34051336189861758 0 0.056745530551364692 -0.3494430143317841 0 0.063313271035633403 -0.32003034559843752 0 0.050600383896486058 -0.33023537624150701 0 0.056745530551364692 -0.3494430143317841 0 0.063313271035633403 -0.32003034559843752 0 0.056745530551364692 -0.3494430143317841 0 0.050600383896486058 -0.33023537624150701 0 0.03919403859119075 -0.32955573678594419 0 0.044550186223767912 -0.34051336189861758 0 0.03919403859119075 -0.32955573678594419 0 0.044550186223767912 -0.34051336189861758 0 0.034966538098334013 -0.34115993098692587 0 0.03919403859119075 -0.32955573678594419 0 0.034966538098334013 -0.34115993098692587 0 0.02712661754473205 -0.32983762176759768 0 0.03919403859119075 -0.32955573678594419 0 0.03465766823890043 -0.31818450757984029 0 0.02712661754473205 -0.32983762176759768 0 0.03465766823890043 -0.31818450757984029 0 0.026269836779849998 -0.31567183379058822 0 0.033138452760649251 -0.30479257844054802 0 0.044780799549114819 -0.3204362253277504 0 0.040358920977515138 -0.3108607546276882 0 0.050088457400898408 -0.31226439191364708 0 0.03465766823890043 -0.31818450757984029 0 0.044780799549114819 -0.3204362253277504 0 0.040358920977515138 -0.3108607546276882 0 0.050600383896486058 -0.33023537624150701 0 0.03919403859119075 -0.32955573678594419 0 0.044780799549114819 -0.3204362253277504 0 0.03919403859119075 -0.32955573678594419 0 0.03465766823890043 -0.31818450757984029 0 0.044780799549114819 -0.3204362253277504 0 0.050177790067095128 -0.37885568306513068 0 0.058776783510593317 -0.37309068666967887 0 0.056745530551364692 -0.3494430143317841 0 0.050177790067095128 -0.37885568306513068 0 0.056745530551364692 -0.3494430143317841 0 0.044780014325236622 -0.36364338016903491 0 0.050177790067095128 -0.37885568306513068 0 0.056745530551364692 -0.3494430143317841 0 0.056745530551364692 -0.3494430143317841 0 0.041244439981464071 -0.35217275114692659 0 0.044780014325236622 -0.36364338016903491 0 0.044550186223767912 -0.34051336189861758 0 0.056745530551364692 -0.3494430143317841 0 0.041244439981464071 -0.35217275114692659 0 0.044550186223767912 -0.34051336189861758 0 0.034966538098334013 -0.34115993098692587 0 0.041244439981464071 -0.35217275114692659 0 0.034966538098334013 -0.34115993098692587 0 0.041244439981464071 -0.35217275114692659 0 0.026307118145547249 -0.35185137247030762 0 0.041244439981464071 -0.35217275114692659 0 0.034442105517433777 -0.3633836135354247 0 0.026307118145547249 -0.35185137247030762 0 0.041244439981464071 -0.35217275114692659 0 0.044780014325236622 -0.36364338016903491 0 0.034442105517433777 -0.3633836135354247 0 0.044780014325236622 -0.36364338016903491 0 0.034442105517433777 -0.3633836135354247 0 0.039245733129828222 -0.37425993325410623 0 0.034442105517433777 -0.3633836135354247 0 0.039245733129828222 -0.37425993325410623 0 0.025499770436595941 -0.37271331452608347 0 0.050177790067095128 -0.37885568306513068 0 0.044780014325236622 -0.36364338016903491 0 0.039245733129828222 -0.37425993325410623 0 0.025499770436595941 -0.37271331452608347 0 0.023217009666279782 -0.36233295656899811 0 0.012540009556676369 -0.36928923032980759 0 0.034442105517433777 -0.3633836135354247 0 0.025499770436595941 -0.37271331452608347 0 0.023217009666279782 -0.36233295656899811 0 0.023217009666279782 -0.36233295656899811 0 0.017296044675145599 -0.35442725198336722 0 0.012540009556676369 -0.36928923032980759 0 0.023217009666279782 -0.36233295656899811 0 0.017296044675145599 -0.35442725198336722 0 0.026307118145547249 -0.35185137247030762 0 0.034442105517433777 -0.3633836135354247 0 0.023217009666279782 -0.36233295656899811 0 0.026307118145547249 -0.35185137247030762 0 0.026307118145547249 -0.35185137247030762 0 0.02079100810530209 -0.34731041006961832 0 0.02446400246378436 -0.3411820398178208 0 0.034966538098334013 -0.34115993098692587 0 0.026307118145547249 -0.35185137247030762 0 0.02446400246378436 -0.3411820398178208 0 0.017296044675145599 -0.35442725198336722 0 0.02079100810530209 -0.34731041006961832 0 0.014185823568236189 -0.34458656228901891 0 0.017296044675145599 -0.35442725198336722 0 0.026307118145547249 -0.35185137247030762 0 0.02079100810530209 -0.34731041006961832 0 0.02079100810530209 -0.34731041006961832 0 0.014185823568236189 -0.34458656228901891 0 0.02446400246378436 -0.3411820398178208 0 0.017296044675145599 -0.35442725198336722 0 0.0060817316864912267 -0.35167559964388762 0 0.012540009556676369 -0.36928923032980759 0 0.014185823568236189 -0.34458656228901891 0 0.0060817316864912267 -0.35167559964388762 0 0.01448765474675481 -0.33697440141906299 0 0.017296044675145599 -0.35442725198336722 0 0.014185823568236189 -0.34458656228901891 0 0.0060817316864912267 -0.35167559964388762 0 0.014185823568236189 -0.34458656228901891 0 0.0060817316864912267 -0.35167559964388762 0 0.0060817316864912267 -0.35167559964388762 0 0.012540009556676369 -0.36928923032980759 0 0.0060817316864912267 -0.35167559964388762 0 0.00096672044108670342 -0.36736290043080683 0 0.012540009556676369 -0.36928923032980759 0 0.00096672044108670342 -0.36736290043080683 0 0.0040116864224377441 -0.37451211819115138 0 0.012540009556676369 -0.36928923032980759 0 0.012272570753077401 -0.37774996353200979 0 0.0040116864224377441 -0.37451211819115138 0 0.012540009556676369 -0.36928923032980759 0 0.016814900128359279 -0.32600054573080239 0 0.017847315692136469 -0.31877185202470582 0 0.02712661754473205 -0.32983762176759768 0 0.017847315692136469 -0.31877185202470582 0 0.026269836779849998 -0.31567183379058822 0 0.02113040201463828 -0.3074436743325607 0 0.03465766823890043 -0.31818450757984029 0 0.026269836779849998 -0.31567183379058822 0 0.02712661754473205 -0.32983762176759768 0 0.017847315692136469 -0.31877185202470582 0 0.026269836779849998 -0.31567183379058822 0 0.02712661754473205 -0.32983762176759768 0 0.02712661754473205 -0.32983762176759768 0 0.02446400246378436 -0.3411820398178208 0 0.020723293720907619 -0.33349865218382102 0 0.034966538098334013 -0.34115993098692587 0 0.02712661754473205 -0.32983762176759768 0 0.02446400246378436 -0.3411820398178208 0 0.014185823568236189 -0.34458656228901891 0 0.02446400246378436 -0.3411820398178208 0 0.01448765474675481 -0.33697440141906299 0 0.02446400246378436 -0.3411820398178208 0 0.020723293720907619 -0.33349865218382102 0 0.01448765474675481 -0.33697440141906299 0 0.016814900128359279 -0.32600054573080239 0 0.020723293720907619 -0.33349865218382102 0 0.01448765474675481 -0.33697440141906299 0 0.016814900128359279 -0.32600054573080239 0 0.02712661754473205 -0.32983762176759768 0 0.020723293720907619 -0.33349865218382102 0 -0.0041558322323851371 -0.32375473999443188 0 0.0060817316864912267 -0.35167559964388762 0 0.01448765474675481 -0.33697440141906299 0 -0.0041558322323851371 -0.32375473999443188 0 0.0060817316864912267 -0.35167559964388762 0 0.01448765474675481 -0.33697440141906299 0 0.00344479299637647 -0.30935306983003408 0 0.016814900128359279 -0.32600054573080239 0 0.017847315692136469 -0.31877185202470582 0 0.00344479299637647 -0.30935306983003408 0 0.016814900128359279 -0.32600054573080239 0 0.01448765474675481 -0.33697440141906299 0 0.00344479299637647 -0.30935306983003408 0 -0.0041558322323851371 -0.32375473999443188 0 0.01448765474675481 -0.33697440141906299 0 0.00344479299637647 -0.30935306983003408 0 0.00344479299637647 -0.30935306983003408 0 0.01458624616836441 -0.29988543157923758 0 0.0072764239948437453 -0.29003598851462509 0 0.00344479299637647 -0.30935306983003408 0 0.01458624616836441 -0.29988543157923758 0 0.014252189217878901 -0.30886350694163439 0 0.017847315692136469 -0.31877185202470582 0 0.00344479299637647 -0.30935306983003408 0 0.014252189217878901 -0.30886350694163439 0 0.0072764239948437453 -0.29003598851462509 0 0.018694839754127161 -0.28628309079037428 0 0.010756371112841201 -0.27341088877490061 0 -0.007598068754001798 -0.281731738241005 0 0.00344479299637647 -0.30935306983003408 0 0.0072764239948437453 -0.29003598851462509 0 -0.007598068754001798 -0.281731738241005 0 0.0072764239948437453 -0.29003598851462509 0 0.010756371112841201 -0.27341088877490061 0 0.01458624616836441 -0.29988543157923758 0 0.0072764239948437453 -0.29003598851462509 0 0.018694839754127161 -0.28628309079037428 0 0.01458624616836441 -0.29988543157923758 0 0.018694839754127161 -0.28628309079037428 0 0.024004857912491941 -0.29491185358654332 0 0.024004857912491941 -0.29491185358654332 0 0.031969490720915053 -0.29474568300213738 0 0.031261192089813039 -0.2846842739127623 0 0.018694839754127161 -0.28628309079037428 0 0.031261192089813039 -0.2846842739127623 0 0.022339847494454189 -0.2765384940586621 0 0.018694839754127161 -0.28628309079037428 0 0.024004857912491941 -0.29491185358654332 0 0.031261192089813039 -0.2846842739127623 0 0.01458624616836441 -0.29988543157923758 0 0.014252189217878901 -0.30886350694163439 0 0.02113040201463828 -0.3074436743325607 0 0.017847315692136469 -0.31877185202470582 0 0.014252189217878901 -0.30886350694163439 0 0.02113040201463828 -0.3074436743325607 0 0.01458624616836441 -0.29988543157923758 0 0.024004857912491941 -0.29491185358654332 0 0.02113040201463828 -0.3074436743325607 0 0.024004857912491941 -0.29491185358654332 0 0.033138452760649251 -0.30479257844054802 0 0.031969490720915053 -0.29474568300213738 0 0.024004857912491941 -0.29491185358654332 0 0.02113040201463828 -0.3074436743325607 0 0.033138452760649251 -0.30479257844054802 0 0.026269836779849998 -0.31567183379058822 0 0.02113040201463828 -0.3074436743325607 0 0.033138452760649251 -0.30479257844054802 0 0.03465766823890043 -0.31818450757984029 0 0.033138452760649251 -0.30479257844054802 0 0.040358920977515138 -0.3108607546276882 0 0.033138452760649251 -0.30479257844054802 0 0.040358920977515138 -0.3108607546276882 0 0.043907989914938383 -0.30368689237440077 0 0.040358920977515138 -0.3108607546276882 0 0.043907989914938383 -0.30368689237440077 0 0.050088457400898408 -0.31226439191364708 0 0.043907989914938383 -0.30368689237440077 0 0.039473460120705947 -0.29459402606869611 0 0.054327631678839743 -0.29665097473072172 0 0.033138452760649251 -0.30479257844054802 0 0.031969490720915053 -0.29474568300213738 0 0.039473460120705947 -0.29459402606869611 0 0.033138452760649251 -0.30479257844054802 0 0.043907989914938383 -0.30368689237440077 0 0.039473460120705947 -0.29459402606869611 0 0.031969490720915053 -0.29474568300213738 0 0.031261192089813039 -0.2846842739127623 0 0.039473460120705947 -0.29459402606869611 0 0.031261192089813039 -0.2846842739127623 0 0.042237977666748083 -0.28508264651873838 0 0.04078561212233469 -0.2762123540185068 0 0.031261192089813039 -0.2846842739127623 0 0.042237977666748083 -0.28508264651873838 0 0.039473460120705947 -0.29459402606869611 0 0.042237977666748083 -0.28508264651873838 0 0.039473460120705947 -0.29459402606869611 0 0.054327631678839743 -0.29665097473072172 0 0.054327631678839743 -0.29665097473072172 0 0.057812418983727562 -0.28455423373543831 0 0.052049503831016482 -0.2774759356675699 0 0.054327631678839743 -0.29665097473072172 0 0.052049503831016482 -0.2774759356675699 0 0.045341992322046991 -0.27327160386300542 0 0.054327631678839743 -0.29665097473072172 0 0.045341992322046991 -0.27327160386300542 0 0.042237977666748083 -0.28508264651873838 0 0.054327631678839743 -0.29665097473072172 0 0.045341992322046991 -0.27327160386300542 0 0.064869297267103318 -0.28541860637141808 0 0.057812418983727562 -0.28455423373543831 0 0.060220580395670562 -0.28942758705698962 0 0.064869297267103318 -0.28541860637141808 0 0.057812418983727562 -0.28455423373543831 0 0.060376513619269323 -0.27784150059845791 0 0.063844911179756464 -0.2927856278749062 0 0.054327631678839743 -0.29665097473072172 0 0.060220580395670562 -0.28942758705698962 0 0.054327631678839743 -0.29665097473072172 0 0.057812418983727562 -0.28455423373543831 0 0.060220580395670562 -0.28942758705698962 0 0.063313271035633403 -0.32003034559843752 0 0.054327631678839743 -0.29665097473072172 0 0.050088457400898408 -0.31226439191364708 0 0.066889852757357038 -0.3040131455232013 0 0.063844911179756464 -0.2927856278749062 0 0.054327631678839743 -0.29665097473072172 0 0.063313271035633403 -0.32003034559843752 0 0.054327631678839743 -0.29665097473072172 0 0.066889852757357038 -0.3040131455232013 0 0.063313271035633403 -0.32003034559843752 0 0.054327631678839743 -0.29665097473072172 0 0.043907989914938383 -0.30368689237440077 0 0.054327631678839743 -0.29665097473072172 0 0.050088457400898408 -0.31226439191364708 0 0.054671803304510852 -0.26307922135037493 0 0.061781365573661762 -0.26570325364420411 0 0.056913894766214189 -0.24944734687024761 0 0.054671803304510852 -0.26307922135037493 0 0.045563312862185547 -0.26535471869284022 0 0.046079290868970828 -0.25638979440497173 0 0.054671803304510852 -0.26307922135037493 0 0.046079290868970828 -0.25638979440497173 0 0.056913894766214189 -0.24944734687024761 0 0.054671803304510852 -0.26307922135037493 0 0.061781365573661762 -0.26570325364420411 0 0.057599756070264192 -0.27142261147891861 0 0.065577878721473401 -0.27443919518146598 0 0.061781365573661762 -0.26570325364420411 0 0.057599756070264192 -0.27142261147891861 0 0.057812418983727562 -0.28455423373543831 0 0.060376513619269323 -0.27784150059845791 0 0.052049503831016482 -0.2774759356675699 0 0.057599756070264192 -0.27142261147891861 0 0.060376513619269323 -0.27784150059845791 0 0.052049503831016482 -0.2774759356675699 0 0.065577878721473401 -0.27443919518146598 0 0.057599756070264192 -0.27142261147891861 0 0.060376513619269323 -0.27784150059845791 0 0.052049503831016482 -0.2774759356675699 0 0.051141471371653369 -0.26999656243143888 0 0.045341992322046991 -0.27327160386300542 0 0.054671803304510852 -0.26307922135037493 0 0.051141471371653369 -0.26999656243143888 0 0.045563312862185547 -0.26535471869284022 0 0.051141471371653369 -0.26999656243143888 0 0.045341992322046991 -0.27327160386300542 0 0.045563312862185547 -0.26535471869284022 0 0.054671803304510852 -0.26307922135037493 0 0.057599756070264192 -0.27142261147891861 0 0.051141471371653369 -0.26999656243143888 0 0.057599756070264192 -0.27142261147891861 0 0.052049503831016482 -0.2774759356675699 0 0.051141471371653369 -0.26999656243143888 0 0.04078561212233469 -0.2762123540185068 0 0.037863144772791631 -0.26668411228261901 0 0.022512080051178301 -0.25809065039119322 0 0.045341992322046991 -0.27327160386300542 0 0.042388515519839708 -0.27038069721424279 0 0.045563312862185547 -0.26535471869284022 0 0.04078561212233469 -0.2762123540185068 0 0.022512080051178301 -0.25809065039119322 0 0.042388515519839708 -0.27038069721424279 0 0.04078561212233469 -0.2762123540185068 0 0.037863144772791631 -0.26668411228261901 0 0.045341992322046991 -0.27327160386300542 0 0.042388515519839708 -0.27038069721424279 0 0.04078561212233469 -0.2762123540185068 0 0.042388515519839708 -0.27038069721424279 0 0.037863144772791631 -0.26668411228261901 0 0.045563312862185547 -0.26535471869284022 0 0.042237977666748083 -0.28508264651873838 0 0.045341992322046991 -0.27327160386300542 0 0.04078561212233469 -0.2762123540185068 0 0.031261192089813039 -0.2846842739127623 0 0.04078561212233469 -0.2762123540185068 0 0.029224682939445051 -0.27388144309528112 0 0.037863144772791631 -0.26668411228261901 0 0.038209279032521352 -0.25780827784635008 0 0.022512080051178301 -0.25809065039119322 0 0.038209279032521352 -0.25780827784635008 0 0.022512080051178301 -0.25809065039119322 0 0.035038164379422192 -0.24625940726504519 0 0.046079290868970828 -0.25638979440497173 0 0.035038164379422192 -0.24625940726504519 0 0.056913894766214189 -0.24944734687024761 0 0.037863144772791631 -0.26668411228261901 0 0.045563312862185547 -0.26535471869284022 0 0.038209279032521352 -0.25780827784635008 0 0.045563312862185547 -0.26535471869284022 0 0.046079290868970828 -0.25638979440497173 0 0.038209279032521352 -0.25780827784635008 0 0.046079290868970828 -0.25638979440497173 0 0.038209279032521352 -0.25780827784635008 0 0.035038164379422192 -0.24625940726504519 0 0.022512080051178301 -0.25809065039119322 0 0.0099484368713368826 -0.24563139416760979 0 0.022512080051178301 -0.25809065039119322 0 0.029224682939445051 -0.27388144309528112 0 0.022339847494454189 -0.2765384940586621 0 0.04078561212233469 -0.2762123540185068 0 0.022512080051178301 -0.25809065039119322 0 0.029224682939445051 -0.27388144309528112 0 0.022512080051178301 -0.25809065039119322 0 0.022339847494454189 -0.2765384940586621 0 0.010756371112841201 -0.27341088877490061 0 0.031261192089813039 -0.2846842739127623 0 0.029224682939445051 -0.27388144309528112 0 0.022339847494454189 -0.2765384940586621 0 0.018694839754127161 -0.28628309079037428 0 0.022339847494454189 -0.2765384940586621 0 0.010756371112841201 -0.27341088877490061 0 -0.007598068754001798 -0.281731738241005 0 0.010756371112841201 -0.27341088877490061 0 0.0010283086524795269 -0.26382967217164027 0 0.01085537724742325 -0.25753558435967921 0 0.0010283086524795269 -0.26382967217164027 0 0.0099484368713368826 -0.24563139416760979 0 0.0010283086524795269 -0.26382967217164027 0 0.0013068550856104801 -0.24928749042306059 0 0.0099484368713368826 -0.24563139416760979 0 0.0010283086524795269 -0.26382967217164027 0 0.0099484368713368826 -0.24563139416760979 0 0.022512080051178301 -0.25809065039119322 0 0.010756371112841201 -0.27341088877490061 0 0.01085537724742325 -0.25753558435967921 0 0.010756371112841201 -0.27341088877490061 0 0.01085537724742325 -0.25753558435967921 0 0.0010283086524795269 -0.26382967217164027 0 0.022512080051178301 -0.25809065039119322 0 0.01085537724742325 -0.25753558435967921 0 0.0099484368713368826 -0.24563139416760979 0 0.0013068550856104801 -0.24928749042306059 0 0.0099484368713368826 -0.24563139416760979 0 0.0042385479800219443 -0.23996894676387959 0 -0.0040143075144109096 -0.24499226240608071 0 0.0013068550856104801 -0.24928749042306059 0 0.0042385479800219443 -0.23996894676387959 0 0.0099484368713368826 -0.24563139416760979 0 0.0042385479800219443 -0.23996894676387959 0 0.0099484368713368826 -0.24563139416760979 0 0.0042385479800219443 -0.23996894676387959 0 0.018955341457682899 -0.24180282077000101 0 0.0042385479800219443 -0.23996894676387959 0 0.01079832615024281 -0.23162454880082731 0 0.018955341457682899 -0.24180282077000101 0 0.001615768630269976 -0.22693028408857571 0 0.0078865440309050013 -0.22280921117315 0 0.01079832615024281 -0.23162454880082731 0 0.0042385479800219443 -0.23996894676387959 0 0.001615768630269976 -0.22693028408857571 0 0.01079832615024281 -0.23162454880082731 0 -0.00080959091868537398 -0.21840147056845541 0 0.001615768630269976 -0.22693028408857571 0 0.0078865440309050013 -0.22280921117315 0 -0.00080959091868537398 -0.21840147056845541 0 0.0078865440309050013 -0.22280921117315 0 0.01045410873928054 -0.21630303584081001 0 0.01508424629278577 -0.22486048944277201 0 0.0078865440309050013 -0.22280921117315 0 0.01045410873928054 -0.21630303584081001 0 0.01508424629278577 -0.22486048944277201 0 0.0078865440309050013 -0.22280921117315 0 0.01079832615024281 -0.23162454880082731 0 0.022189588727549239 -0.23307055062905979 0 0.023316084600592459 -0.22109634731618011 0 0.040165282994824997 -0.22814552150496739 0 0.01508424629278577 -0.22486048944277201 0 0.01079832615024281 -0.23162454880082731 0 0.022189588727549239 -0.23307055062905979 0 0.01508424629278577 -0.22486048944277201 0 0.023316084600592459 -0.22109634731618011 0 0.01045410873928054 -0.21630303584081001 0 0.01508424629278577 -0.22486048944277201 0 0.022189588727549239 -0.23307055062905979 0 0.023316084600592459 -0.22109634731618011 0 0.022512080051178301 -0.25809065039119322 0 0.0099484368713368826 -0.24563139416760979 0 0.018955341457682899 -0.24180282077000101 0 0.022512080051178301 -0.25809065039119322 0 0.018955341457682899 -0.24180282077000101 0 0.035038164379422192 -0.24625940726504519 0 0.022189588727549239 -0.23307055062905979 0 0.018955341457682899 -0.24180282077000101 0 0.035038164379422192 -0.24625940726504519 0 0.01079832615024281 -0.23162454880082731 0 0.022189588727549239 -0.23307055062905979 0 0.018955341457682899 -0.24180282077000101 0 -0.0044459224694277863 -0.20528461782446991 0 0.0091483747768656282 -0.18869647514528251 0 0.023416671223435621 -0.20684369613968701 0 -0.0044459224694277863 -0.20528461782446991 0 0.023416671223435621 -0.20684369613968701 0 -0.0044459224694277863 -0.20528461782446991 0 0.01045410873928054 -0.21630303584081001 0 0.023416671223435621 -0.20684369613968701 0 -0.00080959091868537398 -0.21840147056845541 0 -0.0044459224694277863 -0.20528461782446991 0 0.01045410873928054 -0.21630303584081001 0 0.028589597812674679 -0.2071331522384407 0 0.023416671223435621 -0.20684369613968701 0 0.040165282994824997 -0.22814552150496739 0 0.023316084600592459 -0.22109634731618011 0 0.023416671223435621 -0.20684369613968701 0 0.040165282994824997 -0.22814552150496739 0 0.023316084600592459 -0.22109634731618011 0 0.01045410873928054 -0.21630303584081001 0 0.023416671223435621 -0.20684369613968701 0 0.028589597812674679 -0.2071331522384407 0 0.023416671223435621 -0.20684369613968701 0 0.026485974259379971 -0.19835950067701849 0 0.028589597812674679 -0.2071331522384407 0 0.023416671223435621 -0.20684369613968701 0 0.0091483747768656282 -0.18869647514528251 0 0.026485974259379971 -0.19835950067701849 0 0.026990038168104899 -0.1893512759156607 0 0.0091483747768656282 -0.18869647514528251 0 0.023416671223435621 -0.20684369613968701 0 0.026485974259379971 -0.19835950067701849 0 0.0091483747768656282 -0.18869647514528251 0 0.023416671223435621 -0.20684369613968701 0 0.026485974259379971 -0.19835950067701849 0 0.026990038168104899 -0.1893512759156607 0 0.036982391112301539 -0.19862354584078681 0 0.028589597812674679 -0.2071331522384407 0 0.026485974259379971 -0.19835950067701849 0 0.032187343460746393 -0.20296805044657451 0 0.036982391112301539 -0.19862354584078681 0 0.051329246993349377 -0.19510840078394159 0 0.0378844927331769 -0.1869918248976421 0 0.026990038168104899 -0.1893512759156607 0 0.036982391112301539 -0.19862354584078681 0 0.0378844927331769 -0.1869918248976421 0 0.026485974259379971 -0.19835950067701849 0 0.036982391112301539 -0.19862354584078681 0 0.032187343460746393 -0.20296805044657451 0 0.036982391112301539 -0.19862354584078681 0 0.032187343460746393 -0.20296805044657451 0 0.036691410658629402 -0.20775600303005209 0 0.036982391112301539 -0.19862354584078681 0 0.045014754818104581 -0.209761330401558 0 0.051329246993349377 -0.19510840078394159 0 0.023416671223435621 -0.20684369613968701 0 0.040165282994824997 -0.22814552150496739 0 0.045014754818104581 -0.209761330401558 0 0.036691410658629402 -0.20775600303005209 0 0.040165282994824997 -0.22814552150496739 0 0.028589597812674679 -0.2071331522384407 0 0.036691410658629402 -0.20775600303005209 0 0.040165282994824997 -0.22814552150496739 0 0.036982391112301539 -0.19862354584078681 0 0.045014754818104581 -0.209761330401558 0 0.036691410658629402 -0.20775600303005209 0 0.028589597812674679 -0.2071331522384407 0 0.032187343460746393 -0.20296805044657451 0 0.036691410658629402 -0.20775600303005209 0 0.045014754818104581 -0.209761330401558 0 0.054389320909366552 -0.20659820618297131 0 0.049770117505035877 -0.21975587809829339 0 0.060928175561073619 -0.21634046253211239 0 0.054389320909366552 -0.20659820618297131 0 0.049770117505035877 -0.21975587809829339 0 0.060928175561073619 -0.21634046253211239 0 0.054389320909366552 -0.20659820618297131 0 0.066951470256731205 -0.2019363429165236 0 0.045014754818104581 -0.209761330401558 0 0.054389320909366552 -0.20659820618297131 0 0.051329246993349377 -0.19510840078394159 0 0.054389320909366552 -0.20659820618297131 0 0.051329246993349377 -0.19510840078394159 0 0.066951470256731205 -0.2019363429165236 0 0.022189588727549239 -0.23307055062905979 0 0.035038164379422192 -0.24625940726504519 0 0.040165282994824997 -0.22814552150496739 0 0.035038164379422192 -0.24625940726504519 0 0.040165282994824997 -0.22814552150496739 0 0.056913894766214189 -0.24944734687024761 0 0.045014754818104581 -0.209761330401558 0 0.040165282994824997 -0.22814552150496739 0 0.049770117505035877 -0.21975587809829339 0 0.040165282994824997 -0.22814552150496739 0 0.049770117505035877 -0.21975587809829339 0 0.056040320957719561 -0.22624603190887849 0 0.040165282994824997 -0.22814552150496739 0 0.056040320957719561 -0.22624603190887849 0 0.061137240642287163 -0.2387535695157017 0 0.060928175561073619 -0.21634046253211239 0 0.049770117505035877 -0.21975587809829339 0 0.056040320957719561 -0.22624603190887849 0 0.060928175561073619 -0.21634046253211239 0 0.056040320957719561 -0.22624603190887849 0 0.069082355483989666 -0.22689437950329691 0 0.056040320957719561 -0.22624603190887849 0 0.061137240642287163 -0.2387535695157017 0 0.069082355483989666 -0.22689437950329691 0 0.040165282994824997 -0.22814552150496739 0 0.061137240642287163 -0.2387535695157017 0 0.056913894766214189 -0.24944734687024761 0 0.040165282994824997 -0.22814552150496739 0 0.056913894766214189 -0.24944734687024761 0 0.082201808222947037 -0.2550304981012918 0 0.061137240642287163 -0.2387535695157017 0 0.056913894766214189 -0.24944734687024761 0 0.082201808222947037 -0.2550304981012918 0 0.061137240642287163 -0.2387535695157017 0 0.082201808222947037 -0.2550304981012918 0 0.061137240642287163 -0.2387535695157017 0 0.073256314637478614 -0.2391849403004209 0 0.061137240642287163 -0.2387535695157017 0 0.073256314637478614 -0.2391849403004209 0 0.069082355483989666 -0.22689437950329691 0 0.082201808222947037 -0.2550304981012918 0 0.073256314637478614 -0.2391849403004209 0 0.080603854200690633 -0.23606131408139319 0 0.082201808222947037 -0.2550304981012918 0 0.080603854200690633 -0.23606131408139319 0 0.090556491947906562 -0.24252181098264369 0 0.080603854200690633 -0.23606131408139319 0 0.090556491947906562 -0.24252181098264369 0 0.087307724432001702 -0.22930410478524529 0 0.090556491947906562 -0.24252181098264369 0 0.087307724432001702 -0.22930410478524529 0 0.099881986549853599 -0.2345094434024399 0 0.087307724432001702 -0.22930410478524529 0 0.085836263547619723 -0.20937556131166971 0 0.099881986549853599 -0.2345094434024399 0 0.087307724432001702 -0.22930410478524529 0 0.079660025913937976 -0.22405239414808031 0 0.085836263547619723 -0.20937556131166971 0 0.085836263547619723 -0.20937556131166971 0 0.099881986549853599 -0.2345094434024399 0 0.080603854200690633 -0.23606131408139319 0 0.087307724432001702 -0.22930410478524529 0 0.079660025913937976 -0.22405239414808031 0 0.079660025913937976 -0.22405239414808031 0 0.069082355483989666 -0.22689437950329691 0 0.072784916594781257 -0.21549814618036731 0 0.073256314637478614 -0.2391849403004209 0 0.080603854200690633 -0.23606131408139319 0 0.069082355483989666 -0.22689437950329691 0 0.080603854200690633 -0.23606131408139319 0 0.079660025913937976 -0.22405239414808031 0 0.069082355483989666 -0.22689437950329691 0 0.060928175561073619 -0.21634046253211239 0 0.069082355483989666 -0.22689437950329691 0 0.072784916594781257 -0.21549814618036731 0 0.060928175561073619 -0.21634046253211239 0 0.072784916594781257 -0.21549814618036731 0 0.066951470256731205 -0.2019363429165236 0 0.072784916594781257 -0.21549814618036731 0 0.066951470256731205 -0.2019363429165236 0 0.085836263547619723 -0.20937556131166971 0 0.066951470256731205 -0.2019363429165236 0 0.085836263547619723 -0.20937556131166971 0 0.071790540545385917 -0.1842416792208996 0 0.051329246993349377 -0.19510840078394159 0 0.066951470256731205 -0.2019363429165236 0 0.071790540545385917 -0.1842416792208996 0 0.085836263547619723 -0.20937556131166971 0 0.071790540545385917 -0.1842416792208996 0 0.085836263547619723 -0.20937556131166971 0 0.097090030463982818 -0.18190892026536529 0 0.071790540545385917 -0.1842416792208996 0 0.079660025913937976 -0.22405239414808031 0 0.072784916594781257 -0.21549814618036731 0 0.085836263547619723 -0.20937556131166971 0 0.085836263547619723 -0.20937556131166971 0 0.1061670214732801 -0.20614151060787911 0 0.1075468438222812 -0.2238709132343997 0 0.1061670214732801 -0.20614151060787911 0 0.11593830145578291 -0.19131865827098021 0 0.097090030463982818 -0.18190892026536529 0 0.085836263547619723 -0.20937556131166971 0 0.1061670214732801 -0.20614151060787911 0 0.097090030463982818 -0.18190892026536529 0 0.11593830145578291 -0.19131865827098021 0 0.1228819988704231 -0.20930442680148101 0 0.13221426774195871 -0.19883074944987611 0 0.1061670214732801 -0.20614151060787911 0 0.11593830145578291 -0.19131865827098021 0 0.1228819988704231 -0.20930442680148101 0 0.1061670214732801 -0.20614151060787911 0 0.1161741619318105 -0.21706460917032849 0 0.1075468438222812 -0.2238709132343997 0 0.1228819988704231 -0.20930442680148101 0 0.1161741619318105 -0.21706460917032849 0 0.1254555813950812 -0.2258023187245127 0 0.1061670214732801 -0.20614151060787911 0 0.1228819988704231 -0.20930442680148101 0 0.1161741619318105 -0.21706460917032849 0 0.12404506998703969 -0.24505246456562069 0 0.1075468438222812 -0.2238709132343997 0 0.1254555813950812 -0.2258023187245127 0 0.1161741619318105 -0.21706460917032849 0 0.1075468438222812 -0.2238709132343997 0 0.1254555813950812 -0.2258023187245127 0 0.1139277095520875 -0.25964332549321012 0 0.12404506998703969 -0.24505246456562069 0 0.099881986549853599 -0.2345094434024399 0 0.12404506998703969 -0.24505246456562069 0 0.1075468438222812 -0.2238709132343997 0 0.12404506998703969 -0.24505246456562069 0 0.099881986549853599 -0.2345094434024399 0 0.1075468438222812 -0.2238709132343997 0 0.097966874415280319 -0.25260250093329351 0 0.090556491947906562 -0.24252181098264369 0 0.099881986549853599 -0.2345094434024399 0 0.097966874415280319 -0.25260250093329351 0 0.1139277095520875 -0.25964332549321012 0 0.099881986549853599 -0.2345094434024399 0 0.1139277095520875 -0.25964332549321012 0 0.099881986549853599 -0.2345094434024399 0 0.085836263547619723 -0.20937556131166971 0 0.099881986549853599 -0.2345094434024399 0 0.1075468438222812 -0.2238709132343997 0 0.1014901966529277 -0.15028357815952101 0 0.1003775616908982 -0.12592356811080679 0 0.1175808507301965 -0.13263320602775189 0 0.1014901966529277 -0.15028357815952101 0 0.1175808507301965 -0.13263320602775189 0 0.13064951561346189 -0.15069519191636291 0 0.1014901966529277 -0.15028357815952101 0 0.1179405393507528 -0.17103029228303249 0 0.097090030463982818 -0.18190892026536529 0 0.1014901966529277 -0.15028357815952101 0 0.1179405393507528 -0.17103029228303249 0 0.13064951561346189 -0.15069519191636291 0 0.11593830145578291 -0.19131865827098021 0 0.1179405393507528 -0.17103029228303249 0 0.13006849821161451 -0.184186079609368 0 0.11593830145578291 -0.19131865827098021 0 0.1179405393507528 -0.17103029228303249 0 0.097090030463982818 -0.18190892026536529 0 0.1014901966529277 -0.15028357815952101 0 0.097090030463982818 -0.18190892026536529 0 0.080467350222130543 -0.16097116200357539 0 0.097090030463982818 -0.18190892026536529 0 0.080467350222130543 -0.16097116200357539 0 0.071790540545385917 -0.1842416792208996 0 0.071790540545385917 -0.1842416792208996 0 0.05774481754315211 -0.15910779713012951 0 0.080467350222130543 -0.16097116200357539 0 0.071790540545385917 -0.1842416792208996 0 0.05774481754315211 -0.15910779713012951 0 0.080467350222130543 -0.16097116200357539 0 0.074542709639104032 -0.13177665928730811 0 0.05774481754315211 -0.15910779713012951 0 0.1014901966529277 -0.15028357815952101 0 0.080467350222130543 -0.16097116200357539 0 0.074542709639104032 -0.13177665928730811 0 0.1014901966529277 -0.15028357815952101 0 0.1003775616908982 -0.12592356811080679 0 0.074542709639104032 -0.13177665928730811 0 0.074542709639104032 -0.13177665928730811 0 0.043699094540918297 -0.1339739150393594 0 0.051174295746976427 -0.11228035818237719 0 0.043699094540918297 -0.1339739150393594 0 0.05774481754315211 -0.15910779713012951 0 0.074542709639104032 -0.13177665928730811 0 0.043699094540918297 -0.1339739150393594 0 0.05774481754315211 -0.15910779713012951 0 0.043699094540918297 -0.1339739150393594 0 0.05774481754315211 -0.15910779713012951 0 0.02805998776480844 -0.1567557196281027 0 0.051329246993349377 -0.19510840078394159 0 0.071790540545385917 -0.1842416792208996 0 0.045129537939797487 -0.17598029345320609 0 0.071790540545385917 -0.1842416792208996 0 0.05774481754315211 -0.15910779713012951 0 0.045129537939797487 -0.17598029345320609 0 0.045129537939797487 -0.17598029345320609 0 0.026044641534926059 -0.1751638815752479 0 0.02805998776480844 -0.1567557196281027 0 0.05774481754315211 -0.15910779713012951 0 0.045129537939797487 -0.17598029345320609 0 0.02805998776480844 -0.1567557196281027 0 0.045129537939797487 -0.17598029345320609 0 0.0378844927331769 -0.1869918248976421 0 0.026044641534926059 -0.1751638815752479 0 0.051329246993349377 -0.19510840078394159 0 0.045129537939797487 -0.17598029345320609 0 0.0378844927331769 -0.1869918248976421 0 0.0091483747768656282 -0.18869647514528251 0 0.026990038168104899 -0.1893512759156607 0 0.026044641534926059 -0.1751638815752479 0 0.026990038168104899 -0.1893512759156607 0 0.0378844927331769 -0.1869918248976421 0 0.026044641534926059 -0.1751638815752479 0 0.026044641534926059 -0.1751638815752479 0 0.02805998776480844 -0.1567557196281027 0 0.01102008449470541 -0.16968620776261059 0 -0.0029556637671569971 -0.15216148491650031 0 -0.0076202790813661636 -0.17200120550354309 0 0.01102008449470541 -0.16968620776261059 0 -0.0029556637671569971 -0.15216148491650031 0 0.02805998776480844 -0.1567557196281027 0 0.01102008449470541 -0.16968620776261059 0 0.0091483747768656282 -0.18869647514528251 0 0.026044641534926059 -0.1751638815752479 0 0.01102008449470541 -0.16968620776261059 0 -0.0076202790813661636 -0.17200120550354309 0 0.0091483747768656282 -0.18869647514528251 0 0.01102008449470541 -0.16968620776261059 0 0.043699094540918297 -0.1339739150393594 0 0.01480640462816874 -0.1328272420280466 0 0.026900934240823089 -0.1144059742110182 0 0.043699094540918297 -0.1339739150393594 0 0.02805998776480844 -0.1567557196281027 0 0.01480640462816874 -0.1328272420280466 0 -0.0029556637671569971 -0.15216148491650031 0 0.02805998776480844 -0.1567557196281027 0 0.01480640462816874 -0.1328272420280466 0 0.01480640462816874 -0.1328272420280466 0 0.0024860517225809269 -0.1096202054044471 0 0.026900934240823089 -0.1144059742110182 0 -0.01277641336921705 -0.12863356313899679 0 0.01480640462816874 -0.1328272420280466 0 0.0024860517225809269 -0.1096202054044471 0 0.016635263814402439 -0.099915516178140609 0 0.016474831735187219 -0.084817800015645137 0 0.032521459818426302 -0.097155753148390839 0 0.026900934240823089 -0.1144059742110182 0 0.016635263814402439 -0.099915516178140609 0 0.032521459818426302 -0.097155753148390839 0 0.0024860517225809269 -0.1096202054044471 0 0.026900934240823089 -0.1144059742110182 0 0.016635263814402439 -0.099915516178140609 0 0.0024860517225809269 -0.1096202054044471 0 0.016635263814402439 -0.099915516178140609 0 0.0047930415549946401 -0.09357784811120172 0 -0.0030389219259473739 -0.07989054809467884 0 0.0047930415549946401 -0.09357784811120172 0 0.016474831735187219 -0.084817800015645137 0 -0.0030389219259473739 -0.07989054809467884 0 0.0097041204959495159 -0.071309813682619419 0 0.016474831735187219 -0.084817800015645137 0 0.016635263814402439 -0.099915516178140609 0 0.0047930415549946401 -0.09357784811120172 0 0.016474831735187219 -0.084817800015645137 0 -0.00063661575850596517 -0.068356521312683952 0 0.0097041204959495159 -0.071309813682619419 0 0.0095092863388125861 -0.056796343541336038 0 -0.00063661575850596517 -0.068356521312683952 0 -0.0030389219259473739 -0.07989054809467884 0 0.0097041204959495159 -0.071309813682619419 0 0.0097041204959495159 -0.071309813682619419 0 0.023577175112752959 -0.066730855477349971 0 0.0095092863388125861 -0.056796343541336038 0 0.023577175112752959 -0.066730855477349971 0 0.016474831735187219 -0.084817800015645137 0 0.039382674786437588 -0.077412026115260837 0 0.0097041204959495159 -0.071309813682619419 0 0.023577175112752959 -0.066730855477349971 0 0.016474831735187219 -0.084817800015645137 0 0.016474831735187219 -0.084817800015645137 0 0.039382674786437588 -0.077412026115260837 0 0.032521459818426302 -0.097155753148390839 0 0.039382674786437588 -0.077412026115260837 0 0.053908247242321891 -0.089844221374960953 0 0.032521459818426302 -0.097155753148390839 0 0.023577175112752959 -0.066730855477349971 0 0.039382674786437588 -0.077412026115260837 0 0.039105501978386033 -0.056681280331477013 0 0.039382674786437588 -0.077412026115260837 0 0.055623990327544233 -0.06739325589681916 0 0.039105501978386033 -0.056681280331477013 0 0.055623990327544233 -0.06739325589681916 0 0.053908247242321891 -0.089844221374960953 0 0.074540532637991541 -0.078899659577665565 0 0.039382674786437588 -0.077412026115260837 0 0.055623990327544233 -0.06739325589681916 0 0.053908247242321891 -0.089844221374960953 0 0.053908247242321891 -0.089844221374960953 0 0.051174295746976427 -0.11228035818237719 0 0.072707099173639239 -0.1040107900574971 0 0.043699094540918297 -0.1339739150393594 0 0.026900934240823089 -0.1144059742110182 0 0.051174295746976427 -0.11228035818237719 0 0.026900934240823089 -0.1144059742110182 0 0.051174295746976427 -0.11228035818237719 0 0.032521459818426302 -0.097155753148390839 0 0.053908247242321891 -0.089844221374960953 0 0.051174295746976427 -0.11228035818237719 0 0.032521459818426302 -0.097155753148390839 0 0.030622130174553071 0.0050023145525881626 0 0.015291240015624581 -0.0046578398081096942 0 0.03103459979532203 -0.016221337934808702 0 -0.0030060452987310032 -0.01851748451798883 0 -0.0026022678282156138 0.0030506715727892961 0 0.015291240015624581 -0.0046578398081096942 0 -0.0030060452987310032 -0.01851748451798883 0 0.017837413567920391 -0.026653532086644591 0 0.0043743383666140544 -0.034901800016082528 0 -0.0030060452987310032 -0.01851748451798883 0 0.015291240015624581 -0.0046578398081096942 0 0.017837413567920391 -0.026653532086644591 0 0.017837413567920391 -0.026653532086644591 0 0.03103459979532203 -0.016221337934808702 0 0.036902206966825807 -0.038483791384761719 0 0.015291240015624581 -0.0046578398081096942 0 0.017837413567920391 -0.026653532086644591 0 0.03103459979532203 -0.016221337934808702 0 0.017837413567920391 -0.026653532086644591 0 0.022428141561866882 -0.047138938858116063 0 0.036902206966825807 -0.038483791384761719 0 0.0043743383666140544 -0.034901800016082528 0 0.0095092863388125861 -0.056796343541336038 0 0.022428141561866882 -0.047138938858116063 0 0.017837413567920391 -0.026653532086644591 0 0.0043743383666140544 -0.034901800016082528 0 0.022428141561866882 -0.047138938858116063 0 -0.0049944084449103279 -0.056229233753622578 0 0.0043743383666140544 -0.034901800016082528 0 0.0095092863388125861 -0.056796343541336038 0 -0.0049944084449103279 -0.056229233753622578 0 -0.00063661575850596517 -0.068356521312683952 0 0.0095092863388125861 -0.056796343541336038 0 0.023577175112752959 -0.066730855477349971 0 0.0095092863388125861 -0.056796343541336038 0 0.022428141561866882 -0.047138938858116063 0 0.023577175112752959 -0.066730855477349971 0 0.022428141561866882 -0.047138938858116063 0 0.039105501978386033 -0.056681280331477013 0 0.022428141561866882 -0.047138938858116063 0 0.039105501978386033 -0.056681280331477013 0 0.036902206966825807 -0.038483791384761719 0 0.039105501978386033 -0.056681280331477013 0 0.055322058192556638 -0.048820236399003417 0 0.036902206966825807 -0.038483791384761719 0 0.055623990327544233 -0.06739325589681916 0 0.039105501978386033 -0.056681280331477013 0 0.055322058192556638 -0.048820236399003417 0 0.055623990327544233 -0.06739325589681916 0 0.055322058192556638 -0.048820236399003417 0 0.07288356645576255 -0.057039980222084653 0 0.055322058192556638 -0.048820236399003417 0 0.050925225701246288 -0.027200687904866971 0 0.069564713607809109 -0.038634333417982072 0 0.055322058192556638 -0.048820236399003417 0 0.036902206966825807 -0.038483791384761719 0 0.050925225701246288 -0.027200687904866971 0 0.03103459979532203 -0.016221337934808702 0 0.036902206966825807 -0.038483791384761719 0 0.050925225701246288 -0.027200687904866971 0 0.03103459979532203 -0.016221337934808702 0 0.050925225701246288 -0.027200687904866971 0 0.046965844133997639 -0.0047290539795157138 0 0.050925225701246288 -0.027200687904866971 0 0.046965844133997639 -0.0047290539795157138 0 0.065761931510966556 -0.016315374313130189 0 0.050925225701246288 -0.027200687904866971 0 0.065761931510966556 -0.016315374313130189 0 0.069564713607809109 -0.038634333417982072 0 0.063673067412081202 0.0079184099620196111 0 0.046965844133997639 -0.0047290539795157138 0 0.065761931510966556 -0.016315374313130189 0 0.030622130174553071 0.0050023145525881626 0 0.03103459979532203 -0.016221337934808702 0 0.046965844133997639 -0.0047290539795157138 0 0.063673067412081202 0.0079184099620196111 0 0.080100478180457513 -0.0059380854757541844 0 0.065761931510966556 -0.016315374313130189 0 0.080100478180457513 -0.0059380854757541844 0 0.065761931510966556 -0.016315374313130189 0 0.080767120685023744 -0.025467042335662441 0 0.065761931510966556 -0.016315374313130189 0 0.080767120685023744 -0.025467042335662441 0 0.069564713607809109 -0.038634333417982072 0 0.080767120685023744 -0.025467042335662441 0 0.08767889859145836 -0.042347690584255089 0 0.1007295815344271 -0.02409972788719069 0 0.080100478180457513 -0.0059380854757541844 0 0.080767120685023744 -0.025467042335662441 0 0.1007295815344271 -0.02409972788719069 0 0.080767120685023744 -0.025467042335662441 0 0.08767889859145836 -0.042347690584255089 0 0.069564713607809109 -0.038634333417982072 0 0.08767889859145836 -0.042347690584255089 0 0.069564713607809109 -0.038634333417982072 0 0.07288356645576255 -0.057039980222084653 0 0.055322058192556638 -0.048820236399003417 0 0.069564713607809109 -0.038634333417982072 0 0.07288356645576255 -0.057039980222084653 0 0.08767889859145836 -0.042347690584255089 0 0.07288356645576255 -0.057039980222084653 0 0.092995481386793657 -0.063783686384760438 0 0.08767889859145836 -0.042347690584255089 0 0.10978949568556461 -0.046414449585792251 0 0.092995481386793657 -0.063783686384760438 0 0.10978949568556461 -0.046414449585792251 0 0.092995481386793657 -0.063783686384760438 0 0.1127722589210053 -0.064972571823583791 0 0.10978949568556461 -0.046414449585792251 0 0.1127722589210053 -0.064972571823583791 0 0.13271866983633071 -0.052678700592115622 0 0.1220260804839243 -0.032597955214110221 0 0.10978949568556461 -0.046414449585792251 0 0.1007295815344271 -0.02409972788719069 0 0.1220260804839243 -0.032597955214110221 0 0.10978949568556461 -0.046414449585792251 0 0.13271866983633071 -0.052678700592115622 0 0.08767889859145836 -0.042347690584255089 0 0.10978949568556461 -0.046414449585792251 0 0.1007295815344271 -0.02409972788719069 0 0.1220260804839243 -0.032597955214110221 0 0.1007295815344271 -0.02409972788719069 0 0.12573576617947341 -0.0096380922407623519 0 0.1007295815344271 -0.02409972788719069 0 0.103874659622279 -0.0039790719896398083 0 0.12573576617947341 -0.0096380922407623519 0 0.1138533526769549 0.0096960783265231873 0 0.103874659622279 -0.0039790719896398083 0 0.12573576617947341 -0.0096380922407623519 0 0.080100478180457513 -0.0059380854757541844 0 0.1007295815344271 -0.02409972788719069 0 0.103874659622279 -0.0039790719896398083 0 0.091919590412091884 -0.10887676701023 0 0.072707099173639239 -0.1040107900574971 0 0.097234956547186155 -0.087624330320160732 0 0.1003775616908982 -0.12592356811080679 0 0.074542709639104032 -0.13177665928730811 0 0.091919590412091884 -0.10887676701023 0 0.074542709639104032 -0.13177665928730811 0 0.091919590412091884 -0.10887676701023 0 0.072707099173639239 -0.1040107900574971 0 0.074542709639104032 -0.13177665928730811 0 0.051174295746976427 -0.11228035818237719 0 0.072707099173639239 -0.1040107900574971 0 0.053908247242321891 -0.089844221374960953 0 0.072707099173639239 -0.1040107900574971 0 0.074540532637991541 -0.078899659577665565 0 0.055623990327544233 -0.06739325589681916 0 0.07288356645576255 -0.057039980222084653 0 0.074540532637991541 -0.078899659577665565 0 0.07288356645576255 -0.057039980222084653 0 0.074540532637991541 -0.078899659577665565 0 0.092995481386793657 -0.063783686384760438 0 0.074540532637991541 -0.078899659577665565 0 0.092995481386793657 -0.063783686384760438 0 0.097234956547186155 -0.087624330320160732 0 0.072707099173639239 -0.1040107900574971 0 0.074540532637991541 -0.078899659577665565 0 0.097234956547186155 -0.087624330320160732 0 0.092995481386793657 -0.063783686384760438 0 0.097234956547186155 -0.087624330320160732 0 0.1127722589210053 -0.064972571823583791 0 0.1127722589210053 -0.064972571823583791 0 0.11918278882406851 -0.083230249393010464 0 0.13550613258070809 -0.072046911043261039 0 0.097234956547186155 -0.087624330320160732 0 0.1127722589210053 -0.064972571823583791 0 0.11918278882406851 -0.083230249393010464 0 0.097234956547186155 -0.087624330320160732 0 0.11918278882406851 -0.083230249393010464 0 0.1164770258301752 -0.1068803937574309 0 0.11918278882406851 -0.083230249393010464 0 0.1164770258301752 -0.1068803937574309 0 0.13456318967962791 -0.092191222532396366 0 0.091919590412091884 -0.10887676701023 0 0.097234956547186155 -0.087624330320160732 0 0.1164770258301752 -0.1068803937574309 0 0.1003775616908982 -0.12592356811080679 0 0.091919590412091884 -0.10887676701023 0 0.1164770258301752 -0.1068803937574309 0 0.1003775616908982 -0.12592356811080679 0 0.1175808507301965 -0.13263320602775189 0 0.1164770258301752 -0.1068803937574309 0 0.1175808507301965 -0.13263320602775189 0 0.1164770258301752 -0.1068803937574309 0 0.13532025501764719 -0.12537904207353329 0 0.1164770258301752 -0.1068803937574309 0 0.14337940957913051 -0.1079449154193292 0 0.13532025501764719 -0.12537904207353329 0 0.1164770258301752 -0.1068803937574309 0 0.13532025501764719 -0.12537904207353329 0 0.14337940957913051 -0.1079449154193292 0 0.15841087046382621 -0.120704748060946 0 0.13532025501764719 -0.12537904207353329 0 0.14337940957913051 -0.1079449154193292 0 0.13456318967962791 -0.092191222532396366 0 0.1562852588733884 -0.091532860018308473 0 0.14337940957913051 -0.1079449154193292 0 0.1562852588733884 -0.091532860018308473 0 0.15841087046382621 -0.120704748060946 0 0.1164770258301752 -0.1068803937574309 0 0.14337940957913051 -0.1079449154193292 0 0.13456318967962791 -0.092191222532396366 0 0.11918278882406851 -0.083230249393010464 0 0.13456318967962791 -0.092191222532396366 0 0.13550613258070809 -0.072046911043261039 0 0.1127722589210053 -0.064972571823583791 0 0.13550613258070809 -0.072046911043261039 0 0.13271866983633071 -0.052678700592115622 0 0.13550613258070809 -0.072046911043261039 0 0.15566874375469439 -0.066716518108388176 0 0.13271866983633071 -0.052678700592115622 0 0.13550613258070809 -0.072046911043261039 0 0.15566874375469439 -0.066716518108388176 0 0.1562852588733884 -0.091532860018308473 0 0.13456318967962791 -0.092191222532396366 0 0.13550613258070809 -0.072046911043261039 0 0.1562852588733884 -0.091532860018308473 0 0.15566874375469439 -0.066716518108388176 0 0.1562852588733884 -0.091532860018308473 0 0.17399326604110901 -0.076599601872802056 0 0.1562852588733884 -0.091532860018308473 0 0.17399326604110901 -0.076599601872802056 0 0.1739466421565907 -0.090658247001107306 0 0.15566874375469439 -0.066716518108388176 0 0.17747945733618981 -0.062666353187693868 0 0.17399326604110901 -0.076599601872802056 0 0.17747945733618981 -0.062666353187693868 0 0.1911278037747976 -0.08365439273250988 0 0.17747945733618981 -0.062666353187693868 0 0.17399326604110901 -0.076599601872802056 0 0.1911278037747976 -0.08365439273250988 0 0.17399326604110901 -0.076599601872802056 0 0.1813999018233996 -0.086818415901504867 0 0.1911278037747976 -0.08365439273250988 0 0.17399326604110901 -0.076599601872802056 0 0.1739466421565907 -0.090658247001107306 0 0.1813999018233996 -0.086818415901504867 0 0.1739466421565907 -0.090658247001107306 0 0.1813999018233996 -0.086818415901504867 0 0.1860596385803216 -0.097678120087103804 0 0.1813999018233996 -0.086818415901504867 0 0.1860596385803216 -0.097678120087103804 0 0.1911278037747976 -0.08365439273250988 0 0.1860596385803216 -0.097678120087103804 0 0.1728805768534698 -0.1054956091382193 0 0.18862831918742071 -0.1154350164546482 0 0.1739466421565907 -0.090658247001107306 0 0.1860596385803216 -0.097678120087103804 0 0.1728805768534698 -0.1054956091382193 0 0.1728805768534698 -0.1054956091382193 0 0.17441678131188021 -0.1218365924865064 0 0.18862831918742071 -0.1154350164546482 0 0.17441678131188021 -0.1218365924865064 0 0.18862831918742071 -0.1154350164546482 0 0.1840196023456695 -0.13080308175064589 0 0.1728805768534698 -0.1054956091382193 0 0.17441678131188021 -0.1218365924865064 0 0.15841087046382621 -0.120704748060946 0 0.1562852588733884 -0.091532860018308473 0 0.1728805768534698 -0.1054956091382193 0 0.15841087046382621 -0.120704748060946 0 0.1562852588733884 -0.091532860018308473 0 0.1739466421565907 -0.090658247001107306 0 0.1728805768534698 -0.1054956091382193 0 0.14564299490285049 0.0045145703206222083 0 0.1517827832825189 -0.01304443636414223 0 0.12573576617947341 -0.0096380922407623519 0 0.1517827832825189 -0.01304443636414223 0 0.12573576617947341 -0.0096380922407623519 0 0.1411568891838253 -0.030158805764690211 0 0.1220260804839243 -0.032597955214110221 0 0.12573576617947341 -0.0096380922407623519 0 0.1411568891838253 -0.030158805764690211 0 0.1517827832825189 -0.01304443636414223 0 0.1411568891838253 -0.030158805764690211 0 0.165222210551702 -0.027646029460198281 0 0.1411568891838253 -0.030158805764690211 0 0.13271866983633071 -0.052678700592115622 0 0.15738865355016099 -0.047118797756086878 0 0.1411568891838253 -0.030158805764690211 0 0.15738865355016099 -0.047118797756086878 0 0.165222210551702 -0.027646029460198281 0 0.1220260804839243 -0.032597955214110221 0 0.1411568891838253 -0.030158805764690211 0 0.13271866983633071 -0.052678700592115622 0 0.15566874375469439 -0.066716518108388176 0 0.13271866983633071 -0.052678700592115622 0 0.15738865355016099 -0.047118797756086878 0 0.17747945733618981 -0.062666353187693868 0 0.15738865355016099 -0.047118797756086878 0 0.17941701644812391 -0.04322622038273647 0 0.15566874375469439 -0.066716518108388176 0 0.17747945733618981 -0.062666353187693868 0 0.15738865355016099 -0.047118797756086878 0 0.17747945733618981 -0.062666353187693868 0 0.17941701644812391 -0.04322622038273647 0 0.1952516275787391 -0.059606090669218487 0 0.17941701644812391 -0.04322622038273647 0 0.165222210551702 -0.027646029460198281 0 0.18357003709488481 -0.025819036594948649 0 0.17941701644812391 -0.04322622038273647 0 0.18357003709488481 -0.025819036594948649 0 0.1971660357542549 -0.039714844072456519 0 0.15738865355016099 -0.047118797756086878 0 0.17941701644812391 -0.04322622038273647 0 0.165222210551702 -0.027646029460198281 0 0.1517827832825189 -0.01304443636414223 0 0.165222210551702 -0.027646029460198281 0 0.1780178837506983 -0.0065088798985852916 0 0.165222210551702 -0.027646029460198281 0 0.18357003709488481 -0.025819036594948649 0 0.1780178837506983 -0.0065088798985852916 0 0.18357003709488481 -0.025819036594948649 0 0.1780178837506983 -0.0065088798985852916 0 0.19971785909758299 -0.01393126811421515 0 0.16544427427279901 0.01096391165516661 0 0.1517827832825189 -0.01304443636414223 0 0.1780178837506983 -0.0065088798985852916 0 0.20931617210649589 0.002849294376640494 0 0.19971785909758299 -0.01393126811421515 0 0.2200059735232037 -0.01039383911369585 0 0.20931617210649589 0.002849294376640494 0 0.19519467079488489 0.0068324314852854263 0 0.19971785909758299 -0.01393126811421515 0 0.19519467079488489 0.0068324314852854263 0 0.1780178837506983 -0.0065088798985852916 0 0.19971785909758299 -0.01393126811421515 0 0.18357003709488481 -0.025819036594948649 0 0.19971785909758299 -0.01393126811421515 0 0.1971660357542549 -0.039714844072456519 0 0.19971785909758299 -0.01393126811421515 0 0.2165916143405692 -0.035985753624416618 0 0.2200059735232037 -0.01039383911369585 0 0.19971785909758299 -0.01393126811421515 0 0.2165916143405692 -0.035985753624416618 0 0.1971660357542549 -0.039714844072456519 0 0.2165916143405692 -0.035985753624416618 0 0.2200059735232037 -0.01039383911369585 0 0.2165916143405692 -0.035985753624416618 0 0.1971660357542549 -0.039714844072456519 0 0.20527786303725459 -0.050923225176725109 0 0.1971660357542549 -0.039714844072456519 0 0.1952516275787391 -0.059606090669218487 0 0.20527786303725459 -0.050923225176725109 0 0.1952516275787391 -0.059606090669218487 0 0.20527786303725459 -0.050923225176725109 0 0.20456814703568141 -0.066596196946981281 0 0.17941701644812391 -0.04322622038273647 0 0.1971660357542549 -0.039714844072456519 0 0.1952516275787391 -0.059606090669218487 0 0.2165916143405692 -0.035985753624416618 0 0.20527786303725459 -0.050923225176725109 0 0.21317725515793479 -0.06157766813513732 0 0.2165916143405692 -0.035985753624416618 0 0.21317725515793479 -0.06157766813513732 0 0.20527786303725459 -0.050923225176725109 0 0.21317725515793479 -0.06157766813513732 0 0.20456814703568141 -0.066596196946981281 0 0.2165916143405692 -0.035985753624416618 0 0.21317725515793479 -0.06157766813513732 0 0.23173521029398361 -0.051116444182193042 0 0.21317725515793479 -0.06157766813513732 0 0.23173521029398361 -0.051116444182193042 0 0.22641147620554039 -0.062841837128769243 0 0.23173521029398361 -0.051116444182193042 0 0.22641147620554039 -0.062841837128769243 0 0.24332479305183979 -0.070688205162837303 0 0.2541790701865686 -0.042085370804528732 0 0.23173521029398361 -0.051116444182193042 0 0.24332479305183979 -0.070688205162837303 0 0.2541790701865686 -0.042085370804528732 0 0.23173521029398361 -0.051116444182193042 0 0.2342356518120135 -0.033395225638754182 0 0.2165916143405692 -0.035985753624416618 0 0.23173521029398361 -0.051116444182193042 0 0.2342356518120135 -0.033395225638754182 0 0.2342356518120135 -0.033395225638754182 0 0.2411500502148263 -0.01695703874769432 0 0.2200059735232037 -0.01039383911369585 0 0.2165916143405692 -0.035985753624416618 0 0.2342356518120135 -0.033395225638754182 0 0.2200059735232037 -0.01039383911369585 0 0.2541790701865686 -0.042085370804528732 0 0.2411500502148263 -0.01695703874769432 0 0.2541790701865686 -0.042085370804528732 0 0.2342356518120135 -0.033395225638754182 0 0.2411500502148263 -0.01695703874769432 0 0.228121030243084 0.0081712933091401263 0 0.2511759112382515 0.0019848408324899792 0 0.2411500502148263 -0.01695703874769432 0 0.228121030243084 0.0081712933091401263 0 0.2411500502148263 -0.01695703874769432 0 0.228121030243084 0.0081712933091401263 0 0.2411500502148263 -0.01695703874769432 0 0.2200059735232037 -0.01039383911369585 0 0.20477615021340539 -0.10464243227732591 0 0.2184244966520133 -0.1256304718221419 0 0.20477615021340539 -0.10464243227732591 0 0.2184244966520133 -0.1256304718221419 0 0.19848711425822699 -0.13211739956384499 0 0.20477615021340539 -0.10464243227732591 0 0.18862831918742071 -0.1154350164546482 0 0.19848711425822699 -0.13211739956384499 0 0.20477615021340539 -0.10464243227732591 0 0.1911278037747976 -0.08365439273250988 0 0.1860596385803216 -0.097678120087103804 0 0.20477615021340539 -0.10464243227732591 0 0.1911278037747976 -0.08365439273250988 0 0.1860596385803216 -0.097678120087103804 0 0.20477615021340539 -0.10464243227732591 0 0.18862831918742071 -0.1154350164546482 0 0.20477615021340539 -0.10464243227732591 0 0.1911278037747976 -0.08365439273250988 0 0.2060345129959818 -0.086946194284808723 0 0.1911278037747976 -0.08365439273250988 0 0.1955581988388975 -0.077637209765785559 0 0.2060345129959818 -0.086946194284808723 0 0.1952516275787391 -0.059606090669218487 0 0.1955581988388975 -0.077637209765785559 0 0.20456814703568141 -0.066596196946981281 0 0.17747945733618981 -0.062666353187693868 0 0.1952516275787391 -0.059606090669218487 0 0.1955581988388975 -0.077637209765785559 0 0.17747945733618981 -0.062666353187693868 0 0.1911278037747976 -0.08365439273250988 0 0.1955581988388975 -0.077637209765785559 0 0.1955581988388975 -0.077637209765785559 0 0.2194414959453686 -0.074162707464311445 0 0.1955581988388975 -0.077637209765785559 0 0.20456814703568141 -0.066596196946981281 0 0.2194414959453686 -0.074162707464311445 0 0.21317725515793479 -0.06157766813513732 0 0.20456814703568141 -0.066596196946981281 0 0.2194414959453686 -0.074162707464311445 0 0.1955581988388975 -0.077637209765785559 0 0.2060345129959818 -0.086946194284808723 0 0.2194414959453686 -0.074162707464311445 0 0.20477615021340539 -0.10464243227732591 0 0.2060345129959818 -0.086946194284808723 0 0.21917860560201699 -0.089206210551796325 0 0.2060345129959818 -0.086946194284808723 0 0.21917860560201699 -0.089206210551796325 0 0.2194414959453686 -0.074162707464311445 0 0.21917860560201699 -0.089206210551796325 0 0.2194414959453686 -0.074162707464311445 0 0.23659949579201389 -0.085533711866903672 0 0.21917860560201699 -0.089206210551796325 0 0.23659949579201389 -0.085533711866903672 0 0.23303841180407539 -0.099472859434072691 0 0.2194414959453686 -0.074162707464311445 0 0.24332479305183979 -0.070688205162837303 0 0.23659949579201389 -0.085533711866903672 0 0.22641147620554039 -0.062841837128769243 0 0.2194414959453686 -0.074162707464311445 0 0.24332479305183979 -0.070688205162837303 0 0.2194414959453686 -0.074162707464311445 0 0.24332479305183979 -0.070688205162837303 0 0.21317725515793479 -0.06157766813513732 0 0.22641147620554039 -0.062841837128769243 0 0.2194414959453686 -0.074162707464311445 0 0.25578576146995552 -0.080494704729337119 0 0.23659949579201389 -0.085533711866903672 0 0.24852424003059809 -0.097708068843971707 0 0.25578576146995552 -0.080494704729337119 0 0.24332479305183979 -0.070688205162837303 0 0.23659949579201389 -0.085533711866903672 0 0.25939256348477069 -0.1109157001125084 0 0.24852424003059809 -0.097708068843971707 0 0.2332767839509273 -0.1167671424357245 0 0.24852424003059809 -0.097708068843971707 0 0.23303841180407539 -0.099472859434072691 0 0.2332767839509273 -0.1167671424357245 0 0.23659949579201389 -0.085533711866903672 0 0.24852424003059809 -0.097708068843971707 0 0.23303841180407539 -0.099472859434072691 0 0.20477615021340539 -0.10464243227732591 0 0.23303841180407539 -0.099472859434072691 0 0.2332767839509273 -0.1167671424357245 0 0.20477615021340539 -0.10464243227732591 0 0.21917860560201699 -0.089206210551796325 0 0.23303841180407539 -0.099472859434072691 0 0.2332767839509273 -0.1167671424357245 0 0.24573270328769531 -0.12876710573973299 0 0.2184244966520133 -0.1256304718221419 0 0.20477615021340539 -0.10464243227732591 0 0.2332767839509273 -0.1167671424357245 0 0.2184244966520133 -0.1256304718221419 0 0.25939256348477069 -0.1109157001125084 0 0.2332767839509273 -0.1167671424357245 0 0.24573270328769531 -0.12876710573973299 0 0.24573270328769531 -0.12876710573973299 0 0.23207284309062079 -0.14661851136695819 0 0.24573270328769531 -0.12876710573973299 0 0.2495228965062522 -0.13942361125254341 0 0.23207284309062079 -0.14661851136695819 0 0.24897826649446519 -0.15038097019252919 0 0.23346884311187741 -0.1487652405537121 0 0.23207284309062079 -0.14661851136695819 0 0.24897826649446519 -0.15038097019252919 0 0.23346884311187741 -0.1487652405537121 0 0.23456912693811641 -0.1679339970208073 0 0.2495228965062522 -0.13942361125254341 0 0.24897826649446519 -0.15038097019252919 0 0.23207284309062079 -0.14661851136695819 0 0.23346884311187741 -0.1487652405537121 0 0.23207284309062079 -0.14661851136695819 0 0.21818990505198951 -0.16476144655441119 0 0.23207284309062079 -0.14661851136695819 0 0.21345399202032131 -0.14528495806954869 0 0.21818990505198951 -0.16476144655441119 0 0.23207284309062079 -0.14661851136695819 0 0.21818990505198951 -0.16476144655441119 0 0.23346884311187741 -0.1487652405537121 0 0.23207284309062079 -0.14661851136695819 0 0.23207284309062079 -0.14661851136695819 0 0.2184244966520133 -0.1256304718221419 0 0.21345399202032131 -0.14528495806954869 0 0.23207284309062079 -0.14661851136695819 0 0.2184244966520133 -0.1256304718221419 0 0.24573270328769531 -0.12876710573973299 0 0.23207284309062079 -0.14661851136695819 0 0.2184244966520133 -0.1256304718221419 0 0.2184244966520133 -0.1256304718221419 0 0.21345399202032131 -0.14528495806954869 0 0.19848711425822699 -0.13211739956384499 0 0.21345399202032131 -0.14528495806954869 0 0.19589724690894811 -0.1579058536199151 0 0.21818990505198951 -0.16476144655441119 0 0.21345399202032131 -0.14528495806954869 0 0.19848711425822699 -0.13211739956384499 0 0.19589724690894811 -0.1579058536199151 0 0.19848711425822699 -0.13211739956384499 0 0.19589724690894811 -0.1579058536199151 0 0.1842099924798114 -0.14511998295268941 0 0.18862831918742071 -0.1154350164546482 0 0.19848711425822699 -0.13211739956384499 0 0.1840196023456695 -0.13080308175064589 0 0.19848711425822699 -0.13211739956384499 0 0.1840196023456695 -0.13080308175064589 0 0.1842099924798114 -0.14511998295268941 0 0.19184994258006341 -0.1808749870218401 0 0.20127753285686681 -0.1710473205747936 0 0.20430696701335921 -0.18290438174186491 0 0.19184994258006341 -0.1808749870218401 0 0.20430696701335921 -0.18290438174186491 0 0.1998500983638683 -0.18872884619036559 0 0.19184994258006341 -0.1808749870218401 0 0.1998500983638683 -0.18872884619036559 0 0.197122020430295 -0.19229403829864269 0 0.19184994258006341 -0.1808749870218401 0 0.20430696701335921 -0.18290438174186491 0 0.19184994258006341 -0.1808749870218401 0 0.1998500983638683 -0.18872884619036559 0 0.20430696701335921 -0.18290438174186491 0 0.1998500983638683 -0.18872884619036559 0 0.18765585266906129 -0.1848986702849526 0 0.19184994258006341 -0.1808749870218401 0 0.197122020430295 -0.19229403829864269 0 0.19184994258006341 -0.1808749870218401 0 0.19589724690894811 -0.1579058536199151 0 0.20127753285686681 -0.1710473205747936 0 0.19589724690894811 -0.1579058536199151 0 0.20127753285686681 -0.1710473205747936 0 0.21818990505198951 -0.16476144655441119 0 0.20127753285686681 -0.1710473205747936 0 0.21818990505198951 -0.16476144655441119 0 0.20430696701335921 -0.18290438174186491 0 0.21818990505198951 -0.16476144655441119 0 0.20430696701335921 -0.18290438174186491 0 0.20430696701335921 -0.18290438174186491 0 0.22015998738176751 -0.1854870238490855 0 0.21818990505198951 -0.16476144655441119 0 0.20430696701335921 -0.18290438174186491 0 0.22015998738176751 -0.1854870238490855 0 0.20430696701335921 -0.18290438174186491 0 0.22015998738176751 -0.1854870238490855 0 0.20834094217795851 -0.1897114898192874 0 0.20430696701335921 -0.18290438174186491 0 0.20834094217795851 -0.1897114898192874 0 0.1998500983638683 -0.18872884619036559 0 0.22015998738176751 -0.1854870238490855 0 0.23456912693811641 -0.1679339970208073 0 0.22015998738176751 -0.1854870238490855 0 0.2257320625042139 -0.18639477994233411 0 0.23456912693811641 -0.1679339970208073 0 0.2257320625042139 -0.18639477994233411 0 0.23456912693811641 -0.1679339970208073 0 0.2356051372741845 -0.1812678751813713 0 0.21818990505198951 -0.16476144655441119 0 0.22015998738176751 -0.1854870238490855 0 0.23456912693811641 -0.1679339970208073 0 0.22015998738176751 -0.1854870238490855 0 0.2257320625042139 -0.18639477994233411 0 0.2257320625042139 -0.18639477994233411 0 0.2356051372741845 -0.1812678751813713 0 0.23686468566178109 -0.1892982088541188 0 0.23346884311187741 -0.1487652405537121 0 0.21818990505198951 -0.16476144655441119 0 0.23456912693811641 -0.1679339970208073 0 0.24897826649446519 -0.15038097019252919 0 0.23456912693811641 -0.1679339970208073 0 0.25185695379684492 -0.17399105390333691 0 0.24897826649446519 -0.15038097019252919 0 0.2421299916800177 -0.17405372281279141 0 0.24897826649446519 -0.15038097019252919 0 0.23456912693811641 -0.1679339970208073 0 0.2421299916800177 -0.17405372281279141 0 0.25247525272198368 -0.1842455691830677 0 0.2356051372741845 -0.1812678751813713 0 0.23686468566178109 -0.1892982088541188 0 0.25247525272198368 -0.1842455691830677 0 0.2356051372741845 -0.1812678751813713 0 0.2421299916800177 -0.17405372281279141 0 0.25247525272198368 -0.1842455691830677 0 0.2356051372741845 -0.1812678751813713 0 0.23456912693811641 -0.1679339970208073 0 0.2356051372741845 -0.1812678751813713 0 0.2421299916800177 -0.17405372281279141 0 0.25247525272198368 -0.1842455691830677 0 0.25185695379684492 -0.17399105390333691 0 0.2421299916800177 -0.17405372281279141 0 0.2539750098801471 -0.20911910861358071 0 0.25247525272198368 -0.1842455691830677 0 0.2417673268895402 -0.1962182607550568 0 0.2539750098801471 -0.20911910861358071 0 0.2417673268895402 -0.1962182607550568 0 0.23088573074293889 -0.2022860687195627 0 0.25247525272198368 -0.1842455691830677 0 0.23686468566178109 -0.1892982088541188 0 0.2417673268895402 -0.1962182607550568 0 0.23464556222478811 -0.19484691182339819 0 0.23686468566178109 -0.1892982088541188 0 0.2417673268895402 -0.1962182607550568 0 0.23464556222478811 -0.19484691182339819 0 0.2417673268895402 -0.1962182607550568 0 0.23088573074293889 -0.2022860687195627 0 0.2539750098801471 -0.20911910861358071 0 0.23088573074293889 -0.2022860687195627 0 0.2539750098801471 -0.20911910861358071 0 0.23088573074293889 -0.2022860687195627 0 0.23480395552800329 -0.22530835457480669 0 0.23088573074293889 -0.2022860687195627 0 0.23480395552800329 -0.22530835457480669 0 0.21734579834029871 -0.21960736120783181 0 0.23088573074293889 -0.2022860687195627 0 0.21734579834029871 -0.21960736120783181 0 0.21116148901159221 -0.19644887779520701 0 0.23088573074293889 -0.2022860687195627 0 0.23480395552800329 -0.22530835457480669 0 0.23088573074293889 -0.2022860687195627 0 0.21116148901159221 -0.19644887779520701 0 0.22242860580454751 -0.19250281081230061 0 0.23088573074293889 -0.2022860687195627 0 0.21116148901159221 -0.19644887779520701 0 0.22015998738176751 -0.1854870238490855 0 0.2257320625042139 -0.18639477994233411 0 0.22242860580454751 -0.19250281081230061 0 0.2257320625042139 -0.18639477994233411 0 0.22242860580454751 -0.19250281081230061 0 0.22906450560489261 -0.1915851089648534 0 0.2257320625042139 -0.18639477994233411 0 0.23686468566178109 -0.1892982088541188 0 0.22906450560489261 -0.1915851089648534 0 0.23464556222478811 -0.19484691182339819 0 0.23686468566178109 -0.1892982088541188 0 0.22906450560489261 -0.1915851089648534 0 0.22906450560489261 -0.1915851089648534 0 0.23088573074293889 -0.2022860687195627 0 0.23464556222478811 -0.19484691182339819 0 0.22906450560489261 -0.1915851089648534 0 0.23088573074293889 -0.2022860687195627 0 0.22242860580454751 -0.19250281081230061 0 0.22906450560489261 -0.1915851089648534 0 0.23088573074293889 -0.2022860687195627 0 0.25573506561470599 -0.23830971155561459 0 0.23872218031306711 -0.24833064043005099 0 0.23480395552800329 -0.22530835457480669 0 0.23872218031306711 -0.24833064043005099 0 0.23480395552800329 -0.22530835457480669 0 0.25573506561470599 -0.23830971155561459 0 0.24729019271448721 -0.25871699687992478 0 0.23872218031306711 -0.24833064043005099 0 0.25573506561470599 -0.23830971155561459 0 0.2539750098801471 -0.20911910861358071 0 0.23480395552800329 -0.22530835457480669 0 0.23480395552800329 -0.22530835457480669 0 0.22534265446346771 -0.23876316840220471 0 0.21734579834029871 -0.21960736120783181 0 0.23872218031306711 -0.24833064043005099 0 0.23480395552800329 -0.22530835457480669 0 0.22534265446346771 -0.23876316840220471 0 0.2215470545740986 -0.26239410947196612 0 0.23872218031306711 -0.24833064043005099 0 0.22534265446346771 -0.23876316840220471 0 0.2215470545740986 -0.26239410947196612 0 0.22534265446346771 -0.23876316840220471 0 0.2067512508871337 -0.2388591140830596 0 0.2067512508871337 -0.2388591140830596 0 0.21734579834029871 -0.21960736120783181 0 0.1951297094086582 -0.21597858367215031 0 0.22534265446346771 -0.23876316840220471 0 0.2067512508871337 -0.2388591140830596 0 0.21734579834029871 -0.21960736120783181 0 0.2067512508871337 -0.2388591140830596 0 0.1951297094086582 -0.21597858367215031 0 0.17909792980572559 -0.23550828954909489 0 0.19841711378944399 -0.25476520294789679 0 0.2067512508871337 -0.2388591140830596 0 0.17909792980572559 -0.23550828954909489 0 0.2096365304492869 -0.19830656252728121 0 0.2033309892842598 -0.19845012780741569 0 0.19963245268248961 -0.2049307572780992 0 0.2096365304492869 -0.19830656252728121 0 0.20622616911920569 -0.1949883195199166 0 0.21116148901159221 -0.19644887779520701 0 0.20622616911920569 -0.1949883195199166 0 0.21116148901159221 -0.19644887779520701 0 0.2096365304492869 -0.19830656252728121 0 0.20622616911920569 -0.1949883195199166 0 0.2096365304492869 -0.19830656252728121 0 0.21116148901159221 -0.19644887779520701 0 0.2096365304492869 -0.19830656252728121 0 0.2033309892842598 -0.19845012780741569 0 0.20622616911920569 -0.1949883195199166 0 0.20622616911920569 -0.1949883195199166 0 0.20834094217795851 -0.1897114898192874 0 0.1998500983638683 -0.18872884619036559 0 0.20622616911920569 -0.1949883195199166 0 0.20834094217795851 -0.1897114898192874 0 0.21116148901159221 -0.19644887779520701 0 0.22015998738176751 -0.1854870238490855 0 0.22242860580454751 -0.19250281081230061 0 0.21116148901159221 -0.19644887779520701 0 0.22015998738176751 -0.1854870238490855 0 0.21116148901159221 -0.19644887779520701 0 0.22015998738176751 -0.1854870238490855 0 0.20834094217795851 -0.1897114898192874 0 0.21116148901159221 -0.19644887779520701 0 0.21734579834029871 -0.21960736120783181 0 0.2096365304492869 -0.19830656252728121 0 0.1951297094086582 -0.21597858367215031 0 0.21734579834029871 -0.21960736120783181 0 0.2096365304492869 -0.19830656252728121 0 0.21116148901159221 -0.19644887779520701 0 0.2096365304492869 -0.19830656252728121 0 0.1951297094086582 -0.21597858367215031 0 0.19963245268248961 -0.2049307572780992 0 0.2096365304492869 -0.19830656252728121 0 0.1951297094086582 -0.21597858367215031 0 0.1951297094086582 -0.21597858367215031 0 0.19963245268248961 -0.2049307572780992 0 0.18380960633821999 -0.2096913835427888 0 0.197122020430295 -0.19229403829864269 0 0.18380960633821999 -0.2096913835427888 0 0.18765585266906129 -0.1848986702849526 0 0.197122020430295 -0.19229403829864269 0 0.1798885507415863 -0.18719396630437249 0 0.19963245268248961 -0.2049307572780992 0 0.197122020430295 -0.19229403829864269 0 0.18380960633821999 -0.2096913835427888 0 0.197122020430295 -0.19229403829864269 0 0.1798885507415863 -0.18719396630437249 0 0.2033309892842598 -0.19845012780741569 0 0.19963245268248961 -0.2049307572780992 0 0.197122020430295 -0.19229403829864269 0 0.2033309892842598 -0.19845012780741569 0 0.20622616911920569 -0.1949883195199166 0 0.197122020430295 -0.19229403829864269 0 0.20622616911920569 -0.1949883195199166 0 0.1998500983638683 -0.18872884619036559 0 0.197122020430295 -0.19229403829864269 0 0.20622616911920569 -0.1949883195199166 0 0.197122020430295 -0.19229403829864269 0 0.20622616911920569 -0.1949883195199166 0 0.1998500983638683 -0.18872884619036559 0 0.1998500983638683 -0.18872884619036559 0 0.197122020430295 -0.19229403829864269 0 0.18380960633821999 -0.2096913835427888 0 0.1751928714938645 -0.2071413475456528 0 0.1798885507415863 -0.18719396630437249 0 0.1751928714938645 -0.2071413475456528 0 0.1798885507415863 -0.18719396630437249 0 0.197122020430295 -0.19229403829864269 0 0.18380960633821999 -0.2096913835427888 0 0.1798885507415863 -0.18719396630437249 0 0.1751928714938645 -0.2071413475456528 0 0.16596570112250381 -0.1897642470918616 0 0.1798885507415863 -0.18719396630437249 0 0.1751928714938645 -0.2071413475456528 0 0.1704971922461424 -0.2270887287869329 0 0.18380960633821999 -0.2096913835427888 0 0.1704971922461424 -0.2270887287869329 0 0.18380960633821999 -0.2096913835427888 0 0.1751928714938645 -0.2071413475456528 0 0.1704971922461424 -0.2270887287869329 0 0.1751928714938645 -0.2071413475456528 0 0.1704971922461424 -0.2270887287869329 0 0.15394997881801301 -0.21364517469571859 0 0.1751928714938645 -0.2071413475456528 0 0.15847159220320839 -0.19857622467394759 0 0.15394997881801301 -0.21364517469571859 0 0.1751928714938645 -0.2071413475456528 0 0.15847159220320839 -0.19857622467394759 0 0.16596570112250381 -0.1897642470918616 0 0.15847159220320839 -0.19857622467394759 0 0.15760964828529131 -0.18957827202051961 0 0.16596570112250381 -0.1897642470918616 0 0.1951297094086582 -0.21597858367215031 0 0.18380960633821999 -0.2096913835427888 0 0.17909792980572559 -0.23550828954909489 0 0.1951297094086582 -0.21597858367215031 0 0.17909792980572559 -0.23550828954909489 0 0.18380960633821999 -0.2096913835427888 0 0.17909792980572559 -0.23550828954909489 0 0.1704971922461424 -0.2270887287869329 0 0.1704971922461424 -0.2270887287869329 0 0.15085978543259071 -0.229663315294379 0 0.15394997881801301 -0.21364517469571859 0 0.16467156390884649 -0.25183616643835061 0 0.17909792980572559 -0.23550828954909489 0 0.1704971922461424 -0.2270887287869329 0 0.16306615020279311 -0.25503799542603939 0 0.16467156390884649 -0.25183616643835061 0 0.17909792980572559 -0.23550828954909489 0 0.1704971922461424 -0.2270887287869329 0 0.15552024419897631 -0.24666137234188421 0 0.15085978543259071 -0.229663315294379 0 0.16467156390884649 -0.25183616643835061 0 0.1704971922461424 -0.2270887287869329 0 0.15552024419897631 -0.24666137234188421 0 0.16467156390884649 -0.25183616643835061 0 0.1704971922461424 -0.2270887287869329 0 0.16306615020279311 -0.25503799542603939 0 0.17909792980572559 -0.23550828954909489 0 0.1704971922461424 -0.2270887287869329 0 0.15552024419897631 -0.24666137234188421 0 0.15552024419897631 -0.24666137234188421 0 0.15085978543259071 -0.229663315294379 0 0.13901741785215849 -0.2392417037168651 0 0.15085978543259071 -0.229663315294379 0 0.1376805299474527 -0.22203673547795849 0 0.15394997881801301 -0.21364517469571859 0 0.15085978543259071 -0.229663315294379 0 0.1376805299474527 -0.22203673547795849 0 0.13901741785215849 -0.2392417037168651 0 0.1228819988704231 -0.20930442680148101 0 0.1254555813950812 -0.2258023187245127 0 0.1376805299474527 -0.22203673547795849 0 0.1254555813950812 -0.2258023187245127 0 0.1376805299474527 -0.22203673547795849 0 0.13901741785215849 -0.2392417037168651 0 0.12404506998703969 -0.24505246456562069 0 0.1254555813950812 -0.2258023187245127 0 0.13901741785215849 -0.2392417037168651 0 0.15052210076036679 -0.19000235209760441 0 0.13991984075286151 -0.1915414320498178 0 0.14291456492872881 -0.18357946768427319 0 0.14623614217126049 -0.20128712478418459 0 0.15052210076036679 -0.19000235209760441 0 0.13991984075286151 -0.1915414320498178 0 0.15847159220320839 -0.19857622467394759 0 0.15760964828529131 -0.18957827202051961 0 0.15052210076036679 -0.19000235209760441 0 0.15847159220320839 -0.19857622467394759 0 0.14623614217126049 -0.20128712478418459 0 0.15052210076036679 -0.19000235209760441 0 0.1376805299474527 -0.22203673547795849 0 0.15394997881801301 -0.21364517469571859 0 0.13871173823157179 -0.20972274630697529 0 0.15847159220320839 -0.19857622467394759 0 0.14623614217126049 -0.20128712478418459 0 0.15394997881801301 -0.21364517469571859 0 0.14623614217126049 -0.20128712478418459 0 0.15394997881801301 -0.21364517469571859 0 0.13871173823157179 -0.20972274630697529 0 0.1228819988704231 -0.20930442680148101 0 0.13871173823157179 -0.20972274630697529 0 0.13221426774195871 -0.19883074944987611 0 0.14623614217126049 -0.20128712478418459 0 0.13871173823157179 -0.20972274630697529 0 0.13221426774195871 -0.19883074944987611 0 0.1228819988704231 -0.20930442680148101 0 0.1376805299474527 -0.22203673547795849 0 0.13871173823157179 -0.20972274630697529 0 0.11593830145578291 -0.19131865827098021 0 0.13221426774195871 -0.19883074944987611 0 0.13006849821161451 -0.184186079609368 0 0.14623614217126049 -0.20128712478418459 0 0.13221426774195871 -0.19883074944987611 0 0.13991984075286151 -0.1915414320498178 0 0.13221426774195871 -0.19883074944987611 0 0.13991984075286151 -0.1915414320498178 0 0.13006849821161451 -0.184186079609368 0 0.1179405393507528 -0.17103029228303249 0 0.13006849821161451 -0.184186079609368 0 0.13858318586371521 -0.17219721044591141 0 0.13991984075286151 -0.1915414320498178 0 0.13006849821161451 -0.184186079609368 0 0.14291456492872881 -0.18357946768427319 0 0.13006849821161451 -0.184186079609368 0 0.13858318586371521 -0.17219721044591141 0 0.14291456492872881 -0.18357946768427319 0 0.13858318586371521 -0.17219721044591141 0 0.14291456492872881 -0.18357946768427319 0 0.15547919905508609 -0.1799702642186648 0 0.13858318586371521 -0.17219721044591141 0 0.16017304139400629 -0.17571444998043209 0 0.13858318586371521 -0.17219721044591141 0 0.15547919905508609 -0.1799702642186648 0 0.16017304139400629 -0.17571444998043209 0 0.15052210076036679 -0.19000235209760441 0 0.14291456492872881 -0.18357946768427319 0 0.15547919905508609 -0.1799702642186648 0 0.15760964828529131 -0.18957827202051961 0 0.15052210076036679 -0.19000235209760441 0 0.15547919905508609 -0.1799702642186648 0 0.13858318586371521 -0.17219721044591141 0 0.15366493599480049 -0.1621290928549626 0 0.13064951561346189 -0.15069519191636291 0 0.13858318586371521 -0.17219721044591141 0 0.15366493599480049 -0.1621290928549626 0 0.16017304139400629 -0.17571444998043209 0 0.1179405393507528 -0.17103029228303249 0 0.13858318586371521 -0.17219721044591141 0 0.13064951561346189 -0.15069519191636291 0 0.1175808507301965 -0.13263320602775189 0 0.13064951561346189 -0.15069519191636291 0 0.13532025501764719 -0.12537904207353329 0 0.13064951561346189 -0.15069519191636291 0 0.13532025501764719 -0.12537904207353329 0 0.15416348420511919 -0.14387769038963569 0 0.15841087046382621 -0.120704748060946 0 0.13532025501764719 -0.12537904207353329 0 0.15416348420511919 -0.14387769038963569 0 0.13532025501764719 -0.12537904207353329 0 0.15416348420511919 -0.14387769038963569 0 0.15366493599480049 -0.1621290928549626 0 0.13064951561346189 -0.15069519191636291 0 0.15416348420511919 -0.14387769038963569 0 0.15416348420511919 -0.14387769038963569 0 0.17300671339259119 -0.162376338705738 0 0.15416348420511919 -0.14387769038963569 0 0.1702205932758416 -0.13700233845861309 0 0.17300671339259119 -0.162376338705738 0 0.15366493599480049 -0.1621290928549626 0 0.15416348420511919 -0.14387769038963569 0 0.17300671339259119 -0.162376338705738 0 0.17441678131188021 -0.1218365924865064 0 0.15841087046382621 -0.120704748060946 0 0.1702205932758416 -0.13700233845861309 0 0.15841087046382621 -0.120704748060946 0 0.15416348420511919 -0.14387769038963569 0 0.1702205932758416 -0.13700233845861309 0 0.17441678131188021 -0.1218365924865064 0 0.1702205932758416 -0.13700233845861309 0 0.1840196023456695 -0.13080308175064589 0 0.1702205932758416 -0.13700233845861309 0 0.1840196023456695 -0.13080308175064589 0 0.1842099924798114 -0.14511998295268941 0 0.19589724690894811 -0.1579058536199151 0 0.1842099924798114 -0.14511998295268941 0 0.17300671339259119 -0.162376338705738 0 0.1702205932758416 -0.13700233845861309 0 0.1842099924798114 -0.14511998295268941 0 0.17300671339259119 -0.162376338705738 0 0.19184994258006341 -0.1808749870218401 0 0.17300671339259119 -0.162376338705738 0 0.19184994258006341 -0.1808749870218401 0 0.19589724690894811 -0.1579058536199151 0 0.17300671339259119 -0.162376338705738 0 0.17300671339259119 -0.162376338705738 0 0.18246211638078 -0.17626138504270311 0 0.1769417891733723 -0.1753242800685694 0 0.17300671339259119 -0.162376338705738 0 0.1769417891733723 -0.1753242800685694 0 0.17133667081689091 -0.17520987002921029 0 0.19184994258006341 -0.1808749870218401 0 0.17300671339259119 -0.162376338705738 0 0.18246211638078 -0.17626138504270311 0 0.19184994258006341 -0.1808749870218401 0 0.18246211638078 -0.17626138504270311 0 0.18176289692429759 -0.179231689514953 0 0.18246211638078 -0.17626138504270311 0 0.18176289692429759 -0.179231689514953 0 0.1769417891733723 -0.1753242800685694 0 0.18246211638078 -0.17626138504270311 0 0.18176289692429759 -0.179231689514953 0 0.18765585266906129 -0.1848986702849526 0 0.19184994258006341 -0.1808749870218401 0 0.18176289692429759 -0.179231689514953 0 0.19184994258006341 -0.1808749870218401 0 0.18176289692429759 -0.179231689514953 0 0.18765585266906129 -0.1848986702849526 0 0.18176289692429759 -0.179231689514953 0 0.1798885507415863 -0.18719396630437249 0 0.18176289692429759 -0.179231689514953 0 0.1798885507415863 -0.18719396630437249 0 0.18176289692429759 -0.179231689514953 0 0.1798885507415863 -0.18719396630437249 0 0.16932592202874411 -0.18052759250460559 0 0.18176289692429759 -0.179231689514953 0 0.1769417891733723 -0.1753242800685694 0 0.17133667081689091 -0.17520987002921029 0 0.16596570112250381 -0.1897642470918616 0 0.15547919905508609 -0.1799702642186648 0 0.1798885507415863 -0.18719396630437249 0 0.15547919905508609 -0.1799702642186648 0 0.1798885507415863 -0.18719396630437249 0 0.15547919905508609 -0.1799702642186648 0 0.1798885507415863 -0.18719396630437249 0 0.16932592202874411 -0.18052759250460559 0 0.18176289692429759 -0.179231689514953 0 0.16932592202874411 -0.18052759250460559 0 0.16017304139400629 -0.17571444998043209 0 0.18176289692429759 -0.179231689514953 0 0.17133667081689091 -0.17520987002921029 0 0.16017304139400629 -0.17571444998043209 0 0.17133667081689091 -0.17520987002921029 0 0.16017304139400629 -0.17571444998043209 0 0.16454534039957219 -0.16885743789258581 0 0.18176289692429759 -0.179231689514953 0 0.16017304139400629 -0.17571444998043209 0 0.15760964828529131 -0.18957827202051961 0 0.16596570112250381 -0.1897642470918616 0 0.15547919905508609 -0.1799702642186648 0 0.15547919905508609 -0.1799702642186648 0 0.16932592202874411 -0.18052759250460559 0 0.16017304139400629 -0.17571444998043209 0 0.15366493599480049 -0.1621290928549626 0 0.16017304139400629 -0.17571444998043209 0 0.16454534039957219 -0.16885743789258581 0 0.15366493599480049 -0.1621290928549626 0 0.17300671339259119 -0.162376338705738 0 0.16454534039957219 -0.16885743789258581 0 0.17300671339259119 -0.162376338705738 0 0.17133667081689091 -0.17520987002921029 0 0.16454534039957219 -0.16885743789258581 0 
</DataArray>
</Points>
<Cells>
<DataArray type="UInt32" Name="connectivity" format="ascii">
0 1 2 3 4 5 6 7 8 9 10 11 12 13 14 15 16 17 18 19 20 21 22 23 24 25 26 27 28 29 30 31 32 33 34 35 36 37 38 39 40 41 42 43 44 45 46 47 48 49 50 51 52 53 54 55 56 57 58 59 60 61 62 63 64 65 66 67 68 69 70 71 72 73 74 75 76 77 78 79 80 81 82 83 84 85 86 87 88 89 90 91 92 93 94 95 96 97 98 99 100 101 102 103 104 105 106 107 108 109 110 111 112 113 114 115 116 117 118 119 120 121 122 123 124 125 126 127 128 129 130 131 132 133 134 135 136 137 138 139 140 141 142 143 144 145 146 147 148 149 150 151 152 153 154 155 156 157 158 159 160 161 162 163 164 165 166 167 168 169 170 171 172 173 174 175 176 177 178 179 180 181 182 183 184 185 186 187 188 189 190 191 192 193 194 195 196 197 198 199 200 201 202 203 204 205 206 207 208 209 210 211 212 213 214 215 216 217 218 219 220 221 222 223 224 225 226 227 228 229 230 231 232 233 234 235 236 237 238 239 240 241 242 243 244 245 246 247 248 249 250 251 252 253 254 255 256 257 258 259 260 261 262 263 264 265 266 267 268 269 270 271 272 273 274 275 276 277 278 279 280 281 282 283 284 285 286 287 288 289 290 291 292 293 294 295 296 297 298 299 300 301 302 303 304 305 306 307 308 309 310 311 312 313 314 315 316 317 318 319 320 321 322 323 324 325 326 327 328 329 330 331 332 333 334 335 336 337 338 339 340 341 342 343 344 345 346 347 348 349 350 351 352 353 354 355 356 357 358 359 360 361 362 363 364 365 366 367 368 369 370 371 372 373 374 375 376 377 378 379 380 381 382 383 384 385 386 387 388 389 390 391 392 393 394 395 396 397 398 399 400 401 402 403 404 405 406 407 408 409 410 411 412 413 414 415 416 417 418 419 420 421 422 423 424 425 426 427 428 429 430 431 432 433 434 435 436 437 438 439 440 441 442 443 444 445 446 447 448 449 450 451 452 453 454 455 456 457 458 459 460 461 462 463 464 465 466 467 468 469 470 471 472 473 474 475 476 477 478 479 480 481 482 483 484 485 486 487 488 489 490 491 492 493 494 495 496 497 498 499 500 501 502 503 504 505 506 507 508 509 510 511 512 513 514 515 516 517 518 519 520 521 522 523 524 525 526 527 528 529 530 531 532 533 534 535 536 537 538 539 540 541 542 543 544 545 546 547 548 549 550 551 552 553 554 555 556 557 558 559 560 561 562 563 564 565 566 567 568 569 570 571 572 573 574 575 576 577 578 579 580 581 582 583 584 585 586 587 588 589 590 591 592 593 594 595 596 597 598 599 600 601 602 603 604 605 606 607 608 609 610 611 612 613 614 615 616 617 618 619 620 621 622 623 624 625 626 627 628 629 630 631 632 633 634 635 636 637 638 639 640 641 642 643 644 645 646 647 648 649 650 651 652 653 654 655 656 657 658 659 660 661 662 663 664 665 666 667 668 669 670 671 672 673 674 675 676 677 678 679 680 681 682 683 684 685 686 687 688 689 690 691 692 693 694 695 696 697 698 699 700 701 702 703 704 705 706 707 708 709 710 711 712 713 714 715 716 717 718 719 720 721 722 723 724 725 726 727 728 729 730 731 732 733 734 735 736 737 738 739 740 741 742 743 744 745 746 747 748 749 750 751 752 753 754 755 756 757 758 759 760 761 762 763 764 765 766 767 768 769 770 771 772 773 774 775 776 777 778 779 780 781 782 783 784 785 786 787 788 789 790 791 792 793 794 795 796 797 798 799 800 801 802 803 804 805 806 807 808 809 810 811 812 813 814 815 816 817 818 819 820 821 822 823 824 825 826 827 828 829 830 831 832 833 834 835 836 837 838 839 840 841 842 843 844 845 846 847 848 849 850 851 852 853 854 855 856 857 858 859 860 861 862 863 864 865 866 867 868 869 870 871 872 873 874 875 876 877 878 879 880 881 882 883 884 885 886 887 888 889 890 891 892 893 894 895 896 897 898 899 900 901 902 903 904 905 906 907 908 909 910 911 912 913 914 915 916 917 918 919 920 921 922 923 924 925 926 927 928 929 930 931 932 933 934 935 936 937 938 939 940 941 942 943 944 945 946 947 948 949 950 951 952 953 954 955 956 957 958 959 960 961 962 963 964 965 966 967 968 969 970 971 972 973 974 975 976 977 978 979 980 981 982 983 984 985 986 987 988 989 990 991 992 993 994 995 996 997 998 999 1000 1001 1002 1003 1004 1005 1006 1007 1008 1009 1010 1011 1012 1013 1014 1015 1016 1017 1018 1019 1020 1021 1022 1023 1024 1025 1026 1027 1028 1029 1030 1031 1032 1033 1034 1035 1036 1037 1038 1039 1040 1041 1042 1043 1044 1045 1046 1047 1048 1049 1050 1051 1052 1053 1054 1055 1056 1057 1058 1059 1060 1061 1062 1063 1064 1065 1066 1067 1068 1069 1070 1071 1072 1073 1074 1075 1076 1077 1078 1079 1080 1081 1082 1083 1084 1085 1086 1087 1088 1089 1090 1091 1092 1093 1094 1095 1096 1097 1098 1099 1100 1101 1102 1103 1104 1105 1106 1107 1108 1109 1110 1111 1112 1113 1114 1115 1116 1117 1118 1119 1120 1121 1122 1123 1124 1125 1126 1127 1128 1129 1130 1131 1132 1133 1134 1135 1136 1137 1138 1139 1140 1141 1142 1143 1144 1145 1146 1147 1148 1149 1150 1151 1152 1153 1154 1155 1156 1157 1158 1159 1160 1161 1162 1163 1164 1165 1166 1167 1168 1169 1170 1171 1172 1173 1174 1175 1176 1177 1178 1179 1180 1181 1182 1183 1184 1185 1186 1187 1188 1189 1190 1191 1192 1193 1194 1195 1196 1197 1198 1199 1200 1201 1202 1203 1204 1205 1206 1207 1208 1209 1210 1211 1212 1213 1214 1215 1216 1217 1218 1219 1220 1221 1222 1223 1224 1225 1226 1227 1228 1229 1230 1231 1232 1233 1234 1235 1236 1237 1238 1239 1240 1241 1242 1243 1244 1245 1246 1247 1248 1249 1250 1251 1252 1253 1254 1255 1256 1257 1258 1259 1260 1261 1262 1263 1264 1265 1266 1267 1268 1269 1270 1271 1272 1273 1274 1275 1276 1277 1278 1279 1280 1281 1282 1283 1284 1285 1286 1287 1288 1289 1290 1291 1292 1293 1294 1295 1296 1297 1298 1299 1300 1301 1302 1303 1304 1305 1306 1307 1308 1309 1310 1311 1312 1313 1314 1315 1316 1317 1318 1319 1320 1321 1322 1323 1324 1325 1326 1327 1328 1329 1330 1331 1332 1333 1334 1335 1336 1337 1338 1339 1340 1341 1342 1343 1344 1345 1346 1347 1348 1349 1350 1351 1352 1353 1354 1355 1356 1357 1358 1359 1360 1361 1362 1363 1364 1365 1366 1367 1368 1369 1370 1371 1372 1373 1374 1375 1376 1377 1378 1379 1380 1381 1382 1383 1384 1385 1386 1387 1388 1389 1390 1391 1392 1393 1394 1395 1396 1397 1398 1399 1400 1401 1402 1403 1404 1405 1406 1407 1408 1409 1410 1411 1412 1413 1414 1415 1416 1417 1418 1419 1420 1421 1422 1423 1424 1425 1426 1427 1428 1429 1430 1431 1432 1433 1434 1435 1436 1437 1438 1439 1440 1441 1442 1443 1444 1445 1446 1447 1448 1449 1450 1451 1452 1453 1454 1455 1456 1457 1458 1459 1460 1461 1462 1463 1464 1465 1466 1467 1468 1469 1470 1471 1472 1473 1474 1475 1476 1477 1478 1479 1480 1481 1482 1483 1484 1485 1486 1487 1488 1489 1490 1491 1492 1493 1494 1495 1496 1497 1498 1499 1500 1501 1502 1503 1504 1505 1506 1507 1508 1509 1510 1511 1512 1513 1514 1515 1516 1517 1518 1519 1520 1521 1522 1523 1524 1525 1526 1527 1528 1529 1530 1531 1532 1533 1534 1535 1536 1537 1538 1539 1540 1541 1542 1543 1544 1545 1546 1547 1548 1549 1550 1551 1552 1553 1554 1555 1556 1557 1558 1559 1560 1561 1562 1563 1564 1565 1566 1567 1568 1569 1570 1571 1572 1573 1574 1575 1576 1577 1578 1579 1580 1581 1582 1583 1584 1585 1586 1587 1588 1589 1590 1591 1592 1593 1594 1595 1596 1597 1598 1599 1600 1601 1602 1603 1604 1605 1606 1607 1608 1609 1610 1611 1612 1613 1614 1615 1616 1617 1618 1619 1620 1621 1622 1623 1624 1625 1626 1627 1628 1629 1630 1631 1632 1633 1634 1635 1636 1637 1638 1639 1640 1641 1642 1643 1644 1645 1646 1647 1648 1649 1650 1651 1652 1653 1654 1655 1656 1657 1658 1659 1660 1661 1662 1663 1664 1665 1666 1667 1668 1669 1670 1671 1672 1673 1674 1675 1676 1677 1678 1679 1680 1681 1682 1683 1684 1685 1686 1687 1688 1689 1690 1691 1692 1693 1694 1695 1696 1697 1698 1699 1700 1701 1702 1703 1704 1705 1706 1707 1708 1709 1710 1711 1712 1713 1714 1715 1716 1717 1718 1719 1720 1721 1722 1723 1724 1725 1726 1727 1728 1729 1730 1731 1732 1733 1734 1735 1736 1737 1738 1739 1740 1741 1742 1743 1744 1745 1746 1747 1748 1749 1750 1751 1752 1753 1754 1755 1756 1757 1758 1759 1760 1761 1762 1763 1764 1765 1766 1767 1768 1769 1770 1771 1772 1773 1774 1775 1776 1777 1778 1779 1780 1781 1782 1783 1784 1785 1786 1787 1788 1789 1790 1791 1792 1793 1794 1795 1796 1797 1798 1799 1800 1801 1802 1803 1804 1805 1806 1807 1808 1809 1810 1811 1812 1813 1814 1815 1816 1817 1818 1819 1820 1821 1822 1823 1824 1825 1826 1827 1828 1829 1830 1831 1832 1833 1834 1835 1836 1837 1838 1839 1840 1841 1842 1843 1844 1845 1846 1847 1848 1849 1850 1851 1852 1853 1854 1855 1856 1857 1858 1859 1860 1861 1862 1863 1864 1865 1866 1867 1868 1869 1870 1871 1872 1873 1874 1875 1876 1877 1878 1879 1880 1881 1882 1883 1884 1885 1886 1887 1888 1889 1890 1891 1892 1893 1894 1895 1896 1897 1898 1899 1900 1901 1902 1903 1904 1905 1906 1907 1908 1909 1910 1911 1912 1913 1914 1915 1916 1917 1918 1919 1920 1921 1922 1923 1924 1925 1926 1927 1928 1929 1930 1931 1932 1933 1934 1935 1936 1937 1938 1939 1940 1941 1942 1943 1944 1945 1946 1947 1948 1949 1950 1951 1952 1953 1954 1955 1956 1957 1958 1959 1960 1961 1962 1963 1964 1965 1966 1967 1968 1969 1970 1971 1972 1973 1974 1975 1976 1977 1978 1979 1980 1981 1982 1983 1984 1985 1986 1987 1988 1989 1990 1991 1992 1993 1994 1995 1996 1997 1998 1999 2000 2001 2002 2003 2004 2005 2006 2007 2008 2009 2010 2011 2012 2013 2014 2015 2016 2017 2018 2019 2020 2021 2022 2023 2024 2025 2026 2027 2028 2029 2030 2031 2032 2033 2034 2035 2036 2037 2038 2039 2040 2041 2042 2043 2044 2045 2046 2047 2048 2049 2050 2051 2052 2053 2054 2055 2056 2057 2058 2059 2060 2061 2062 2063 2064 2065 2066 2067 2068 2069 2070 2071 2072 2073 2074 2075 2076 2077 2078 2079 2080 2081 2082 2083 2084 2085 2086 2087 2088 2089 2090 2091 2092 2093 2094 2095 2096 2097 2098 2099 2100 2101 2102 2103 2104 2105 2106 2107 2108 2109 2110 2111 2112 2113 2114 2115 2116 2117 2118 2119 2120 2121 2122 2123 2124 2125 2126 2127 2128 2129 2130 2131 2132 2133 2134 2135 2136 2137 2138 2139 2140 2141 2142 2143 2144 2145 2146 2147 2148 2149 2150 2151 2152 2153 2154 2155 2156 2157 2158 2159 2160 2161 2162 2163 2164 2165 2166 2167 2168 2169 2170 2171 2172 2173 2174 2175 2176 2177 2178 2179 2180 2181 2182 2183 2184 2185 2186 2187 2188 2189 2190 2191 2192 2193 2194 2195 2196 2197 2198 2199 2200 2201 2202 2203 2204 2205 2206 2207 2208 2209 2210 2211 2212 2213 2214 2215 2216 2217 2218 2219 2220 2221 2222 2223 2224 2225 2226 2227 2228 2229 2230 2231 2232 2233 2234 2235 2236 2237 2238 2239 2240 2241 2242 2243 2244 2245 2246 2247 2248 2249 2250 2251 2252 2253 2254 2255 2256 2257 2258 2259 2260 2261 2262 2263 2264 2265 2266 2267 2268 2269 2270 2271 2272 2273 2274 2275 2276 2277 2278 2279 2280 2281 2282 2283 2284 2285 2286 2287 2288 2289 2290 2291 2292 2293 2294 2295 2296 2297 2298 2299 2300 2301 2302 2303 2304 2305 2306 2307 2308 2309 2310 2311 2312 2313 2314 2315 2316 2317 2318 2319 2320 2321 2322 2323 2324 2325 2326 2327 2328 2329 2330 2331 2332 2333 2334 2335 2336 2337 2338 2339 2340 2341 2342 2343 2344 2345 2346 2347 2348 2349 2350 2351 2352 2353 2354 2355 2356 2357 2358 2359 2360 2361 2362 2363 2364 2365 2366 2367 2368 2369 2370 2371 2372 2373 2374 2375 2376 2377 2378 2379 2380 2381 2382 2383 2384 2385 2386 2387 2388 2389 2390 2391 2392 2393 2394 2395 2396 2397 2398 2399 2400 2401 2402 2403 2404 2405 2406 2407 2408 2409 2410 2411 2412 2413 2414 2415 2416 2417 2418 2419 2420 2421 2422 2423 2424 2425 2426 2427 2428 2429 2430 2431 2432 2433 2434 2435 2436 2437 2438 2439 2440 2441 2442 2443 2444 2445 2446 2447 2448 2449 2450 2451 2452 2453 2454 2455 2456 2457 2458 2459 2460 2461 2462 2463 2464 2465 2466 2467 2468 2469 2470 2471 2472 2473 2474 2475 2476 2477 2478 2479 2480 2481 2482 2483 2484 2485 2486 2487 2488 2489 2490 2491 2492 2493 2494 2495 2496 2497 2498 2499 2500 2501 2502 2503 2504 2505 2506 2507 2508 2509 2510 2511 2512 2513 2514 2515 2516 2517 2518 2519 2520 2521 2522 2523 2524 2525 2526 2527 2528 2529 2530 2531 2532 2533 2534 2535 2536 2537 2538 2539 2540 2541 2542 2543 2544 2545 2546 2547 2548 2549 2550 2551 2552 2553 2554 2555 2556 2557 2558 2559 2560 2561 2562 2563 2564 2565 2566 2567 2568 2569 2570 2571 2572 2573 2574 2575 2576 2577 2578 2579 2580 2581 2582 2583 2584 2585 2586 2587 2588 2589 2590 2591 2592 2593 2594 2595 2596 2597 2598 2599 2600 2601 2602 2603 2604 2605 2606 2607 2608 2609 2610 2611 2612 2613 2614 2615 2616 2617 2618 2619 2620 2621 2622 2623 2624 2625 2626 2627 2628 2629 2630 2631 2632 2633 2634 2635 2636 2637 2638 2639 2640 2641 2642 2643 2644 2645 2646 2647 2648 2649 2650 2651 2652 2653 2654 2655 2656 2657 2658 2659 2660 2661 2662 2663 2664 2665 2666 2667 2668 2669 2670 2671 2672 2673 2674 2675 2676 2677 2678 2679 2680 2681 2682 2683 2684 2685 2686 2687 2688 2689 2690 2691 2692 2693 2694 2695 2696 2697 2698 2699 2700 2701 2702 2703 2704 2705 2706 2707 2708 2709 2710 2711 2712 2713 2714 2715 2716 2717 2718 2719 2720 2721 2722 2723 2724 2725 2726 2727 2728 2729 2730 2731 2732 2733 2734 2735 2736 2737 2738 2739 2740 2741 2742 2743 2744 2745 2746 2747 2748 2749 2750 2751 2752 2753 2754 2755 2756 2757 2758 2759 2760 2761 2762 2763 2764 2765 2766 2767 2768 2769 2770 2771 2772 2773 2774 2775 2776 2777 2778 2779 2780 2781 2782 2783 2784 2785 2786 2787 2788 2789 2790 2791 2792 2793 2794 2795 2796 2797 2798 2799 2800 2801 2802 2803 2804 2805 2806 2807 2808 2809 2810 2811 2812 2813 2814 2815 2816 2817 2818 2819 2820 2821 2822 2823 2824 2825 2826 2827 2828 2829 2830 2831 2832 2833 2834 2835 2836 2837 2838 2839 2840 2841 2842 2843 2844 2845 2846 2847 2848 2849 2850 2851 2852 2853 2854 2855 2856 2857 2858 2859 2860 2861 2862 2863 2864 2865 2866 2867 2868 2869 2870 2871 2872 2873 2874 2875 2876 2877 2878 2879 2880 2881 2882 2883 2884 2885 2886 2887 2888 2889 2890 2891 2892 2893 2894 2895 2896 2897 2898 2899 2900 2901 2902 2903 2904 2905 2906 2907 2908 2909 2910 2911 2912 2913 2914 2915 2916 2917 2918 2919 2920 2921 2922 2923 2924 2925 2926 2927 2928 2929 2930 2931 2932 2933 2934 2935 2936 2937 2938 2939 2940 2941 2942 2943 2944 2945 2946 2947 2948 2949 2950 2951 2952 2953 2954 2955 2956 2957 2958 2959 2960 2961 2962 2963 2964 2965 2966 2967 2968 2969 2970 2971 2972 2973 2974 2975 2976 2977 2978 2979 2980 2981 2982 2983 2984 2985 2986 2987 2988 2989 2990 2991 2992 2993 2994 2995 2996 2997 2998 2999 3000 3001 3002 3003 3004 3005 3006 3007 3008 3009 3010 3011 3012 3013 3014 3015 3016 3017 3018 3019 3020 3021 3022 3023 3024 3025 3026 3027 3028 3029 3030 3031 3032 3033 3034 3035 3036 3037 3038 3039 3040 3041 3042 3043 3044 3045 3046 3047 3048 3049 3050 3051 3052 3053 3054 3055 3056 3057 3058 3059 3060 3061 3062 3063 3064 3065 3066 3067 3068 3069 3070 3071 3072 3073 3074 3075 3076 3077 3078 3079 3080 3081 3082 3083 3084 3085 3086 3087 3088 3089 3090 3091 3092 3093 3094 3095 3096 3097 3098 3099 3100 3101 3102 3103 3104 3105 3106 3107 3108 3109 3110 3111 3112 3113 3114 3115 3116 3117 3118 3119 3120 3121 3122 3123 3124 3125 3126 3127 3128 3129 3130 3131 3132 3133 3134 3135 3136 3137 3138 3139 3140 3141 3142 3143 3144 3145 3146 3147 3148 3149 3150 3151 3152 3153 3154 3155 3156 3157 3158 3159 3160 3161 3162 3163 3164 3165 3166 3167 3168 3169 3170 3171 3172 3173 3174 3175 3176 3177 3178 3179 3180 3181 3182 3183 3184 3185 3186 3187 3188 3189 3190 3191 3192 3193 3194 3195 3196 3197 3198 3199 3200 3201 3202 3203 3204 3205 3206 3207 3208 3209 3210 3211 3212 3213 3214 3215 3216 3217 3218 3219 3220 3221 3222 3223 3224 3225 3226 3227 3228 3229 3230 3231 3232 3233 3234 3235 3236 3237 3238 3239 3240 3241 3242 3243 3244 3245 3246 3247 3248 3249 3250 3251 3252 3253 3254 3255 3256 3257 3258 3259 3260 3261 3262 3263 3264 3265 3266 3267 3268 3269 3270 3271 3272 3273 3274 3275 3276 3277 3278 3279 3280 3281 3282 3283 3284 3285 3286 3287 3288 3289 3290 3291 3292 3293 3294 3295 3296 3297 3298 3299 3300 3301 3302 3303 3304 3305 3306 3307 3308 3309 3310 3311 3312 3313 3314 3315 3316 3317 3318 3319 3320 3321 3322 3323 3324 3325 3326 3327 3328 3329 3330 3331 3332 3333 3334 3335 3336 3337 3338 3339 3340 3341 3342 3343 3344 3345 3346 3347 3348 3349 3350 3351 3352 3353 3354 3355 3356 3357 3358 3359 3360 3361 3362 3363 3364 3365 3366 3367 3368 3369 3370 3371 3372 3373 3374 3375 3376 3377 3378 3379 3380 3381 3382 3383 3384 3385 3386 3387 3388 3389 3390 3391 3392 3393 3394 3395 3396 3397 3398 3399 3400 3401 3402 3403 3404 3405 3406 3407 3408 3409 3410 3411 3412 3413 3414 3415 3416 3417 3418 3419 3420 3421 3422 3423 3424 3425 3426 3427 3428 3429 3430 3431 3432 3433 3434 3435 3436 3437 3438 3439 3440 3441 3442 3443 3444 3445 3446 3447 3448 3449 3450 3451 3452 3453 3454 3455 3456 3457 3458 3459 3460 3461 3462 3463 3464 3465 3466 3467 3468 3469 3470 3471 3472 3473 3474 3475 3476 3477 3478 3479 3480 3481 3482 3483 3484 3485 3486 3487 3488 3489 3490 3491 3492 3493 3494 3495 3496 3497 3498 3499 3500 3501 3502 3503 3504 3505 3506 3507 3508 3509 3510 3511 3512 3513 3514 3515 3516 3517 3518 3519 3520 3521 3522 3523 3524 3525 3526 3527 3528 3529 3530 3531 3532 3533 3534 3535 3536 3537 3538 3539 3540 3541 3542 3543 3544 3545 3546 3547 3548 3549 3550 3551 3552 3553 3554 3555 3556 3557 3558 3559 3560 3561 3562 3563 3564 3565 3566 3567 3568 3569 3570 3571 3572 3573 3574 3575 3576 3577 3578 3579 3580 3581 3582 3583 3584 3585 3586 3587 3588 3589 3590 3591 3592 3593 3594 3595 3596 3597 3598 3599 3600 3601 3602 3603 3604 3605 3606 3607 3608 3609 3610 3611 3612 3613 3614 3615 3616 3617 3618 3619 3620 3621 3622 3623 3624 3625 3626 3627 3628 3629 3630 3631 3632 3633 3634 3635 3636 3637 3638 3639 3640 3641 3642 3643 3644 3645 3646 3647 3648 3649 3650 3651 3652 3653 3654 3655 3656 3657 3658 3659 3660 3661 3662 3663 3664 3665 3666 3667 3668 3669 3670 3671 3672 3673 3674 3675 3676 3677 3678 3679 3680 3681 3682 3683 3684 3685 3686 3687 3688 3689 3690 3691 3692 3693 3694 3695 3696 3697 3698 3699 3700 3701 3702 3703 3704 3705 3706 3707 3708 3709 3710 3711 3712 3713 3714 3715 3716 3717 3718 3719 3720 3721 3722 3723 3724 3725 3726 3727 3728 3729 3730 3731 3732 3733 3734 3735 3736 3737 3738 3739 3740 3741 3742 3743 3744 3745 3746 3747 3748 3749 3750 3751 3752 3753 3754 3755 3756 3757 3758 3759 3760 3761 3762 3763 3764 3765 3766 3767 3768 3769 3770 3771 3772 3773 3774 3775 3776 3777 3778 3779 3780 3781 3782 3783 3784 3785 3786 3787 3788 3789 3790 3791 3792 3793 3794 3795 3796 3797 3798 3799 3800 3801 3802 3803 3804 3805 3806 3807 3808 3809 3810 3811 3812 3813 3814 3815 3816 3817 3818 3819 3820 3821 3822 3823 3824 3825 3826 3827 3828 3829 3830 3831 3832 3833 3834 3835 3836 3837 3838 3839 3840 3841 3842 3843 3844 3845 3846 3847 3848 3849 3850 3851 3852 3853 3854 3855 3856 3857 3858 3859 3860 3861 3862 3863 3864 3865 3866 3867 3868 3869 3870 3871 3872 3873 3874 3875 3876 3877 3878 3879 3880 3881 3882 3883 3884 3885 3886 3887 3888 3889 3890 3891 3892 3893 3894 3895 3896 3897 3898 3899 3900 3901 3902 3903 3904 3905 3906 3907 3908 3909 3910 3911 3912 3913 3914 3915 3916 3917 3918 3919 3920 3921 3922 3923 3924 3925 3926 3927 3928 3929 3930 3931 3932 3933 3934 3935 3936 3937 3938 3939 3940 3941 3942 3943 3944 3945 3946 3947 3948 3949 3950 3951 3952 3953 3954 3955 3956 3957 3958 3959 3960 3961 3962 3963 3964 3965 3966 3967 3968 3969 3970 3971 3972 3973 3974 3975 3976 3977 3978 3979 3980 3981 3982 3983 3984 3985 3986 3987 3988 3989 3990 3991 3992 3993 3994 3995 3996 3997 3998 3999 4000 4001 4002 4003 4004 4005 4006 4007 4008 4009 4010 4011 4012 4013 4014 4015 4016 4017 4018 4019 4020 4021 4022 4023 4024 4025 4026 4027 4028 4029 4030 4031 4032 4033 4034 4035 4036 4037 4038 4039 4040 4041 4042 4043 4044 4045 4046 4047 4048 4049 4050 4051 4052 4053 4054 4055 4056 4057 4058 4059 4060 4061 4062 4063 4064 4065 4066 4067 4068 4069 4070 4071 4072 4073 4074 4075 4076 4077 4078 4079 4080 4081 4082 4083 4084 4085 4086 4087 4088 4089 4090 4091 4092 4093 4094 4095 4096 4097 4098 4099 4100 4101 4102 4103 4104 4105 4106 4107 4108 4109 4110 4111 4112 4113 4114 4115 4116 4117 4118 4119 4120 4121 4122 4123 4124 4125 4126 4127 4128 4129 4130 4131 4132 4133 4134 4135 4136 4137 4138 4139 4140 4141 4142 4143 4144 4145 4146 4147 4148 4149 4150 4151 4152 4153 4154 4155 4156 4157 4158 4159 4160 4161 4162 4163 4164 4165 4166 4167 4168 4169 4170 4171 4172 4173 4174 4175 4176 4177 4178 4179 4180 4181 4182 4183 4184 4185 4186 4187 4188 4189 4190 4191 4192 4193 4194 4195 4196 4197 4198 4199 4200 4201 4202 4203 4204 4205 4206 4207 4208 4209 4210 4211 4212 4213 4214 4215 4216 4217 4218 4219 4220 4221 4222 4223 4224 4225 4226 4227 4228 4229 4230 4231 4232 4233 4234 4235 4236 4237 4238 4239 4240 4241 4242 4243 4244 4245 4246 4247 4248 4249 4250 4251 4252 4253 4254 4255 4256 4257 4258 4259 4260 4261 4262 4263 4264 4265 4266 4267 4268 4269 4270 4271 4272 4273 4274 4275 4276 4277 4278 4279 4280 4281 4282 4283 4284 4285 4286 4287 4288 4289 4290 4291 4292 4293 4294 4295 4296 4297 4298 4299 4300 4301 4302 4303 4304 4305 4306 4307 4308 4309 4310 4311 4312 4313 4314 4315 4316 4317 4318 4319 4320 4321 4322 4323 4324 4325 4326 4327 4328 4329 4330 4331 4332 4333 4334 4335 4336 4337 4338 4339 4340 4341 4342 4343 4344 4345 4346 4347 4348 4349 4350 4351 4352 4353 4354 4355 4356 4357 4358 4359 4360 4361 4362 4363 4364 4365 4366 4367 4368 4369 4370 4371 4372 4373 4374 4375 4376 4377 4378 4379 4380 4381 4382 4383 4384 4385 4386 4387 4388 4389 4390 4391 4392 4393 4394 4395 4396 4397 4398 4399 4400 4401 4402 4403 4404 4405 4406 4407 4408 4409 4410 4411 4412 4413 4414 4415 4416 4417 4418 4419 4420 4421 4422 4423 4424 4425 4426 4427 4428 4429 4430 4431 4432 4433 4434 4435 4436 4437 4438 4439 4440 4441 4442 4443 4444 4445 4446 4447 4448 4449 4450 4451 4452 4453 4454 4455 4456 4457 4458 4459 4460 4461 4462 4463 4464 4465 4466 4467 4468 4469 4470 4471 4472 4473 4474 4475 4476 4477 4478 4479 4480 4481 4482 4483 4484 4485 4486 4487 4488 4489 4490 4491 4492 4493 4494 4495 4496 4497 4498 4499 4500 4501 4502 4503 4504 4505 4506 4507 4508 4509 4510 4511 4512 4513 4514 4515 4516 4517 4518 4519 4520 4521 4522 4523 4524 4525 4526 4527 4528 4529 4530 4531 4532 4533 4534 4535 4536 4537 4538 4539 4540 4541 4542 4543 4544 4545 4546 4547 4548 4549 4550 4551 4552 4553 4554 4555 4556 4557 4558 4559 4560 4561 4562 4563 4564 4565 4566 4567 4568 4569 4570 4571 4572 4573 4574 4575 4576 4577 4578 4579 4580 4581 4582 4583 4584 4585 4586 4587 4588 4589 4590 4591 4592 4593 4594 4595 4596 4597 4598 4599 4600 4601 4602 4603 4604 4605 4606 4607 4608 4609 4610 4611 4612 4613 4614 4615 4616 4617 4618 4619 4620 4621 4622 4623 4624 4625 4626 4627 4628 4629 4630 4631 4632 4633 4634 4635 4636 4637 4638 4639 4640 4641 4642 4643 4644 4645 4646 4647 4648 4649 4650 4651 4652 4653 4654 4655 4656 4657 4658 4659 4660 4661 4662 4663 4664 4665 4666 4667 4668 4669 4670 4671 4672 4673 4674 4675 4676 4677 4678 4679 4680 4681 4682 4683 4684 4685 4686 4687 4688 4689 4690 4691 4692 4693 4694 4695 4696 4697 4698 4699 4700 4701 4702 4703 4704 4705 4706 4707 4708 4709 4710 4711 4712 4713 4714 4715 4716 4717 4718 4719 4720 4721 4722 4723 4724 4725 4726 4727 4728 4729 4730 4731 4732 4733 4734 4735 4736 4737 4738 4739 4740 4741 4742 4743 4744 4745 4746 4747 4748 4749 4750 4751 4752 4753 4754 4755 4756 4757 4758 4759 4760 4761 4762 4763 4764 4765 4766 4767 4768 4769 4770 4771 4772 4773 4774 4775 4776 4777 4778 4779 4780 4781 4782 4783 4784 4785 4786 4787 4788 4789 4790 4791 4792 4793 4794 4795 4796 4797 4798 4799 4800 4801 4802 4803 4804 4805 4806 4807 4808 4809 4810 4811 4812 4813 4814 4815 4816 4817 4818 4819 4820 4821 4822 4823 4824 4825 4826 4827 4828 4829 4830 4831 4832 4833 4834 4835 4836 4837 4838 4839 4840 4841 4842 4843 4844 4845 4846 4847 4848 4849 4850 4851 4852 4853 4854 4855 4856 4857 4858 4859 4860 4861 4862 4863 4864 4865 4866 4867 4868 4869 4870 4871 4872 4873 4874 4875 4876 4877 4878 4879 4880 4881 4882 4883 4884 4885 4886 4887 4888 4889 4890 4891 4892 4893 4894 4895 4896 4897 4898 4899 4900 4901 4902 4903 4904 4905 4906 4907 4908 4909 4910 4911 4912 4913 4914 4915 4916 4917 4918 4919 4920 4921 4922 4923 4924 4925 4926 4927 4928 4929 4930 4931 4932 4933 4934 4935 4936 4937 4938 4939 4940 4941 4942 4943 4944 4945 4946 4947 4948 4949 4950 4951 4952 4953 4954 4955 4956 4957 4958 4959 4960 4961 4962 4963 4964 4965 4966 4967 4968 4969 4970 4971 4972 4973 4974 4975 4976 4977 4978 4979 4980 4981 4982 4983 4984 4985 4986 4987 4988 4989 4990 4991 4992 4993 4994 4995 4996 4997 4998 4999 5000 5001 5002 5003 5004 5005 5006 5007 5008 5009 5010 5011 5012 5013 5014 5015 5016 5017 5018 5019 5020 5021 5022 5023 5024 5025 5026 5027 5028 5029 5030 5031 5032 5033 5034 5035 5036 5037 5038 5039 5040 5041 5042 5043 5044 5045 5046 5047 5048 5049 5050 5051 5052 5053 5054 5055 5056 5057 5058 5059 5060 5061 5062 5063 5064 5065 5066 5067 5068 5069 5070 5071 5072 5073 5074 5075 5076 5077 5078 5079 5080 5081 5082 5083 5084 5085 5086 5087 5088 5089 5090 5091 5092 5093 5094 5095 5096 5097 5098 5099 5100 5101 5102 5103 5104 5105 5106 5107 5108 5109 5110 5111 5112 5113 5114 5115 5116 5117 5118 5119 5120 5121 5122 5123 5124 5125 5126 5127 5128 5129 5130 5131 5132 5133 5134 5135 5136 5137 5138 5139 5140 5141 5142 5143 5144 5145 5146 5147 5148 5149 5150 5151 5152 5153 5154 5155 5156 5157 5158 5159 5160 5161 5162 5163 5164 5165 5166 5167 5168 5169 5170 5171 5172 5173 5174 5175 5176 5177 5178 5179 5180 5181 5182 5183 5184 5185 5186 5187 5188 5189 5190 5191 5192 5193 5194 5195 5196 5197 5198 5199 5200 5201 5202 5203 5204 5205 5206 5207 5208 5209 5210 5211 5212 5213 5214 5215 5216 5217 5218 5219 5220 5221 5222 5223 5224 5225 5226 5227 5228 5229 5230 5231 5232 5233 5234 5235 5236 5237 5238 5239 5240 5241 5242 5243 5244 5245 5246 5247 5248 5249 5250 5251 5252 5253 5254 5255 5256 5257 5258 5259 5260 5261 5262 5263 5264 5265 5266 5267 5268 5269 5270 5271 5272 5273 5274 5275 5276 5277 5278 5279 5280 5281 5282 5283 5284 5285 5286 5287 5288 5289 5290 5291 5292 5293 5294 5295 5296 5297 5298 5299 5300 5301 5302 5303 5304 5305 5306 5307 5308 5309 5310 5311 5312 5313 5314 5315 5316 5317 5318 5319 5320 5321 5322 5323 5324 5325 5326 5327 5328 5329 5330 5331 5332 5333 5334 5335 5336 5337 5338 5339 5340 5341 5342 5343 5344 5345 5346 5347 5348 5349 5350 5351 5352 5353 5354 5355 5356 5357 5358 5359 5360 5361 5362 5363 5364 5365 5366 5367 5368 5369 5370 5371 5372 5373 5374 5375 5376 5377 5378 5379 5380 5381 5382 5383 5384 5385 5386 5387 5388 5389 5390 5391 5392 5393 5394 5395 5396 5397 5398 5399 5400 5401 5402 5403 5404 5405 5406 5407 5408 5409 5410 5411 5412 5413 5414 5415 5416 5417 5418 5419 5420 5421 5422 5423 5424 5425 5426 5427 5428 5429 5430 5431 5432 5433 5434 5435 5436 5437 5438 5439 5440 5441 5442 5443 5444 5445 5446 5447 5448 5449 5450 5451 5452 5453 5454 5455 5456 5457 5458 5459 5460 5461 5462 5463 5464 5465 5466 5467 5468 5469 5470 5471 5472 5473 5474 5475 5476 5477 5478 5479 5480 5481 5482 5483 5484 5485 5486 5487 5488 5489 5490 5491 5492 5493 5494 5495 5496 5497 5498 5499 5500 5501 5502 5503 5504 5505 5506 5507 5508 5509 5510 5511 5512 5513 5514 5515 5516 5517 5518 5519 5520 5521 5522 5523 5524 5525 5526 5527 5528 5529 5530 5531 5532 5533 5534 5535 5536 5537 5538 5539 5540 5541 5542 5543 5544 5545 5546 5547 5548 5549 5550 5551 5552 5553 5554 5555 5556 5557 5558 5559 5560 5561 5562 5563 5564 5565 5566 5567 5568 5569 5570 5571 5572 5573 5574 5575 5576 5577 5578 5579 5580 5581 5582 5583 5584 5585 5586 5587 5588 5589 5590 5591 5592 5593 5594 5595 5596 5597 5598 5599 5600 5601 5602 5603 5604 5605 5606 5607 5608 5609 5610 5611 5612 5613 5614 5615 5616 5617 5618 5619 5620 5621 5622 5623 5624 5625 5626 5627 5628 5629 5630 5631 5632 5633 5634 5635 5636 5637 5638 5639 5640 5641 5642 5643 5644 5645 5646 5647 5648 5649 5650 5651 5652 5653 5654 5655 5656 5657 5658 5659 5660 5661 5662 5663 5664 5665 5666 5667 5668 5669 5670 5671 5672 5673 5674 5675 5676 5677 5678 5679 5680 5681 5682 5683 5684 5685 5686 5687 5688 5689 5690 5691 5692 5693 5694 5695 5696 5697 5698 5699 5700 5701 5702 5703 5704 5705 5706 5707 5708 5709 5710 5711 5712 5713 5714 5715 5716 5717 5718 5719 5720 5721 5722 5723 5724 5725 5726 5727 5728 5729 5730 5731 5732 5733 5734 5735 5736 5737 5738 5739 5740 5741 5742 5743 5744 5745 5746 5747 5748 5749 5750 5751 5752 5753 5754 5755 5756 5757 5758 5759 5760 5761 5762 5763 5764 5765 5766 5767 5768 5769 5770 5771 5772 5773 5774 5775 5776 5777 5778 5779 5780 5781 5782 5783 5784 5785 5786 5787 5788 5789 5790 5791 5792 5793 5794 5795 5796 5797 5798 5799 5800 5801 5802 5803 5804 5805 5806 5807 5808 5809 5810 5811 5812 5813 5814 5815 5816 5817 5818 5819 5820 5821 5822 5823 5824 5825 5826 5827 5828 5829 5830 5831 5832 5833 5834 5835 5836 5837 5838 5839 5840 5841 5842 5843 5844 5845 5846 5847 5848 5849 5850 5851 5852 5853 5854 5855 5856 5857 5858 5859 5860 5861 5862 5863 5864 5865 5866 5867 5868 5869 5870 5871 5872 5873 5874 5875 5876 5877 5878 5879 5880 5881 5882 5883 5884 5885 5886 5887 5888 5889 5890 5891 5892 5893 5894 5895 5896 5897 5898 5899 5900 5901 5902 5903 5904 5905 5906 5907 5908 5909 5910 5911 5912 5913 5914 5915 5916 5917 5918 5919 5920 5921 5922 5923 5924 5925 5926 5927 5928 5929 5930 5931 5932 5933 5934 5935 5936 5937 5938 5939 5940 5941 5942 5943 5944 5945 5946 5947 5948 5949 5950 5951 5952 5953 5954 5955 5956 5957 5958 5959 5960 5961 5962 5963 5964 5965 5966 5967 5968 5969 5970 5971 5972 5973 5974 5975 5976 5977 5978 5979 5980 5981 5982 5983 5984 5985 5986 5987 5988 5989 5990 5991 5992 5993 5994 5995 5996 5997 5998 5999 6000 6001 6002 6003 6004 6005 6006 6007 6008 6009 6010 6011 6012 6013 6014 6015 6016 6017 6018 6019 6020 6021 6022 6023 6024 6025 6026 6027 6028 6029 6030 6031 6032 6033 6034 6035 6036 6037 6038 6039 6040 6041 6042 6043 6044 6045 6046 6047 6048 6049 6050 6051 6052 6053 6054 6055 6056 6057 6058 6059 6060 6061 6062 6063 6064 6065 6066 6067 6068 6069 6070 6071 6072 6073 6074 6075 6076 6077 6078 6079 6080 6081 6082 6083 6084 6085 6086 6087 6088 6089 6090 6091 6092 6093 6094 6095 6096 6097 6098 6099 6100 6101 6102 6103 6104 6105 6106 6107 6108 6109 6110 6111 6112 6113 6114 6115 6116 6117 6118 6119 6120 6121 6122 6123 6124 6125 6126 6127 6128 6129 6130 6131 6132 6133 6134 6135 6136 6137 6138 6139 6140 6141 6142 6143 6144 6145 6146 6147 6148 6149 6150 6151 6152 6153 6154 6155 6156 6157 6158 6159 6160 6161 6162 6163 6164 6165 6166 6167 6168 6169 6170 6171 6172 6173 6174 6175 6176 6177 6178 6179 6180 6181 6182 6183 6184 6185 6186 6187 6188 6189 6190 6191 6192 6193 6194 6195 6196 6197 6198 6199 6200 6201 6202 6203 6204 6205 6206 6207 6208 6209 6210 6211 6212 6213 6214 6215 6216 6217 6218 6219 6220 6221 6222 6223 6224 6225 6226 6227 6228 6229 6230 6231 6232 6233 6234 6235 6236 6237 6238 6239 6240 6241 6242 6243 6244 6245 6246 6247 6248 6249 6250 6251 6252 6253 6254 6255 6256 6257 6258 6259 6260 6261 6262 6263 6264 6265 6266 6267 6268 6269 6270 6271 6272 6273 6274 6275 6276 6277 6278 6279 6280 6281 6282 6283 6284 6285 6286 6287 6288 6289 6290 6291 6292 6293 6294 6295 6296 6297 6298 6299 6300 6301 6302 6303 6304 6305 6306 6307 6308 6309 6310 6311 6312 6313 6314 6315 6316 6317 6318 6319 6320 6321 6322 6323 6324 6325 6326 6327 6328 6329 6330 6331 6332 6333 6334 6335 6336 6337 6338 6339 6340 6341 6342 6343 6344 6345 6346 6347 6348 6349 6350 6351 6352 6353 6354 6355 6356 6357 6358 6359 6360 6361 6362 6363 6364 6365 6366 6367 6368 6369 6370 6371 6372 6373 6374 6375 6376 6377 6378 6379 6380 6381 6382 6383 6384 6385 6386 6387 6388 6389 6390 6391 6392 6393 6394 6395 6396 6397 6398 6399 6400 6401 6402 6403 6404 6405 6406 6407 6408 6409 6410 6411 6412 6413 6414 6415 6416 6417 6418 6419 6420 6421 6422 6423 6424 6425 6426 6427 6428 6429 6430 6431 6432 6433 6434 6435 6436 6437 6438 6439 6440 6441 6442 6443 6444 6445 6446 6447 6448 6449 6450 6451 6452 6453 6454 6455 6456 6457 6458 6459 6460 6461 6462 6463 6464 6465 6466 6467 6468 6469 6470 6471 6472 6473 6474 6475 6476 6477 6478 6479 6480 6481 6482 6483 6484 6485 6486 6487 6488 6489 6490 6491 6492 6493 6494 6495 6496 6497 6498 6499 6500 6501 6502 6503 6504 6505 6506 6507 6508 6509 6510 6511 6512 6513 6514 6515 6516 6517 6518 6519 6520 6521 6522 6523 6524 6525 6526 6527 6528 6529 6530 6531 6532 6533 6534 6535 6536 6537 6538 6539 6540 6541 6542 6543 6544 6545 6546 6547 6548 6549 6550 6551 6552 6553 6554 6555 6556 6557 6558 6559 6560 6561 6562 6563 6564 6565 6566 6567 6568 6569 6570 6571 6572 6573 6574 6575 6576 6577 6578 6579 6580 6581 6582 6583 6584 6585 6586 6587 6588 6589 6590 6591 6592 6593 6594 6595 6596 6597 6598 6599 6600 6601 6602 6603 6604 6605 6606 6607 6608 6609 6610 6611 6612 6613 6614 6615 6616 6617 6618 6619 6620 6621 6622 6623 6624 6625 6626 6627 6628 6629 6630 6631 6632 6633 6634 6635 6636 6637 6638 6639 6640 6641 6642 6643 6644 6645 6646 6647 6648 6649 6650 6651 6652 6653 6654 6655 6656 6657 6658 6659 6660 6661 6662 6663 6664 6665 6666 6667 6668 6669 6670 6671 6672 6673 6674 6675 6676 6677 6678 6679 6680 6681 6682 6683 6684 6685 6686 6687 6688 6689 6690 6691 6692 6693 6694 6695 6696 6697 6698 6699 6700 6701 6702 6703 6704 6705 6706 6707 6708 6709 6710 6711 6712 6713 6714 6715 6716 6717 6718 6719 6720 6721 6722 6723 6724 6725 6726 6727 6728 6729 6730 6731 6732 6733 6734 6735 6736 6737 6738 6739 6740 6741 6742 6743 6744 6745 6746 6747 6748 6749 6750 6751 6752 6753 6754 6755 6756 6757 6758 6759 6760 6761 6762 6763 6764 6765 6766 6767 6768 6769 6770 6771 6772 6773 6774 6775 6776 6777 6778 6779 6780 6781 6782 6783 6784 6785 6786 6787 6788 6789 6790 6791 6792 6793 6794 6795 6796 6797 6798 6799 6800 6801 6802 6803 6804 6805 6806 6807 6808 6809 6810 6811 6812 6813 6814 6815 6816 6817 6818 6819 6820 6821 6822 6823 6824 6825 6826 6827 6828 6829 6830 6831 6832 6833 6834 6835 6836 6837 6838 6839 6840 6841 6842 6843 6844 6845 6846 6847 6848 6849 6850 6851 6852 6853 6854 6855 6856 6857 6858 6859 6860 6861 6862 6863 6864 6865 6866 6867 6868 6869 6870 6871 6872 6873 6874 6875 6876 6877 6878 6879 6880 6881 6882 6883 6884 6885 6886 6887 6888 6889 6890 6891 6892 6893 6894 6895 6896 6897 6898 6899 6900 6901 6902 6903 6904 6905 6906 6907 6908 6909 6910 6911 6912 6913 6914 6915 6916 6917 6918 6919 6920 6921 6922 6923 6924 6925 6926 6927 6928 6929 6930 6931 6932 6933 6934 6935 6936 6937 6938 6939 6940 6941 6942 6943 6944 6945 6946 6947 6948 6949 6950 6951 6952 6953 6954 6955 6956 6957 6958 6959 6960 6961 6962 6963 6964 6965 6966 6967 6968 6969 6970 6971 6972 6973 6974 6975 6976 6977 6978 6979 6980 6981 6982 6983 6984 6985 6986 6987 6988 6989 6990 6991 6992 6993 6994 6995 6996 6997 6998 6999 7000 7001 7002 7003 7004 7005 7006 7007 7008 7009 7010 7011 7012 7013 7014 7015 7016 7017 7018 7019 7020 7021 7022 7023 7024 7025 7026 7027 7028 7029 7030 7031 7032 7033 7034 7035 7036 7037 7038 7039 7040 7041 7042 7043 7044 7045 7046 7047 7048 7049 7050 7051 7052 7053 7054 7055 7056 7057 7058 7059 7060 7061 7062 7063 7064 7065 7066 7067 7068 7069 7070 7071 7072 7073 7074 7075 7076 7077 7078 7079 7080 7081 7082 7083 7084 7085 7086 7087 7088 7089 7090 7091 7092 7093 7094 7095 7096 7097 7098 7099 7100 7101 7102 7103 7104 7105 7106 7107 7108 7109 7110 7111 7112 7113 7114 7115 7116 7117 7118 7119 7120 7121 7122 7123 7124 7125 7126 7127 7128 7129 7130 7131 7132 7133 7134 7135 7136 7137 7138 7139 7140 7141 7142 7143 7144 7145 7146 7147 7148 7149 7150 7151 7152 7153 7154 7155 7156 7157 7158 7159 7160 7161 7162 7163 7164 7165 7166 7167 7168 7169 7170 7171 7172 7173 7174 7175 7176 7177 7178 7179 7180 7181 7182 7183 7184 7185 7186 7187 7188 7189 7190 7191 7192 7193 7194 7195 7196 7197 7198 7199 7200 7201 7202 7203 7204 7205 7206 7207 7208 7209 7210 7211 7212 7213 7214 7215 7216 7217 7218 7219 7220 7221 7222 7223 7224 7225 7226 7227 7228 7229 7230 7231 7232 7233 7234 7235 7236 7237 7238 7239 7240 7241 7242 7243 7244 7245 7246 7247 7248 7249 7250 7251 7252 7253 7254 7255 7256 7257 7258 7259 7260 7261 7262 7263 7264 7265 7266 7267 7268 7269 7270 7271 7272 7273 7274 7275 7276 7277 7278 7279 7280 7281 7282 7283 7284 7285 7286 7287 7288 7289 7290 7291 7292 7293 7294 7295 7296 7297 7298 7299 7300 7301 7302 7303 7304 7305 7306 7307 7308 7309 7310 7311 7312 7313 7314 7315 7316 7317 7318 7319 7320 7321 7322 7323 7324 7325 7326 7327 7328 7329 7330 7331 7332 7333 7334 7335 7336 7337 7338 7339 7340 7341 7342 7343 7344 7345 7346 7347 7348 7349 7350 7351 7352 7353 7354 7355 7356 7357 7358 7359 7360 7361 7362 7363 7364 7365 7366 7367 7368 7369 7370 7371 7372 7373 7374 7375 7376 7377 7378 7379 7380 7381 7382 7383 7384 7385 7386 7387 7388 7389 7390 7391 7392 7393 7394 7395 7396 7397 7398 7399 7400 7401 7402 7403 7404 7405 7406 7407 7408 7409 7410 7411 7412 7413 7414 7415 7416 7417 7418 7419 7420 7421 7422 7423 7424 7425 7426 7427 7428 7429 7430 7431 7432 7433 7434 7435 7436 7437 7438 7439 7440 7441 7442 7443 7444 7445 7446 7447 7448 7449 7450 7451 7452 7453 7454 7455 7456 7457 7458 7459 7460 7461 7462 7463 7464 7465 7466 7467 7468 7469 7470 7471 7472 7473 7474 7475 7476 7477 7478 7479 7480 7481 7482 7483 7484 7485 7486 7487 7488 7489 7490 7491 7492 7493 7494 7495 7496 7497 7498 7499 7500 7501 7502 7503 7504 7505 7506 7507 7508 7509 7510 7511 7512 7513 7514 7515 7516 7517 7518 7519 7520 7521 7522 7523 7524 7525 7526 7527 7528 7529 7530 7531 7532 7533 7534 7535 7536 7537 7538 7539 7540 7541 7542 7543 7544 7545 7546 7547 7548 7549 7550 7551 7552 7553 7554 7555 7556 7557 7558 7559 7560 7561 7562 7563 7564 7565 7566 7567 7568 7569 7570 7571 7572 7573 7574 7575 7576 7577 7578 7579 7580 7581 7582 7583 7584 7585 7586 7587 7588 7589 7590 7591 7592 7593 7594 7595 7596 7597 7598 7599 7600 7601 7602 7603 7604 7605 7606 7607 7608 7609 7610 7611 7612 7613 7614 7615 7616 7617 7618 7619 7620 7621 7622 7623 7624 7625 7626 7627 7628 7629 7630 7631 7632 7633 7634 7635 7636 7637 7638 7639 7640 7641 7642 7643 7644 7645 7646 7647 7648 7649 7650 7651 7652 7653 7654 7655 7656 7657 7658 7659 7660 7661 7662 7663 7664 7665 7666 7667 7668 7669 7670 7671 7672 7673 7674 7675 7676 7677 7678 7679 7680 7681 7682 7683 7684 7685 7686 7687 7688 7689 7690 7691 7692 7693 7694 7695 7696 7697 7698 7699 7700 7701 7702 7703 7704 7705 7706 7707 7708 7709 7710 7711 7712 7713 7714 7715 7716 7717 7718 7719 7720 7721 7722 7723 7724 7725 7726 7727 7728 7729 7730 7731 7732 7733 7734 7735 7736 7737 7738 7739 7740 7741 7742 7743 7744 7745 7746 7747 7748 7749 7750 7751 7752 7753 7754 7755 7756 7757 7758 7759 7760 7761 7762 7763 7764 7765 7766 7767 7768 7769 7770 7771 7772 7773 7774 7775 7776 7777 7778 7779 7780 7781 7782 7783 7784 7785 7786 7787 7788 7789 7790 7791 7792 7793 7794 7795 7796 7797 7798 7799 7800 7801 7802 7803 7804 7805 7806 7807 7808 7809 7810 7811 7812 7813 7814 7815 7816 7817 7818 7819 7820 7821 7822 7823 7824 7825 7826 7827 7828 7829 7830 7831 7832 7833 7834 7835 7836 7837 7838 7839 7840 7841 7842 7843 7844 7845 7846 7847 7848 7849 7850 7851 7852 7853 7854 7855 7856 7857 7858 7859 7860 7861 7862 7863 7864 7865 7866 7867 7868 7869 7870 7871 7872 7873 7874 7875 7876 7877 7878 7879 7880 7881 7882 7883 7884 7885 7886 7887 7888 7889 7890 7891 7892 7893 7894 7895 7896 7897 7898 7899 7900 7901 7902 7903 7904 7905 7906 7907 7908 7909 7910 7911 7912 7913 7914 7915 7916 7917 7918 7919 7920 7921 7922 7923 7924 7925 7926 7927 7928 7929 7930 7931 7932 7933 7934 7935 7936 7937 7938 7939 7940 7941 7942 7943 7944 7945 7946 7947 7948 7949 7950 7951 7952 7953 7954 7955 7956 7957 7958 7959 7960 7961 7962 7963 7964 7965 7966 7967 7968 7969 7970 7971 7972 7973 7974 7975 7976 7977 7978 7979 7980 7981 7982 7983 7984 7985 7986 7987 7988 7989 7990 7991 7992 7993 7994 7995 7996 7997 7998 7999 8000 8001 8002 8003 8004 8005 8006 8007 8008 8009 8010 8011 8012 8013 8014 8015 8016 8017 8018 8019 8020 8021 8022 8023 8024 8025 8026 8027 8028 8029 8030 8031 8032 8033 8034 8035 8036 8037 8038 8039 8040 8041 8042 8043 8044 8045 8046 8047 8048 8049 8050 8051 8052 8053 8054 8055 8056 8057 8058 8059 8060 8061 8062 8063 8064 8065 8066 8067 8068 8069 8070 8071 8072 8073 8074 8075 8076 8077 8078 8079 8080 8081 8082 8083 8084 8085 8086 8087 8088 8089 8090 8091 8092 8093 8094 8095 8096 8097 8098 8099 8100 8101 8102 8103 8104 8105 8106 8107 8108 8109 8110 8111 8112 8113 8114 8115 8116 8117 8118 8119 8120 8121 8122 8123 8124 8125 8126 8127 8128 8129 8130 8131 8132 8133 8134 8135 8136 8137 8138 8139 8140 8141 8142 8143 8144 8145 8146 8147 8148 8149 8150 8151 8152 8153 8154 8155 8156 8157 8158 8159 8160 8161 8162 8163 8164 8165 8166 8167 8168 8169 8170 8171 8172 8173 8174 8175 8176 8177 8178 8179 8180 8181 8182 8183 8184 8185 8186 8187 8188 8189 8190 8191 8192 8193 8194 8195 8196 8197 8198 8199 8200 8201 8202 8203 8204 8205 8206 8207 8208 8209 8210 8211 8212 8213 8214 8215 8216 8217 8218 8219 8220 8221 8222 8223 8224 8225 8226 8227 8228 8229 8230 8231 8232 8233 8234 8235 8236 8237 8238 8239 8240 8241 8242 8243 8244 8245 8246 8247 8248 8249 8250 8251 8252 8253 8254 8255 8256 8257 8258 8259 8260 8261 8262 8263 8264 8265 8266 8267 8268 8269 8270 8271 8272 8273 8274 8275 8276 8277 8278 8279 8280 8281 8282 8283 8284 8285 8286 8287 8288 8289 8290 8291 8292 8293 8294 8295 8296 8297 8298 8299 8300 8301 8302 8303 8304 8305 8306 8307 8308 8309 8310 8311 8312 8313 8314 8315 8316 8317 8318 8319 8320 8321 8322 8323 8324 8325 8326 8327 8328 8329 8330 8331 8332 8333 8334 8335 8336 8337 8338 8339 8340 8341 8342 8343 8344 8345 8346 8347 8348 8349 8350 8351 8352 8353 8354 8355 8356 8357 8358 8359 8360 8361 8362 8363 8364 8365 8366 8367 8368 8369 8370 8371 8372 8373 8374 8375 8376 8377 8378 8379 8380 8381 8382 8383 8384 8385 8386 8387 8388 8389 8390 8391 8392 8393 8394 8395 8396 8397 8398 8399 8400 8401 8402 8403 8404 8405 8406 8407 8408 8409 8410 8411 8412 8413 8414 8415 8416 8417 8418 8419 8420 8421 8422 8423 8424 8425 8426 8427 8428 8429 8430 8431 8432 8433 8434 8435 8436 8437 8438 8439 8440 8441 8442 8443 8444 8445 8446 8447 8448 8449 8450 8451 8452 8453 8454 8455 8456 8457 8458 8459 8460 8461 8462 8463 8464 8465 8466 8467 8468 8469 8470 8471 8472 8473 8474 8475 8476 8477 8478 8479 8480 8481 8482 8483 8484 8485 8486 8487 8488 8489 8490 8491 8492 8493 8494 8495 8496 8497 8498 8499 8500 8501 8502 8503 8504 8505 8506 8507 8508 8509 8510 8511 8512 8513 8514 8515 8516 8517 8518 8519 8520 8521 8522 8523 8524 8525 8526 8527 8528 8529 8530 8531 8532 8533 8534 8535 8536 8537 8538 8539 8540 8541 8542 8543 8544 8545 8546 8547 8548 8549 8550 8551 8552 8553 8554 8555 8556 8557 8558 8559 8560 8561 8562 8563 8564 8565 8566 8567 8568 8569 8570 8571 8572 8573 8574 8575 8576 8577 8578 8579 8580 8581 8582 8583 8584 8585 8586 8587 8588 8589 8590 8591 8592 8593 8594 8595 8596 8597 8598 8599 8600 8601 8602 8603 8604 8605 8606 8607 8608 8609 8610 8611 8612 8613 8614 8615 8616 8617 8618 8619 8620 8621 8622 8623 8624 8625 8626 8627 8628 8629 8630 8631 8632 8633 8634 8635 8636 8637 8638 8639 8640 8641 8642 8643 8644 8645 8646 8647 8648 8649 8650 8651 8652 8653 8654 8655 8656 8657 8658 8659 8660 8661 8662 8663 8664 8665 8666 8667 8668 8669 8670 8671 8672 8673 8674 8675 8676 8677 8678 8679 8680 8681 8682 8683 8684 8685 8686 8687 8688 8689 8690 8691 8692 8693 8694 8695 8696 8697 8698 8699 8700 8701 8702 8703 8704 8705 8706 8707 8708 8709 8710 8711 8712 8713 8714 8715 8716 8717 8718 8719 8720 8721 8722 8723 8724 8725 8726 8727 8728 8729 8730 8731 8732 8733 8734 8735 8736 8737 8738 8739 8740 8741 8742 8743 8744 8745 8746 8747 8748 8749 8750 8751 8752 8753 8754 8755 8756 8757 8758 8759 8760 8761 8762 8763 8764 8765 8766 8767 8768 8769 8770 8771 8772 8773 8774 8775 8776 8777 8778 8779 8780 8781 8782 8783 8784 8785 8786 8787 8788 8789 8790 8791 8792 8793 8794 8795 8796 8797 8798 8799 8800 8801 8802 8803 8804 8805 8806 8807 8808 8809 8810 8811 8812 8813 8814 8815 8816 8817 8818 8819 8820 8821 8822 8823 8824 8825 8826 8827 8828 8829 8830 8831 8832 8833 8834 8835 8836 8837 8838 8839 8840 8841 8842 8843 8844 8845 8846 8847 8848 8849 8850 8851 8852 8853 8854 8855 8856 8857 8858 8859 8860 8861 8862 8863 8864 8865 8866 8867 8868 8869 8870 8871 8872 8873 8874 8875 8876 8877 8878 8879 8880 8881 8882 8883 8884 8885 8886 8887 8888 8889 8890 8891 8892 8893 8894 8895 8896 8897 8898 8899 8900 8901 8902 8903 8904 8905 8906 8907 8908 8909 8910 8911 8912 8913 8914 8915 8916 8917 8918 8919 8920 8921 8922 8923 8924 8925 8926 8927 8928 8929 8930 8931 8932 8933 8934 8935 8936 8937 8938 8939 8940 8941 8942 8943 8944 8945 8946 8947 8948 8949 8950 8951 8952 8953 8954 8955 8956 8957 8958 8959 8960 8961 8962 8963 8964 8965 8966 8967 8968 8969 8970 8971 8972 8973 8974 8975 8976 8977 8978 8979 8980 8981 8982 8983 8984 8985 8986 8987 8988 8989 8990 8991 8992 8993 8994 8995 8996 8997 8998 8999 9000 9001 9002 9003 9004 9005 9006 9007 9008 9009 9010 9011 9012 9013 9014 9015 9016 9017 9018 9019 9020 9021 9022 9023 9024 9025 9026 9027 9028 9029 9030 9031 9032 9033 9034 9035 9036 9037 9038 9039 9040 9041 9042 9043 9044 9045 9046 9047 9048 9049 9050 9051 9052 9053 9054 9055 9056 9057 9058 9059 9060 9061 9062 9063 9064 9065 9066 9067 9068 9069 9070 9071 9072 9073 9074 9075 9076 9077 9078 9079 9080 9081 9082 9083 9084 9085 9086 9087 9088 9089 9090 9091 9092 9093 9094 9095 9096 9097 9098 9099 9100 9101 9102 9103 9104 9105 9106 9107 9108 9109 9110 9111 9112 9113 9114 9115 9116 9117 9118 9119 9120 9121 9122 9123 9124 9125 9126 9127 9128 9129 9130 9131 9132 9133 9134 9135 9136 9137 9138 9139 9140 9141 9142 9143 9144 9145 9146 9147 9148 9149 9150 9151 9152 9153 9154 9155 9156 9157 9158 9159 9160 9161 9162 9163 9164 9165 9166 9167 9168 9169 9170 9171 9172 9173 9174 9175 9176 9177 9178 9179 9180 9181 9182 9183 9184 9185 9186 9187 9188 9189 9190 9191 9192 9193 9194 9195 9196 9197 9198 9199 9200 9201 9202 9203 9204 9205 9206 9207 9208 9209 9210 9211 9212 9213 9214 9215 9216 9217 9218 9219 9220 9221 9222 9223 9224 9225 9226 9227 9228 9229 9230 9231 9232 9233 9234 9235 9236 9237 9238 9239 9240 9241 9242 9243 9244 9245 9246 9247 9248 9249 9250 9251 9252 9253 9254 9255 9256 9257 9258 9259 9260 9261 9262 9263 9264 9265 9266 9267 9268 9269 9270 9271 9272 9273 9274 9275 9276 9277 9278 9279 9280 9281 9282 9283 9284 9285 9286 9287 9288 9289 9290 9291 9292 9293 9294 9295 9296 9297 9298 9299 9300 9301 9302 9303 9304 9305 9306 9307 9308 9309 9310 9311 9312 9313 9314 9315 9316 9317 9318 9319 9320 9321 9322 9323 9324 9325 9326 9327 9328 9329 9330 9331 9332 9333 9334 9335 9336 9337 9338 9339 9340 9341 9342 9343 9344 9345 9346 9347 9348 9349 9350 9351 9352 9353 9354 9355 9356 9357 9358 9359 9360 9361 9362 9363 9364 9365 9366 9367 9368 9369 9370 9371 9372 9373 9374 9375 9376 9377 9378 9379 9380 9381 9382 9383 9384 9385 9386 9387 9388 9389 9390 9391 9392 9393 9394 9395 9396 9397 9398 9399 9400 9401 9402 9403 9404 9405 9406 9407 9408 9409 9410 9411 9412 9413 9414 9415 9416 9417 9418 9419 9420 9421 9422 9423 9424 9425 9426 9427 9428 9429 9430 9431 9432 9433 9434 9435 9436 9437 9438 9439 9440 9441 9442 9443 9444 9445 9446 9447 9448 9449 9450 9451 9452 9453 9454 9455 9456 9457 9458 9459 9460 9461 9462 9463 9464 9465 9466 9467 9468 9469 9470 9471 9472 9473 9474 9475 9476 9477 9478 9479 9480 9481 9482 9483 9484 9485 9486 9487 9488 9489 9490 9491 9492 9493 9494 9495 9496 9497 9498 9499 9500 9501 9502 9503 9504 9505 9506 9507 9508 9509 9510 9511 9512 9513 9514 9515 9516 9517 9518 9519 9520 9521 9522 9523 9524 9525 9526 9527 9528 9529 9530 9531 9532 9533 9534 9535 9536 9537 9538 9539 9540 9541 9542 9543 9544 9545 9546 9547 9548 9549 9550 9551 9552 9553 9554 9555 9556 9557 9558 9559 9560 9561 9562 9563 9564 9565 9566 9567 9568 9569 9570 9571 9572 9573 9574 9575 9576 9577 9578 9579 9580 9581 9582 9583 9584 9585 9586 9587 9588 9589 9590 9591 9592 9593 9594 9595 9596 9597 9598 9599 9600 9601 9602 9603 9604 9605 9606 9607 9608 9609 9610 9611 9612 9613 9614 9615 9616 9617 9618 9619 9620 9621 9622 9623 9624 9625 9626 9627 9628 9629 9630 9631 9632 9633 9634 9635 9636 9637 9638 9639 9640 9641 9642 9643 9644 9645 9646 9647 9648 9649 9650 9651 9652 9653 9654 9655 9656 9657 9658 9659 9660 9661 9662 9663 9664 9665 9666 9667 9668 9669 9670 9671 9672 9673 9674 9675 9676 9677 9678 9679 9680 9681 9682 9683 9684 9685 9686 9687 9688 9689 9690 9691 9692 9693 9694 9695 9696 9697 9698 9699 9700 9701 9702 9703 9704 9705 9706 9707 9708 9709 9710 9711 9712 9713 9714 9715 9716 9717 9718 9719 9720 9721 9722 9723 9724 9725 9726 9727 9728 9729 9730 9731 9732 9733 9734 9735 9736 9737 9738 9739 9740 9741 9742 9743 9744 9745 9746 9747 9748 9749 9750 9751 9752 9753 9754 9755 9756 9757 9758 9759 9760 9761 9762 9763 9764 9765 9766 9767 9768 9769 9770 9771 9772 9773 9774 9775 9776 9777 9778 9779 9780 9781 9782 9783 9784 9785 9786 9787 9788 9789 9790 9791 9792 9793 9794 9795 9796 9797 9798 9799 9800 9801 9802 9803 9804 9805 9806 9807 9808 9809 9810 9811 9812 9813 9814 9815 9816 9817 9818 9819 9820 9821 9822 9823 9824 9825 9826 9827 9828 9829 9830 9831 9832 9833 9834 9835 9836 9837 9838 9839 9840 9841 9842 9843 9844 9845 9846 9847 9848 9849 9850 9851 9852 9853 9854 9855 9856 9857 9858 9859 9860 9861 9862 9863 9864 9865 9866 9867 9868 9869 9870 9871 9872 9873 9874 9875 9876 9877 9878 9879 9880 9881 9882 9883 9884 9885 9886 9887 9888 9889 9890 9891 9892 9893 9894 9895 9896 9897 9898 9899 9900 9901 9902 9903 9904 9905 9906 9907 9908 9909 9910 9911 9912 9913 9914 9915 9916 9917 9918 9919 9920 9921 9922 9923 9924 9925 9926 9927 9928 9929 9930 9931 9932 9933 9934 9935 9936 9937 9938 9939 9940 9941 9942 9943 9944 9945 9946 9947 9948 9949 9950 9951 9952 9953 9954 9955 9956 9957 9958 9959 9960 9961 9962 9963 9964 9965 9966 9967 9968 9969 9970 9971 9972 9973 9974 9975 9976 9977 9978 9979 9980 9981 9982 9983 9984 9985 9986 9987 9988 9989 9990 9991 9992 9993 9994 9995 9996 9997 9998 9999 10000 10001 10002 10003 10004 10005 10006 10007 10008 10009 10010 10011 10012 10013 10014 10015 10016 10017 10018 10019 10020 10021 10022 10023 10024 10025 10026 10027 10028 10029 10030 10031 10032 10033 10034 10035 10036 10037 10038 10039 10040 10041 10042 10043 10044 10045 10046 10047 10048 10049 10050 10051 10052 10053 10054 10055 10056 10057 10058 10059 10060 10061 10062 10063 10064 10065 10066 10067 10068 10069 10070 10071 10072 10073 10074 10075 10076 10077 10078 10079 10080 10081 10082 10083 10084 10085 10086 10087 10088 10089 10090 10091 10092 10093 10094 10095 10096 10097 10098 10099 10100 10101 10102 10103 10104 10105 10106 10107 10108 10109 10110 10111 10112 10113 10114 10115 10116 10117 10118 10119 10120 10121 10122 10123 10124 10125 10126 10127 10128 10129 10130 10131 10132 10133 10134 10135 10136 10137 10138 10139 10140 10141 10142 10143 10144 10145 10146 10147 10148 10149 10150 10151 10152 10153 10154 10155 10156 10157 10158 10159 10160 10161 10162 10163 10164 10165 10166 10167 10168 10169 10170 10171 10172 10173 10174 10175 10176 10177 10178 10179 10180 10181 10182 10183 10184 10185 10186 10187 10188 10189 10190 10191 10192 10193 10194 10195 10196 10197 10198 10199 10200 10201 10202 10203 10204 10205 10206 10207 10208 10209 10210 10211 10212 10213 10214 10215 10216 10217 10218 10219 10220 10221 10222 10223 10224 10225 10226 10227 10228 10229 10230 10231 10232 10233 10234 10235 10236 10237 10238 10239 10240 10241 10242 10243 10244 10245 10246 10247 10248 10249 10250 10251 10252 10253 10254 10255 10256 10257 10258 10259 10260 10261 10262 10263 10264 10265 10266 10267 10268 10269 10270 10271 10272 10273 10274 10275 10276 10277 10278 10279 10280 10281 10282 10283 10284 10285 10286 10287 10288 10289 10290 10291 10292 10293 10294 10295 10296 10297 10298 10299 10300 10301 10302 10303 10304 10305 10306 10307 10308 10309 10310 10311 10312 10313 10314 10315 10316 10317 10318 10319 10320 10321 10322 10323 10324 10325 10326 10327 10328 10329 10330 10331 10332 10333 10334 10335 10336 10337 10338 10339 10340 10341 10342 10343 10344 10345 10346 10347 10348 10349 10350 10351 10352 10353 10354 10355 10356 10357 10358 10359 10360 10361 10362 10363 10364 10365 10366 10367 10368 10369 10370 10371 10372 10373 10374 10375 10376 10377 10378 10379 10380 10381 10382 10383 10384 10385 10386 10387 10388 10389 10390 10391 10392 10393 10394 10395 10396 10397 10398 10399 10400 10401 10402 10403 10404 10405 10406 10407 10408 10409 10410 10411 10412 10413 10414 10415 10416 10417 10418 10419 10420 10421 10422 10423 10424 10425 10426 10427 10428 10429 10430 10431 10432 10433 10434 10435 10436 10437 10438 10439 10440 10441 10442 10443 10444 10445 10446 10447 10448 10449 10450 10451 10452 10453 10454 10455 10456 10457 10458 10459 10460 10461 10462 10463 10464 10465 10466 10467 10468 10469 10470 10471 10472 10473 10474 10475 10476 10477 10478 10479 10480 10481 10482 10483 10484 10485 10486 10487 10488 10489 10490 10491 10492 10493 10494 10495 10496 10497 10498 10499 10500 10501 10502 10503 10504 10505 10506 10507 10508 10509 10510 10511 10512 10513 10514 10515 10516 10517 10518 10519 10520 10521 10522 10523 10524 10525 10526 10527 10528 10529 10530 10531 10532 10533 10534 10535 10536 10537 10538 10539 10540 10541 10542 10543 10544 10545 10546 10547 10548 10549 10550 10551 10552 10553 10554 10555 10556 10557 10558 10559 10560 10561 10562 10563 10564 10565 10566 10567 10568 10569 10570 10571 10572 10573 10574 10575 10576 10577 10578 10579 10580 10581 10582 10583 10584 10585 10586 10587 10588 10589 10590 10591 10592 10593 10594 10595 10596 10597 10598 10599 10600 10601 10602 10603 10604 10605 10606 10607 10608 10609 10610 10611 10612 10613 10614 10615 10616 10617 10618 10619 10620 10621 10622 10623 10624 10625 10626 10627 10628 10629 10630 10631 10632 10633 10634 10635 10636 10637 10638 10639 10640 10641 10642 10643 10644 10645 10646 10647 10648 10649 10650 10651 10652 10653 10654 10655 10656 10657 10658 10659 10660 10661 10662 10663 10664 10665 10666 10667 10668 10669 10670 10671 10672 10673 10674 10675 10676 10677 10678 10679 10680 10681 10682 10683 10684 10685 10686 10687 10688 10689 10690 10691 10692 10693 10694 10695 10696 10697 10698 10699 10700 10701 10702 10703 10704 10705 10706 10707 10708 10709 10710 10711 10712 10713 10714 10715 10716 10717 10718 10719 10720 10721 10722 10723 10724 10725 10726 10727 10728 10729 10730 10731 10732 10733 10734 10735 10736 10737 10738 10739 10740 10741 10742 10743 10744 10745 10746 10747 10748 10749 10750 10751 10752 10753 10754 10755 10756 10757 10758 10759 10760 10761 10762 10763 10764 10765 10766 10767 10768 10769 10770 10771 10772 10773 10774 10775 10776 10777 10778 10779 10780 10781 10782 10783 10784 10785 10786 10787 10788 10789 10790 10791 10792 10793 10794 10795 10796 10797 10798 10799 10800 10801 10802 10803 10804 10805 10806 10807 10808 10809 10810 10811 10812 10813 10814 10815 10816 10817 10818 10819 10820 10821 10822 10823 10824 10825 10826 10827 10828 10829 10830 10831 10832 10833 10834 10835 10836 10837 10838 10839 10840 10841 10842 10843 10844 10845 10846 10847 10848 10849 10850 10851 10852 10853 10854 10855 10856 10857 10858 10859 10860 10861 10862 10863 10864 10865 10866 10867 10868 10869 10870 10871 10872 10873 10874 10875 10876 10877 10878 10879 10880 10881 10882 10883 10884 10885 10886 10887 10888 10889 10890 10891 10892 10893 10894 10895 10896 10897 10898 10899 10900 10901 10902 10903 10904 10905 10906 10907 10908 10909 10910 10911 10912 10913 10914 10915 10916 10917 10918 10919 10920 10921 10922 10923 10924 10925 10926 10927 10928 10929 10930 10931 10932 10933 10934 10935 10936 10937 10938 10939 10940 10941 10942 10943 10944 10945 10946 10947 10948 10949 10950 10951 10952 10953 10954 10955 10956 10957 10958 10959 10960 10961 10962 10963 10964 10965 10966 10967 10968 10969 10970 10971 10972 10973 10974 10975 10976 10977 10978 10979 10980 10981 10982 10983 10984 10985 10986 10987 10988 10989 10990 10991 10992 10993 10994 10995 10996 10997 10998 10999 11000 11001 11002 11003 11004 11005 11006 11007 11008 11009 11010 11011 11012 11013 11014 11015 11016 11017 11018 11019 11020 11021 11022 11023 11024 11025 11026 11027 11028 11029 11030 11031 11032 11033 11034 11035 11036 11037 11038 11039 11040 11041 11042 11043 11044 11045 11046 11047 11048 11049 11050 11051 11052 11053 11054 11055 11056 11057 11058 11059 11060 11061 11062 11063 11064 11065 11066 11067 11068 11069 11070 11071 11072 11073 11074 11075 11076 11077 11078 11079 11080 11081 11082 11083 11084 11085 11086 11087 11088 11089 11090 11091 11092 11093 11094 11095 11096 11097 11098 11099 11100 11101 11102 11103 11104 11105 11106 11107 11108 11109 11110 11111 11112 11113 11114 11115 11116 11117 11118 11119 11120 11121 11122 11123 11124 11125 11126 11127 11128 11129 11130 11131 11132 11133 11134 11135 11136 11137 11138 11139 11140 11141 11142 11143 11144 11145 11146 11147 11148 11149 11150 11151 11152 11153 11154 11155 11156 11157 11158 11159 11160 11161 11162 11163 11164 11165 11166 11167 11168 11169 11170 11171 11172 11173 11174 11175 11176 11177 11178 11179 11180 11181 11182 11183 11184 11185 11186 11187 11188 11189 11190 11191 11192 11193 11194 11195 11196 11197 11198 11199 11200 11201 11202 11203 11204 11205 11206 11207 11208 11209 11210 11211 11212 11213 11214 11215 11216 11217 11218 11219 11220 11221 11222 11223 11224 11225 11226 11227 11228 11229 11230 11231 11232 11233 11234 11235 11236 11237 11238 11239 11240 11241 11242 11243 11244 11245 11246 11247 11248 11249 11250 11251 11252 11253 11254 11255 11256 11257 11258 11259 11260 11261 11262 11263 11264 11265 11266 11267 11268 11269 11270 11271 11272 11273 11274 11275 11276 11277 11278 11279 11280 11281 11282 11283 11284 11285 11286 11287 11288 11289 11290 11291 11292 11293 11294 11295 11296 11297 11298 11299 11300 11301 11302 11303 11304 11305 11306 11307 11308 11309 11310 11311 11312 11313 11314 11315 11316 11317 11318 11319 11320 11321 11322 11323 11324 11325 11326 11327 11328 11329 11330 11331 11332 11333 11334 11335 11336 11337 11338 11339 11340 11341 11342 11343 11344 11345 11346 11347 11348 11349 11350 11351 11352 11353 11354 11355 11356 11357 11358 11359 11360 11361 11362 11363 11364 11365 11366 11367 11368 11369 11370 11371 11372 11373 11374 11375 11376 11377 11378 11379 11380 11381 11382 11383 11384 11385 11386 11387 11388 11389 11390 11391 11392 11393 11394 11395 11396 11397 11398 11399 11400 11401 11402 11403 11404 11405 11406 11407 11408 11409 11410 11411 11412 11413 11414 11415 11416 11417 11418 11419 11420 11421 11422 11423 11424 11425 11426 11427 11428 11429 11430 11431 11432 11433 11434 11435 11436 11437 11438 11439 11440 11441 11442 11443 11444 11445 11446 11447 11448 11449 11450 11451 11452 11453 11454 11455 11456 11457 11458 11459 11460 11461 11462 11463 11464 11465 11466 11467 11468 11469 11470 11471 11472 11473 11474 11475 11476 11477 11478 11479 11480 11481 11482 11483 11484 11485 11486 11487 11488 11489 11490 11491 11492 11493 11494 11495 11496 11497 11498 11499 11500 11501 11502 11503 11504 11505 11506 11507 11508 11509 11510 11511 11512 11513 11514 11515 11516 11517 11518 11519 11520 11521 11522 11523 11524 11525 11526 11527 11528 11529 11530 11531 11532 11533 11534 11535 11536 11537 11538 11539 11540 11541 11542 11543 11544 11545 11546 11547 11548 11549 11550 11551 11552 11553 11554 11555 11556 11557 11558 11559 11560 11561 11562 11563 11564 11565 11566 11567 11568 11569 11570 11571 11572 11573 11574 11575 11576 11577 11578 11579 11580 11581 11582 11583 11584 11585 11586 11587 11588 11589 11590 11591 11592 11593 11594 11595 11596 11597 11598 11599 11600 11601 11602 11603 11604 11605 11606 11607 11608 11609 11610 11611 11612 11613 11614 11615 11616 11617 11618 11619 11620 11621 11622 11623 11624 11625 11626 11627 11628 11629 11630 11631 11632 11633 11634 11635 11636 11637 11638 11639 11640 11641 11642 11643 11644 11645 11646 11647 11648 11649 11650 11651 11652 11653 11654 11655 11656 11657 11658 11659 11660 11661 11662 11663 11664 11665 11666 11667 11668 11669 11670 11671 11672 11673 11674 11675 11676 11677 11678 11679 11680 11681 11682 11683 11684 11685 11686 11687 11688 11689 11690 11691 11692 11693 11694 11695 11696 11697 11698 11699 11700 11701 11702 11703 11704 11705 11706 11707 11708 11709 11710 11711 11712 11713 11714 11715 11716 11717 11718 11719 11720 11721 11722 11723 11724 11725 11726 11727 11728 11729 11730 11731 11732 11733 11734 11735 11736 11737 11738 11739 11740 11741 11742 11743 11744 11745 11746 11747 11748 11749 11750 11751 11752 11753 11754 11755 11756 11757 11758 11759 11760 11761 11762 11763 11764 11765 11766 11767 11768 11769 11770 11771 11772 11773 11774 11775 11776 11777 11778 11779 11780 11781 11782 11783 11784 11785 11786 11787 11788 11789 11790 11791 11792 11793 11794 11795 11796 11797 11798 11799 11800 11801 11802 11803 11804 11805 11806 11807 11808 11809 11810 11811 11812 11813 11814 11815 11816 11817 11818 11819 11820 11821 11822 11823 11824 11825 11826 11827 11828 11829 11830 11831 11832 11833 11834 11835 11836 11837 11838 11839 11840 11841 11842 11843 11844 11845 11846 11847 11848 11849 11850 11851 11852 11853 11854 11855 11856 11857 11858 11859 11860 11861 11862 11863 11864 11865 11866 11867 11868 11869 11870 11871 11872 11873 11874 11875 11876 11877 11878 11879 11880 11881 11882 11883 11884 11885 11886 11887 11888 11889 11890 11891 11892 11893 11894 11895 11896 11897 11898 11899 11900 11901 11902 11903 11904 11905 11906 11907 11908 11909 11910 11911 11912 11913 11914 11915 11916 11917 11918 11919 11920 11921 11922 11923 11924 11925 11926 11927 11928 11929 11930 11931 11932 11933 11934 11935 11936 11937 11938 11939 11940 11941 11942 11943 11944 11945 11946 11947 11948 11949 11950 11951 11952 11953 11954 11955 11956 11957 11958 11959 11960 11961 11962 11963 11964 11965 11966 11967 11968 11969 11970 11971 11972 11973 11974 11975 11976 11977 11978 11979 11980 11981 11982 11983 11984 11985 11986 11987 11988 11989 11990 11991 11992 11993 11994 11995 11996 11997 11998 11999 12000 12001 12002 12003 12004 12005 12006 12007 12008 12009 12010 12011 12012 12013 12014 12015 12016 12017 12018 12019 12020 12021 12022 12023 12024 12025 12026 12027 12028 12029 12030 12031 12032 12033 12034 12035 12036 12037 12038 12039 12040 12041 12042 12043 12044 12045 12046 12047 12048 12049 12050 12051 12052 12053 12054 12055 12056 12057 12058 12059 12060 12061 12062 12063 12064 12065 12066 12067 12068 12069 12070 12071 12072 12073 12074 12075 12076 12077 12078 12079 12080 12081 12082 12083 12084 12085 12086 12087 12088 12089 12090 12091 12092 12093 12094 12095 12096 12097 12098 12099 12100 12101 12102 12103 12104 12105 12106 12107 12108 12109 12110 12111 12112 12113 12114 12115 12116 12117 12118 12119 12120 12121 12122 12123 12124 12125 12126 12127 12128 12129 12130 12131 12132 12133 12134 12135 12136 12137 12138 12139 12140 12141 12142 12143 12144 12145 12146 12147 12148 12149 12150 12151 12152 12153 12154 12155 12156 12157 12158 12159 12160 12161 12162 12163 12164 12165 12166 12167 12168 12169 12170 12171 12172 12173 12174 12175 12176 12177 12178 12179 12180 12181 12182 12183 12184 12185 12186 12187 12188 12189 12190 12191 12192 12193 12194 12195 12196 12197 12198 12199 12200 12201 12202 12203 12204 12205 12206 12207 12208 12209 12210 12211 12212 12213 12214 12215 12216 12217 12218 12219 12220 12221 12222 12223 12224 12225 12226 12227 12228 12229 12230 12231 12232 12233 12234 12235 12236 12237 12238 12239 12240 12241 12242 12243 12244 12245 12246 12247 12248 12249 12250 12251 12252 12253 12254 12255 12256 12257 12258 12259 12260 12261 12262 12263 12264 12265 12266 12267 12268 12269 12270 12271 12272 12273 12274 12275 12276 12277 12278 12279 12280 12281 12282 12283 12284 12285 12286 12287 12288 12289 12290 12291 12292 12293 12294 12295 12296 12297 12298 12299 12300 12301 12302 12303 12304 12305 12306 12307 12308 12309 12310 12311 12312 12313 12314 12315 12316 12317 12318 12319 12320 12321 12322 12323 12324 12325 12326 12327 12328 12329 12330 12331 12332 12333 12334 12335 12336 12337 12338 12339 12340 12341 12342 12343 12344 12345 12346 12347 12348 12349 12350 12351 12352 12353 12354 12355 12356 12357 12358 12359 12360 12361 12362 12363 12364 12365 12366 12367 12368 12369 12370 12371 12372 12373 12374 12375 12376 12377 12378 12379 12380 12381 12382 12383 12384 12385 12386 12387 12388 12389 12390 12391 12392 12393 12394 12395 12396 12397 12398 12399 12400 12401 12402 12403 12404 12405 12406 12407 12408 12409 12410 12411 12412 12413 12414 12415 12416 12417 12418 12419 12420 12421 12422 12423 12424 12425 12426 12427 12428 12429 12430 12431 12432 12433 12434 12435 12436 12437 12438 12439 12440 12441 12442 12443 12444 12445 12446 12447 12448 12449 12450 12451 12452 12453 12454 12455 12456 12457 12458 12459 12460 12461 12462 12463 12464 12465 12466 12467 12468 12469 12470 12471 12472 12473 12474 12475 12476 12477 12478 12479 12480 12481 12482 12483 12484 12485 12486 12487 12488 12489 12490 12491 12492 12493 12494 12495 12496 12497 12498 12499 12500 12501 12502 12503 12504 12505 12506 12507 12508 12509 12510 12511 12512 12513 12514 12515 12516 12517 12518 12519 12520 12521 12522 12523 12524 12525 12526 12527 12528 12529 12530 12531 12532 12533 12534 12535 12536 12537 12538 12539 12540 12541 12542 12543 12544 12545 12546 12547 12548 12549 12550 12551 12552 12553 12554 12555 12556 12557 12558 12559 12560 12561 12562 12563 12564 12565 12566 12567 12568 12569 12570 12571 12572 12573 12574 12575 12576 12577 12578 12579 12580 12581 12582 12583 12584 12585 12586 12587 12588 12589 12590 12591 12592 12593 12594 12595 12596 12597 12598 12599 12600 12601 12602 12603 12604 12605 12606 12607 12608 12609 12610 12611 12612 12613 12614 12615 12616 12617 12618 12619 12620 12621 12622 12623 12624 12625 12626 12627 12628 12629 12630 12631 12632 12633 12634 12635 12636 12637 12638 12639 12640 12641 12642 12643 12644 12645 12646 12647 12648 12649 12650 12651 12652 12653 12654 12655 12656 12657 12658 12659 12660 12661 12662 12663 12664 12665 12666 12667 12668 12669 12670 12671 12672 12673 12674 12675 12676 12677 12678 12679 12680 12681 12682 12683 12684 12685 12686 12687 12688 12689 12690 12691 12692 12693 12694 12695 12696 12697 12698 12699 12700 12701 12702 12703 12704 12705 12706 12707 12708 12709 12710 12711 12712 12713 12714 12715 12716 12717 12718 12719 12720 12721 12722 12723 12724 12725 12726 12727 12728 12729 12730 12731 12732 12733 12734 12735 12736 12737 12738 12739 12740 12741 12742 12743 12744 12745 12746 12747 12748 12749 12750 12751 12752 12753 12754 12755 12756 12757 12758 12759 12760 12761 12762 12763 12764 12765 12766 12767 12768 12769 12770 12771 12772 12773 12774 12775 12776 12777 12778 12779 12780 12781 12782 12783 12784 12785 12786 12787 12788 12789 12790 12791 12792 12793 12794 12795 12796 12797 12798 12799 12800 12801 12802 12803 12804 12805 12806 12807 12808 12809 12810 12811 12812 12813 12814 12815 12816 12817 12818 12819 12820 12821 12822 12823 12824 12825 12826 12827 12828 12829 12830 12831 12832 12833 12834 12835 12836 12837 12838 12839 12840 12841 12842 12843 12844 12845 12846 12847 12848 12849 12850 12851 12852 12853 12854 12855 12856 12857 12858 12859 12860 12861 12862 12863 12864 12865 12866 12867 12868 12869 12870 12871 12872 12873 12874 12875 12876 12877 12878 12879 12880 12881 12882 12883 12884 12885 12886 12887 12888 12889 12890 12891 12892 12893 12894 12895 12896 12897 12898 12899 12900 12901 12902 12903 12904 12905 12906 12907 12908 12909 12910 12911 12912 12913 12914 12915 12916 12917 12918 12919 12920 12921 12922 12923 12924 12925 12926 12927 12928 12929 12930 12931 12932 12933 12934 12935 12936 12937 12938 12939 12940 12941 12942 12943 12944 12945 12946 12947 12948 12949 12950 12951 12952 12953 12954 12955 12956 12957 12958 12959 12960 12961 12962 12963 12964 12965 12966 12967 12968 12969 12970 12971 12972 12973 12974 12975 12976 12977 12978 12979 12980 12981 12982 12983 12984 12985 12986 12987 12988 12989 12990 12991 12992 12993 12994 12995 12996 12997 12998 12999 13000 13001 13002 13003 13004 13005 13006 13007 13008 13009 13010 13011 13012 13013 13014 13015 13016 13017 13018 13019 13020 13021 13022 13023 13024 13025 13026 13027 13028 13029 13030 13031 13032 13033 13034 13035 13036 13037 13038 13039 13040 13041 13042 13043 13044 13045 13046 13047 13048 13049 13050 13051 13052 13053 13054 13055 13056 13057 13058 13059 13060 13061 13062 13063 13064 13065 13066 13067 13068 13069 13070 13071 13072 13073 13074 13075 13076 13077 13078 13079 13080 13081 13082 13083 13084 13085 13086 13087 13088 13089 13090 13091 13092 13093 13094 13095 13096 13097 13098 13099 13100 13101 13102 13103 13104 13105 13106 13107 13108 13109 13110 13111 13112 13113 13114 13115 13116 13117 13118 13119 13120 13121 13122 13123 13124 13125 13126 13127 13128 13129 13130 13131 13132 13133 13134 13135 13136 13137 13138 13139 13140 13141 13142 13143 13144 13145 13146 13147 13148 13149 13150 13151 13152 13153 13154 13155 13156 13157 13158 13159 13160 13161 13162 13163 13164 13165 13166 13167 13168 13169 13170 13171 13172 13173 13174 13175 13176 13177 13178 13179 13180 13181 13182 13183 13184 13185 13186 13187 13188 13189 13190 13191 13192 13193 13194 13195 13196 13197 13198 13199 13200 13201 13202 13203 13204 13205 13206 13207 13208 13209 13210 13211 13212 13213 13214 13215 13216 13217 13218 13219 13220 13221 13222 13223 13224 13225 13226 13227 13228 13229 13230 13231 13232 13233 13234 13235 13236 13237 13238 13239 13240 13241 13242 13243 13244 13245 13246 13247 13248 13249 13250 13251 13252 13253 13254 13255 13256 13257 13258 13259 13260 13261 13262 13263 13264 13265 13266 13267 13268 13269 13270 13271 13272 13273 13274 13275 13276 13277 13278 13279 13280 13281 13282 13283 13284 13285 13286 13287 13288 13289 13290 13291 13292 13293 13294 13295 13296 13297 13298 13299 13300 13301 13302 13303 13304 13305 13306 13307 13308 13309 13310 13311 13312 13313 13314 13315 13316 13317 13318 13319 13320 13321 13322 13323 13324 13325 13326 13327 13328 13329 13330 13331 13332 13333 13334 13335 13336 13337 13338 13339 13340 13341 13342 13343 13344 13345 13346 13347 13348 13349 13350 13351 13352 13353 13354 13355 13356 13357 13358 13359 13360 13361 13362 13363 13364 13365 13366 13367 13368 13369 13370 13371 13372 13373 13374 13375 13376 13377 13378 13379 13380 13381 13382 13383 13384 13385 13386 13387 13388 13389 13390 13391 13392 13393 13394 13395 13396 13397 13398 13399 13400 13401 13402 13403 13404 13405 13406 13407 13408 13409 13410 13411 13412 13413 13414 13415 13416 13417 13418 13419 13420 13421 13422 13423 13424 13425 13426 13427 13428 13429 13430 13431 13432 13433 13434 13435 13436 13437 13438 13439 13440 13441 13442 13443 13444 13445 13446 13447 13448 13449 13450 13451 13452 13453 13454 13455 13456 13457 13458 13459 13460 13461 13462 13463 13464 13465 13466 13467 13468 13469 13470 13471 13472 13473 13474 13475 13476 13477 13478 13479 13480 13481 13482 13483 13484 13485 13486 13487 13488 13489 13490 13491 13492 13493 13494 13495 13496 13497 13498 13499 13500 13501 13502 13503 13504 13505 13506 13507 13508 13509 13510 13511 13512 13513 13514 13515 13516 13517 13518 13519 13520 13521 13522 13523 13524 13525 13526 13527 13528 13529 13530 13531 13532 13533 13534 13535 13536 13537 13538 13539 13540 13541 13542 13543 13544 13545 13546 13547 13548 13549 13550 13551 13552 13553 13554 13555 13556 13557 13558 13559 13560 13561 13562 13563 13564 13565 13566 13567 13568 13569 13570 13571 13572 13573 13574 13575 13576 13577 13578 13579 13580 13581 13582 13583 13584 13585 13586 13587 13588 13589 13590 13591 13592 13593 13594 13595 13596 13597 13598 13599 13600 13601 13602 13603 13604 13605 13606 13607 13608 13609 13610 13611 13612 13613 13614 13615 13616 13617 13618 13619 13620 13621 13622 13623 13624 13625 13626 13627 13628 13629 13630 13631 13632 13633 13634 13635 13636 13637 13638 13639 13640 13641 13642 13643 13644 13645 13646 13647 13648 13649 13650 13651 13652 13653 13654 13655 13656 13657 13658 13659 13660 13661 13662 13663 13664 13665 13666 13667 13668 13669 13670 13671 13672 13673 13674 13675 13676 13677 13678 13679 13680 13681 13682 13683 13684 13685 13686 13687 13688 13689 13690 13691 13692 13693 13694 13695 13696 13697 13698 13699 13700 13701 13702 13703 13704 13705 13706 13707 13708 13709 13710 13711 13712 13713 13714 13715 13716 13717 13718 13719 13720 13721 13722 13723 13724 13725 13726 13727 13728 13729 13730 13731 13732 13733 13734 13735 13736 13737 13738 13739 13740 13741 13742 13743 13744 13745 13746 13747 13748 13749 13750 13751 13752 13753 13754 13755 13756 13757 13758 13759 13760 13761 13762 13763 13764 13765 13766 13767 13768 13769 13770 13771 13772 13773 13774 13775 13776 13777 13778 13779 13780 13781 13782 13783 13784 13785 13786 13787 13788 13789 13790 13791 13792 13793 13794 13795 13796 13797 13798 13799 13800 13801 13802 13803 13804 13805 13806 13807 13808 13809 13810 13811 13812 13813 13814 13815 13816 13817 13818 13819 13820 13821 13822 13823 13824 13825 13826 13827 13828 13829 13830 13831 13832 13833 13834 13835 13836 13837 13838 13839 13840 13841 13842 13843 13844 13845 13846 13847 13848 13849 13850 13851 13852 13853 13854 13855 13856 13857 13858 13859 13860 13861 13862 13863 13864 13865 13866 13867 13868 13869 13870 13871 13872 13873 13874 13875 13876 13877 13878 13879 13880 13881 13882 13883 13884 13885 13886 13887 13888 13889 13890 13891 13892 13893 13894 13895 13896 13897 13898 13899 13900 13901 13902 13903 13904 13905 13906 13907 13908 13909 13910 13911 13912 13913 13914 13915 13916 13917 13918 13919 13920 13921 13922 13923 13924 13925 13926 13927 13928 13929 13930 13931 13932 13933 13934 13935 13936 13937 13938 13939 13940 13941 13942 13943 13944 13945 13946 13947 13948 13949 13950 13951 13952 13953 13954 13955 13956 13957 13958 13959 13960 13961 13962 13963 13964 13965 13966 13967 13968 13969 13970 13971 13972 13973 13974 13975 13976 13977 13978 13979 13980 13981 13982 13983 13984 13985 13986 13987 13988 13989 13990 13991 13992 13993 13994 13995 13996 13997 13998 13999 14000 14001 14002 14003 14004 14005 14006 14007 14008 14009 14010 14011 14012 14013 14014 14015 14016 14017 14018 14019 14020 14021 14022 14023 14024 14025 14026 14027 14028 14029 14030 14031 14032 14033 14034 14035 14036 14037 14038 14039 14040 14041 14042 14043 14044 14045 14046 14047 14048 14049 14050 14051 14052 14053 14054 14055 14056 14057 14058 14059 14060 14061 14062 14063 14064 14065 14066 14067 14068 14069 14070 14071 14072 14073 14074 14075 14076 14077 14078 14079 14080 14081 14082 14083 14084 14085 14086 14087 14088 14089 14090 14091 14092 14093 14094 14095 14096 14097 14098 14099 14100 14101 14102 14103 14104 14105 14106 14107 14108 14109 14110 14111 14112 14113 14114 14115 14116 14117 14118 14119 14120 14121 14122 14123 14124 14125 14126 14127 14128 14129 14130 14131 14132 14133 14134 14135 14136 14137 14138 14139 14140 14141 14142 14143 14144 14145 14146 14147 14148 14149 14150 14151 14152 14153 14154 14155 14156 14157 14158 14159 14160 14161 14162 14163 14164 14165 14166 14167 14168 14169 14170 14171 14172 14173 14174 14175 14176 14177 14178 14179 14180 14181 14182 14183 14184 14185 14186 14187 14188 14189 14190 14191 14192 14193 14194 14195 14196 14197 14198 14199 14200 14201 14202 14203 14204 14205 14206 14207 14208 14209 14210 14211 14212 14213 14214 14215 14216 14217 14218 14219 14220 14221 14222 14223 14224 14225 14226 14227 14228 14229 14230 14231 14232 14233 14234 14235 14236 14237 14238 14239 14240 14241 14242 14243 14244 14245 14246 14247 14248 14249 14250 14251 14252 14253 14254 14255 14256 14257 14258 14259 14260 14261 14262 14263 14264 14265 14266 14267 14268 14269 14270 14271 14272 14273 14274 14275 14276 14277 14278 14279 14280 14281 14282 14283 14284 14285 14286 14287 14288 14289 14290 14291 14292 14293 14294 14295 14296 14297 14298 14299 14300 14301 14302 14303 14304 14305 14306 14307 14308 14309 14310 14311 14312 14313 14314 14315 14316 14317 14318 14319 14320 14321 14322 14323 14324 14325 14326 14327 14328 14329 14330 14331 14332 14333 14334 14335 14336 14337 14338 14339 14340 14341 14342 14343 14344 14345 14346 14347 14348 14349 14350 14351 14352 14353 14354 14355 14356 14357 14358 14359 14360 14361 14362 14363 14364 14365 14366 14367 14368 14369 14370 14371 14372 14373 14374 14375 14376 14377 14378 14379 14380 14381 14382 14383 14384 14385 14386 14387 14388 14389 14390 14391 14392 14393 14394 14395 14396 14397 14398 14399 14400 14401 14402 14403 14404 14405 14406 14407 14408 14409 14410 14411 14412 14413 14414 14415 14416 14417 14418 14419 14420 14421 14422 14423 14424 14425 14426 14427 14428 14429 14430 14431 14432 14433 14434 14435 14436 14437 14438 14439 14440 14441 14442 14443 14444 14445 14446 14447 14448 14449 14450 14451 14452 14453 14454 14455 14456 14457 14458 14459 14460 14461 14462 14463 14464 14465 14466 14467 14468 14469 14470 14471 14472 14473 14474 14475 14476 14477 14478 14479 14480 14481 14482 14483 14484 14485 14486 14487 14488 14489 14490 14491 14492 14493 14494 14495 14496 14497 14498 14499 14500 14501 14502 14503 14504 14505 14506 14507 14508 14509 14510 14511 14512 14513 14514 14515 14516 14517 14518 14519 14520 14521 14522 14523 14524 14525 14526 14527 14528 14529 14530 14531 14532 14533 14534 14535 14536 14537 14538 14539 14540 14541 14542 14543 14544 14545 14546 14547 14548 14549 14550 14551 14552 14553 14554 14555 14556 14557 14558 14559 14560 14561 14562 14563 14564 14565 14566 14567 14568 14569 14570 14571 14572 14573 14574 14575 14576 14577 14578 14579 14580 14581 14582 14583 14584 14585 14586 14587 14588 14589 14590 14591 14592 14593 14594 14595 14596 14597 14598 14599 14600 14601 14602 14603 14604 14605 14606 14607 14608 14609 14610 14611 14612 14613 14614 14615 14616 14617 14618 14619 14620 14621 14622 14623 14624 14625 14626 14627 14628 14629 14630 14631 14632 14633 14634 14635 14636 14637 14638 14639 14640 14641 14642 14643 14644 14645 14646 14647 14648 14649 14650 14651 14652 14653 14654 14655 14656 14657 14658 14659 14660 14661 14662 14663 14664 14665 14666 14667 14668 14669 14670 14671 14672 14673 14674 14675 14676 14677 14678 14679 14680 14681 14682 14683 14684 14685 14686 14687 14688 14689 14690 14691 14692 14693 14694 14695 14696 14697 14698 14699 14700 14701 14702 14703 14704 14705 14706 14707 14708 14709 14710 14711 14712 14713 14714 14715 14716 14717 14718 14719 14720 14721 14722 14723 14724 14725 14726 14727 14728 14729 14730 14731 14732 14733 14734 14735 14736 14737 14738 14739 14740 14741 14742 14743 14744 14745 14746 14747 14748 14749 14750 14751 14752 14753 14754 14755 14756 14757 14758 14759 14760 14761 14762 14763 14764 14765 14766 14767 14768 14769 14770 14771 14772 14773 14774 14775 14776 14777 14778 14779 14780 14781 14782 14783 14784 14785 14786 14787 14788 14789 14790 14791 14792 14793 14794 14795 14796 14797 14798 14799 14800 14801 14802 14803 14804 14805 14806 14807 14808 14809 14810 14811 14812 14813 14814 14815 14816 14817 14818 14819 14820 14821 14822 14823 14824 14825 14826 14827 14828 14829 14830 14831 14832 14833 14834 14835 14836 14837 14838 14839 14840 14841 14842 14843 14844 14845 14846 14847 14848 14849 14850 14851 14852 14853 14854 14855 14856 14857 14858 14859 14860 14861 14862 14863 14864 14865 14866 14867 14868 14869 14870 14871 14872 14873 14874 14875 14876 14877 14878 14879 14880 14881 14882 14883 14884 14885 14886 14887 14888 14889 14890 14891 14892 14893 14894 14895 14896 14897 14898 14899 14900 14901 14902 14903 14904 14905 14906 14907 14908 14909 14910 14911 14912 14913 14914 14915 14916 14917 14918 14919 14920 14921 14922 14923 14924 14925 14926 14927 14928 14929 14930 14931 14932 14933 14934 14935 14936 14937 14938 14939 14940 14941 14942 14943 14944 14945 14946 14947 14948 14949 14950 14951 14952 14953 14954 14955 14956 14957 14958 14959 14960 14961 14962 14963 14964 14965 14966 14967 14968 14969 14970 14971 14972 14973 14974 14975 14976 14977 14978 14979 14980 14981 14982 14983 14984 14985 14986 14987 14988 14989 14990 14991 14992 14993 14994 14995 14996 14997 14998 14999 15000 15001 15002 15003 15004 15005 15006 15007 15008 15009 15010 15011 15012 15013 15014 15015 15016 15017 15018 15019 15020 15021 15022 15023 15024 15025 15026 15027 15028 15029 15030 15031 15032 15033 15034 15035 15036 15037 15038 15039 15040 15041 15042 15043 15044 15045 15046 15047 15048 15049 15050 15051 15052 15053 15054 15055 15056 15057 15058 15059 15060 15061 15062 15063 15064 15065 15066 15067 15068 15069 15070 15071 15072 15073 15074 15075 15076 15077 15078 15079 15080 15081 15082 15083 15084 15085 15086 15087 15088 15089 15090 15091 15092 15093 15094 15095 15096 15097 15098 15099 15100 15101 15102 15103 15104 15105 15106 15107 15108 15109 15110 15111 15112 15113 15114 15115 15116 15117 15118 15119 15120 15121 15122 15123 15124 15125 15126 15127 15128 15129 15130 15131 15132 15133 15134 15135 15136 15137 15138 15139 15140 15141 15142 15143 15144 15145 15146 15147 15148 15149 15150 15151 15152 15153 15154 15155 15156 15157 15158 15159 15160 15161 15162 15163 15164 15165 15166 15167 15168 15169 15170 15171 15172 15173 15174 15175 15176 15177 15178 15179 15180 15181 15182 15183 15184 15185 15186 15187 15188 15189 15190 15191 15192 15193 15194 15195 15196 15197 15198 15199 15200 15201 15202 15203 15204 15205 15206 15207 15208 15209 15210 15211 15212 15213 15214 15215 15216 15217 15218 15219 15220 15221 15222 15223 15224 15225 15226 15227 15228 15229 15230 15231 15232 15233 15234 15235 15236 15237 15238 15239 15240 15241 15242 15243 15244 15245 15246 15247 15248 15249 15250 15251 15252 15253 15254 15255 15256 15257 15258 15259 15260 15261 15262 15263 15264 15265 15266 15267 15268 15269 15270 15271 15272 15273 15274 15275 15276 15277 15278 15279 15280 15281 15282 15283 15284 15285 15286 15287 15288 15289 15290 15291 15292 15293 15294 15295 15296 15297 15298 15299 15300 15301 15302 15303 15304 15305 15306 15307 15308 15309 15310 15311 15312 15313 15314 15315 15316 15317 15318 15319 15320 15321 15322 15323 15324 15325 15326 15327 15328 15329 15330 15331 15332 15333 15334 15335 15336 15337 15338 15339 15340 15341 15342 15343 15344 15345 15346 15347 15348 15349 15350 15351 15352 15353 15354 15355 15356 15357 15358 15359 15360 15361 15362 15363 15364 15365 15366 15367 15368 15369 15370 15371 15372 15373 15374 15375 15376 15377 15378 15379 15380 15381 15382 15383 15384 15385 15386 15387 15388 15389 15390 15391 15392 15393 15394 15395 15396 15397 15398 15399 15400 15401 15402 15403 15404 15405 15406 15407 15408 15409 15410 15411 15412 15413 15414 15415 15416 15417 15418 15419 15420 15421 15422 15423 15424 15425 15426 15427 15428 15429 15430 15431 15432 15433 15434 15435 15436 15437 15438 15439 15440 15441 15442 15443 15444 15445 15446 15447 15448 15449 15450 15451 15452 15453 15454 15455 15456 15457 15458 15459 15460 15461 15462 15463 15464 15465 15466 15467 15468 15469 15470 15471 15472 15473 15474 15475 15476 15477 15478 15479 15480 15481 15482 15483 15484 15485 15486 15487 15488 15489 15490 15491 15492 15493 15494 15495 15496 15497 15498 15499 15500 15501 15502 15503 15504 15505 15506 15507 15508 15509 15510 15511 15512 15513 15514 15515 15516 15517 15518 15519 15520 15521 15522 15523 15524 15525 15526 15527 15528 15529 15530 15531 15532 15533 15534 15535 15536 15537 15538 15539 15540 15541 15542 15543 15544 15545 15546 15547 15548 15549 15550 15551 15552 15553 15554 15555 15556 15557 15558 15559 15560 15561 15562 15563 15564 15565 15566 15567 15568 15569 15570 15571 15572 15573 15574 15575 15576 15577 15578 15579 15580 15581 15582 15583 15584 15585 15586 15587 15588 15589 15590 15591 15592 15593 15594 15595 15596 15597 15598 15599 15600 15601 15602 15603 15604 15605 15606 15607 15608 15609 15610 15611 15612 15613 15614 15615 15616 15617 15618 15619 15620 15621 15622 15623 15624 15625 15626 15627 15628 15629 15630 15631 15632 15633 15634 15635 15636 15637 15638 15639 15640 15641 15642 15643 15644 15645 15646 15647 15648 15649 15650 15651 15652 15653 15654 15655 15656 15657 15658 15659 15660 15661 15662 15663 15664 15665 15666 15667 15668 15669 15670 15671 15672 15673 15674 15675 15676 15677 15678 15679 15680 15681 15682 15683 15684 15685 15686 15687 15688 15689 15690 15691 15692 15693 15694 15695 15696 15697 15698 15699 15700 15701 15702 15703 15704 15705 15706 15707 15708 15709 15710 15711 15712 15713 15714 15715 15716 15717 15718 15719 15720 15721 15722 15723 15724 15725 15726 15727 15728 15729 15730 15731 15732 15733 15734 15735 15736 15737 15738 15739 15740 15741 15742 15743 15744 15745 15746 15747 15748 15749 15750 15751 15752 15753 15754 15755 15756 15757 15758 15759 15760 15761 15762 15763 15764 15765 15766 15767 15768 15769 15770 15771 15772 15773 15774 15775 15776 15777 15778 15779 15780 15781 15782 15783 15784 15785 15786 15787 15788 15789 15790 15791 15792 15793 15794 15795 15796 15797 15798 15799 15800 15801 15802 15803 15804 15805 15806 15807 15808 15809 15810 15811 15812 15813 15814 15815 15816 15817 15818 15819 15820 15821 15822 15823 15824 15825 15826 15827 15828 15829 15830 15831 15832 15833 15834 15835 15836 15837 15838 15839 15840 15841 15842 15843 15844 15845 15846 15847 15848 15849 15850 15851 15852 15853 15854 15855 15856 15857 15858 15859 15860 15861 15862 15863 15864 15865 15866 15867 15868 15869 15870 15871 15872 15873 15874 15875 15876 15877 15878 15879 15880 15881 15882 15883 15884 15885 15886 15887 15888 15889 15890 15891 15892 15893 15894 15895 15896 15897 15898 15899 15900 15901 15902 15903 15904 15905 15906 15907 15908 15909 15910 15911 15912 15913 15914 15915 15916 15917 15918 15919 15920 15921 15922 15923 15924 15925 15926 15927 15928 15929 15930 15931 15932 15933 15934 15935 15936 15937 15938 15939 15940 15941 15942 15943 15944 15945 15946 15947 15948 15949 15950 15951 15952 15953 15954 15955 15956 15957 15958 15959 15960 15961 15962 15963 15964 15965 15966 15967 15968 15969 15970 15971 15972 15973 15974 15975 15976 15977 15978 15979 15980 15981 15982 15983 15984 15985 15986 15987 15988 15989 15990 15991 15992 15993 15994 15995 15996 15997 15998 15999 16000 16001 16002 16003 16004 16005 16006 16007 16008 16009 16010 16011 16012 16013 16014 16015 16016 16017 16018 16019 16020 16021 16022 16023 16024 16025 16026 16027 16028 16029 16030 16031 16032 16033 16034 16035 16036 16037 16038 16039 16040 16041 16042 16043 16044 16045 16046 16047 16048 16049 16050 16051 16052 16053 16054 16055 16056 16057 16058 16059 16060 16061 16062 16063 16064 16065 16066 16067 16068 16069 16070 16071 16072 16073 16074 16075 16076 16077 16078 16079 16080 16081 16082 16083 16084 16085 16086 16087 16088 16089 16090 16091 16092 16093 16094 16095 16096 16097 16098 16099 16100 16101 16102 16103 16104 16105 16106 16107 16108 16109 16110 16111 16112 16113 16114 16115 16116 16117 16118 16119 16120 16121 16122 16123 16124 16125 16126 16127 16128 16129 16130 16131 16132 16133 16134 16135 16136 16137 16138 16139 16140 16141 16142 16143 16144 16145 16146 16147 16148 16149 16150 16151 16152 16153 16154 16155 16156 16157 16158 16159 16160 16161 16162 16163 16164 16165 16166 16167 16168 16169 16170 16171 16172 16173 16174 16175 16176 16177 16178 16179 16180 16181 16182 16183 16184 16185 16186 16187 16188 16189 16190 16191 16192 16193 16194 16195 16196 16197 16198 16199 16200 16201 16202 16203 16204 16205 16206 16207 16208 16209 16210 16211 16212 16213 16214 16215 16216 16217 16218 16219 16220 16221 16222 16223 16224 16225 16226 16227 16228 16229 16230 16231 16232 16233 16234 16235 16236 16237 16238 16239 16240 16241 16242 16243 16244 16245 16246 16247 16248 16249 16250 16251 16252 16253 16254 16255 16256 16257 16258 16259 16260 16261 16262 16263 16264 16265 16266 16267 16268 16269 16270 16271 16272 16273 16274 16275 16276 16277 16278 16279 16280 16281 16282 16283 16284 16285 16286 16287 16288 16289 16290 16291 16292 16293 16294 16295 16296 16297 16298 16299 16300 16301 16302 16303 16304 16305 16306 16307 16308 16309 16310 16311 16312 16313 16314 16315 16316 16317 16318 16319 16320 16321 16322 16323 16324 16325 16326 16327 16328 16329 16330 16331 16332 16333 16334 16335 16336 16337 16338 16339 16340 16341 16342 16343 16344 16345 16346 16347 16348 16349 16350 16351 16352 16353 16354 16355 16356 16357 16358 16359 16360 16361 16362 16363 16364 16365 16366 16367 16368 16369 16370 16371 16372 16373 16374 16375 16376 16377 16378 16379 16380 16381 16382 16383 16384 16385 16386 16387 16388 16389 16390 16391 16392 16393 16394 16395 16396 16397 16398 16399 16400 16401 16402 16403 16404 16405 16406 16407 16408 16409 16410 16411 16412 16413 16414 16415 16416 16417 16418 16419 16420 16421 16422 16423 16424 16425 16426 16427 16428 16429 16430 16431 16432 16433 16434 16435 16436 16437 16438 16439 16440 16441 16442 16443 16444 16445 16446 16447 16448 16449 16450 16451 16452 16453 16454 16455 16456 16457 16458 16459 16460 16461 16462 16463 16464 16465 16466 16467 16468 16469 16470 16471 16472 16473 16474 16475 16476 16477 16478 16479 16480 16481 16482 16483 16484 16485 16486 16487 16488 16489 16490 16491 16492 16493 16494 16495 16496 16497 16498 16499 16500 16501 16502 16503 16504 16505 16506 16507 16508 16509 16510 16511 16512 16513 16514 16515 16516 16517 16518 16519 16520 16521 16522 16523 16524 16525 16526 16527 16528 16529 16530 16531 16532 16533 16534 16535 16536 16537 16538 16539 16540 16541 16542 16543 16544 16545 16546 16547 16548 16549 16550 16551 16552 16553 16554 16555 16556 16557 16558 16559 16560 16561 16562 16563 16564 16565 16566 16567 16568 16569 16570 16571 16572 16573 16574 16575 16576 16577 16578 16579 16580 16581 16582 16583 16584 16585 16586 16587 16588 16589 16590 16591 16592 16593 16594 16595 16596 16597 16598 16599 16600 16601 16602 16603 16604 16605 16606 16607 16608 16609 16610 16611 16612 16613 16614 16615 16616 16617 16618 16619 16620 16621 16622 16623 16624 16625 16626 16627 16628 16629 16630 16631 16632 16633 16634 16635 16636 16637 16638 16639 16640 16641 16642 16643 16644 16645 16646 16647 16648 16649 16650 16651 16652 16653 16654 16655 16656 16657 16658 16659 16660 16661 16662 16663 16664 16665 16666 16667 16668 16669 16670 16671 16672 16673 16674 16675 16676 16677 16678 16679 16680 16681 16682 16683 16684 16685 16686 16687 16688 16689 16690 16691 16692 16693 16694 16695 16696 16697 16698 16699 16700 16701 16702 16703 16704 16705 16706 16707 16708 16709 16710 16711 16712 16713 16714 16715 16716 16717 16718 16719 16720 16721 16722 16723 16724 16725 16726 16727 16728 16729 16730 16731 16732 16733 16734 16735 16736 16737 16738 16739 16740 16741 16742 16743 16744 16745 16746 16747 16748 16749 16750 16751 16752 16753 16754 16755 16756 16757 16758 16759 16760 16761 16762 16763 16764 16765 16766 16767 16768 16769 16770 16771 16772 16773 16774 16775 16776 16777 16778 16779 16780 16781 16782 16783 16784 16785 16786 16787 16788 16789 16790 16791 16792 16793 16794 16795 16796 16797 16798 16799 16800 16801 16802 16803 16804 16805 16806 16807 16808 16809 16810 16811 16812 16813 16814 16815 16816 16817 16818 16819 16820 16821 16822 16823 16824 16825 16826 16827 16828 16829 16830 16831 16832 16833 16834 16835 16836 16837 16838 16839 16840 16841 16842 16843 16844 16845 16846 16847 16848 16849 16850 16851 16852 16853 16854 16855 16856 16857 16858 16859 16860 16861 16862 16863 16864 16865 16866 16867 16868 16869 16870 16871 16872 16873 16874 16875 16876 16877 16878 16879 16880 16881 16882 16883 16884 16885 16886 16887 16888 16889 16890 16891 16892 16893 16894 16895 16896 16897 16898 16899 16900 16901 16902 16903 16904 16905 16906 16907 16908 16909 16910 16911 16912 16913 16914 16915 16916 16917 16918 16919 16920 16921 16922 16923 16924 16925 16926 16927 16928 16929 16930 16931 16932 16933 16934 16935 16936 16937 16938 16939 16940 16941 16942 16943 16944 16945 16946 16947 16948 16949 16950 16951 16952 16953 16954 16955 16956 16957 16958 16959 16960 16961 16962 16963 16964 16965 16966 16967 16968 16969 16970 16971 16972 16973 16974 16975 16976 16977 16978 16979 16980 16981 16982 16983 16984 16985 16986 16987 16988 16989 16990 16991 16992 16993 16994 16995 16996 16997 16998 16999 17000 17001 17002 17003 17004 17005 17006 17007 17008 17009 17010 17011 17012 17013 17014 17015 17016 17017 17018 17019 17020 17021 17022 17023 17024 17025 17026 17027 17028 17029 17030 17031 17032 17033 17034 17035 17036 17037 17038 17039 17040 17041 17042 17043 17044 17045 17046 17047 17048 17049 17050 17051 17052 17053 17054 17055 17056 17057 17058 17059 17060 17061 17062 17063 17064 17065 17066 17067 17068 17069 17070 17071 17072 17073 17074 17075 17076 17077 17078 17079 17080 17081 17082 17083 17084 17085 17086 17087 17088 17089 17090 17091 17092 17093 17094 17095 17096 17097 17098 17099 17100 17101 17102 17103 17104 17105 17106 17107 17108 17109 17110 17111 17112 17113 17114 17115 17116 17117 17118 17119 17120 17121 17122 17123 17124 17125 17126 17127 17128 17129 17130 17131 17132 17133 17134 17135 17136 17137 17138 17139 17140 17141 17142 17143 17144 17145 17146 17147 17148 17149 17150 17151 17152 17153 17154 17155 17156 17157 17158 17159 17160 17161 17162 17163 17164 17165 17166 17167 17168 17169 17170 17171 17172 17173 17174 17175 17176 17177 17178 17179 17180 17181 17182 17183 17184 17185 17186 17187 17188 17189 17190 17191 17192 17193 17194 17195 17196 17197 17198 17199 17200 17201 17202 17203 17204 17205 17206 17207 17208 17209 17210 17211 17212 17213 17214 17215 17216 17217 17218 17219 17220 17221 17222 17223 17224 17225 17226 17227 17228 17229 17230 17231 17232 17233 17234 17235 17236 17237 17238 17239 17240 17241 17242 17243 17244 17245 17246 17247 17248 17249 17250 17251 17252 17253 17254 17255 17256 17257 17258 17259 17260 17261 17262 17263 17264 17265 17266 17267 17268 17269 17270 17271 17272 17273 17274 17275 17276 17277 17278 17279 17280 17281 17282 17283 17284 17285 17286 17287 17288 17289 17290 17291 17292 17293 17294 17295 17296 17297 17298 17299 17300 17301 17302 17303 17304 17305 17306 17307 17308 17309 17310 17311 17312 17313 17314 17315 17316 17317 17318 17319 17320 17321 17322 17323 17324 17325 17326 17327 17328 17329 17330 17331 17332 17333 17334 17335 17336 17337 17338 17339 17340 17341 17342 17343 17344 17345 17346 17347 17348 17349 17350 17351 17352 17353 17354 17355 17356 17357 17358 17359 17360 17361 17362 17363 17364 17365 17366 17367 17368 17369 17370 17371 17372 17373 17374 17375 17376 17377 17378 17379 17380 17381 17382 17383 17384 17385 17386 17387 17388 17389 17390 17391 17392 17393 17394 17395 17396 17397 17398 17399 17400 17401 17402 17403 17404 17405 17406 17407 17408 17409 17410 17411 17412 17413 17414 17415 17416 17417 17418 17419 17420 17421 17422 17423 17424 17425 17426 17427 17428 17429 17430 17431 17432 17433 17434 17435 17436 17437 17438 17439 17440 17441 17442 17443 17444 17445 17446 17447 17448 17449 17450 17451 17452 17453 17454 17455 17456 17457 17458 17459 17460 17461 17462 17463 17464 17465 17466 17467 17468 17469 17470 17471 17472 17473 17474 17475 17476 17477 17478 17479 17480 17481 17482 17483 17484 17485 17486 17487 17488 17489 17490 17491 17492 17493 17494 17495 17496 17497 17498 17499 17500 17501 17502 17503 17504 17505 17506 17507 17508 17509 17510 17511 17512 17513 17514 17515 17516 17517 17518 17519 17520 17521 17522 17523 17524 17525 17526 17527 17528 17529 17530 17531 17532 17533 17534 17535 17536 17537 17538 17539 17540 17541 17542 17543 17544 17545 17546 17547 17548 17549 17550 17551 17552 17553 17554 17555 17556 17557 17558 17559 17560 17561 17562 17563 17564 17565 17566 17567 17568 17569 17570 17571 17572 17573 17574 17575 17576 17577 17578 17579 17580 17581 17582 17583 17584 17585 17586 17587 17588 17589 17590 17591 17592 17593 17594 17595 17596 17597 17598 17599 17600 17601 17602 17603 17604 17605 17606 17607 17608 17609 17610 17611 17612 17613 17614 17615 17616 17617 17618 17619 17620 17621 17622 17623 17624 17625 17626 17627 17628 17629 17630 17631 17632 17633 17634 17635 17636 17637 17638 17639 17640 17641 17642 17643 17644 17645 17646 17647 17648 17649 17650 17651 17652 17653 17654 17655 17656 17657 17658 17659 17660 17661 17662 17663 17664 17665 17666 17667 17668 17669 17670 17671 17672 17673 17674 17675 17676 17677 17678 17679 17680 17681 17682 17683 17684 17685 17686 17687 17688 17689 17690 17691 17692 17693 17694 17695 17696 17697 17698 17699 17700 17701 17702 17703 17704 17705 17706 17707 17708 17709 17710 17711 17712 17713 17714 17715 17716 17717 17718 17719 17720 17721 17722 17723 17724 17725 17726 17727 17728 17729 17730 17731 17732 17733 17734 17735 17736 17737 17738 17739 17740 17741 17742 17743 17744 17745 17746 17747 17748 17749 17750 17751 17752 17753 17754 17755 17756 17757 17758 17759 17760 17761 17762 17763 17764 17765 17766 17767 17768 17769 17770 17771 17772 17773 17774 17775 17776 17777 17778 17779 17780 17781 17782 17783 17784 17785 17786 17787 17788 17789 17790 17791 17792 17793 17794 17795 17796 17797 17798 17799 17800 17801 17802 17803 17804 17805 17806 17807 17808 17809 17810 17811 17812 17813 17814 17815 17816 17817 17818 17819 17820 17821 17822 17823 17824 17825 17826 17827 17828 17829 17830 17831 17832 17833 17834 17835 17836 17837 17838 17839 17840 17841 17842 17843 17844 17845 17846 17847 17848 17849 17850 17851 17852 17853 17854 17855 17856 17857 17858 17859 17860 17861 17862 17863 17864 17865 17866 17867 17868 17869 17870 17871 17872 17873 17874 17875 17876 17877 17878 17879 17880 17881 17882 17883 17884 17885 17886 17887 17888 17889 17890 17891 17892 17893 17894 17895 17896 17897 17898 17899 17900 17901 17902 17903 17904 17905 17906 17907 17908 17909 17910 17911 17912 17913 17914 17915 17916 17917 17918 17919 17920 17921 17922 17923 17924 17925 17926 17927 17928 17929 17930 17931 17932 17933 17934 17935 17936 17937 17938 17939 17940 17941 17942 17943 17944 17945 17946 17947 17948 17949 17950 17951 17952 17953 17954 17955 17956 17957 17958 17959 17960 17961 17962 17963 17964 17965 17966 17967 17968 17969 17970 17971 17972 17973 17974 17975 17976 17977 17978 17979 17980 17981 17982 17983 17984 17985 17986 17987 17988 17989 17990 17991 17992 17993 17994 17995 17996 17997 17998 17999 18000 18001 18002 18003 18004 18005 18006 18007 18008 18009 18010 18011 18012 18013 18014 18015 18016 18017 18018 18019 18020 18021 18022 18023 18024 18025 18026 18027 18028 18029 18030 18031 18032 18033 18034 18035 18036 18037 18038 18039 18040 18041 18042 18043 18044 18045 18046 18047 18048 18049 18050 18051 18052 18053 18054 18055 18056 18057 18058 18059 18060 18061 18062 18063 18064 18065 18066 18067 18068 18069 18070 18071 18072 18073 18074 18075 18076 18077 18078 18079 18080 18081 18082 18083 18084 18085 18086 18087 18088 18089 18090 18091 18092 18093 18094 18095 18096 18097 18098 18099 18100 18101 18102 18103 18104 18105 18106 18107 18108 18109 18110 18111 18112 18113 18114 18115 18116 18117 18118 18119 18120 18121 18122 18123 18124 18125 18126 18127 18128 18129 18130 18131 18132 18133 18134 18135 18136 18137 18138 18139 18140 18141 18142 18143 18144 18145 18146 18147 18148 18149 18150 18151 18152 18153 18154 18155 18156 18157 18158 18159 18160 18161 18162 18163 18164 18165 18166 18167 18168 18169 18170 18171 18172 18173 18174 18175 18176 18177 18178 18179 18180 18181 18182 18183 18184 18185 18186 18187 18188 18189 18190 18191 18192 18193 18194 18195 18196 18197 18198 18199 18200 18201 18202 18203 18204 18205 18206 18207 18208 18209 18210 18211 18212 18213 18214 18215 18216 18217 18218 18219 18220 18221 18222 18223 18224 18225 18226 18227 18228 18229 18230 18231 18232 18233 18234 18235 18236 18237 18238 18239 18240 18241 18242 18243 18244 18245 18246 18247 18248 18249 18250 18251 18252 18253 18254 18255 18256 18257 18258 18259 18260 18261 18262 18263 18264 18265 18266 18267 18268 18269 18270 18271 18272 18273 18274 18275 18276 18277 18278 18279 18280 18281 18282 18283 18284 18285 18286 18287 18288 18289 18290 18291 18292 18293 18294 18295 18296 18297 18298 18299 18300 18301 18302 18303 18304 18305 18306 18307 18308 18309 18310 18311 18312 18313 18314 18315 18316 18317 18318 18319 18320 18321 18322 18323 18324 18325 18326 18327 18328 18329 18330 18331 18332 18333 18334 18335 18336 18337 18338 18339 18340 18341 18342 18343 18344 18345 18346 18347 18348 18349 18350 18351 18352 18353 18354 18355 18356 18357 18358 18359 18360 18361 18362 18363 18364 18365 18366 18367 18368 18369 18370 18371 18372 18373 18374 18375 18376 18377 18378 18379 18380 18381 18382 18383 18384 18385 18386 18387 18388 18389 18390 18391 18392 18393 18394 18395 18396 18397 18398 18399 18400 18401 18402 18403 18404 18405 18406 18407 18408 18409 18410 18411 18412 18413 18414 18415 18416 18417 18418 18419 18420 18421 18422 18423 18424 18425 18426 18427 18428 18429 18430 18431 18432 18433 18434 18435 18436 18437 18438 18439 18440 18441 18442 18443 18444 18445 18446 18447 18448 18449 18450 18451 18452 18453 18454 18455 18456 18457 18458 18459 18460 18461 18462 18463 18464 18465 18466 18467 18468 18469 18470 18471 18472 18473 18474 18475 18476 18477 18478 18479 18480 18481 18482 18483 18484 18485 18486 18487 18488 18489 18490 18491 18492 18493 18494 18495 18496 18497 18498 18499 18500 18501 18502 18503 18504 18505 18506 18507 18508 18509 18510 18511 18512 18513 18514 18515 18516 18517 18518 18519 18520 18521 18522 18523 18524 18525 18526 18527 18528 18529 18530 18531 18532 18533 18534 18535 18536 18537 18538 18539 18540 18541 18542 18543 18544 18545 18546 18547 18548 18549 18550 18551 18552 18553 18554 18555 18556 18557 18558 18559 18560 18561 18562 18563 18564 18565 18566 18567 18568 18569 18570 18571 18572 18573 18574 18575 18576 18577 18578 18579 18580 18581 18582 18583 18584 18585 18586 18587 18588 18589 18590 18591 18592 18593 18594 18595 18596 18597 18598 18599 18600 18601 18602 18603 18604 18605 18606 18607 18608 18609 18610 18611 18612 18613 18614 18615 18616 18617 18618 18619 18620 18621 18622 18623 18624 18625 18626 18627 18628 18629 18630 18631 18632 18633 18634 18635 18636 18637 18638 18639 18640 18641 18642 18643 18644 18645 18646 18647 18648 18649 18650 18651 18652 18653 18654 18655 18656 18657 18658 18659 18660 18661 18662 18663 18664 18665 18666 18667 18668 18669 18670 18671 18672 18673 18674 18675 18676 18677 18678 18679 18680 18681 18682 18683 18684 18685 18686 18687 18688 18689 18690 18691 18692 18693 18694 18695 18696 18697 18698 18699 18700 18701 18702 18703 18704 18705 18706 18707 18708 18709 18710 18711 18712 18713 18714 18715 18716 18717 18718 18719 18720 18721 18722 18723 18724 18725 18726 18727 18728 18729 18730 18731 18732 18733 18734 18735 18736 18737 18738 18739 18740 18741 18742 18743 18744 18745 18746 18747 18748 18749 18750 18751 18752 18753 18754 18755 18756 18757 18758 18759 18760 18761 18762 18763 18764 18765 18766 18767 18768 18769 18770 18771 18772 18773 18774 18775 18776 18777 18778 18779 18780 18781 18782 18783 18784 18785 18786 18787 18788 18789 18790 18791 18792 18793 18794 18795 18796 18797 18798 18799 18800 18801 18802 18803 18804 18805 18806 18807 18808 18809 18810 18811 18812 18813 18814 18815 18816 18817 18818 18819 18820 18821 18822 18823 18824 18825 18826 18827 18828 18829 18830 18831 18832 18833 18834 18835 18836 18837 18838 18839 18840 18841 18842 18843 18844 18845 18846 18847 18848 18849 18850 18851 18852 18853 18854 18855 18856 18857 18858 18859 18860 18861 18862 18863 18864 18865 18866 18867 18868 18869 18870 18871 18872 18873 18874 18875 18876 18877 18878 18879 18880 18881 18882 18883 18884 18885 18886 18887 18888 18889 18890 18891 18892 18893 18894 18895 18896 18897 18898 18899 18900 18901 18902 18903 18904 18905 18906 18907 18908 18909 18910 18911 18912 18913 18914 18915 18916 18917 18918 18919 18920 18921 18922 18923 18924 18925 18926 18927 18928 18929 18930 18931 18932 18933 18934 18935 18936 18937 18938 18939 18940 18941 18942 18943 18944 18945 18946 18947 18948 18949 18950 18951 18952 18953 18954 18955 18956 18957 18958 18959 18960 18961 18962 18963 18964 18965 18966 18967 18968 18969 18970 18971 18972 18973 18974 18975 18976 18977 18978 18979 18980 18981 18982 18983 18984 18985 18986 18987 18988 18989 18990 18991 18992 18993 18994 18995 18996 18997 18998 18999 19000 19001 19002 19003 19004 19005 19006 19007 19008 19009 19010 19011 19012 19013 19014 19015 19016 19017 19018 19019 19020 19021 19022 19023 19024 19025 19026 19027 19028 19029 19030 19031 19032 19033 19034 19035 19036 19037 19038 19039 19040 19041 19042 19043 19044 19045 19046 19047 19048 19049 19050 19051 19052 19053 19054 19055 19056 19057 19058 19059 19060 19061 19062 19063 19064 19065 19066 19067 19068 19069 19070 19071 19072 19073 19074 19075 19076 19077 19078 19079 19080 19081 19082 19083 19084 19085 19086 19087 19088 19089 19090 19091 19092 19093 19094 19095 19096 19097 19098 19099 19100 19101 19102 19103 19104 19105 19106 19107 19108 19109 19110 19111 19112 19113 19114 19115 19116 19117 19118 19119 19120 19121 19122 19123 19124 19125 19126 19127 19128 19129 19130 19131 19132 19133 19134 19135 19136 19137 19138 19139 19140 19141 19142 19143 19144 19145 19146 19147 19148 19149 19150 19151 19152 19153 19154 19155 19156 19157 19158 19159 19160 19161 19162 19163 19164 19165 19166 19167 19168 19169 19170 19171 19172 19173 19174 19175 19176 19177 19178 19179 19180 19181 19182 19183 19184 19185 19186 19187 19188 19189 19190 19191 19192 19193 19194 19195 19196 19197 19198 19199 19200 19201 19202 19203 19204 19205 19206 19207 19208 19209 19210 19211 19212 19213 19214 19215 19216 19217 19218 19219 19220 19221 19222 19223 19224 19225 19226 19227 19228 19229 19230 19231 19232 19233 19234 19235 19236 19237 19238 19239 19240 19241 19242 19243 19244 19245 19246 19247 19248 19249 19250 19251 19252 19253 19254 19255 19256 19257 19258 19259 19260 19261 19262 19263 19264 19265 19266 19267 19268 19269 19270 19271 19272 19273 19274 19275 19276 19277 19278 19279 19280 19281 19282 19283 19284 19285 19286 19287 19288 19289 19290 19291 19292 19293 19294 19295 19296 19297 19298 19299 19300 19301 19302 19303 19304 19305 19306 19307 19308 19309 19310 19311 19312 19313 19314 19315 19316 19317 19318 19319 19320 19321 19322 19323 19324 19325 19326 19327 19328 19329 19330 19331 19332 19333 19334 19335 19336 19337 19338 19339 19340 19341 19342 19343 19344 19345 19346 19347 19348 19349 19350 19351 19352 19353 19354 19355 19356 19357 19358 19359 19360 19361 19362 19363 19364 19365 19366 19367 19368 19369 19370 19371 19372 19373 19374 19375 19376 19377 19378 19379 19380 19381 19382 19383 19384 19385 19386 19387 19388 19389 19390 19391 19392 19393 19394 19395 19396 19397 19398 19399 19400 19401 19402 19403 19404 19405 19406 19407 19408 19409 19410 19411 19412 19413 19414 19415 19416 19417 19418 19419 19420 19421 19422 19423 19424 19425 19426 19427 19428 19429 19430 19431 19432 19433 19434 19435 19436 19437 19438 19439 19440 19441 19442 19443 19444 19445 19446 19447 19448 19449 19450 19451 19452 19453 19454 19455 19456 19457 19458 19459 19460 19461 19462 19463 19464 19465 19466 19467 19468 19469 19470 19471 19472 19473 19474 19475 19476 19477 19478 19479 19480 19481 19482 19483 19484 19485 19486 19487 19488 19489 19490 19491 19492 19493 19494 19495 19496 19497 19498 19499 19500 19501 19502 19503 19504 19505 19506 19507 19508 19509 19510 19511 19512 19513 19514 19515 19516 19517 19518 19519 19520 19521 19522 19523 19524 19525 19526 19527 19528 19529 19530 19531 19532 19533 19534 19535 19536 19537 19538 19539 19540 19541 19542 19543 19544 19545 19546 19547 19548 19549 19550 19551 19552 19553 19554 19555 19556 19557 19558 19559 19560 19561 19562 19563 19564 19565 19566 19567 19568 19569 19570 19571 19572 19573 19574 19575 19576 19577 19578 19579 19580 19581 19582 19583 19584 19585 19586 19587 19588 19589 19590 19591 19592 19593 19594 19595 19596 19597 19598 19599 19600 19601 19602 19603 19604 19605 19606 19607 19608 19609 19610 19611 19612 19613 19614 19615 19616 19617 19618 19619 19620 19621 19622 19623 19624 19625 19626 19627 19628 19629 19630 19631 19632 19633 19634 19635 19636 19637 19638 19639 19640 19641 19642 19643 19644 19645 19646 19647 19648 19649 19650 19651 19652 19653 19654 19655 19656 19657 19658 19659 19660 19661 19662 19663 19664 19665 19666 19667 19668 19669 19670 19671 19672 19673 19674 19675 19676 19677 19678 19679 19680 19681 19682 19683 19684 19685 19686 19687 19688 19689 19690 19691 19692 19693 19694 19695 19696 19697 19698 19699 19700 19701 19702 19703 19704 19705 19706 19707 19708 19709 19710 19711 19712 19713 19714 19715 19716 19717 19718 19719 19720 19721 19722 19723 19724 19725 19726 19727 19728 19729 19730 19731 19732 19733 19734 19735 19736 19737 19738 19739 19740 19741 19742 19743 19744 19745 19746 19747 19748 19749 19750 19751 19752 19753 19754 19755 19756 19757 19758 19759 19760 19761 19762 19763 19764 19765 19766 19767 19768 19769 19770 19771 19772 19773 19774 19775 19776 19777 19778 19779 19780 19781 19782 19783 19784 19785 19786 19787 19788 19789 19790 19791 19792 19793 19794 19795 19796 19797 19798 19799 19800 19801 19802 19803 19804 19805 19806 19807 19808 19809 19810 19811 19812 19813 19814 19815 19816 19817 19818 19819 19820 19821 19822 19823 19824 19825 19826 19827 19828 19829 19830 19831 19832 19833 19834 19835 19836 19837 19838 19839 19840 19841 19842 19843 19844 19845 19846 19847 19848 19849 19850 19851 19852 19853 19854 19855 19856 19857 19858 19859 19860 19861 19862 19863 19864 19865 19866 19867 19868 19869 19870 19871 19872 19873 19874 19875 19876 19877 19878 19879 19880 19881 19882 19883 19884 19885 19886 19887 19888 19889 19890 19891 19892 19893 19894 19895 19896 19897 19898 19899 19900 19901 19902 19903 19904 19905 19906 19907 19908 19909 19910 19911 19912 19913 19914 19915 19916 19917 19918 19919 19920 19921 19922 19923 19924 19925 19926 19927 19928 19929 19930 19931 19932 19933 19934 19935 19936 19937 19938 19939 19940 19941 19942 19943 19944 19945 19946 19947 19948 19949 19950 19951 19952 19953 19954 19955 19956 19957 19958 19959 19960 19961 19962 19963 19964 19965 19966 19967 19968 19969 19970 19971 19972 19973 19974 19975 19976 19977 19978 19979 19980 19981 19982 19983 19984 19985 19986 19987 19988 19989 19990 19991 19992 19993 19994 19995 19996 19997 19998 19999 20000 20001 20002 20003 20004 20005 20006 20007 20008 20009 20010 20011 20012 20013 20014 20015 20016 20017 20018 20019 20020 20021 20022 20023 20024 20025 20026 20027 20028 20029 20030 20031 20032 20033 20034 20035 20036 20037 20038 20039 20040 20041 20042 20043 20044 20045 20046 20047 20048 20049 20050 20051 20052 20053 20054 20055 20056 20057 20058 20059 20060 20061 20062 20063 20064 20065 20066 20067 20068 20069 20070 20071 20072 20073 20074 20075 20076 20077 20078 20079 20080 20081 20082 20083 20084 20085 20086 20087 20088 20089 20090 20091 20092 20093 20094 20095 20096 20097 20098 20099 20100 20101 20102 20103 20104 20105 20106 20107 20108 20109 20110 20111 20112 20113 20114 20115 20116 20117 20118 20119 20120 20121 20122 20123 20124 20125 20126 20127 20128 20129 20130 20131 20132 20133 20134 20135 20136 20137 20138 20139 20140 20141 20142 20143 20144 20145 20146 20147 20148 20149 20150 20151 20152 20153 20154 20155 20156 20157 20158 20159 20160 20161 20162 20163 20164 20165 20166 20167 20168 20169 20170 20171 20172 20173 20174 20175 20176 20177 20178 20179 20180 20181 20182 20183 20184 20185 20186 20187 20188 20189 20190 20191 20192 20193 20194 20195 20196 20197 20198 20199 20200 20201 20202 20203 20204 20205 20206 20207 20208 20209 20210 20211 20212 20213 20214 20215 20216 20217 20218 20219 20220 20221 20222 20223 20224 20225 20226 20227 20228 20229 20230 20231 20232 20233 20234 20235 20236 20237 20238 20239 20240 20241 20242 20243 20244 20245 20246 20247 20248 20249 20250 20251 20252 20253 20254 20255 20256 20257 20258 20259 20260 20261 20262 20263 20264 20265 20266 20267 20268 20269 20270 20271 20272 20273 20274 20275 20276 20277 20278 20279 20280 20281 20282 20283 20284 20285 20286 20287 20288 20289 20290 20291 20292 20293 20294 20295 20296 20297 20298 20299 20300 20301 20302 20303 20304 20305 20306 20307 20308 20309 20310 20311 20312 20313 20314 20315 20316 20317 20318 20319 20320 20321 20322 20323 20324 20325 20326 20327 20328 20329 20330 20331 20332 20333 20334 20335 20336 20337 20338 20339 20340 20341 20342 20343 20344 20345 20346 20347 20348 20349 20350 20351 20352 20353 20354 20355 20356 20357 20358 20359 20360 20361 20362 20363 20364 20365 20366 20367 20368 20369 20370 20371 20372 20373 20374 20375 20376 20377 20378 20379 20380 20381 20382 20383 20384 20385 20386 20387 20388 20389 20390 20391 20392 20393 20394 20395 20396 20397 20398 20399 20400 20401 20402 20403 20404 20405 20406 20407 20408 20409 20410 20411 20412 20413 20414 20415 20416 20417 20418 20419 20420 20421 20422 20423 20424 20425 20426 20427 20428 20429 20430 20431 20432 20433 20434 20435 20436 20437 20438 20439 20440 20441 20442 20443 20444 20445 20446 20447 20448 20449 20450 20451 20452 20453 20454 20455 20456 20457 20458 20459 20460 20461 20462 20463 20464 20465 20466 20467 20468 20469 20470 20471 20472 20473 20474 20475 20476 20477 20478 20479 20480 20481 20482 20483 20484 20485 20486 20487 20488 20489 20490 20491 20492 20493 20494 20495 20496 20497 20498 20499 20500 20501 20502 20503 20504 20505 20506 20507 20508 20509 20510 20511 20512 20513 20514 20515 20516 20517 20518 20519 20520 20521 20522 20523 20524 20525 20526 20527 20528 20529 20530 20531 20532 20533 20534 20535 20536 20537 20538 20539 20540 20541 20542 20543 20544 20545 20546 20547 20548 20549 20550 20551 20552 20553 20554 20555 20556 20557 20558 20559 20560 20561 20562 20563 20564 20565 20566 20567 20568 20569 20570 20571 20572 20573 20574 20575 20576 20577 20578 20579 20580 20581 20582 20583 20584 20585 20586 20587 20588 20589 20590 20591 20592 20593 20594 20595 20596 20597 20598 20599 20600 20601 20602 20603 20604 20605 20606 20607 20608 20609 20610 20611 20612 20613 20614 20615 20616 20617 20618 20619 20620 20621 20622 20623 20624 20625 20626 20627 20628 20629 20630 20631 20632 20633 20634 20635 20636 20637 20638 20639 20640 20641 20642 20643 20644 20645 20646 20647 20648 20649 20650 20651 20652 20653 20654 20655 20656 20657 20658 20659 20660 20661 20662 20663 20664 20665 20666 20667 20668 20669 20670 20671 20672 20673 20674 20675 20676 20677 20678 20679 20680 20681 20682 20683 20684 20685 20686 20687 20688 20689 20690 20691 20692 20693 20694 20695 20696 20697 20698 20699 20700 20701 20702 20703 20704 20705 20706 20707 20708 20709 20710 20711 20712 20713 20714 20715 20716 20717 20718 20719 20720 20721 20722 20723 20724 20725 20726 20727 20728 20729 20730 20731 20732 20733 20734 20735 20736 20737 20738 20739 20740 20741 20742 20743 20744 20745 20746 20747 20748 20749 20750 20751 20752 20753 20754 20755 20756 20757 20758 20759 20760 20761 20762 20763 20764 20765 20766 20767 20768 20769 20770 20771 20772 20773 20774 20775 20776 20777 20778 20779 20780 20781 20782 20783 20784 20785 20786 20787 20788 20789 20790 20791 20792 20793 20794 20795 20796 20797 20798 20799 20800 20801 20802 20803 20804 20805 20806 20807 20808 20809 20810 20811 20812 20813 20814 20815 20816 20817 20818 20819 20820 20821 20822 20823 20824 20825 20826 20827 20828 20829 20830 20831 20832 20833 20834 20835 20836 20837 20838 20839 20840 20841 20842 20843 20844 20845 20846 20847 20848 20849 20850 20851 20852 20853 20854 20855 20856 20857 20858 20859 20860 20861 20862 20863 20864 20865 20866 20867 20868 20869 20870 20871 20872 20873 20874 20875 20876 20877 20878 20879 20880 20881 20882 20883 20884 20885 20886 20887 20888 20889 20890 20891 20892 20893 20894 20895 20896 20897 20898 20899 20900 20901 20902 20903 20904 20905 20906 20907 20908 20909 20910 20911 20912 20913 20914 20915 20916 20917 20918 20919 20920 20921 20922 20923 20924 20925 20926 20927 20928 20929 20930 20931 20932 20933 20934 20935 20936 20937 20938 20939 20940 20941 20942 20943 20944 20945 20946 20947 20948 20949 20950 20951 20952 20953 20954 20955 20956 20957 20958 20959 20960 20961 20962 20963 20964 20965 20966 20967 20968 20969 20970 20971 20972 20973 20974 20975 20976 20977 20978 20979 20980 20981 20982 20983 20984 20985 20986 20987 20988 20989 20990 20991 20992 20993 20994 20995 20996 20997 20998 20999 21000 21001 21002 21003 21004 21005 21006 21007 21008 21009 21010 21011 21012 21013 21014 21015 21016 21017 21018 21019 21020 21021 21022 21023 21024 21025 21026 21027 21028 21029 21030 21031 21032 21033 21034 21035 21036 21037 21038 21039 21040 21041 21042 21043 21044 21045 21046 21047 21048 21049 21050 21051 21052 21053 21054 21055 21056 21057 21058 21059 21060 21061 21062 21063 21064 21065 21066 21067 21068 21069 21070 21071 21072 21073 21074 21075 21076 21077 21078 21079 21080 21081 21082 21083 21084 21085 21086 21087 21088 21089 21090 21091 21092 21093 21094 21095 21096 21097 21098 21099 21100 21101 21102 21103 21104 21105 21106 21107 21108 21109 21110 21111 21112 21113 21114 21115 21116 21117 21118 21119 21120 21121 21122 21123 21124 21125 21126 21127 21128 21129 21130 21131 21132 21133 21134 21135 21136 21137 21138 21139 21140 21141 21142 21143 21144 21145 21146 21147 21148 21149 21150 21151 21152 21153 21154 21155 21156 21157 21158 21159 21160 21161 21162 21163 21164 21165 21166 21167 21168 21169 21170 21171 21172 21173 21174 21175 21176 21177 21178 21179 21180 21181 21182 21183 21184 21185 21186 21187 21188 21189 21190 21191 21192 21193 21194 21195 21196 21197 21198 21199 21200 21201 21202 21203 21204 21205 21206 21207 21208 21209 21210 21211 21212 21213 21214 21215 21216 21217 21218 21219 21220 21221 21222 21223 21224 21225 21226 21227 21228 21229 21230 21231 21232 21233 21234 21235 21236 21237 21238 21239 21240 21241 21242 21243 21244 21245 21246 21247 21248 21249 21250 21251 21252 21253 21254 21255 21256 21257 21258 21259 21260 21261 21262 21263 21264 21265 21266 21267 21268 21269 21270 21271 21272 21273 21274 21275 21276 21277 21278 21279 21280 21281 21282 21283 21284 21285 21286 21287 21288 21289 21290 21291 21292 21293 21294 21295 21296 21297 21298 21299 21300 21301 21302 21303 21304 21305 21306 21307 21308 21309 21310 21311 21312 21313 21314 21315 21316 21317 21318 21319 21320 21321 21322 21323 21324 21325 21326 21327 21328 21329 21330 21331 21332 21333 21334 21335 21336 21337 21338 21339 21340 21341 21342 21343 21344 21345 21346 21347 21348 21349 21350 21351 21352 21353 21354 21355 21356 21357 21358 21359 21360 21361 21362 21363 21364 21365 21366 21367 21368 21369 21370 21371 21372 21373 21374 21375 21376 21377 21378 21379 21380 21381 21382 21383 21384 21385 21386 21387 21388 21389 21390 21391 21392 21393 21394 21395 21396 21397 21398 21399 21400 21401 21402 21403 21404 21405 21406 21407 21408 21409 21410 21411 21412 21413 21414 21415 21416 21417 21418 21419 21420 21421 21422 21423 21424 21425 21426 21427 21428 21429 21430 21431 21432 21433 21434 21435 21436 21437 21438 21439 21440 21441 21442 21443 21444 21445 21446 21447 21448 21449 21450 21451 21452 21453 21454 21455 21456 21457 21458 21459 21460 21461 21462 21463 21464 21465 21466 21467 21468 21469 21470 21471 21472 21473 21474 21475 21476 21477 21478 21479 21480 21481 21482 21483 21484 21485 21486 21487 21488 21489 21490 21491 21492 21493 21494 21495 21496 21497 21498 21499 21500 21501 21502 21503 21504 21505 21506 21507 21508 21509 21510 21511 21512 21513 21514 21515 21516 21517 21518 21519 21520 21521 21522 21523 21524 21525 21526 21527 21528 21529 21530 21531 21532 21533 21534 21535 21536 21537 21538 21539 21540 21541 21542 21543 21544 21545 21546 21547 21548 21549 21550 21551 21552 21553 21554 21555 21556 21557 21558 21559 21560 21561 21562 21563 21564 21565 21566 21567 21568 21569 21570 21571 21572 21573 21574 21575 21576 21577 21578 21579 21580 21581 21582 21583 21584 21585 21586 21587 21588 21589 21590 21591 21592 21593 21594 21595 21596 21597 21598 21599 21600 21601 21602 21603 21604 21605 21606 21607 21608 21609 21610 21611 21612 21613 21614 21615 21616 21617 21618 21619 21620 21621 21622 21623 21624 21625 21626 21627 21628 21629 21630 21631 21632 21633 21634 21635 21636 21637 21638 21639 21640 21641 21642 21643 21644 21645 21646 21647 21648 21649 21650 21651 21652 21653 21654 21655 21656 21657 21658 21659 21660 21661 21662 21663 21664 21665 21666 21667 21668 21669 21670 21671 21672 21673 21674 21675 21676 21677 21678 21679 21680 21681 21682 21683 21684 21685 21686 21687 21688 21689 21690 21691 21692 21693 21694 21695 21696 21697 21698 21699 21700 21701 21702 21703 21704 21705 21706 21707 21708 21709 21710 21711 21712 21713 21714 21715 21716 21717 21718 21719 21720 21721 21722 21723 21724 21725 21726 21727 21728 21729 21730 21731 21732 21733 21734 21735 21736 21737 21738 21739 21740 21741 21742 21743 21744 21745 21746 21747 21748 21749 21750 21751 21752 21753 21754 21755 21756 21757 21758 21759 21760 21761 21762 21763 21764 21765 21766 21767 21768 21769 21770 21771 21772 21773 21774 21775 21776 21777 21778 21779 21780 21781 21782 21783 21784 21785 21786 21787 21788 21789 21790 21791 21792 21793 21794 21795 21796 21797 21798 21799 21800 21801 21802 21803 21804 21805 21806 21807 21808 21809 21810 21811 21812 21813 21814 21815 21816 21817 21818 21819 21820 21821 21822 21823 21824 21825 21826 21827 21828 21829 21830 21831 21832 21833 21834 21835 21836 21837 21838 21839 21840 21841 21842 21843 21844 21845 21846 21847 21848 21849 21850 21851 21852 21853 21854 21855 21856 21857 21858 21859 21860 21861 21862 21863 21864 21865 21866 21867 21868 21869 21870 21871 21872 21873 21874 21875 21876 21877 21878 21879 21880 21881 21882 21883 21884 21885 21886 21887 21888 21889 21890 21891 21892 21893 21894 21895 21896 21897 21898 21899 21900 21901 21902 21903 21904 21905 21906 21907 21908 21909 21910 21911 21912 21913 21914 21915 21916 21917 21918 21919 21920 21921 21922 21923 21924 21925 21926 21927 21928 21929 21930 21931 21932 21933 21934 21935 21936 21937 21938 21939 21940 21941 21942 21943 21944 21945 21946 21947 21948 21949 21950 21951 21952 21953 21954 21955 21956 21957 21958 21959 21960 21961 21962 21963 21964 21965 21966 21967 21968 21969 21970 21971 21972 21973 21974 21975 21976 21977 21978 21979 21980 21981 21982 21983 21984 21985 21986 21987 21988 21989 21990 21991 21992 21993 21994 21995 21996 21997 21998 21999 22000 22001 22002 22003 22004 22005 22006 22007 22008 22009 22010 22011 22012 22013 22014 22015 22016 22017 22018 22019 22020 22021 22022 22023 22024 22025 22026 22027 22028 22029 22030 22031 22032 22033 22034 22035 22036 22037 22038 22039 22040 22041 22042 22043 22044 22045 22046 22047 22048 22049 22050 22051 22052 22053 22054 22055 22056 22057 22058 22059 22060 22061 22062 22063 22064 22065 22066 22067 22068 22069 22070 22071 22072 22073 22074 22075 22076 22077 22078 22079 22080 22081 22082 22083 22084 22085 22086 22087 22088 22089 22090 22091 22092 22093 22094 22095 22096 22097 22098 22099 22100 22101 22102 22103 22104 22105 22106 22107 22108 22109 22110 22111 22112 22113 22114 22115 22116 22117 22118 22119 22120 22121 22122 22123 22124 22125 22126 22127 22128 22129 22130 22131 22132 22133 22134 22135 22136 22137 22138 22139 22140 22141 22142 22143 22144 22145 22146 22147 22148 22149 22150 22151 22152 22153 22154 22155 22156 22157 22158 22159 22160 22161 22162 22163 22164 22165 22166 22167 22168 22169 22170 22171 22172 22173 22174 22175 22176 22177 22178 22179 22180 22181 22182 22183 22184 22185 22186 22187 22188 22189 22190 22191 22192 22193 22194 22195 22196 22197 22198 22199 22200 22201 22202 22203 22204 22205 22206 22207 22208 22209 22210 22211 22212 22213 22214 22215 22216 22217 22218 22219 22220 22221 22222 22223 22224 22225 22226 22227 22228 22229 22230 22231 22232 22233 22234 22235 22236 22237 22238 22239 22240 22241 22242 22243 22244 22245 22246 22247 22248 22249 22250 22251 22252 22253 22254 22255 22256 22257 22258 22259 22260 22261 22262 22263 22264 22265 22266 22267 22268 22269 22270 22271 22272 22273 22274 22275 22276 22277 22278 22279 22280 22281 22282 22283 22284 22285 22286 22287 22288 22289 22290 22291 22292 22293 22294 22295 22296 22297 22298 22299 22300 22301 22302 22303 22304 22305 22306 22307 22308 22309 22310 22311 22312 22313 22314 22315 22316 22317 22318 22319 22320 22321 22322 22323 22324 22325 22326 22327 22328 22329 22330 22331 22332 22333 22334 22335 22336 22337 22338 22339 22340 22341 22342 22343 22344 22345 22346 22347 22348 22349 22350 22351 22352 22353 22354 22355 22356 22357 22358 22359 22360 22361 22362 22363 22364 22365 22366 22367 22368 22369 22370 22371 22372 22373 22374 22375 22376 22377 22378 22379 22380 22381 22382 22383 22384 22385 22386 22387 22388 22389 22390 22391 22392 22393 22394 22395 22396 22397 22398 22399 22400 22401 22402 22403 22404 22405 22406 22407 22408 22409 22410 22411 22412 22413 22414 22415 22416 22417 22418 22419 22420 22421 22422 22423 22424 22425 22426 22427 22428 22429 22430 22431 22432 22433 22434 22435 22436 22437 22438 22439 22440 22441 22442 22443 22444 22445 22446 22447 22448 22449 22450 22451 22452 22453 22454 22455 22456 22457 22458 22459 22460 22461 22462 22463 22464 22465 22466 22467 22468 22469 22470 22471 22472 22473 22474 22475 22476 22477 22478 22479 22480 22481 22482 22483 22484 22485 22486 22487 22488 22489 22490 22491 22492 22493 22494 22495 22496 22497 22498 22499 22500 22501 22502 22503 22504 22505 22506 22507 22508 22509 22510 22511 22512 22513 22514 22515 22516 22517 22518 22519 22520 22521 22522 22523 22524 22525 22526 22527 22528 22529 22530 22531 22532 22533 22534 22535 22536 22537 22538 22539 22540 22541 22542 22543 22544 22545 22546 22547 22548 22549 22550 22551 22552 22553 22554 22555 22556 22557 22558 22559 22560 22561 22562 22563 22564 22565 22566 22567 22568 22569 22570 22571 22572 22573 22574 22575 22576 22577 22578 22579 22580 22581 22582 22583 22584 22585 22586 22587 22588 22589 22590 22591 22592 22593 22594 22595 22596 22597 22598 22599 22600 22601 22602 22603 22604 22605 22606 22607 22608 22609 22610 22611 22612 22613 22614 22615 22616 22617 22618 22619 22620 22621 22622 22623 22624 22625 22626 22627 22628 22629 22630 22631 22632 22633 22634 22635 22636 22637 22638 22639 22640 22641 22642 22643 22644 22645 22646 22647 22648 22649 22650 22651 22652 22653 22654 22655 22656 22657 22658 22659 22660 22661 22662 22663 22664 22665 22666 22667 22668 22669 22670 22671 22672 22673 22674 22675 22676 22677 22678 22679 22680 22681 22682 22683 22684 22685 22686 22687 22688 22689 22690 22691 22692 22693 22694 22695 22696 22697 22698 22699 22700 22701 22702 22703 22704 22705 22706 22707 22708 22709 22710 22711 22712 22713 22714 22715 22716 22717 22718 22719 22720 22721 22722 22723 22724 22725 22726 22727 22728 22729 22730 22731 22732 22733 22734 22735 22736 22737 22738 22739 22740 22741 22742 22743 22744 22745 22746 22747 22748 22749 22750 22751 22752 22753 22754 22755 22756 22757 22758 22759 22760 22761 22762 22763 22764 22765 22766 22767 22768 22769 22770 22771 22772 22773 22774 22775 22776 22777 22778 22779 22780 22781 22782 22783 22784 22785 22786 22787 22788 22789 22790 22791 22792 22793 22794 22795 22796 22797 22798 22799 22800 22801 22802 22803 22804 22805 22806 22807 22808 22809 22810 22811 22812 22813 22814 22815 22816 22817 22818 22819 22820 22821 22822 22823 22824 22825 22826 22827 22828 22829 22830 22831 22832 22833 22834 22835 22836 22837 22838 22839 22840 22841 22842 22843 22844 22845 22846 22847 22848 22849 22850 22851 22852 22853 22854 22855 22856 22857 22858 22859 22860 22861 22862 22863 22864 22865 22866 22867 22868 22869 22870 22871 22872 22873 22874 22875 22876 22877 22878 22879 22880 22881 22882 22883 22884 22885 22886 22887 22888 22889 22890 22891 22892 22893 22894 22895 22896 22897 22898 22899 22900 22901 22902 22903 22904 22905 22906 22907 22908 22909 22910 22911 22912 22913 22914 22915 22916 22917 22918 22919 22920 22921 22922 22923 22924 22925 22926 22927 22928 22929 22930 22931 22932 22933 22934 22935 22936 22937 22938 22939 22940 22941 22942 22943 22944 22945 22946 22947 22948 22949 22950 22951 22952 22953 22954 22955 22956 22957 22958 22959 22960 22961 22962 22963 22964 22965 22966 22967 22968 22969 22970 22971 22972 22973 22974 22975 22976 22977 22978 22979 22980 22981 22982 22983 22984 22985 22986 22987 22988 22989 22990 22991 22992 22993 22994 22995 22996 22997 22998 22999 23000 23001 23002 23003 23004 23005 23006 23007 23008 23009 23010 23011 23012 23013 23014 23015 23016 23017 23018 23019 23020 23021 23022 23023 23024 23025 23026 23027 23028 23029 23030 23031 23032 23033 23034 23035 23036 23037 23038 23039 23040 23041 23042 23043 23044 23045 23046 23047 23048 23049 23050 23051 23052 23053 23054 23055 23056 23057 23058 23059 23060 23061 23062 23063 23064 23065 23066 23067 23068 23069 23070 23071 23072 23073 23074 23075 23076 23077 23078 23079 23080 23081 23082 23083 23084 23085 23086 23087 23088 23089 23090 23091 23092 23093 23094 23095 23096 23097 23098 23099 23100 23101 23102 23103 23104 23105 23106 23107 23108 23109 23110 23111 23112 23113 23114 23115 23116 23117 23118 23119 23120 23121 23122 23123 23124 23125 23126 23127 23128 23129 23130 23131 23132 23133 23134 23135 23136 23137 23138 23139 23140 23141 23142 23143 23144 23145 23146 23147 23148 23149 23150 23151 23152 23153 23154 23155 23156 23157 23158 23159 23160 23161 23162 23163 23164 23165 23166 23167 23168 23169 23170 23171 23172 23173 23174 23175 23176 23177 23178 23179 23180 23181 23182 23183 23184 23185 23186 23187 23188 23189 23190 23191 23192 23193 23194 23195 23196 23197 23198 23199 23200 23201 23202 23203 23204 23205 23206 23207 23208 23209 23210 23211 23212 23213 23214 23215 23216 23217 23218 23219 23220 23221 23222 23223 23224 23225 23226 23227 23228 23229 23230 23231 23232 23233 23234 23235 23236 23237 23238 23239 23240 23241 23242 23243 23244 23245 23246 23247 23248 23249 23250 23251 23252 23253 23254 23255 23256 23257 23258 23259 23260 23261 23262 23263 23264 23265 23266 23267 23268 23269 23270 23271 23272 23273 23274 23275 23276 23277 23278 23279 23280 23281 23282 23283 23284 23285 23286 23287 23288 23289 23290 23291 23292 23293 23294 23295 23296 23297 23298 23299 23300 23301 23302 23303 23304 23305 23306 23307 23308 23309 23310 23311 23312 23313 23314 23315 23316 23317 23318 23319 23320 23321 23322 23323 23324 23325 23326 23327 23328 23329 23330 23331 23332 23333 23334 23335 23336 23337 23338 23339 23340 23341 23342 23343 23344 23345 23346 23347 23348 23349 23350 23351 23352 23353 23354 23355 23356 23357 23358 23359 23360 23361 23362 23363 23364 23365 23366 23367 23368 23369 23370 23371 23372 23373 23374 23375 23376 23377 23378 23379 23380 23381 23382 23383 23384 23385 23386 23387 23388 23389 23390 23391 23392 23393 23394 23395 23396 23397 23398 23399 23400 23401 23402 23403 23404 23405 23406 23407 23408 23409 23410 23411 23412 23413 23414 23415 23416 23417 23418 23419 23420 23421 23422 23423 23424 23425 23426 23427 23428 23429 23430 23431 23432 23433 23434 23435 23436 23437 23438 23439 23440 23441 23442 23443 23444 23445 23446 23447 23448 23449 23450 23451 23452 23453 23454 23455 23456 23457 23458 23459 23460 23461 23462 23463 23464 23465 23466 23467 23468 23469 23470 23471 23472 23473 23474 23475 23476 23477 23478 23479 23480 23481 23482 23483 23484 23485 23486 23487 23488 23489 23490 23491 23492 23493 23494 23495 23496 23497 23498 23499 23500 23501 23502 23503 23504 23505 23506 23507 23508 23509 23510 23511 23512 23513 23514 23515 23516 23517 23518 23519 23520 23521 23522 23523 23524 23525 23526 23527 23528 23529 23530 23531 23532 23533 23534 23535 23536 23537 23538 23539 23540 23541 23542 23543 23544 23545 23546 23547 23548 23549 23550 23551 23552 23553 23554 23555 23556 23557 23558 23559 23560 23561 23562 23563 23564 23565 23566 23567 23568 23569 23570 23571 23572 23573 23574 23575 23576 23577 23578 23579 23580 23581 23582 23583 23584 23585 23586 23587 23588 23589 23590 23591 23592 23593 23594 23595 23596 23597 23598 23599 23600 23601 23602 23603 23604 23605 23606 23607 23608 23609 23610 23611 23612 23613 23614 23615 23616 23617 23618 23619 23620 23621 23622 23623 23624 23625 23626 23627 23628 23629 23630 23631 23632 23633 23634 23635 23636 23637 23638 23639 23640 23641 23642 23643 23644 23645 23646 23647 23648 23649 23650 23651 23652 23653 23654 23655 23656 23657 23658 23659 23660 23661 23662 23663 23664 23665 23666 23667 23668 23669 23670 23671 23672 23673 23674 23675 23676 23677 23678 23679 23680 23681 23682 23683 23684 23685 23686 23687 23688 23689 23690 23691 23692 23693 23694 23695 23696 23697 23698 23699 23700 23701 23702 23703 23704 23705 23706 23707 23708 23709 23710 23711 23712 23713 23714 23715 23716 23717 23718 23719 23720 23721 23722 23723 23724 23725 23726 23727 23728 23729 23730 23731 23732 23733 23734 23735 23736 23737 23738 23739 23740 23741 23742 23743 23744 23745 23746 23747 23748 23749 23750 23751 23752 23753 23754 23755 23756 23757 23758 23759 23760 23761 23762 23763 23764 23765 23766 23767 23768 23769 23770 23771 23772 23773 23774 23775 23776 23777 23778 23779 23780 23781 23782 23783 23784 23785 23786 23787 23788 23789 23790 23791 23792 23793 23794 23795 23796 23797 23798 23799 23800 23801 23802 23803 23804 23805 23806 23807 23808 23809 23810 23811 23812 23813 23814 23815 23816 23817 23818 23819 23820 23821 23822 23823 23824 23825 23826 23827 23828 23829 23830 23831 23832 23833 23834 23835 23836 23837 23838 23839 23840 23841 23842 23843 23844 23845 23846 23847 23848 23849 23850 23851 23852 23853 23854 23855 23856 23857 23858 23859 23860 23861 23862 23863 23864 23865 23866 23867 23868 23869 23870 23871 23872 23873 23874 23875 23876 23877 23878 23879 23880 23881 23882 23883 23884 23885 23886 23887 23888 23889 23890 23891 23892 23893 23894 23895 23896 23897 23898 23899 23900 23901 23902 23903 23904 23905 23906 23907 23908 23909 23910 23911 23912 23913 23914 23915 23916 23917 23918 23919 23920 23921 23922 23923 23924 23925 23926 23927 23928 23929 23930 23931 23932 23933 23934 23935 23936 23937 23938 23939 23940 23941 23942 23943 23944 23945 23946 23947 23948 23949 23950 23951 23952 23953 23954 23955 23956 23957 23958 23959 23960 23961 23962 23963 23964 23965 23966 23967 23968 23969 23970 23971 23972 23973 23974 23975 23976 23977 23978 23979 23980 23981 23982 23983 23984 23985 23986 23987 23988 23989 23990 23991 23992 23993 23994 23995 23996 23997 23998 23999 24000 24001 24002 24003 24004 24005 24006 24007 24008 24009 24010 24011 24012 24013 24014 24015 24016 24017 24018 24019 24020 24021 24022 24023 24024 24025 24026 24027 24028 24029 24030 24031 24032 24033 24034 24035 24036 24037 24038 24039 24040 24041 24042 24043 24044 24045 24046 24047 24048 24049 24050 24051 24052 24053 24054 24055 24056 24057 24058 24059 24060 24061 24062 24063 24064 24065 24066 24067 24068 24069 24070 24071 24072 24073 24074 24075 24076 24077 24078 24079 24080 24081 24082 24083 24084 24085 24086 24087 24088 24089 24090 24091 24092 24093 24094 24095 24096 24097 24098 24099 24100 24101 24102 24103 24104 24105 24106 24107 24108 24109 24110 24111 24112 24113 24114 24115 24116 24117 24118 24119 24120 24121 24122 24123 24124 24125 24126 24127 24128 24129 24130 24131 24132 24133 24134 24135 24136 24137 24138 24139 24140 24141 24142 24143 24144 24145 24146 24147 24148 24149 24150 24151 24152 24153 24154 24155 24156 24157 24158 24159 24160 24161 24162 24163 24164 24165 24166 24167 24168 24169 24170 24171 24172 24173 24174 24175 24176 24177 24178 24179 24180 24181 24182 24183 24184 24185 24186 24187 24188 24189 24190 24191 24192 24193 24194 24195 24196 24197 24198 24199 24200 24201 24202 24203 24204 24205 24206 24207 24208 24209 24210 24211 24212 24213 24214 24215 24216 24217 24218 24219 24220 24221 24222 24223 24224 24225 24226 24227 24228 24229 24230 24231 24232 24233 24234 24235 24236 24237 24238 24239 24240 24241 24242 24243 24244 24245 24246 24247 24248 24249 24250 24251 24252 24253 24254 24255 24256 24257 24258 24259 24260 24261 24262 24263 24264 24265 24266 24267 24268 24269 24270 24271 24272 24273 24274 24275 24276 24277 24278 24279 24280 24281 24282 24283 24284 24285 24286 24287 24288 24289 24290 24291 24292 24293 24294 24295 24296 24297 24298 24299 24300 24301 24302 24303 24304 24305 24306 24307 24308 24309 24310 24311 24312 24313 24314 24315 24316 24317 24318 24319 24320 24321 24322 24323 24324 24325 24326 24327 24328 24329 24330 24331 24332 24333 24334 24335 24336 24337 24338 24339 24340 24341 24342 24343 24344 24345 24346 24347 24348 24349 24350 24351 24352 24353 24354 24355 24356 24357 24358 24359 24360 24361 24362 24363 24364 24365 24366 24367 24368 24369 24370 24371 24372 24373 24374 24375 24376 24377 24378 24379 24380 24381 24382 24383 24384 24385 24386 24387 24388 24389 24390 24391 24392 24393 24394 24395 24396 24397 24398 24399 24400 24401 24402 24403 24404 24405 24406 24407 24408 24409 24410 24411 24412 24413 24414 24415 24416 24417 24418 24419 24420 24421 24422 24423 24424 24425 24426 24427 24428 24429 24430 24431 24432 24433 24434 24435 24436 24437 24438 24439 24440 24441 24442 24443 24444 24445 24446 24447 24448 24449 24450 24451 24452 24453 24454 24455 24456 24457 24458 24459 24460 24461 24462 24463 24464 24465 24466 24467 24468 24469 24470 24471 24472 24473 24474 24475 24476 24477 24478 24479 24480 24481 24482 24483 24484 24485 24486 24487 24488 24489 24490 24491 24492 24493 24494 24495 24496 24497 24498 24499 24500 24501 24502 24503 24504 24505 24506 24507 24508 24509 24510 24511 24512 24513 24514 24515 24516 24517 24518 24519 24520 24521 24522 24523 24524 24525 24526 24527 24528 24529 24530 24531 24532 24533 24534 24535 24536 24537 24538 24539 24540 24541 24542 24543 24544 24545 24546 24547 24548 24549 24550 24551 24552 24553 24554 24555 24556 24557 24558 24559 24560 24561 24562 24563 24564 24565 24566 24567 24568 24569 24570 24571 24572 24573 24574 24575 24576 24577 24578 24579 24580 24581 24582 24583 24584 24585 24586 24587 24588 24589 24590 24591 24592 24593 24594 24595 24596 24597 24598 24599 24600 24601 24602 24603 24604 24605 24606 24607 24608 24609 24610 24611 24612 24613 24614 24615 24616 24617 24618 24619 24620 24621 24622 24623 24624 24625 24626 24627 24628 24629 24630 24631 24632 24633 24634 24635 24636 24637 24638 24639 24640 24641 24642 24643 24644 24645 24646 24647 24648 24649 24650 24651 24652 24653 24654 24655 24656 24657 24658 24659 24660 24661 24662 24663 24664 24665 24666 24667 24668 24669 24670 24671 24672 24673 24674 24675 24676 24677 24678 24679 24680 24681 24682 24683 24684 24685 24686 24687 24688 24689 24690 24691 24692 24693 24694 24695 24696 24697 24698 24699 24700 24701 24702 24703 24704 24705 24706 24707 24708 24709 24710 24711 24712 24713 24714 24715 24716 24717 24718 24719 24720 24721 24722 24723 24724 24725 24726 24727 24728 24729 24730 24731 24732 24733 24734 24735 24736 24737 24738 24739 24740 24741 24742 24743 24744 24745 24746 24747 24748 24749 24750 24751 24752 24753 24754 24755 24756 24757 24758 24759 24760 24761 24762 24763 24764 24765 24766 24767 24768 24769 24770 24771 24772 24773 24774 24775 24776 24777 24778 24779 24780 24781 24782 24783 24784 24785 24786 24787 24788 24789 24790 24791 24792 24793 24794 24795 24796 24797 24798 24799 24800 24801 24802 24803 24804 24805 24806 24807 24808 24809 24810 24811 24812 24813 24814 24815 24816 24817 24818 24819 24820 24821 24822 24823 24824 24825 24826 24827 24828 24829 24830 24831 24832 24833 24834 24835 24836 24837 24838 24839 24840 24841 24842 24843 24844 24845 24846 24847 24848 24849 24850 24851 24852 24853 24854 24855 24856 24857 24858 24859 24860 24861 24862 24863 24864 24865 24866 24867 24868 24869 24870 24871 24872 24873 24874 24875 24876 24877 24878 24879 24880 24881 24882 24883 24884 24885 24886 24887 24888 24889 24890 24891 24892 24893 24894 24895 24896 24897 24898 24899 24900 24901 24902 24903 24904 24905 24906 24907 24908 24909 24910 24911 24912 24913 24914 24915 24916 24917 24918 24919 24920 24921 24922 24923 24924 24925 24926 24927 24928 24929 24930 24931 24932 24933 24934 24935 24936 24937 24938 24939 24940 24941 24942 24943 24944 24945 24946 24947 24948 24949 24950 24951 24952 24953 24954 24955 24956 24957 24958 24959 24960 24961 24962 24963 24964 24965 24966 24967 24968 24969 24970 24971 24972 24973 24974 24975 24976 24977 24978 24979 24980 24981 24982 24983 24984 24985 24986 24987 24988 24989 24990 24991 24992 24993 24994 24995 24996 24997 24998 24999 25000 25001 25002 25003 25004 25005 25006 25007 25008 25009 25010 25011 25012 25013 25014 25015 25016 25017 25018 25019 25020 25021 25022 25023 25024 25025 25026 25027 25028 25029 25030 25031 25032 25033 25034 25035 25036 25037 25038 25039 25040 25041 25042 25043 25044 25045 25046 25047 25048 25049 25050 25051 25052 25053 25054 25055 25056 25057 25058 25059 25060 25061 25062 25063 25064 25065 25066 25067 25068 25069 25070 25071 25072 25073 25074 25075 25076 25077 25078 25079 25080 25081 25082 25083 25084 25085 25086 25087 25088 25089 25090 25091 25092 25093 25094 25095 25096 25097 25098 25099 25100 25101 25102 25103 25104 25105 25106 25107 25108 25109 25110 25111 25112 25113 25114 25115 25116 25117 25118 25119 25120 25121 25122 25123 25124 25125 25126 25127 25128 25129 25130 25131 25132 25133 25134 25135 25136 25137 25138 25139 25140 25141 25142 25143 25144 25145 25146 25147 25148 25149 25150 25151 25152 25153 25154 25155 25156 25157 25158 25159 25160 25161 25162 25163 25164 25165 25166 25167 25168 25169 25170 25171 25172 25173 25174 25175 25176 25177 25178 25179 25180 25181 25182 25183 25184 25185 25186 25187 25188 25189 25190 25191 25192 25193 25194 25195 25196 25197 25198 25199 25200 25201 25202 25203 25204 25205 25206 25207 25208 25209 25210 25211 25212 25213 25214 25215 25216 25217 25218 25219 25220 25221 25222 25223 25224 25225 25226 25227 25228 25229 25230 25231 25232 25233 25234 25235 25236 25237 25238 25239 25240 25241 25242 25243 25244 25245 25246 25247 25248 25249 25250 25251 25252 25253 25254 25255 25256 25257 25258 25259 25260 25261 25262 25263 25264 25265 25266 25267 25268 25269 25270 25271 25272 25273 25274 25275 25276 25277 25278 25279 25280 25281 25282 25283 25284 25285 25286 25287 25288 25289 25290 25291 25292 25293 25294 25295 25296 25297 25298 25299 25300 25301 25302 25303 25304 25305 25306 25307 25308 25309 25310 25311 25312 25313 25314 25315 25316 25317 25318 25319 25320 25321 25322 25323 25324 25325 25326 25327 25328 25329 25330 25331 25332 25333 25334 25335 25336 25337 25338 25339 25340 25341 25342 25343 25344 25345 25346 25347 25348 25349 25350 25351 25352 25353 25354 25355 25356 25357 25358 25359 25360 25361 25362 25363 25364 25365 25366 25367 25368 25369 25370 25371 25372 25373 25374 25375 25376 25377 25378 25379 25380 25381 25382 25383 25384 25385 25386 25387 25388 25389 25390 25391 25392 25393 25394 25395 25396 25397 25398 25399 25400 25401 25402 25403 25404 25405 25406 25407 25408 25409 25410 25411 25412 25413 25414 25415 25416 25417 25418 25419 25420 25421 25422 25423 25424 25425 25426 25427 25428 25429 25430 25431 25432 25433 25434 25435 25436 25437 25438 25439 25440 25441 25442 25443 25444 25445 25446 25447 25448 25449 25450 25451 25452 25453 25454 25455 25456 25457 25458 25459 25460 25461 25462 25463 25464 25465 25466 25467 25468 25469 25470 25471 25472 25473 25474 25475 25476 25477 25478 25479 25480 25481 25482 25483 25484 25485 25486 25487 25488 25489 25490 25491 25492 25493 25494 25495 25496 25497 25498 25499 25500 25501 25502 25503 25504 25505 25506 25507 25508 25509 25510 25511 25512 25513 25514 25515 25516 25517 25518 25519 25520 25521 25522 25523 25524 25525 25526 25527 25528 25529 25530 25531 25532 25533 25534 25535 25536 25537 25538 25539 25540 25541 25542 25543 25544 25545 25546 25547 25548 25549 25550 25551 25552 25553 25554 25555 25556 25557 25558 25559 25560 25561 25562 25563 25564 25565 25566 25567 25568 25569 25570 25571 25572 25573 25574 25575 25576 25577 25578 25579 25580 25581 25582 25583 25584 25585 25586 25587 25588 25589 25590 25591 25592 25593 25594 25595 25596 25597 25598 25599 25600 25601 25602 25603 25604 25605 25606 25607 25608 25609 25610 25611 25612 25613 25614 25615 25616 25617 25618 25619 25620 25621 25622 25623 25624 25625 25626 25627 25628 25629 25630 25631 25632 25633 25634 25635 25636 25637 25638 25639 25640 25641 25642 25643 25644 25645 25646 25647 25648 25649 25650 25651 25652 25653 25654 25655 25656 25657 25658 25659 25660 25661 25662 25663 25664 25665 25666 25667 25668 25669 25670 25671 25672 25673 25674 25675 25676 25677 25678 25679 25680 25681 25682 25683 25684 25685 25686 25687 25688 25689 25690 25691 25692 25693 25694 25695 25696 25697 25698 25699 25700 25701 25702 25703 25704 25705 25706 25707 25708 25709 25710 25711 25712 25713 25714 25715 25716 25717 25718 25719 25720 25721 25722 25723 25724 25725 25726 25727 25728 25729 25730 25731 25732 25733 25734 25735 25736 25737 25738 25739 25740 25741 25742 25743 25744 25745 25746 25747 25748 25749 25750 25751 25752 25753 25754 25755 25756 25757 25758 25759 25760 25761 25762 25763 25764 25765 25766 25767 25768 25769 25770 25771 25772 25773 25774 25775 25776 25777 25778 25779 25780 25781 25782 25783 25784 25785 25786 25787 25788 25789 25790 25791 25792 25793 25794 25795 25796 25797 25798 25799 25800 25801 25802 25803 25804 25805 25806 25807 25808 25809 25810 25811 25812 25813 25814 25815 25816 25817 25818 25819 25820 25821 25822 25823 25824 25825 25826 25827 25828 25829 25830 25831 25832 25833 25834 25835 25836 25837 25838 25839 25840 25841 25842 25843 25844 25845 25846 25847 25848 25849 25850 25851 25852 25853 25854 25855 25856 25857 25858 25859 25860 25861 25862 25863 25864 25865 25866 25867 25868 25869 25870 25871 25872 25873 25874 25875 25876 25877 25878 25879 25880 25881 25882 25883 25884 25885 25886 25887 25888 25889 25890 25891 25892 25893 25894 25895 25896 25897 25898 25899 25900 25901 25902 25903 25904 25905 25906 25907 25908 25909 25910 25911 25912 25913 25914 25915 25916 25917 25918 25919 25920 25921 25922 25923 25924 25925 25926 25927 25928 25929 25930 25931 25932 25933 25934 25935 25936 25937 25938 25939 25940 25941 25942 25943 25944 25945 25946 25947 25948 25949 25950 25951 25952 25953 25954 25955 25956 25957 25958 25959 25960 25961 25962 25963 25964 25965 25966 25967 25968 25969 25970 25971 25972 25973 25974 25975 25976 25977 25978 25979 25980 25981 25982 25983 25984 25985 25986 25987 25988 25989 25990 25991 25992 25993 25994 25995 25996 25997 25998 25999 26000 26001 26002 26003 26004 26005 26006 26007 26008 26009 26010 26011 26012 26013 26014 26015 26016 26017 26018 26019 26020 26021 26022 26023 26024 26025 26026 26027 26028 26029 26030 26031 26032 26033 26034 26035 26036 26037 26038 26039 26040 26041 26042 26043 26044 26045 26046 26047 26048 26049 26050 26051 26052 26053 26054 26055 26056 26057 26058 26059 26060 26061 26062 26063 26064 26065 26066 26067 26068 26069 26070 26071 26072 26073 26074 26075 26076 26077 26078 26079 26080 26081 26082 26083 26084 26085 26086 26087 26088 26089 26090 26091 26092 26093 26094 26095 26096 26097 26098 26099 26100 26101 26102 26103 26104 26105 26106 26107 26108 26109 26110 26111 26112 26113 26114 26115 26116 26117 26118 26119 26120 26121 26122 26123 26124 26125 26126 26127 26128 26129 26130 26131 26132 26133 26134 26135 26136 26137 26138 26139 26140 26141 26142 26143 26144 26145 26146 26147 26148 26149 26150 26151 26152 26153 26154 26155 26156 26157 26158 26159 26160 26161 26162 26163 26164 26165 26166 26167 26168 26169 26170 26171 26172 26173 26174 26175 26176 26177 26178 26179 26180 26181 26182 26183 26184 26185 26186 26187 26188 26189 26190 26191 26192 26193 26194 26195 26196 26197 26198 26199 26200 26201 26202 26203 26204 26205 26206 26207 26208 26209 26210 26211 26212 26213 26214 26215 26216 26217 26218 26219 26220 26221 26222 26223 26224 26225 26226 26227 26228 26229 26230 26231 26232 26233 26234 26235 26236 26237 26238 26239 26240 26241 26242 26243 26244 26245 26246 26247 26248 26249 26250 26251 26252 26253 26254 26255 26256 26257 26258 26259 26260 26261 26262 26263 26264 26265 26266 26267 26268 26269 26270 26271 26272 26273 26274 26275 26276 26277 26278 26279 26280 26281 26282 26283 26284 26285 26286 26287 26288 26289 26290 26291 26292 26293 26294 26295 26296 26297 26298 26299 26300 26301 26302 26303 26304 26305 26306 26307 26308 26309 26310 26311 26312 26313 26314 26315 26316 26317 26318 26319 26320 26321 26322 26323 26324 26325 26326 26327 26328 26329 26330 26331 26332 26333 26334 26335 26336 26337 26338 26339 26340 26341 26342 26343 26344 26345 26346 26347 26348 26349 26350 26351 26352 26353 26354 26355 26356 26357 26358 26359 26360 26361 26362 26363 26364 26365 26366 26367 26368 26369 26370 26371 26372 26373 26374 26375 26376 26377 26378 26379 26380 26381 26382 26383 26384 26385 26386 26387 26388 26389 26390 26391 26392 26393 26394 26395 26396 26397 26398 26399 26400 26401 26402 26403 26404 26405 26406 26407 26408 26409 26410 26411 26412 26413 26414 26415 26416 26417 26418 26419 26420 26421 26422 26423 26424 26425 26426 26427 26428 26429 26430 26431 26432 26433 26434 26435 26436 26437 26438 26439 26440 26441 26442 26443 26444 26445 26446 26447 26448 26449 26450 26451 26452 26453 26454 26455 26456 26457 26458 26459 26460 26461 26462 26463 26464 26465 26466 26467 26468 26469 26470 26471 26472 26473 26474 26475 26476 26477 26478 26479 26480 26481 26482 26483 26484 26485 26486 26487 26488 26489 26490 26491 26492 26493 26494 26495 26496 26497 26498 26499 26500 26501 26502 26503 26504 26505 26506 26507 26508 26509 26510 26511 26512 26513 26514 26515 26516 26517 26518 26519 26520 26521 26522 26523 26524 26525 26526 26527 26528 26529 26530 26531 26532 26533 26534 26535 26536 26537 26538 26539 26540 26541 26542 26543 26544 26545 26546 26547 26548 26549 26550 26551 26552 26553 26554 26555 26556 26557 26558 26559 26560 26561 26562 26563 26564 26565 26566 26567 26568 26569 26570 26571 26572 26573 26574 26575 26576 26577 26578 26579 26580 26581 26582 26583 26584 26585 26586 26587 26588 26589 26590 26591 26592 26593 26594 26595 26596 26597 26598 26599 26600 26601 26602 26603 26604 26605 26606 26607 26608 26609 26610 26611 26612 26613 26614 26615 26616 26617 26618 26619 26620 26621 26622 26623 26624 26625 26626 26627 26628 26629 26630 26631 26632 26633 26634 26635 26636 26637 26638 26639 26640 26641 26642 26643 26644 26645 26646 26647 26648 26649 26650 26651 26652 26653 26654 26655 26656 26657 26658 26659 26660 26661 26662 26663 26664 26665 26666 26667 26668 26669 26670 26671 26672 26673 26674 26675 26676 26677 26678 26679 26680 26681 26682 26683 26684 26685 26686 26687 26688 26689 26690 26691 26692 26693 26694 26695 26696 26697 26698 26699 26700 26701 26702 26703 26704 26705 26706 26707 26708 26709 26710 26711 26712 26713 26714 26715 26716 26717 26718 26719 26720 26721 26722 26723 26724 26725 26726 26727 26728 26729 26730 26731 26732 26733 26734 26735 26736 26737 26738 26739 26740 26741 26742 26743 26744 26745 26746 26747 26748 26749 26750 26751 26752 26753 26754 26755 26756 26757 26758 26759 26760 26761 26762 26763 26764 26765 26766 26767 26768 26769 26770 26771 26772 26773 26774 26775 26776 26777 26778 26779 26780 26781 26782 26783 26784 26785 26786 26787 26788 26789 26790 26791 26792 26793 26794 26795 26796 26797 26798 26799 26800 26801 26802 26803 26804 26805 26806 26807 26808 26809 26810 26811 26812 26813 26814 26815 26816 26817 26818 26819 26820 26821 26822 26823 26824 26825 26826 26827 26828 26829 26830 26831 26832 26833 26834 26835 26836 26837 26838 26839 26840 26841 26842 26843 26844 26845 26846 26847 26848 26849 26850 26851 26852 26853 26854 26855 26856 26857 26858 26859 26860 26861 26862 26863 26864 26865 26866 26867 26868 26869 26870 26871 26872 26873 26874 26875 26876 26877 26878 26879 26880 26881 26882 26883 26884 26885 26886 26887 26888 26889 26890 26891 26892 26893 26894 26895 26896 26897 26898 26899 26900 26901 26902 26903 26904 26905 26906 26907 26908 26909 26910 26911 26912 26913 26914 26915 26916 26917 26918 26919 26920 26921 26922 26923 26924 26925 26926 26927 26928 26929 26930 26931 26932 26933 26934 26935 26936 26937 26938 26939 26940 26941 26942 26943 26944 26945 26946 26947 26948 26949 26950 26951 26952 26953 26954 26955 26956 26957 26958 26959 26960 26961 26962 26963 26964 26965 26966 26967 26968 26969 26970 26971 26972 26973 26974 26975 26976 26977 26978 26979 26980 26981 26982 26983 26984 26985 26986 26987 26988 26989 26990 26991 26992 26993 26994 26995 26996 26997 26998 26999 27000 27001 27002 27003 27004 27005 27006 27007 27008 27009 27010 27011 27012 27013 27014 27015 27016 27017 27018 27019 27020 27021 27022 27023 27024 27025 27026 27027 27028 27029 27030 27031 27032 27033 27034 27035 27036 27037 27038 27039 27040 27041 27042 27043 27044 27045 27046 27047 27048 27049 27050 27051 27052 27053 27054 27055 27056 27057 27058 27059 27060 27061 27062 27063 27064 27065 27066 27067 27068 27069 27070 27071 27072 27073 27074 27075 27076 27077 27078 27079 27080 27081 27082 27083 27084 27085 27086 27087 27088 27089 27090 27091 27092 27093 27094 27095 27096 27097 27098 27099 27100 27101 27102 27103 27104 27105 27106 27107 27108 27109 27110 27111 27112 27113 27114 27115 27116 27117 27118 27119 27120 27121 27122 27123 27124 27125 27126 27127 27128 27129 27130 27131 27132 27133 27134 27135 27136 27137 27138 27139 27140 27141 27142 27143 27144 27145 27146 27147 27148 27149 27150 27151 27152 27153 27154 27155 27156 27157 27158 27159 27160 27161 27162 27163 27164 27165 27166 27167 27168 27169 27170 27171 27172 27173 27174 27175 27176 27177 27178 27179 27180 27181 27182 27183 27184 27185 27186 27187 27188 27189 27190 27191 27192 27193 27194 27195 27196 27197 27198 27199 27200 27201 27202 27203 27204 27205 27206 27207 27208 27209 27210 27211 27212 27213 27214 27215 27216 27217 27218 27219 27220 27221 27222 27223 27224 27225 27226 27227 27228 27229 27230 27231 27232 27233 27234 27235 27236 27237 27238 27239 27240 27241 27242 27243 27244 27245 27246 27247 27248 27249 27250 27251 27252 27253 27254 27255 27256 27257 27258 27259 27260 27261 27262 27263 27264 27265 27266 27267 27268 27269 27270 27271 27272 27273 27274 27275 27276 27277 27278 27279 27280 27281 27282 27283 27284 27285 27286 27287 27288 27289 27290 27291 27292 27293 27294 27295 27296 27297 27298 27299 27300 27301 27302 27303 27304 27305 27306 27307 27308 27309 27310 27311 27312 27313 27314 27315 27316 27317 27318 27319 27320 27321 27322 27323 27324 27325 27326 27327 27328 27329 27330 27331 27332 27333 27334 27335 27336 27337 27338 27339 27340 27341 27342 27343 27344 27345 27346 27347 27348 27349 27350 27351 27352 27353 27354 27355 27356 27357 27358 27359 27360 27361 27362 27363 27364 27365 27366 27367 27368 27369 27370 27371 27372 27373 27374 27375 27376 27377 27378 27379 27380 27381 27382 27383 27384 27385 27386 27387 27388 27389 27390 27391 27392 27393 27394 27395 27396 27397 27398 27399 27400 27401 27402 27403 27404 27405 27406 27407 27408 27409 27410 27411 27412 27413 27414 27415 27416 27417 27418 27419 27420 27421 27422 27423 27424 27425 27426 27427 27428 27429 27430 27431 27432 27433 27434 27435 27436 27437 27438 27439 27440 27441 27442 27443 27444 27445 27446 27447 27448 27449 27450 27451 27452 27453 27454 27455 27456 27457 27458 27459 27460 27461 27462 27463 27464 27465 27466 27467 27468 27469 27470 27471 27472 27473 27474 27475 27476 27477 27478 27479 27480 27481 27482 27483 27484 27485 27486 27487 27488 27489 27490 27491 27492 27493 27494 27495 27496 27497 27498 27499 27500 27501 27502 27503 27504 27505 27506 27507 27508 27509 27510 27511 27512 27513 27514 27515 27516 27517 27518 27519 27520 27521 27522 27523 27524 27525 27526 27527 27528 27529 27530 27531 27532 27533 27534 27535 27536 27537 27538 27539 27540 27541 27542 27543 27544 27545 27546 27547 27548 27549 27550 27551 27552 27553 27554 27555 27556 27557 27558 27559 27560 27561 27562 27563 27564 27565 27566 27567 27568 27569 27570 27571 27572 27573 27574 27575 27576 27577 27578 27579 27580 27581 27582 27583 27584 27585 27586 27587 27588 27589 27590 27591 27592 27593 27594 27595 27596 27597 27598 27599 27600 27601 27602 27603 27604 27605 27606 27607 27608 27609 27610 27611 27612 27613 27614 27615 27616 27617 27618 27619 27620 27621 27622 27623 27624 27625 27626 27627 27628 27629 27630 27631 27632 27633 27634 27635 27636 27637 27638 27639 27640 27641 27642 27643 27644 27645 27646 27647 27648 27649 27650 27651 27652 27653 27654 27655 27656 27657 27658 27659 27660 27661 27662 27663 27664 27665 27666 27667 27668 27669 27670 27671 27672 27673 27674 27675 27676 27677 27678 27679 27680 27681 27682 27683 27684 27685 27686 27687 27688 27689 27690 27691 27692 27693 27694 27695 27696 27697 27698 27699 27700 27701 27702 27703 27704 27705 27706 27707 27708 27709 27710 27711 27712 27713 27714 27715 27716 27717 27718 27719 27720 27721 27722 27723 27724 27725 27726 27727 27728 27729 27730 27731 27732 27733 27734 27735 27736 27737 27738 27739 27740 27741 27742 27743 27744 27745 27746 27747 27748 27749 27750 27751 27752 27753 27754 27755 27756 27757 27758 27759 27760 27761 27762 27763 27764 27765 27766 27767 27768 27769 27770 27771 27772 27773 27774 27775 27776 27777 27778 27779 27780 27781 27782 27783 27784 27785 27786 27787 27788 27789 27790 27791 27792 27793 27794 27795 27796 27797 27798 27799 27800 27801 27802 27803 27804 27805 27806 27807 27808 27809 27810 27811 27812 27813 27814 27815 27816 27817 27818 27819 27820 27821 27822 27823 27824 27825 27826 27827 27828 27829 27830 27831 27832 27833 27834 27835 27836 27837 27838 27839 27840 27841 27842 27843 27844 27845 27846 27847 27848 27849 27850 27851 27852 27853 27854 27855 27856 27857 27858 27859 27860 27861 27862 27863 27864 27865 27866 27867 27868 27869 27870 27871 27872 27873 27874 27875 27876 27877 27878 27879 27880 27881 27882 27883 27884 27885 27886 27887 27888 27889 27890 27891 27892 27893 27894 27895 27896 27897 27898 27899 27900 27901 27902 27903 27904 27905 27906 27907 27908 27909 27910 27911 27912 27913 27914 27915 27916 27917 27918 27919 27920 27921 27922 27923 27924 27925 27926 27927 27928 27929 27930 27931 27932 27933 27934 27935 27936 27937 27938 27939 27940 27941 27942 27943 27944 27945 27946 27947 27948 27949 27950 27951 27952 27953 27954 27955 27956 27957 27958 27959 27960 27961 27962 27963 27964 27965 27966 27967 27968 27969 27970 27971 27972 27973 27974 27975 27976 27977 27978 27979 27980 27981 27982 27983 27984 27985 27986 27987 27988 27989 27990 27991 27992 27993 27994 27995 27996 27997 27998 27999 28000 28001 28002 28003 28004 28005 28006 28007 28008 28009 28010 28011 28012 28013 28014 28015 28016 28017 28018 28019 28020 28021 28022 28023 28024 28025 28026 28027 28028 28029 28030 28031 28032 28033 28034 28035 28036 28037 28038 28039 28040 28041 28042 28043 28044 28045 28046 28047 28048 28049 28050 28051 28052 28053 28054 28055 28056 28057 28058 28059 28060 28061 28062 28063 28064 28065 28066 28067 28068 28069 28070 28071 28072 28073 28074 28075 28076 28077 28078 28079 28080 28081 28082 28083 28084 28085 28086 28087 28088 28089 28090 28091 28092 28093 28094 28095 28096 28097 28098 28099 28100 28101 28102 28103 28104 28105 28106 28107 28108 28109 28110 28111 28112 28113 28114 28115 28116 28117 28118 28119 28120 28121 28122 28123 28124 28125 28126 28127 28128 28129 28130 28131 28132 28133 28134 28135 28136 28137 28138 28139 28140 28141 28142 28143 28144 28145 28146 28147 28148 28149 28150 28151 28152 28153 28154 28155 28156 28157 28158 28159 28160 28161 28162 28163 28164 28165 28166 28167 28168 28169 28170 28171 28172 28173 28174 28175 28176 28177 28178 28179 28180 28181 28182 28183 28184 28185 28186 28187 28188 28189 28190 28191 28192 28193 28194 28195 28196 28197 28198 28199 28200 28201 28202 28203 28204 28205 28206 28207 28208 28209 28210 28211 28212 28213 28214 28215 28216 28217 28218 28219 28220 28221 28222 28223 28224 28225 28226 28227 28228 28229 28230 28231 28232 28233 28234 28235 28236 28237 28238 28239 28240 28241 28242 28243 28244 28245 28246 28247 28248 28249 28250 28251 28252 28253 28254 28255 28256 28257 28258 28259 28260 28261 28262 28263 28264 28265 28266 28267 28268 28269 28270 28271 28272 28273 28274 28275 28276 28277 28278 28279 28280 28281 28282 28283 28284 28285 28286 28287 28288 28289 28290 28291 28292 28293 28294 28295 28296 28297 28298 28299 28300 28301 28302 28303 28304 28305 28306 28307 28308 28309 28310 28311 28312 28313 28314 28315 28316 28317 28318 28319 28320 28321 28322 28323 28324 28325 28326 28327 28328 28329 28330 28331 28332 28333 28334 28335 28336 28337 28338 28339 28340 28341 28342 28343 28344 28345 28346 28347 28348 28349 28350 28351 28352 28353 28354 28355 28356 28357 28358 28359 28360 28361 28362 28363 28364 28365 28366 28367 28368 28369 28370 28371 28372 28373 28374 28375 28376 28377 28378 28379 28380 28381 28382 28383 28384 28385 28386 28387 28388 28389 28390 28391 28392 28393 28394 28395 28396 28397 28398 28399 28400 28401 28402 28403 28404 28405 28406 28407 28408 28409 28410 28411 28412 28413 28414 28415 28416 28417 28418 28419 28420 28421 28422 28423 28424 28425 28426 28427 28428 28429 28430 28431 28432 28433 28434 28435 28436 28437 28438 28439 28440 28441 28442 28443 28444 28445 28446 28447 28448 28449 28450 28451 28452 28453 28454 28455 28456 28457 28458 28459 28460 28461 28462 28463 28464 28465 28466 28467 28468 28469 28470 28471 28472 28473 28474 28475 28476 28477 28478 28479 28480 28481 28482 28483 28484 28485 28486 28487 28488 28489 28490 28491 28492 28493 28494 28495 28496 28497 28498 28499 28500 28501 28502 28503 28504 28505 28506 28507 28508 28509 28510 28511 28512 28513 28514 28515 28516 28517 28518 28519 28520 28521 28522 28523 28524 28525 28526 28527 28528 28529 28530 28531 28532 28533 28534 28535 28536 28537 28538 28539 28540 28541 28542 28543 28544 28545 28546 28547 28548 28549 28550 28551 28552 28553 28554 28555 28556 28557 28558 28559 28560 28561 28562 28563 28564 28565 28566 28567 28568 28569 28570 28571 28572 28573 28574 28575 28576 28577 28578 28579 28580 28581 28582 28583 28584 28585 28586 28587 28588 28589 28590 28591 28592 28593 28594 28595 28596 28597 28598 28599 28600 28601 28602 28603 28604 28605 28606 28607 28608 28609 28610 28611 28612 28613 28614 28615 28616 28617 28618 28619 28620 28621 28622 28623 28624 28625 28626 28627 28628 28629 28630 28631 28632 28633 28634 28635 28636 28637 28638 28639 28640 28641 28642 28643 28644 28645 28646 28647 28648 28649 28650 28651 28652 28653 28654 28655 28656 28657 28658 28659 28660 28661 28662 28663 28664 28665 28666 28667 28668 28669 28670 28671 28672 28673 28674 28675 28676 28677 28678 28679 28680 28681 28682 28683 28684 28685 28686 28687 28688 28689 28690 28691 28692 28693 28694 28695 28696 28697 28698 28699 28700 28701 28702 28703 28704 28705 28706 28707 28708 28709 28710 28711 28712 28713 28714 28715 28716 28717 28718 28719 28720 28721 28722 28723 28724 28725 28726 28727 28728 28729 28730 28731 28732 28733 28734 28735 28736 28737 28738 28739 28740 28741 28742 28743 28744 28745 28746 28747 28748 28749 28750 28751 28752 28753 28754 28755 28756 28757 28758 28759 28760 28761 28762 28763 28764 28765 28766 28767 28768 28769 28770 28771 28772 28773 28774 28775 28776 28777 28778 28779 28780 28781 28782 28783 28784 28785 28786 28787 28788 28789 28790 28791 28792 28793 28794 28795 28796 28797 28798 28799 28800 28801 28802 28803 28804 28805 28806 28807 28808 28809 28810 28811 28812 28813 28814 28815 28816 28817 28818 28819 28820 28821 28822 28823 28824 28825 28826 28827 28828 28829 28830 28831 28832 28833 28834 28835 28836 28837 28838 28839 28840 28841 28842 28843 28844 28845 28846 28847 28848 28849 28850 28851 28852 28853 28854 28855 28856 28857 28858 28859 28860 28861 28862 28863 28864 28865 28866 28867 28868 28869 28870 28871 28872 28873 28874 28875 28876 28877 28878 28879 28880 28881 28882 28883 28884 28885 28886 28887 28888 28889 28890 28891 28892 28893 28894 28895 28896 28897 28898 28899 28900 28901 28902 28903 28904 28905 28906 28907 28908 28909 28910 28911 28912 28913 28914 28915 28916 28917 28918 28919 28920 28921 28922 28923 28924 28925 28926 28927 28928 28929 28930 28931 28932 28933 28934 28935 28936 28937 28938 28939 28940 28941 28942 28943 28944 28945 28946 28947 28948 28949 28950 28951 28952 28953 28954 28955 28956 28957 28958 28959 28960 28961 28962 28963 28964 28965 28966 28967 28968 28969 28970 28971 28972 28973 28974 28975 28976 28977 28978 28979 28980 28981 28982 28983 28984 28985 28986 28987 28988 28989 28990 28991 28992 28993 28994 28995 28996 28997 28998 28999 29000 29001 29002 29003 29004 29005 29006 29007 29008 29009 29010 29011 29012 29013 29014 29015 29016 29017 29018 29019 29020 29021 29022 29023 29024 29025 29026 29027 29028 29029 29030 29031 29032 29033 29034 29035 29036 29037 29038 29039 29040 29041 29042 29043 29044 29045 29046 29047 29048 29049 29050 29051 29052 29053 29054 29055 29056 29057 29058 29059 29060 29061 29062 29063 29064 29065 29066 29067 29068 29069 29070 29071 29072 29073 29074 29075 29076 29077 29078 29079 29080 29081 29082 29083 29084 29085 29086 29087 29088 29089 29090 29091 29092 29093 29094 29095 29096 29097 29098 29099 29100 29101 29102 29103 29104 29105 29106 29107 29108 29109 29110 29111 29112 29113 29114 29115 29116 29117 29118 29119 29120 29121 29122 29123 29124 29125 29126 29127 29128 29129 29130 29131 29132 29133 29134 29135 29136 29137 29138 29139 29140 29141 29142 29143 29144 29145 29146 29147 29148 29149 29150 29151 29152 29153 29154 29155 29156 29157 29158 29159 29160 29161 29162 29163 29164 29165 29166 29167 29168 29169 29170 29171 29172 29173 29174 29175 29176 29177 29178 29179 29180 29181 29182 29183 29184 29185 29186 29187 29188 29189 29190 29191 29192 29193 29194 29195 29196 29197 29198 29199 29200 29201 29202 29203 29204 29205 29206 29207 29208 29209 29210 29211 29212 29213 29214 29215 29216 29217 29218 29219 29220 29221 29222 29223 29224 29225 29226 29227 29228 29229 29230 29231 29232 29233 29234 29235 29236 29237 29238 29239 29240 29241 29242 29243 29244 29245 29246 29247 29248 29249 29250 29251 29252 29253 29254 29255 29256 29257 29258 29259 29260 29261 29262 29263 29264 29265 29266 29267 29268 29269 29270 29271 29272 29273 29274 29275 29276 29277 29278 29279 29280 29281 29282 29283 29284 29285 29286 29287 29288 29289 29290 29291 29292 29293 29294 29295 29296 29297 29298 29299 29300 29301 29302 29303 29304 29305 29306 29307 29308 29309 29310 29311 29312 29313 29314 29315 29316 29317 29318 29319 29320 29321 29322 29323 29324 29325 29326 29327 29328 29329 29330 29331 29332 29333 29334 29335 29336 29337 29338 29339 29340 29341 29342 29343 29344 29345 29346 29347 29348 29349 29350 29351 29352 29353 29354 29355 29356 29357 29358 29359 29360 29361 29362 29363 29364 29365 29366 29367 29368 29369 29370 29371 29372 29373 29374 29375 29376 29377 29378 29379 29380 29381 29382 29383 29384 29385 29386 29387 29388 29389 29390 29391 29392 29393 29394 29395 29396 29397 29398 29399 29400 29401 29402 29403 29404 29405 29406 29407 29408 29409 29410 29411 29412 29413 29414 29415 29416 29417 29418 29419 29420 29421 29422 29423 29424 29425 29426 29427 29428 29429 29430 29431 29432 29433 29434 29435 29436 29437 29438 29439 29440 29441 29442 29443 29444 29445 29446 29447 29448 29449 29450 29451 29452 29453 29454 29455 29456 29457 29458 29459 29460 29461 29462 29463 29464 29465 29466 29467 29468 29469 29470 29471 29472 29473 29474 29475 29476 29477 29478 29479 29480 29481 29482 29483 29484 29485 29486 29487 29488 29489 29490 29491 29492 29493 29494 29495 29496 29497 29498 29499 29500 29501 29502 29503 29504 29505 29506 29507 29508 29509 29510 29511 29512 29513 29514 29515 29516 29517 29518 29519 29520 29521 29522 29523 29524 29525 29526 29527 29528 29529 29530 29531 29532 29533 29534 29535 29536 29537 29538 29539 29540 29541 29542 29543 29544 29545 29546 29547 29548 29549 29550 29551 29552 29553 29554 29555 29556 29557 29558 29559 29560 29561 29562 29563 29564 29565 29566 29567 29568 29569 29570 29571 29572 29573 29574 29575 29576 29577 29578 29579 29580 29581 29582 29583 29584 29585 29586 29587 29588 29589 29590 29591 29592 29593 29594 29595 29596 29597 29598 29599 29600 29601 29602 29603 29604 29605 29606 29607 29608 29609 29610 29611 29612 29613 29614 29615 29616 29617 29618 29619 29620 29621 29622 29623 29624 29625 29626 29627 29628 29629 29630 29631 29632 29633 29634 29635 29636 29637 29638 29639 29640 29641 29642 29643 29644 29645 29646 29647 29648 29649 29650 29651 29652 29653 29654 29655 29656 29657 29658 29659 29660 29661 29662 29663 29664 29665 29666 29667 29668 29669 29670 29671 29672 29673 29674 29675 29676 29677 29678 29679 29680 29681 29682 29683 29684 29685 29686 29687 29688 29689 29690 29691 29692 29693 29694 29695 29696 29697 29698 29699 29700 29701 29702 29703 29704 29705 29706 29707 29708 29709 29710 29711 29712 29713 29714 29715 29716 29717 29718 29719 29720 29721 29722 29723 29724 29725 29726 29727 29728 29729 29730 29731 29732 29733 29734 29735 29736 29737 29738 29739 29740 29741 29742 29743 29744 29745 29746 29747 29748 29749 29750 29751 29752 29753 29754 29755 29756 29757 29758 29759 29760 29761 29762 29763 29764 29765 29766 29767 29768 29769 29770 29771 29772 29773 29774 29775 29776 29777 29778 29779 29780 29781 29782 29783 29784 29785 29786 29787 29788 29789 29790 29791 29792 29793 29794 29795 29796 29797 29798 29799 29800 29801 29802 29803 29804 29805 29806 29807 29808 29809 29810 29811 29812 29813 29814 29815 29816 29817 29818 29819 29820 29821 29822 29823 29824 29825 29826 29827 29828 29829 29830 29831 29832 29833 29834 29835 29836 29837 29838 29839 29840 29841 29842 29843 29844 29845 29846 29847 29848 29849 29850 29851 29852 29853 29854 29855 29856 29857 29858 29859 29860 29861 29862 29863 29864 29865 29866 29867 29868 29869 29870 29871 29872 29873 29874 29875 29876 29877 29878 29879 29880 29881 29882 29883 29884 29885 29886 29887 29888 29889 29890 29891 29892 29893 29894 29895 29896 29897 29898 29899 29900 29901 29902 29903 29904 29905 29906 29907 29908 29909 29910 29911 29912 29913 29914 29915 29916 29917 29918 29919 29920 29921 29922 29923 29924 29925 29926 29927 29928 29929 29930 29931 29932 29933 29934 29935 29936 29937 29938 29939 29940 29941 29942 29943 29944 29945 29946 29947 29948 29949 29950 29951 29952 29953 29954 29955 29956 29957 29958 29959 29960 29961 29962 29963 29964 29965 29966 29967 29968 29969 29970 29971 29972 29973 29974 29975 29976 29977 29978 29979 29980 29981 29982 29983 29984 29985 29986 29987 29988 29989 29990 29991 29992 29993 29994 29995 29996 29997 29998 29999 30000 30001 30002 30003 30004 30005 30006 30007 30008 30009 30010 30011 30012 30013 30014 30015 30016 30017 30018 30019 30020 30021 30022 30023 30024 30025 30026 30027 30028 30029 30030 30031 30032 30033 30034 30035 30036 30037 30038 30039 30040 30041 30042 30043 30044 30045 30046 30047 30048 30049 30050 30051 30052 30053 30054 30055 30056 30057 30058 30059 30060 30061 30062 30063 30064 30065 30066 30067 30068 30069 30070 30071 30072 30073 30074 30075 30076 30077 30078 30079 30080 30081 30082 30083 30084 30085 30086 30087 30088 30089 30090 30091 30092 30093 30094 30095 30096 30097 30098 30099 30100 30101 30102 30103 30104 30105 30106 30107 30108 30109 30110 30111 30112 30113 30114 30115 30116 30117 30118 30119 30120 30121 30122 30123 30124 30125 30126 30127 30128 30129 30130 30131 30132 30133 30134 30135 30136 30137 30138 30139 30140 30141 30142 30143 30144 30145 30146 30147 30148 30149 30150 30151 30152 30153 30154 30155 
</DataArray>
<DataArray type="UInt32" Name="offsets" format="ascii">
3 6 9 12 15 18 21 23 26 29 31 33 35 38 41 44 47 50 53 56 58 61 64 67 70 73 76 78 81 83 86 89 92 95 98 101 104 107 110 113 116 119 122 124 127 130 132 135 138 141 144 147 150 153 156 159 162 165 168 171 174 177 180 182 185 188 190 193 196 199 201 204 207 210 213 216 219 221 223 226 229 232 235 238 241 244 247 250 253 256 259 262 265 268 271 274 276 278 281 284 287 289 292 295 298 301 304 306 308 310 312 315 318 320 323 325 328 331 334 337 339 341 344 347 350 353 356 359 362 365 368 371 374 377 380 383 386 389 392 395 397 400 403 406 409 412 415 417 420 423 425 428 431 434 437 440 443 446 449 452 455 458 461 464 467 470 473 476 479 482 485 488 491 494 497 500 503 505 508 511 514 517 520 523 525 528 530 533 536 539 541 544 547 550 553 556 559 562 565 567 569 572 575 578 581 584 587 590 593 596 599 602 605 607 610 613 616 619 622 625 628 631 634 637 639 642 644 647 650 653 656 659 662 665 668 671 674 677 680 683 686 689 692 695 698 701 704 707 710 713 716 719 722 725 728 731 734 737 740 743 746 749 752 754 757 760 763 766 769 772 775 778 780 783 785 787 790 792 795 798 801 803 806 808 811 814 817 820 823 826 829 832 834 837 840 843 846 849 852 855 858 861 864 867 870 873 876 878 881 883 886 888 891 893 896 899 902 905 907 910 913 916 919 922 924 927 930 932 935 938 940 943 946 949 951 954 956 959 961 964 967 970 972 975 977 980 983 986 989 992 995 998 1001 1004 1006 1009 1012 1015 1018 1021 1024 1026 1029 1032 1034 1037 1040 1042 1045 1048 1051 1053 1055 1058 1060 1063 1065 1068 1071 1074 1076 1079 1081 1084 1087 1090 1093 1095 1098 1101 1104 1107 1109 1112 1115 1117 1120 1123 1126 1129 1132 1134 1137 1140 1143 1145 1148 1151 1154 1157 1160 1162 1164 1167 1169 1172 1175 1178 1181 1184 1186 1189 1191 1194 1197 1200 1203 1206 1209 1212 1215 1218 1221 1224 1227 1230 1233 1236 1239 1242 1244 1247 1250 1253 1256 1259 1262 1264 1267 1270 1273 1276 1279 1282 1285 1288 1291 1294 1297 1300 1303 1306 1309 1312 1315 1318 1321 1324 1327 1330 1333 1336 1339 1342 1345 1347 1350 1352 1355 1358 1360 1363 1366 1369 1371 1373 1376 1379 1382 1385 1388 1391 1394 1397 1400 1403 1406 1409 1412 1415 1418 1421 1424 1427 1430 1433 1436 1439 1442 1445 1448 1451 1453 1456 1458 1461 1464 1467 1470 1472 1475 1478 1481 1484 1487 1490 1493 1496 1499 1502 1505 1508 1511 1514 1517 1520 1523 1526 1529 1532 1535 1538 1541 1544 1547 1550 1553 1556 1559 1561 1564 1567 1570 1573 1576 1578 1581 1584 1587 1590 1593 1596 1599 1602 1605 1608 1611 1614 1617 1620 1623 1626 1629 1632 1635 1638 1641 1644 1647 1650 1653 1656 1659 1662 1665 1668 1671 1674 1677 1680 1683 1686 1689 1692 1695 1698 1701 1704 1706 1709 1711 1714 1717 1719 1722 1725 1728 1731 1734 1737 1740 1743 1746 1749 1752 1755 1757 1760 1763 1766 1769 1772 1775 1778 1781 1784 1787 1789 1792 1795 1797 1800 1803 1806 1809 1812 1814 1817 1820 1823 1826 1829 1832 1835 1838 1840 1843 1846 1848 1851 1854 1857 1860 1863 1865 1868 1871 1874 1876 1879 1882 1885 1888 1891 1894 1897 1900 1903 1906 1909 1912 1915 1918 1921 1924 1927 1930 1933 1936 1939 1942 1945 1948 1951 1954 1957 1960 1963 1966 1969 1972 1975 1978 1981 1984 1987 1989 1992 1995 1998 2001 2004 2007 2010 2013 2016 2019 2022 2025 2027 2030 2033 2036 2039 2041 2044 2046 2048 2051 2054 2057 2060 2062 2064 2067 2070 2073 2076 2079 2082 2085 2087 2090 2093 2096 2099 2102 2105 2108 2111 2114 2117 2120 2123 2126 2129 2132 2135 2138 2141 2144 2147 2150 2153 2156 2159 2162 2165 2168 2171 2174 2177 2180 2183 2186 2189 2192 2195 2198 2201 2204 2206 2209 2212 2215 2218 2221 2224 2227 2230 2233 2236 2239 2242 2245 2248 2250 2253 2256 2259 2262 2265 2268 2271 2274 2277 2280 2283 2286 2289 2292 2295 2298 2301 2304 2306 2309 2312 2314 2317 2319 2322 2324 2327 2330 2333 2336 2339 2342 2345 2348 2350 2353 2355 2358 2361 2364 2367 2370 2373 2376 2379 2382 2385 2388 2391 2394 2397 2400 2403 2406 2409 2412 2415 2418 2421 2424 2426 2429 2432 2435 2438 2440 2443 2446 2449 2452 2455 2458 2461 2463 2466 2469 2472 2474 2477 2480 2482 2485 2487 2489 2492 2495 2498 2501 2504 2507 2509 2511 2514 2517 2520 2522 2524 2526 2528 2530 2532 2535 2538 2541 2544 2547 2550 2552 2554 2557 2560 2563 2565 2567 2570 2572 2574 2576 2579 2582 2585 2587 2590 2593 2596 2599 2602 2605 2607 2610 2613 2616 2619 2621 2624 2627 2629 2632 2634 2636 2638 2641 2644 2647 2650 2653 2655 2658 2661 2664 2666 2669 2672 2674 2676 2679 2681 2683 2686 2688 2691 2694 2696 2698 2700 2703 2706 2709 2711 2713 2716 2719 2722 2725 2728 2730 2733 2735 2738 2741 2744 2746 2749 2751 2754 2756 2759 2762 2765 2767 2769 2772 2775 2777 2780 2783 2786 2789 2791 2793 2795 2798 2801 2803 2806 2809 2812 2815 2818 2821 2823 2826 2828 2831 2833 2836 2839 2841 2844 2847 2849 2852 2854 2857 2860 2863 2865 2868 2871 2873 2876 2879 2882 2885 2888 2891 2894 2897 2900 2903 2906 2908 2911 2914 2916 2919 2921 2924 2927 2929 2932 2935 2938 2941 2944 2946 2949 2951 2954 2957 2960 2963 2966 2969 2972 2975 2978 2981 2984 2987 2989 2992 2995 2998 3001 3004 3007 3010 3013 3016 3019 3022 3025 3028 3031 3034 3037 3040 3043 3045 3048 3051 3054 3057 3060 3063 3066 3068 3071 3074 3077 3079 3082 3084 3087 3090 3093 3096 3098 3100 3103 3106 3109 3112 3114 3117 3120 3123 3125 3128 3130 3133 3136 3138 3141 3143 3146 3148 3151 3154 3156 3159 3162 3165 3168 3171 3174 3176 3179 3182 3184 3187 3190 3193 3196 3199 3202 3205 3208 3210 3213 3216 3219 3222 3225 3228 3230 3233 3236 3239 3242 3245 3248 3250 3253 3256 3259 3262 3265 3268 3271 3274 3277 3279 3282 3285 3288 3291 3293 3296 3299 3302 3305 3308 3311 3314 3316 3319 3322 3324 3327 3330 3333 3335 3337 3340 3343 3346 3349 3352 3355 3358 3361 3364 3367 3370 3373 3375 3378 3381 3384 3386 3389 3392 3395 3398 3401 3404 3407 3410 3413 3416 3419 3421 3424 3427 3430 3433 3436 3439 3442 3445 3448 3451 3454 3457 3459 3461 3464 3467 3470 3473 3476 3479 3481 3484 3487 3490 3493 3496 3499 3502 3505 3508 3510 3513 3516 3519 3522 3525 3528 3531 3534 3537 3540 3543 3546 3549 3551 3554 3557 3560 3563 3566 3569 3572 3575 3578 3581 3584 3586 3589 3592 3595 3598 3601 3603 3606 3609 3612 3615 3618 3621 3623 3626 3629 3632 3635 3638 3641 3644 3647 3650 3653 3656 3659 3662 3665 3668 3670 3673 3676 3679 3682 3685 3688 3691 3694 3697 3700 3703 3706 3708 3711 3714 3717 3720 3723 3726 3729 3732 3734 3736 3739 3741 3744 3747 3749 3752 3755 3758 3761 3763 3766 3769 3772 3775 3778 3780 3783 3786 3788 3791 3794 3796 3799 3802 3805 3808 3811 3814 3817 3820 3823 3826 3828 3831 3833 3836 3839 3841 3844 3847 3850 3853 3856 3859 3862 3864 3867 3870 3872 3874 3876 3879 3882 3884 3887 3889 3892 3895 3897 3900 3903 3905 3908 3910 3912 3915 3918 3921 3924 3926 3929 3932 3935 3938 3941 3944 3946 3949 3952 3954 3956 3959 3962 3965 3967 3970 3973 3976 3979 3982 3985 3988 3991 3994 3997 4000 4002 4005 4008 4011 4014 4016 4019 4022 4025 4028 4030 4033 4036 4039 4041 4044 4047 4050 4052 4054 4057 4060 4063 4066 4069 4071 4074 4077 4080 4083 4085 4088 4091 4094 4097 4100 4103 4106 4109 4112 4115 4118 4121 4124 4127 4130 4133 4136 4139 4142 4145 4147 4150 4153 4156 4159 4162 4165 4167 4170 4173 4176 4179 4182 4185 4188 4191 4193 4196 4199 4202 4205 4208 4211 4213 4215 4218 4221 4224 4227 4230 4233 4236 4239 4242 4245 4248 4251 4254 4257 4260 4263 4266 4269 4272 4275 4278 4281 4283 4286 4289 4292 4294 4297 4299 4302 4305 4308 4310 4312 4315 4318 4321 4324 4326 4329 4332 4334 4337 4340 4343 4346 4349 4352 4355 4358 4360 4363 4366 4369 4372 4375 4378 4381 4384 4387 4390 4393 4396 4399 4402 4405 4407 4410 4413 4416 4418 4421 4424 4427 4430 4433 4436 4439 4442 4445 4448 4451 4453 4456 4459 4462 4465 4468 4470 4473 4476 4478 4481 4484 4487 4490 4493 4496 4499 4502 4505 4508 4511 4514 4517 4520 4523 4526 4529 4532 4535 4538 4541 4544 4547 4550 4552 4555 4558 4560 4563 4566 4569 4572 4575 4578 4581 4584 4587 4590 4593 4595 4597 4600 4603 4605 4608 4611 4614 4616 4619 4622 4625 4628 4631 4634 4637 4640 4643 4646 4649 4652 4655 4657 4660 4662 4665 4668 4671 4674 4677 4680 4683 4686 4689 4692 4695 4697 4700 4703 4706 4709 4712 4715 4718 4721 4723 4725 4728 4731 4734 4737 4740 4742 4745 4748 4751 4754 4756 4759 4761 4764 4767 4770 4773 4776 4779 4782 4785 4788 4791 4794 4797 4799 4802 4805 4808 4810 4813 4816 4819 4821 4824 4827 4830 4832 4835 4838 4841 4844 4847 4850 4853 4856 4859 4862 4865 4868 4871 4874 4877 4880 4883 4886 4889 4892 4895 4897 4900 4903 4905 4908 4911 4914 4917 4920 4923 4926 4929 4932 4935 4938 4940 4943 4946 4949 4952 4955 4958 4961 4964 4967 4970 4973 4976 4979 4982 4985 4988 4991 4994 4997 4999 5002 5005 5008 5010 5013 5016 5019 5022 5025 5028 5031 5034 5037 5040 5043 5046 5049 5052 5055 5058 5061 5064 5067 5070 5073 5076 5079 5081 5084 5087 5090 5093 5095 5098 5101 5104 5106 5109 5112 5115 5118 5120 5123 5126 5129 5132 5135 5138 5141 5144 5147 5150 5153 5155 5158 5160 5163 5166 5169 5172 5175 5178 5181 5183 5186 5189 5192 5195 5198 5201 5204 5207 5210 5213 5216 5219 5222 5225 5228 5231 5234 5237 5240 5242 5245 5248 5251 5254 5257 5260 5263 5266 5269 5271 5274 5277 5280 5282 5285 5288 5291 5294 5297 5300 5303 5306 5309 5312 5315 5318 5320 5323 5326 5329 5332 5335 5338 5341 5344 5346 5349 5352 5354 5357 5360 5363 5366 5369 5372 5375 5378 5381 5384 5387 5390 5393 5396 5399 5402 5405 5408 5411 5414 5417 5419 5422 5425 5427 5430 5433 5436 5439 5442 5445 5448 5451 5454 5457 5460 5463 5466 5469 5472 5475 5477 5480 5483 5486 5489 5492 5495 5498 5501 5504 5506 5509 5512 5515 5518 5520 5523 5526 5529 5532 5535 5538 5541 5544 5547 5550 5553 5556 5559 5562 5565 5568 5570 5572 5575 5578 5581 5584 5587 5589 5592 5595 5598 5601 5604 5607 5610 5613 5616 5619 5622 5624 5627 5630 5632 5635 5637 5640 5643 5646 5649 5652 5655 5657 5660 5662 5665 5668 5671 5673 5676 5678 5681 5684 5687 5690 5693 5696 5699 5702 5705 5708 5711 5714 5717 5720 5723 5726 5729 5732 5735 5738 5741 5744 5747 5750 5753 5756 5759 5762 5765 5768 5771 5774 5777 5780 5783 5786 5789 5792 5795 5798 5801 5804 5807 5810 5813 5816 5819 5822 5825 5828 5831 5834 5837 5839 5842 5844 5847 5850 5853 5855 5857 5859 5861 5864 5867 5870 5872 5875 5878 5881 5884 5887 5889 5892 5895 5898 5901 5904 5906 5909 5912 5915 5918 5921 5924 5927 5930 5933 5936 5939 5942 5945 5948 5950 5953 5956 5958 5961 5964 5967 5970 5973 5976 5978 5981 5983 5985 5988 5991 5994 5997 6000 6003 6006 6008 6011 6014 6017 6020 6023 6026 6029 6032 6034 6037 6040 6043 6046 6049 6052 6055 6058 6061 6064 6067 6070 6072 6075 6078 6081 6084 6087 6090 6093 6096 6099 6102 6105 6108 6111 6114 6117 6120 6123 6126 6128 6131 6134 6137 6140 6142 6144 6147 6150 6153 6156 6159 6161 6164 6167 6169 6172 6175 6178 6180 6183 6186 6189 6192 6195 6197 6199 6202 6205 6208 6211 6214 6216 6218 6221 6224 6227 6230 6233 6236 6239 6242 6245 6248 6251 6254 6257 6260 6263 6266 6269 6272 6275 6278 6281 6284 6287 6290 6293 6296 6299 6302 6305 6308 6311 6314 6317 6320 6323 6326 6329 6332 6335 6338 6341 6344 6347 6350 6353 6356 6359 6362 6365 6368 6371 6374 6377 6380 6383 6386 6389 6392 6395 6398 6401 6404 6407 6410 6413 6416 6419 6422 6424 6427 6430 6433 6435 6437 6440 6443 6446 6448 6451 6454 6457 6460 6463 6465 6468 6471 6474 6477 6480 6483 6486 6488 6491 6494 6497 6499 6502 6505 6508 6511 6514 6517 6520 6523 6526 6529 6531 6533 6536 6539 6541 6544 6547 6550 6553 6555 6558 6561 6564 6567 6570 6573 6575 6578 6581 6584 6587 6590 6593 6596 6599 6602 6604 6607 6609 6612 6615 6618 6620 6623 6626 6629 6632 6634 6637 6640 6643 6646 6649 6652 6655 6658 6661 6664 6667 6670 6673 6676 6679 6682 6684 6687 6690 6692 6695 6698 6700 6703 6706 6709 6712 6715 6718 6721 6724 6727 6730 6732 6735 6738 6740 6743 6745 6748 6751 6753 6756 6759 6761 6764 6766 6769 6771 6774 6777 6779 6782 6785 6788 6790 6793 6795 6798 6801 6804 6807 6810 6813 6816 6818 6821 6824 6827 6829 6832 6835 6837 6840 6842 6844 6847 6850 6853 6856 6859 6862 6864 6867 6870 6873 6876 6879 6882 6885 6888 6891 6894 6897 6900 6903 6906 6909 6912 6915 6918 6921 6924 6927 6930 6933 6936 6939 6941 6944 6946 6949 6952 6955 6958 6961 6964 6967 6970 6972 6975 6977 6980 6983 6986 6988 6991 6993 6996 6999 7002 7004 7007 7010 7013 7016 7019 7022 7024 7027 7029 7032 7035 7037 7040 7043 7045 7048 7051 7054 7057 7060 7062 7065 7068 7070 7073 7075 7078 7081 7084 7086 7089 7092 7095 7097 7100 7102 7105 7107 7109 7112 7115 7118 7121 7124 7127 7129 7132 7135 7138 7141 7144 7147 7150 7152 7155 7158 7161 7164 7167 7170 7172 7174 7177 7179 7182 7185 7188 7191 7193 7196 7199 7202 7205 7208 7211 7214 7217 7219 7222 7225 7227 7230 7233 7236 7239 7242 7245 7248 7250 7253 7256 7259 7262 7265 7268 7271 7274 7276 7279 7282 7285 7288 7290 7293 7296 7299 7302 7305 7308 7311 7313 7316 7319 7322 7324 7327 7330 7333 7336 7339 7342 7345 7348 7351 7354 7357 7360 7363 7366 7369 7372 7375 7378 7381 7384 7387 7390 7393 7396 7399 7402 7405 7408 7411 7414 7417 7420 7423 7426 7429 7432 7435 7438 7441 7444 7447 7450 7453 7456 7458 7461 7464 7467 7470 7473 7475 7478 7481 7484 7487 7490 7492 7495 7497 7500 7503 7506 7509 7511 7513 7516 7518 7520 7523 7526 7528 7530 7533 7536 7538 7541 7544 7546 7549 7552 7555 7558 7561 7564 7566 7569 7572 7575 7578 7581 7584 7587 7589 7592 7595 7597 7600 7603 7606 7609 7612 7615 7618 7621 7624 7627 7630 7633 7636 7639 7642 7645 7648 7651 7654 7657 7659 7662 7665 7668 7671 7674 7677 7680 7683 7686 7689 7692 7695 7697 7700 7703 7706 7708 7711 7713 7716 7719 7722 7725 7728 7731 7733 7736 7739 7742 7744 7747 7750 7753 7756 7759 7761 7764 7767 7770 7772 7775 7778 7781 7784 7787 7790 7793 7796 7799 7802 7805 7808 7811 7814 7817 7820 7822 7825 7828 7831 7833 7836 7839 7842 7844 7847 7850 7853 7856 7859 7862 7865 7868 7871 7874 7877 7880 7882 7885 7888 7891 7893 7896 7899 7901 7904 7907 7910 7912 7915 7918 7920 7923 7926 7929 7932 7935 7938 7941 7944 7947 7950 7953 7956 7959 7962 7965 7968 7971 7974 7977 7979 7982 7985 7988 7991 7994 7997 8000 8003 8006 8009 8012 8015 8018 8020 8023 8026 8029 8032 8035 8038 8041 8044 8047 8050 8053 8056 8059 8062 8065 8067 8070 8073 8076 8079 8081 8084 8087 8090 8093 8096 8099 8102 8105 8107 8110 8113 8116 8119 8122 8125 8128 8130 8133 8136 8139 8142 8145 8148 8151 8154 8157 8160 8163 8166 8169 8172 8175 8178 8181 8184 8187 8190 8193 8196 8199 8202 8205 8207 8210 8213 8216 8219 8222 8225 8228 8231 8234 8237 8240 8243 8246 8249 8252 8255 8258 8261 8264 8267 8270 8273 8276 8279 8282 8285 8288 8290 8293 8296 8299 8302 8305 8307 8310 8313 8316 8319 8322 8325 8328 8331 8334 8337 8340 8343 8346 8349 8351 8354 8357 8360 8363 8366 8369 8372 8375 8378 8381 8384 8387 8390 8393 8396 8399 8401 8404 8406 8409 8412 8415 8418 8421 8423 8426 8428 8431 8434 8437 8440 8443 8446 8449 8452 8454 8457 8460 8463 8465 8468 8471 8473 8476 8479 8482 8484 8487 8490 8493 8496 8499 8502 8504 8507 8510 8513 8516 8519 8522 8525 8527 8530 8533 8536 8539 8542 8544 8547 8550 8553 8555 8558 8560 8562 8565 8568 8571 8573 8576 8579 8582 8585 8588 8591 8594 8597 8600 8603 8606 8609 8612 8614 8617 8620 8622 8624 8627 8629 8632 8635 8638 8641 8643 8646 8649 8652 8655 8658 8661 8664 8667 8670 8672 8675 8678 8681 8684 8687 8690 8693 8696 8699 8702 8705 8708 8711 8714 8717 8720 8723 8726 8729 8732 8735 8738 8741 8744 8747 8750 8753 8756 8759 8762 8765 8768 8771 8774 8777 8780 8783 8786 8788 8790 8793 8796 8799 8802 8805 8808 8811 8814 8817 8820 8823 8826 8829 8832 8835 8837 8840 8843 8845 8848 8851 8854 8856 8859 8862 8865 8868 8871 8874 8877 8880 8883 8886 8889 8892 8895 8898 8901 8904 8907 8910 8912 8915 8918 8921 8924 8927 8930 8932 8934 8937 8940 8943 8946 8949 8952 8955 8958 8961 8964 8967 8970 8973 8976 8979 8981 8984 8987 8990 8993 8995 8998 9001 9004 9007 9010 9013 9016 9018 9021 9024 9027 9030 9033 9036 9039 9042 9045 9048 9051 9054 9057 9060 9063 9066 9069 9072 9074 9077 9080 9082 9085 9088 9091 9094 9097 9100 9103 9106 9109 9112 9115 9117 9120 9123 9126 9129 9132 9135 9138 9141 9144 9147 9150 9153 9156 9159 9162 9165 9168 9171 9174 9177 9180 9183 9186 9189 9192 9195 9198 9201 9204 9207 9209 9212 9215 9218 9221 9224 9227 9230 9233 9236 9238 9241 9244 9247 9250 9253 9256 9259 9262 9265 9268 9271 9274 9277 9280 9283 9286 9289 9292 9295 9298 9301 9303 9306 9309 9312 9315 9318 9321 9324 9327 9330 9333 9336 9339 9342 9345 9348 9351 9354 9357 9360 9363 9366 9369 9372 9375 9378 9381 9384 9387 9390 9393 9396 9399 9402 9405 9408 9411 9413 9415 9418 9421 9424 9427 9430 9433 9436 9439 9442 9445 9448 9451 9454 9457 9460 9463 9465 9468 9471 9474 9477 9479 9482 9485 9488 9491 9493 9496 9499 9502 9505 9507 9509 9512 9515 9518 9520 9523 9525 9527 9530 9533 9536 9539 9542 9545 9547 9550 9553 9556 9558 9560 9563 9566 9569 9571 9574 9577 9579 9582 9585 9587 9590 9593 9595 9598 9601 9604 9607 9609 9612 9615 9618 9620 9623 9626 9629 9632 9634 9637 9640 9642 9645 9648 9650 9652 9655 9657 9660 9663 9666 9669 9672 9675 9678 9681 9684 9686 9688 9691 9694 9697 9700 9703 9706 9709 9712 9715 9718 9721 9724 9727 9729 9732 9735 9737 9739 9742 9745 9748 9751 9754 9757 9760 9763 9765 9767 9770 9773 9776 9779 9782 9785 9788 9791 9794 9796 9799 9802 9805 9808 9811 9814 9817 9820 9823 9826 9828 9831 9834 9837 9839 9842 9845 9848 9851 9854 9857 9859 9862 9865 9868 9871 9874 9877 9880 9883 9885 9888 9891 9894 9897 9900 9902 9905 9908 9911 9914 9917 9920 9922 9925 9928 9931 9934 9937 9940 9942 9944 9947 9950 9952 9955 9957 9960 9962 9965 9968 9971 9974 9976 9978 9981 9984 9986 9989 9992 9995 9998 10001 10004 10007 10010 10012 10014 10017 10020 10023 10026 10029 10032 10035 10038 10041 10044 10047 10050 10053 10056 10059 10062 10064 10067 10069 10071 10074 10076 10079 10081 10084 10087 10090 10092 10095 10098 10101 10103 10106 10108 10111 10114 10117 10120 10123 10126 10128 10131 10134 10137 10140 10143 10146 10149 10152 10155 10158 10161 10164 10167 10170 10173 10176 10179 10181 10184 10187 10190 10193 10196 10199 10202 10205 10208 10211 10214 10217 10220 10222 10225 10228 10231 10234 10237 10240 10243 10246 10249 10251 10254 10257 10260 10262 10265 10267 10269 10272 10275 10278 10280 10283 10286 10288 10291 10294 10297 10299 10302 10305 10308 10310 10313 10316 10318 10321 10324 10326 10329 10332 10335 10338 10341 10344 10347 10350 10353 10356 10359 10362 10365 10368 10371 10374 10377 10380 10382 10385 10388 10391 10394 10397 10400 10403 10406 10409 10412 10415 10417 10420 10423 10426 10429 10432 10435 10437 10439 10442 10445 10448 10451 10454 10457 10460 10463 10466 10469 10472 10475 10478 10481 10484 10487 10490 10493 10496 10499 10502 10505 10508 10511 10514 10517 10520 10523 10526 10529 10532 10535 10538 10541 10544 10547 10550 10553 10556 10559 10562 10565 10568 10571 10574 10577 10579 10582 10585 10588 10591 10594 10597 10600 10603 10606 10609 10612 10615 10618 10621 10624 10627 10630 10633 10636 10639 10642 10645 10648 10651 10654 10657 10660 10663 10666 10669 10672 10675 10678 10681 10684 10687 10690 10693 10696 10699 10702 10705 10708 10711 10714 10717 10720 10723 10726 10729 10732 10735 10738 10741 10744 10747 10750 10753 10756 10759 10762 10765 10768 10771 10774 10777 10780 10783 10786 10788 10790 10793 10796 10799 10802 10804 10807 10809 10812 10815 10818 10821 10824 10827 10830 10833 10836 10839 10842 10845 10848 10851 10854 10856 10859 10862 10865 10868 10871 10874 10877 10880 10883 10886 10889 10892 10895 10898 10901 10904 10907 10910 10913 10916 10919 10922 10925 10928 10931 10934 10937 10940 10943 10946 10949 10952 10955 10958 10961 10964 10967 10970 10973 10976 10979 10982 10985 10988 10991 10994 10997 11000 11003 11006 11009 11012 11015 11018 11021 11024 11027 11030 11033 11036 11039 11042 11045 11048 11051 11054 11057 11060 11063 11066 11069 11072 11075 11078 11081 11084 11087 11090 11093 11096 11099 11102 11105 11108 11111 11114 11117 11120 11123 11126 11129 11131 11133 11136 11139 11142 11145 11148 11151 11154 11157 11159 11162 11165 11167 11170 11173 11176 11179 11181 11184 11187 11190 11193 11196 11199 11201 11204 11207 11210 11212 11215 11218 11221 11224 11227 11230 11233 11236 11239 11242 11245 11248 11251 11254 11257 11260 11262 11265 11268 11271 11274 11277 11280 11282 11285 11288 11291 11294 11297 11300 11303 11306 11309 11312 11315 11318 11321 11323 11326 11329 11332 11334 11337 11340 11342 11345 11347 11349 11352 11355 11358 11360 11363 11366 11369 11372 11375 11377 11380 11383 11386 11388 11391 11394 11397 11400 11403 11406 11409 11412 11415 11418 11421 11423 11426 11429 11432 11435 11438 11440 11443 11446 11449 11452 11455 11457 11460 11463 11466 11469 11472 11475 11478 11480 11482 11485 11487 11490 11492 11494 11497 11500 11503 11506 11509 11512 11515 11518 11521 11524 11527 11530 11533 11536 11539 11542 11545 11548 11551 11554 11557 11560 11563 11566 11569 11572 11575 11578 11581 11584 11587 11590 11593 11596 11599 11602 11605 11608 11611 11614 11617 11620 11623 11626 11629 11632 11635 11638 11641 11644 11647 11650 11653 11656 11659 11661 11664 11666 11669 11672 11675 11678 11681 11684 11687 11690 11693 11695 11698 11701 11704 11706 11709 11712 11714 11717 11720 11723 11726 11729 11731 11734 11737 11740 11743 11745 11747 11750 11753 11756 11759 11762 11765 11768 11771 11774 11777 11780 11783 11786 11789 11791 11793 11796 11799 11802 11805 11808 11811 11813 11816 11818 11821 11824 11827 11830 11833 11835 11838 11841 11844 11847 11849 11852 11855 11857 11860 11863 11866 11869 11872 11874 11877 11880 11882 11885 11888 11891 11894 11897 11900 11902 11905 11908 11911 11913 11916 11919 11922 11924 11927 11930 11933 11936 11939 11942 11945 11947 11950 11953 11956 11959 11961 11964 11967 11970 11972 11975 11978 11981 11984 11986 11988 11991 11994 11997 12000 12003 12005 12008 12011 12014 12017 12020 12023 12026 12029 12032 12035 12038 12041 12043 12046 12048 12051 12054 12056 12059 12062 12065 12068 12071 12074 12077 12080 12083 12086 12089 12092 12095 12098 12101 12104 12107 12110 12113 12116 12119 12122 12125 12128 12131 12134 12137 12140 12143 12146 12149 12152 12155 12158 12161 12164 12167 12170 12173 12176 12178 12181 12184 12187 12189 12192 12195 12197 12200 12203 12206 12209 12212 12215 12218 12220 12223 12226 12229 12232 12235 12237 12240 12243 12246 12249 12252 12255 12258 12261 12264 12267 12269 12272 12274 12277 12280 12283 12286 12289 12292 12295 12298 12301 12304 12307 12309 12312 12314 12317 12319 12322 12324 12327 12330 12333 12335 12338 12341 12344 12347 12350 12353 12356 12359 12362 12365 12368 12371 12374 12377 12380 12383 12386 12389 12392 12395 12397 12400 12402 12404 12407 12410 12412 12415 12418 12420 12423 12425 12428 12430 12432 12435 12438 12441 12444 12447 12450 12452 12455 12457 12460 12462 12465 12468 12471 12474 12477 12480 12483 12486 12488 12490 12493 12496 12499 12502 12505 12508 12511 12513 12516 12519 12522 12525 12528 12531 12534 12537 12540 12543 12546 12549 12552 12554 12557 12560 12563 12566 12569 12572 12575 12578 12581 12584 12587 12590 12593 12596 12599 12602 12605 12608 12610 12612 12615 12618 12621 12624 12627 12629 12632 12635 12638 12641 12644 12646 12649 12652 12655 12658 12660 12663 12666 12669 12672 12674 12676 12679 12681 12684 12687 12689 12691 12694 12696 12699 12702 12705 12707 12710 12713 12716 12718 12720 12723 12725 12728 12730 12733 12735 12738 12741 12744 12747 12749 12752 12754 12756 12758 12760 12763 12766 12769 12772 12774 12777 12780 12783 12786 12789 12792 12795 12797 12800 12803 12806 12809 12812 12815 12818 12821 12823 12826 12829 12832 12835 12838 12841 12844 12847 12850 12852 12854 12857 12859 12862 12865 12867 12870 12873 12876 12879 12882 12885 12888 12890 12893 12896 12899 12902 12905 12908 12911 12914 12917 12920 12923 12926 12929 12932 12935 12938 12940 12943 12946 12949 12952 12955 12958 12961 12964 12967 12970 12973 12976 12979 12982 12985 12988 12991 12994 12997 13000 13003 13006 13009 13012 13015 13018 13020 13023 13025 13028 13030 13033 13036 13039 13042 13045 13048 13050 13053 13056 13059 13061 13064 13066 13069 13072 13075 13078 13081 13084 13086 13088 13091 13094 13097 13100 13103 13106 13109 13111 13114 13117 13119 13122 13125 13127 13130 13133 13135 13138 13141 13143 13146 13149 13151 13154 13157 13160 13163 13166 13169 13172 13175 13178 13181 13184 13186 13189 13192 13195 13198 13201 13204 13207 13210 13213 13216 13219 13222 13225 13228 13230 13233 13235 13238 13241 13244 13247 13250 13253 13255 13258 13261 13264 13267 13270 13273 13276 13278 13281 13284 13287 13290 13293 13295 13298 13301 13304 13306 13309 13312 13315 13318 13321 13324 13326 13329 13332 13335 13338 13341 13344 13347 13349 13352 13355 13357 13360 13363 13365 13368 13371 13374 13377 13380 13383 13386 13388 13390 13393 13395 13398 13401 13404 13407 13410 13413 13416 13419 13422 13425 13428 13431 13434 13437 13440 13443 13446 13449 13452 13455 13457 13460 13463 13466 13469 13472 13475 13478 13481 13484 13487 13490 13492 13495 13498 13501 13504 13507 13509 13511 13514 13517 13519 13521 13524 13527 13530 13533 13536 13539 13541 13544 13546 13549 13551 13554 13557 13560 13563 13566 13569 13572 13575 13578 13581 13584 13587 13590 13592 13595 13598 13600 13603 13606 13609 13611 13614 13617 13620 13623 13626 13629 13632 13635 13638 13641 13644 13647 13650 13653 13656 13659 13662 13665 13668 13671 13674 13677 13680 13683 13686 13688 13691 13694 13697 13699 13702 13705 13708 13711 13713 13716 13719 13721 13724 13727 13729 13732 13735 13738 13741 13744 13747 13750 13753 13755 13758 13761 13763 13766 13769 13772 13775 13777 13780 13783 13786 13789 13792 13794 13797 13800 13803 13806 13809 13812 13815 13818 13821 13823 13826 13829 13832 13834 13837 13840 13842 13845 13848 13851 13854 13857 13860 13863 13866 13869 13872 13875 13878 13881 13884 13887 13890 13893 13896 13899 13902 13905 13908 13911 13914 13917 13920 13923 13926 13929 13932 13935 13938 13941 13944 13947 13950 13953 13956 13959 13962 13965 13968 13971 13974 13977 13980 13983 13986 13989 13992 13995 13998 14001 14003 14006 14009 14011 14013 14016 14019 14022 14025 14028 14031 14034 14036 14039 14042 14045 14048 14051 14054 14057 14060 14063 14066 14069 14072 14075 14077 14080 14082 14085 14088 14091 14094 14097 14100 14102 14105 14108 14111 14114 14116 14119 14122 14125 14127 14130 14133 14136 14139 14142 14145 14148 14151 14154 14157 14160 14163 14166 14169 14172 14175 14178 14181 14184 14187 14190 14193 14196 14199 14202 14205 14207 14210 14213 14216 14218 14221 14224 14227 14229 14232 14235 14238 14241 14243 14246 14248 14251 14254 14257 14260 14263 14266 14269 14272 14275 14278 14281 14284 14287 14290 14293 14296 14299 14301 14304 14307 14309 14312 14315 14318 14321 14324 14326 14329 14332 14334 14337 14340 14343 14346 14349 14352 14355 14358 14361 14364 14367 14370 14373 14376 14379 14382 14385 14388 14391 14394 14397 14400 14403 14405 14408 14411 14414 14416 14419 14422 14424 14427 14430 14433 14436 14439 14442 14445 14448 14451 14454 14457 14460 14463 14466 14469 14472 14475 14477 14480 14482 14485 14488 14491 14494 14496 14499 14502 14505 14508 14511 14514 14517 14520 14523 14525 14528 14531 14534 14537 14539 14542 14544 14547 14550 14553 14556 14559 14562 14565 14568 14571 14574 14577 14579 14582 14585 14588 14591 14594 14597 14600 14603 14606 14609 14612 14615 14618 14621 14624 14627 14630 14633 14636 14639 14642 14645 14648 14651 14654 14657 14660 14663 14666 14669 14672 14675 14678 14681 14684 14687 14690 14693 14695 14698 14701 14704 14706 14709 14712 14715 14718 14721 14724 14727 14730 14732 14735 14738 14740 14743 14746 14749 14752 14755 14758 14761 14764 14767 14770 14773 14776 14778 14781 14783 14786 14789 14792 14794 14797 14799 14802 14805 14808 14811 14814 14817 14820 14823 14826 14829 14832 14835 14838 14841 14844 14847 14850 14853 14856 14859 14862 14865 14868 14870 14873 14876 14879 14882 14884 14887 14890 14892 14895 14898 14900 14903 14906 14909 14912 14915 14918 14921 14923 14926 14929 14932 14935 14938 14941 14944 14946 14949 14952 14955 14958 14961 14964 14966 14969 14972 14975 14977 14980 14983 14986 14989 14992 14995 14997 15000 15003 15006 15009 15011 15013 15016 15019 15022 15025 15028 15031 15034 15037 15040 15043 15046 15049 15052 15055 15057 15060 15063 15066 15069 15072 15075 15078 15081 15084 15087 15090 15093 15096 15099 15102 15105 15108 15111 15114 15117 15119 15122 15125 15128 15131 15134 15137 15140 15143 15146 15149 15151 15154 15157 15159 15161 15163 15166 15169 15172 15175 15177 15180 15183 15186 15189 15191 15194 15197 15200 15203 15206 15209 15212 15215 15218 15221 15224 15227 15230 15233 15236 15239 15242 15244 15247 15250 15253 15256 15259 15262 15264 15267 15270 15273 15276 15279 15281 15284 15287 15290 15293 15296 15299 15302 15305 15308 15311 15314 15317 15320 15323 15326 15329 15332 15335 15338 15341 15344 15347 15350 15353 15356 15359 15362 15365 15368 15371 15374 15377 15380 15383 15386 15389 15392 15395 15397 15400 15403 15406 15408 15411 15414 15416 15419 15422 15425 15428 15430 15433 15436 15438 15441 15444 15447 15450 15453 15456 15459 15462 15465 15468 15471 15474 15477 15480 15482 15485 15488 15491 15493 15496 15499 15502 15505 15508 15511 15514 15517 15520 15523 15525 15528 15531 15534 15536 15539 15542 15545 15548 15551 15554 15557 15560 15563 15566 15569 15572 15575 15578 15580 15583 15586 15588 15591 15594 15597 15600 15603 15606 15609 15611 15614 15617 15620 15623 15626 15629 15632 15635 15638 15641 15644 15647 15649 15652 15655 15657 15659 15662 15665 15668 15671 15674 15677 15680 15683 15686 15689 15692 15695 15698 15701 15703 15706 15709 15712 15715 15718 15721 15724 15727 15730 15733 15736 15739 15742 15745 15748 15751 15754 15757 15759 15762 15764 15767 15770 15773 15776 15779 15782 15785 15788 15791 15794 15796 15799 15802 15804 15807 15810 15812 15815 15817 15820 15822 15824 15827 15830 15833 15836 15839 15842 15845 15848 15851 15854 15857 15860 15863 15866 15869 15872 15874 15877 15880 15883 15886 15889 15892 15895 15898 15901 15904 15907 15910 15913 15916 15919 15922 15925 15928 15931 15934 15937 15940 15943 15946 15949 15952 15955 15958 15961 15963 15966 15969 15972 15975 15978 15981 15984 15987 15990 15992 15995 15998 16001 16004 16007 16010 16012 16015 16018 16021 16024 16027 16029 16032 16034 16037 16040 16043 16045 16048 16050 16053 16056 16059 16062 16065 16068 16071 16074 16077 16080 16083 16086 16088 16091 16094 16097 16100 16103 16106 16109 16112 16115 16118 16121 16124 16127 16130 16133 16136 16139 16142 16144 16147 16150 16152 16155 16158 16161 16164 16167 16170 16173 16176 16179 16181 16184 16187 16189 16192 16195 16197 16200 16203 16205 16208 16210 16213 16216 16219 16222 16225 16228 16231 16233 16236 16239 16242 16245 16248 16251 16254 16257 16259 16261 16264 16267 16269 16272 16275 16278 16280 16283 16285 16288 16291 16294 16297 16300 16303 16305 16308 16311 16314 16317 16320 16323 16325 16328 16330 16333 16336 16338 16341 16344 16347 16350 16352 16355 16358 16361 16364 16367 16370 16373 16375 16378 16381 16384 16387 16390 16393 16396 16398 16400 16402 16405 16408 16411 16414 16416 16419 16422 16424 16426 16429 16432 16435 16437 16440 16443 16445 16448 16451 16454 16457 16460 16463 16466 16469 16472 16475 16478 16481 16484 16486 16489 16491 16494 16497 16499 16502 16505 16508 16511 16513 16516 16519 16522 16525 16528 16531 16534 16537 16540 16543 16546 16549 16552 16555 16558 16561 16564 16567 16570 16573 16576 16578 16581 16584 16587 16590 16592 16595 16598 16601 16604 16607 16610 16613 16615 16618 16621 16624 16627 16630 16632 16635 16638 16640 16643 16645 16648 16651 16654 16656 16658 16660 16662 16665 16668 16671 16674 16677 16680 16683 16686 16689 16692 16695 16698 16701 16704 16707 16710 16713 16716 16719 16722 16725 16727 16730 16733 16736 16738 16741 16744 16747 16750 16753 16756 16759 16762 16765 16767 16770 16773 16776 16779 16781 16784 16787 16789 16792 16795 16798 16801 16804 16807 16810 16813 16816 16818 16821 16824 16827 16830 16833 16836 16839 16842 16844 16847 16850 16853 16856 16859 16862 16865 16868 16871 16874 16877 16880 16883 16886 16889 16891 16894 16897 16900 16903 16906 16909 16912 16915 16918 16920 16923 16926 16929 16932 16935 16938 16941 16944 16947 16950 16953 16956 16959 16962 16965 16968 16971 16974 16977 16980 16983 16986 16989 16992 16995 16998 17001 17004 17007 17010 17012 17015 17018 17021 17024 17026 17029 17032 17035 17038 17041 17044 17047 17050 17053 17055 17058 17061 17064 17067 17070 17073 17076 17079 17082 17085 17088 17091 17094 17097 17100 17103 17106 17109 17112 17115 17118 17121 17124 17127 17130 17132 17135 17138 17141 17144 17147 17149 17152 17154 17156 17159 17162 17164 17167 17170 17173 17176 17179 17182 17185 17187 17190 17193 17196 17199 17202 17205 17208 17211 17214 17217 17220 17223 17226 17229 17231 17234 17236 17239 17242 17244 17246 17249 17252 17255 17258 17261 17264 17266 17269 17272 17274 17277 17280 17283 17286 17288 17291 17293 17295 17298 17301 17304 17307 17310 17313 17316 17319 17322 17324 17327 17330 17333 17336 17339 17342 17345 17347 17350 17353 17356 17359 17362 17365 17368 17371 17374 17377 17380 17383 17386 17389 17392 17394 17397 17399 17402 17404 17407 17410 17413 17415 17418 17421 17424 17427 17429 17432 17435 17438 17441 17443 17446 17448 17451 17454 17457 17460 17463 17466 17469 17471 17473 17475 17478 17481 17484 17487 17490 17493 17495 17498 17501 17504 17506 17509 17512 17515 17518 17521 17524 17527 17530 17533 17536 17538 17541 17544 17547 17550 17553 17556 17559 17561 17563 17566 17568 17571 17574 17577 17580 17582 17584 17587 17590 17593 17596 17599 17602 17605 17608 17611 17613 17616 17619 17621 17624 17627 17630 17633 17636 17639 17642 17645 17648 17651 17654 17657 17660 17663 17666 17669 17672 17675 17678 17681 17684 17687 17690 17693 17696 17699 17702 17705 17708 17710 17713 17716 17718 17721 17724 17727 17730 17733 17736 17739 17742 17745 17748 17751 17754 17757 17760 17762 17765 17768 17771 17774 17777 17780 17783 17786 17789 17792 17795 17798 17801 17804 17807 17810 17813 17816 17819 17822 17824 17827 17830 17833 17836 17838 17841 17844 17846 17849 17852 17855 17858 17861 17864 17867 17870 17873 17876 17878 17881 17883 17886 17889 17892 17895 17898 17901 17904 17907 17910 17913 17916 17919 17922 17925 17928 17931 17933 17936 17938 17940 17943 17946 17949 17952 17954 17957 17960 17963 17965 17968 17971 17974 17977 17980 17983 17986 17989 17992 17995 17997 17999 18002 18005 18008 18010 18013 18016 18019 18022 18024 18027 18030 18033 18036 18039 18042 18045 18048 18050 18053 18056 18059 18062 18064 18067 18070 18073 18075 18078 18081 18084 18087 18090 18093 18096 18099 18102 18105 18108 18111 18114 18117 18120 18123 18126 18129 18132 18135 18138 18141 18144 18147 18150 18153 18156 18159 18161 18164 18167 18170 18173 18176 18179 18182 18184 18187 18190 18192 18195 18197 18200 18203 18206 18209 18212 18215 18218 18220 18223 18226 18229 18232 18235 18238 18241 18244 18247 18250 18253 18255 18258 18261 18264 18267 18270 18273 18276 18278 18281 18283 18286 18289 18292 18295 18298 18301 18304 18307 18310 18313 18315 18318 18321 18324 18327 18330 18333 18336 18339 18342 18345 18348 18351 18354 18357 18360 18362 18365 18368 18371 18374 18377 18380 18382 18385 18388 18391 18394 18397 18399 18402 18405 18408 18411 18414 18416 18419 18422 18425 18428 18431 18434 18437 18440 18443 18446 18448 18451 18454 18457 18460 18462 18465 18468 18471 18474 18477 18480 18483 18486 18489 18492 18495 18498 18500 18503 18505 18508 18511 18514 18517 18520 18522 18525 18528 18531 18533 18536 18539 18541 18544 18547 18549 18552 18555 18558 18561 18564 18567 18570 18573 18575 18578 18580 18583 18586 18589 18592 18595 18597 18600 18603 18606 18609 18611 18614 18617 18620 18623 18626 18629 18632 18635 18638 18640 18643 18646 18649 18651 18654 18656 18658 18660 18663 18666 18669 18672 18675 18678 18681 18684 18687 18690 18693 18696 18699 18702 18705 18708 18711 18714 18717 18720 18723 18726 18729 18732 18735 18738 18741 18744 18747 18750 18753 18756 18759 18762 18765 18767 18770 18773 18775 18778 18781 18784 18787 18790 18793 18796 18799 18802 18805 18808 18811 18813 18816 18819 18822 18825 18828 18831 18833 18835 18838 18841 18844 18847 18849 18852 18855 18857 18860 18863 18865 18868 18871 18874 18877 18880 18883 18886 18889 18892 18895 18898 18901 18904 18907 18910 18912 18915 18918 18921 18923 18926 18928 18931 18934 18937 18939 18942 18945 18948 18951 18954 18957 18960 18963 18966 18969 18972 18975 18978 18980 18983 18986 18988 18991 18993 18996 18998 19001 19004 19007 19009 19011 19014 19017 19020 19023 19026 19029 19032 19035 19038 19040 19043 19045 19048 19050 19053 19056 19059 19061 19064 19066 19069 19071 19074 19077 19080 19083 19086 19089 19092 19094 19097 19100 19103 19106 19108 19111 19114 19117 19120 19123 19125 19128 19131 19133 19136 19139 19142 19145 19148 19150 19153 19155 19157 19160 19163 19165 19168 19171 19174 19176 19179 19181 19184 19187 19189 19192 19195 19198 19201 19204 19206 19209 19212 19214 19217 19220 19223 19226 19229 19232 19235 19238 19241 19244 19247 19250 19253 19256 19259 19262 19265 19268 19271 19274 19277 19280 19283 19286 19289 19291 19294 19296 19299 19302 19305 19308 19311 19314 19317 19320 19322 19325 19328 19331 19333 19336 19339 19342 19345 19348 19351 19353 19356 19359 19362 19365 19367 19370 19373 19376 19379 19382 19385 19388 19391 19394 19397 19400 19403 19406 19409 19412 19415 19418 19421 19424 19427 19430 19433 19436 19439 19442 19445 19448 19451 19454 19457 19460 19463 19465 19468 19471 19474 19477 19480 19483 19486 19489 19492 19495 19498 19501 19504 19506 19509 19511 19513 19516 19518 19521 19523 19526 19528 19531 19534 19536 19539 19541 19544 19546 19549 19551 19554 19557 19559 19562 19564 19567 19570 19572 19575 19578 19580 19582 19585 19588 19591 19594 19597 19600 19603 19606 19608 19611 19614 19617 19620 19623 19626 19629 19632 19635 19638 19641 19644 19647 19649 19652 19655 19658 19661 19664 19667 19670 19673 19675 19678 19681 19683 19685 19687 19690 19693 19695 19698 19701 19704 19707 19710 19713 19716 19719 19722 19725 19728 19731 19733 19736 19739 19742 19744 19747 19750 19753 19756 19759 19761 19764 19767 19770 19773 19775 19778 19781 19784 19787 19790 19793 19796 19799 19802 19804 19807 19810 19812 19815 19818 19821 19824 19827 19830 19833 19836 19838 19841 19844 19846 19849 19851 19854 19856 19859 19862 19865 19868 19871 19874 19877 19879 19882 19885 19888 19891 19894 19897 19900 19903 19906 19909 19912 19915 19918 19921 19924 19927 19930 19933 19936 19939 19942 19945 19948 19951 19954 19957 19960 19963 19966 19969 19972 19975 19978 19981 19984 19987 19990 19993 19996 19998 20001 20004 20007 20010 20013 20016 20019 20022 20025 20028 20031 20034 20037 20040 20043 20046 20049 20052 20055 20058 20061 20064 20067 20070 20073 20076 20079 20082 20085 20088 20091 20094 20097 20100 20103 20106 20109 20112 20115 20118 20121 20123 20126 20129 20132 20135 20137 20140 20143 20146 20149 20151 20154 20157 20160 20163 20165 20168 20171 20174 20177 20180 20183 20186 20189 20192 20195 20198 20201 20204 20207 20210 20213 20216 20219 20222 20225 20228 20230 20233 20236 20239 20242 20245 20248 20250 20253 20256 20259 20262 20265 20267 20270 20273 20276 20279 20282 20285 20287 20290 20293 20296 20298 20301 20304 20307 20310 20313 20316 20319 20322 20325 20328 20331 20333 20336 20339 20342 20345 20348 20351 20354 20357 20360 20363 20366 20369 20372 20375 20378 20381 20384 20387 20390 20393 20396 20399 20402 20405 20407 20410 20413 20416 20419 20422 20425 20428 20430 20433 20436 20439 20442 20445 20448 20451 20454 20456 20459 20461 20464 20467 20470 20473 20475 20478 20481 20483 20486 20489 20492 20495 20497 20500 20502 20505 20508 20511 20514 20517 20520 20523 20526 20529 20532 20535 20537 20540 20543 20545 20548 20550 20553 20556 20558 20560 20563 20566 20569 20572 20575 20578 20581 20584 20587 20590 20593 20596 20598 20601 20604 20607 20609 20612 20615 20617 20620 20622 20625 20627 20630 20633 20636 20639 20642 20645 20648 20650 20653 20655 20658 20661 20664 20667 20670 20673 20676 20679 20682 20684 20687 20690 20693 20695 20698 20701 20704 20707 20710 20713 20715 20718 20721 20724 20727 20730 20733 20736 20739 20742 20744 20747 20750 20753 20756 20759 20762 20765 20768 20771 20774 20777 20779 20782 20785 20788 20791 20794 20797 20799 20802 20805 20807 20810 20813 20815 20818 20821 20824 20827 20829 20832 20835 20838 20841 20844 20847 20850 20853 20856 20859 20862 20865 20867 20870 20872 20875 20878 20880 20883 20886 20888 20891 20894 20897 20900 20902 20905 20908 20911 20914 20917 20920 20922 20925 20928 20931 20934 20937 20940 20942 20945 20948 20951 20954 20957 20959 20962 20965 20968 20971 20974 20977 20980 20983 20986 20989 20992 20995 20998 21001 21004 21007 21010 21012 21015 21018 21021 21023 21026 21029 21032 21035 21038 21040 21042 21045 21048 21051 21053 21056 21058 21061 21063 21066 21069 21071 21073 21076 21079 21082 21085 21088 21091 21094 21097 21100 21103 21105 21108 21111 21114 21116 21119 21122 21125 21128 21131 21134 21137 21140 21143 21146 21149 21152 21155 21158 21161 21164 21167 21170 21173 21176 21179 21182 21185 21188 21191 21193 21195 21198 21200 21202 21205 21208 21211 21214 21217 21220 21223 21226 21229 21231 21234 21237 21240 21243 21246 21249 21251 21254 21257 21260 21263 21265 21268 21271 21274 21277 21280 21283 21286 21289 21292 21295 21298 21301 21304 21307 21310 21313 21316 21319 21322 21325 21328 21331 21334 21337 21340 21342 21345 21348 21351 21354 21357 21359 21362 21365 21367 21370 21373 21375 21378 21381 21383 21386 21389 21392 21394 21397 21400 21403 21405 21408 21411 21414 21417 21420 21423 21426 21429 21432 21435 21438 21440 21443 21446 21449 21452 21455 21458 21460 21462 21465 21468 21471 21474 21476 21478 21481 21484 21487 21490 21492 21495 21498 21501 21503 21506 21509 21512 21515 21518 21520 21523 21526 21529 21532 21535 21538 21541 21544 21547 21550 21552 21555 21558 21561 21564 21566 21569 21572 21574 21577 21580 21583 21586 21589 21591 21594 21597 21600 21603 21606 21609 21611 21614 21617 21620 21623 21626 21629 21632 21635 21638 21641 21644 21647 21650 21653 21656 21659 21662 21665 21668 21671 21674 21677 21680 21682 21685 21687 21690 21692 21695 21698 21700 21703 21706 21708 21711 21714 21717 21720 21723 21726 21729 21732 21735 21738 21741 21743 21746 21749 21751 21754 21757 21759 21762 21765 21768 21771 21774 21777 21780 21783 21785 21788 21791 21794 21797 21800 21802 21804 21807 21810 21812 21814 21816 21819 21822 21825 21828 21830 21833 21836 21839 21841 21844 21847 21849 21851 21854 21857 21860 21863 21866 21869 21872 21875 21878 21881 21884 21887 21890 21892 21895 21897 21900 21903 21906 21909 21912 21915 21918 21921 21923 21926 21929 21932 21935 21938 21940 21943 21946 21948 21951 21954 21957 21960 21963 21966 21969 21972 21975 21978 21981 21984 21987 21990 21993 21996 21999 22002 22005 22008 22011 22014 22017 22019 22022 22025 22028 22031 22034 22037 22039 22042 22045 22048 22051 22054 22057 22060 22063 22066 22069 22072 22075 22078 22081 22084 22087 22090 22093 22096 22099 22102 22105 22108 22111 22114 22117 22120 22123 22126 22129 22132 22135 22138 22140 22143 22146 22149 22152 22155 22158 22161 22164 22167 22170 22173 22176 22179 22182 22185 22188 22191 22194 22196 22199 22202 22205 22207 22210 22213 22216 22219 22222 22225 22227 22230 22233 22236 22239 22242 22245 22248 22251 22254 22257 22260 22263 22266 22269 22272 22275 22278 22281 22283 22286 22288 22291 22294 22296 22299 22302 22304 22307 22309 22312 22315 22318 22321 22324 22326 22329 22332 22335 22338 22340 22343 22345 22348 22351 22354 22357 22360 22362 22365 22368 22371 22374 22377 22380 22383 22386 22389 22392 22395 22398 22401 22404 22407 22410 22413 22416 22419 22422 22425 22428 22430 22433 22436 22439 22442 22445 22448 22451 22454 22457 22460 22462 22465 22467 22470 22473 22476 22479 22482 22484 22487 22490 22493 22496 22499 22502 22505 22507 22510 22513 22516 22518 22521 22524 22526 22529 22532 22535 22537 22539 22542 22545 22547 22549 22552 22555 22558 22561 22564 22567 22570 22573 22576 22579 22582 22585 22588 22591 22594 22597 22600 22603 22605 22607 22610 22613 22615 22618 22621 22624 22626 22629 22632 22635 22637 22640 22643 22646 22649 22652 22655 22657 22660 22662 22665 22668 22671 22674 22677 22680 22683 22686 22689 22692 22695 22698 22701 22704 22706 22709 22712 22714 22717 22719 22722 22725 22728 22730 22733 22736 22739 22742 22745 22748 22751 22754 22757 22760 22763 22766 22769 22772 22775 22778 22781 22784 22787 22790 22793 22796 22799 22802 22805 22808 22811 22814 22817 22820 22823 22826 22829 22831 22834 22837 22840 22843 22845 22848 22850 22853 22856 22859 22862 22865 22868 22870 22873 22876 22879 22881 22884 22886 22889 22892 22894 22897 22900 22903 22905 22908 22910 22913 22916 22919 22922 22925 22928 22931 22934 22937 22940 22942 22945 22948 22951 22954 22957 22959 22962 22965 22968 22971 22974 22976 22979 22982 22985 22988 22991 22994 22996 22999 23002 23005 23008 23011 23014 23017 23020 23023 23026 23029 23032 23035 23038 23041 23044 23047 23050 23053 23056 23058 23061 23064 23067 23070 23073 23076 23079 23082 23085 23088 23091 23094 23097 23100 23102 23105 23107 23110 23112 23115 23117 23120 23123 23125 23128 23131 23133 23136 23139 23142 23144 23147 23149 23152 23155 23158 23161 23163 23166 23169 23172 23175 23177 23180 23183 23186 23188 23191 23194 23196 23198 23201 23204 23206 23209 23212 23215 23217 23220 23223 23225 23227 23230 23233 23235 23238 23241 23244 23247 23250 23253 23256 23259 23262 23265 23268 23271 23274 23277 23280 23283 23286 23289 23292 23295 23298 23301 23304 23307 23310 23313 23316 23319 23322 23325 23328 23331 23334 23337 23340 23343 23345 23347 23350 23353 23355 23358 23360 23362 23365 23368 23371 23373 23376 23378 23381 23384 23387 23390 23393 23396 23399 23401 23404 23407 23410 23412 23415 23418 23421 23423 23426 23429 23432 23434 23437 23440 23443 23446 23449 23451 23454 23457 23459 23462 23464 23467 23470 23472 23475 23478 23481 23484 23487 23489 23492 23495 23498 23500 23503 23506 23509 23512 23515 23518 23521 23524 23527 23529 23532 23535 23537 23540 23543 23545 23548 23550 23553 23556 23559 23562 23565 23567 23570 23573 23575 23578 23581 23583 23586 23589 23591 23594 23597 23600 23603 23606 23609 23612 23615 23618 23621 23624 23627 23630 23632 23635 23638 23641 23644 23647 23650 23653 23656 23659 23661 23664 23667 23670 23673 23676 23679 23682 23684 23686 23689 23692 23694 23697 23700 23703 23706 23709 23712 23715 23718 23720 23723 23726 23729 23732 23735 23738 23741 23744 23747 23750 23753 23756 23759 23762 23765 23768 23771 23774 23777 23780 23783 23786 23789 23792 23795 23798 23801 23804 23807 23810 23813 23816 23819 23822 23825 23828 23831 23834 23837 23840 23843 23846 23849 23852 23855 23858 23861 23864 23867 23870 23873 23876 23879 23882 23885 23888 23891 23894 23897 23900 23903 23906 23909 23912 23915 23918 23921 23924 23927 23930 23933 23936 23939 23942 23945 23948 23951 23954 23957 23960 23963 23966 23969 23972 23975 23978 23981 23984 23987 23990 23993 23996 23999 24002 24005 24008 24011 24014 24017 24020 24023 24026 24029 24032 24035 24038 24041 24044 24047 24050 24053 24055 24058 24061 24064 24067 24070 24073 24076 24079 24082 24085 24088 24091 24094 24097 24100 24103 24106 24108 24111 24114 24117 24119 24122 24125 24128 24131 24134 24137 24140 24142 24145 24147 24150 24152 24155 24158 24160 24163 24166 24169 24172 24174 24177 24180 24182 24184 24187 24189 24192 24195 24197 24200 24203 24205 24208 24211 24213 24216 24219 24221 24224 24227 24229 24232 24235 24237 24240 24243 24245 24247 24250 24253 24255 24258 24261 24264 24267 24270 24273 24276 24279 24282 24285 24288 24291 24294 24297 24299 24302 24305 24307 24310 24313 24316 24319 24322 24325 24328 24331 24334 24337 24339 24342 24345 24348 24350 24353 24356 24359 24362 24365 24368 24371 24373 24376 24379 24382 24385 24388 24391 24394 24397 24400 24403 24405 24408 24411 24414 24417 24420 24423 24426 24429 24432 24435 24438 24441 24444 24447 24450 24453 24455 24458 24461 24464 24467 24469 24472 24474 24477 24480 24483 24485 24487 24490 24492 24495 24497 24499 24502 24505 24507 24509 24512 24515 24518 24521 24524 24527 24530 24533 24536 24539 24542 24545 24547 24550 24553 24556 24559 24562 24565 24568 24571 24574 24576 24579 24582 24585 24588 24591 24594 24597 24600 24603 24606 24609 24612 24615 24618 24621 24624 24627 24630 24633 24636 24639 24642 24645 24648 24651 24654 24657 24660 24663 24666 24669 24672 24675 24678 24681 24684 24687 24690 24693 24696 24699 24702 24705 24708 24711 24714 24717 24720 24723 24726 24729 24732 24735 24738 24741 24744 24747 24750 24753 24756 24759 24762 24765 24768 24771 24774 24777 24780 24783 24786 24789 24792 24795 24798 24801 24804 24807 24810 24813 24816 24819 24822 24825 24828 24831 24834 24837 24840 24843 24846 24849 24852 24855 24858 24861 24864 24867 24870 24873 24876 24879 24881 24884 24887 24890 24892 24894 24897 24900 24903 24906 24909 24912 24914 24917 24919 24922 24925 24928 24931 24934 24936 24939 24942 24945 24948 24951 24954 24957 24960 24963 24965 24968 24971 24974 24977 24980 24982 24985 24987 24990 24993 24995 24998 25000 25003 25006 25008 25010 25013 25016 25019 25022 25025 25027 25030 25033 25036 25039 25042 25045 25047 25050 25053 25056 25059 25062 25065 25068 25071 25074 25077 25079 25082 25085 25087 25090 25093 25096 25099 25102 25105 25108 25111 25113 25116 25118 25121 25124 25126 25129 25132 25135 25138 25140 25143 25146 25149 25151 25154 25157 25159 25162 25165 25167 25170 25173 25175 25178 25181 25184 25186 25189 25192 25195 25198 25200 25203 25206 25208 25211 25213 25216 25219 25222 25225 25228 25231 25234 25236 25239 25242 25245 25248 25251 25254 25256 25259 25262 25264 25267 25269 25272 25274 25277 25280 25283 25286 25289 25292 25295 25297 25299 25302 25305 25308 25311 25314 25317 25320 25323 25326 25329 25332 25335 25338 25341 25344 25347 25350 25353 25356 25359 25362 25365 25367 25370 25373 25376 25379 25382 25385 25388 25391 25394 25397 25400 25403 25405 25408 25411 25414 25417 25420 25423 25426 25429 25432 25435 25438 25441 25444 25447 25450 25453 25456 25459 25462 25465 25468 25471 25474 25477 25480 25483 25486 25489 25492 25495 25498 25500 25503 25506 25509 25512 25515 25517 25520 25523 25526 25529 25531 25534 25537 25540 25543 25546 25549 25551 25554 25557 25560 25563 25566 25569 25572 25575 25578 25581 25584 25587 25590 25592 25595 25597 25600 25603 25606 25609 25612 25615 25618 25621 25624 25627 25630 25633 25636 25639 25642 25645 25648 25651 25654 25657 25660 25662 25665 25668 25671 25674 25677 25680 25683 25686 25689 25692 25695 25698 25701 25704 25707 25710 25712 25715 25717 25720 25723 25726 25728 25730 25732 25735 25738 25741 25744 25746 25749 25751 25754 25757 25760 25763 25766 25769 25772 25775 25777 25780 25783 25785 25788 25791 25793 25796 25799 25802 25804 25807 25810 25813 25815 25817 25820 25823 25825 25828 25830 25832 25835 25838 25840 25843 25846 25848 25851 25854 25857 25860 25863 25865 25868 25871 25874 25877 25880 25883 25886 25889 25892 25895 25898 25901 25904 25907 25910 25913 25916 25919 25922 25925 25928 25931 25934 25937 25940 25943 25946 25949 25952 25955 25958 25961 25964 25967 25970 25973 25976 25979 25982 25985 25988 25991 25994 25996 25999 26002 26005 26008 26011 26014 26017 26020 26023 26026 26029 26032 26035 26038 26041 26044 26047 26050 26053 26056 26058 26061 26064 26066 26068 26071 26074 26077 26080 26083 26086 26089 26092 26095 26098 26101 26104 26107 26110 26113 26115 26118 26121 26124 26127 26130 26133 26136 26138 26141 26144 26147 26150 26153 26156 26159 26162 26165 26168 26171 26174 26177 26180 26183 26186 26189 26192 26195 26197 26200 26203 26206 26208 26211 26213 26216 26219 26222 26225 26228 26231 26234 26237 26240 26243 26246 26249 26252 26255 26258 26261 26264 26267 26270 26273 26276 26279 26282 26285 26288 26291 26294 26297 26300 26303 26306 26309 26312 26315 26318 26321 26324 26327 26330 26333 26336 26339 26342 26345 26348 26351 26354 26357 26360 26363 26366 26369 26372 26375 26378 26380 26383 26386 26389 26392 26395 26398 26401 26404 26407 26410 26413 26416 26419 26422 26425 26428 26431 26434 26437 26440 26442 26445 26448 26451 26453 26456 26459 26461 26464 26467 26470 26473 26476 26478 26481 26484 26487 26490 26493 26496 26499 26501 26504 26507 26510 26513 26516 26519 26521 26524 26527 26530 26532 26535 26538 26541 26544 26547 26550 26553 26556 26559 26562 26565 26567 26570 26573 26575 26578 26581 26584 26587 26590 26593 26596 26599 26602 26605 26608 26611 26614 26616 26619 26622 26625 26628 26630 26633 26636 26639 26642 26645 26648 26651 26654 26657 26660 26663 26666 26669 26672 26675 26678 26681 26684 26686 26689 26692 26695 26698 26701 26704 26707 26710 26713 26716 26719 26722 26725 26728 26731 26734 26737 26740 26742 26745 26748 26751 26754 26757 26760 26763 26766 26768 26771 26774 26777 26780 26783 26786 26789 26792 26795 26798 26801 26804 26807 26810 26813 26816 26819 26822 26824 26827 26830 26833 26836 26838 26841 26844 26847 26850 26853 26855 26858 26861 26864 26866 26869 26872 26875 26877 26880 26883 26886 26888 26890 26892 26895 26898 26900 26903 26906 26908 26911 26914 26916 26918 26921 26924 26926 26929 26932 26935 26938 26941 26944 26947 26950 26952 26955 26958 26960 26963 26966 26968 26970 26973 26975 26977 26980 26982 26985 26988 26991 26994 26997 27000 27003 27006 27009 27012 27015 27018 27021 27024 27027 27030 27033 27036 27039 27042 27044 27047 27050 27053 27056 27059 27062 27065 27068 27070 27073 27076 27079 27082 27085 27088 27091 27093 27096 27099 27102 27105 27108 27111 27113 27116 27119 27122 27125 27128 27131 27134 27137 27140 27143 27146 27149 27152 27155 27158 27161 27164 27166 27168 27171 27174 27177 27179 27181 27184 27187 27190 27193 27196 27199 27202 27204 27207 27210 27213 27216 27219 27222 27224 27227 27230 27233 27236 27239 27242 27244 27247 27250 27253 27256 27259 27262 27265 27268 27271 27274 27277 27280 27283 27286 27289 27292 27295 27297 27299 27301 27304 27307 27309 27312 27314 27317 27320 27322 27324 27327 27330 27333 27336 27339 27342 27344 27347 27350 27352 27355 27358 27360 27363 27366 27368 27371 27374 27376 27379 27382 27384 27387 27390 27393 27395 27398 27401 27404 27406 27409 27411 27414 27417 27420 27423 27426 27428 27431 27434 27437 27440 27443 27445 27447 27450 27453 27455 27458 27460 27463 27466 27469 27472 27475 27478 27481 27484 27487 27490 27493 27496 27499 27502 27505 27508 27511 27514 27517 27520 27523 27526 27529 27532 27535 27538 27540 27542 27545 27548 27551 27554 27557 27560 27563 27566 27569 27572 27575 27578 27581 27584 27587 27590 27593 27595 27598 27601 27604 27607 27610 27613 27616 27618 27621 27624 27627 27629 27632 27635 27638 27641 27644 27647 27650 27653 27656 27659 27661 27664 27666 27669 27672 27674 27677 27680 27683 27686 27689 27692 27695 27697 27700 27703 27706 27709 27712 27714 27717 27719 27722 27724 27727 27730 27733 27736 27739 27742 27744 27747 27750 27753 27756 27759 27762 27765 27768 27771 27774 27776 27779 27782 27785 27788 27790 27793 27796 27799 27802 27805 27808 27811 27814 27817 27820 27823 27826 27829 27832 27835 27838 27841 27844 27847 27850 27853 27856 27859 27862 27865 27868 27871 27874 27876 27879 27882 27885 27888 27891 27894 27896 27899 27902 27904 27907 27910 27913 27916 27919 27922 27925 27928 27931 27934 27937 27940 27943 27946 27949 27951 27954 27957 27960 27963 27966 27968 27971 27974 27977 27980 27983 27986 27989 27992 27995 27998 28001 28003 28006 28008 28011 28014 28016 28019 28022 28025 28028 28031 28033 28036 28038 28041 28044 28046 28049 28052 28055 28058 28061 28064 28067 28070 28072 28075 28078 28080 28082 28085 28088 28091 28094 28097 28100 28103 28106 28109 28112 28115 28118 28121 28124 28127 28130 28133 28136 28139 28142 28145 28148 28151 28154 28157 28160 28163 28166 28169 28171 28174 28176 28179 28182 28185 28188 28191 28194 28196 28199 28201 28203 28206 28209 28211 28214 28217 28220 28222 28225 28228 28231 28234 28237 28239 28242 28245 28248 28251 28254 28257 28260 28263 28266 28269 28271 28274 28277 28280 28283 28286 28289 28292 28295 28298 28301 28304 28306 28309 28312 28315 28318 28321 28324 28327 28330 28333 28336 28339 28342 28345 28348 28351 28354 28357 28360 28363 28366 28369 28372 28374 28376 28379 28382 28385 28388 28391 28394 28397 28400 28403 28406 28409 28412 28415 28418 28420 28422 28425 28428 28431 28434 28437 28440 28443 28446 28449 28452 28455 28458 28461 28464 28467 28470 28473 28476 28479 28482 28485 28488 28491 28494 28497 28500 28503 28506 28509 28512 28515 28518 28520 28523 28526 28529 28532 28535 28538 28541 28543 28546 28549 28552 28555 28558 28561 28564 28567 28570 28573 28576 28579 28582 28585 28588 28591 28594 28596 28599 28602 28605 28608 28611 28614 28617 28620 28623 28626 28629 28631 28634 28637 28640 28643 28646 28649 28652 28655 28657 28660 28663 28666 28669 28672 28674 28677 28680 28683 28686 28689 28692 28695 28698 28701 28704 28707 28710 28713 28716 28719 28722 28725 28727 28730 28733 28736 28739 28742 28745 28747 28750 28753 28755 28758 28761 28764 28767 28770 28773 28776 28778 28781 28784 28787 28790 28793 28796 28799 28802 28805 28808 28811 28814 28817 28820 28823 28826 28829 28832 28834 28837 28839 28842 28845 28848 28851 28854 28857 28860 28863 28865 28868 28871 28874 28877 28880 28883 28886 28889 28892 28894 28897 28900 28903 28906 28909 28912 28915 28918 28921 28924 28927 28930 28933 28935 28938 28941 28944 28946 28949 28952 28955 28958 28961 28964 28967 28970 28973 28975 28978 28981 28984 28987 28990 28992 28995 28998 29001 29004 29007 29010 29013 29016 29019 29022 29025 29028 29031 29034 29037 29040 29043 29046 29049 29052 29055 29058 29061 29064 29067 29070 29073 29076 29079 29082 29085 29088 29091 29094 29097 29100 29103 29106 29109 29112 29115 29118 29121 29124 29127 29130 29133 29136 29139 29142 29145 29148 29151 29154 29157 29160 29163 29166 29169 29172 29175 29178 29181 29184 29187 29190 29193 29196 29199 29202 29205 29208 29211 29214 29217 29220 29223 29226 29229 29232 29235 29238 29241 29244 29247 29250 29253 29256 29259 29262 29265 29268 29271 29274 29277 29280 29283 29286 29289 29292 29295 29298 29301 29304 29307 29309 29312 29315 29318 29321 29324 29327 29330 29333 29336 29339 29342 29345 29347 29350 29353 29356 29359 29362 29365 29368 29371 29374 29377 29380 29383 29386 29389 29392 29395 29398 29401 29404 29407 29410 29413 29416 29419 29422 29425 29428 29431 29434 29437 29440 29443 29446 29449 29452 29455 29457 29460 29463 29466 29469 29472 29474 29477 29480 29483 29486 29489 29492 29495 29498 29501 29503 29506 29509 29511 29514 29516 29519 29522 29524 29527 29530 29533 29536 29539 29542 29545 29547 29550 29553 29556 29559 29562 29565 29568 29571 29574 29576 29579 29582 29585 29588 29591 29594 29597 29600 29603 29606 29609 29611 29614 29617 29620 29623 29626 29629 29631 29633 29636 29638 29641 29644 29647 29650 29653 29656 29659 29662 29665 29668 29670 29672 29674 29677 29680 29683 29686 29688 29690 29693 29696 29699 29701 29704 29707 29710 29712 29715 29718 29720 29723 29726 29729 29732 29734 29737 29740 29743 29746 29749 29752 29755 29757 29760 29763 29766 29768 29770 29773 29776 29779 29782 29785 29787 29790 29793 29796 29798 29801 29804 29807 29810 29813 29816 29819 29822 29825 29828 29831 29834 29836 29838 29840 29843 29846 29849 29852 29854 29857 29860 29863 29866 29868 29871 29873 29876 29879 29881 29884 29887 29890 29892 29894 29896 29899 29901 29904 29907 29909 29911 29914 29917 29920 29923 29926 29929 29931 29934 29937 29940 29943 29946 29949 29951 29953 29955 29958 29961 29964 29967 29970 29973 29976 29979 29982 29985 29988 29991 29994 29997 30000 30003 30006 30009 30012 30015 30018 30021 30024 30026 30029 30032 30035 30038 30041 30044 30047 30050 30053 30055 30058 30060 30063 30066 30069 30072 30075 30078 30081 30084 30086 30089 30092 30095 30098 30101 30104 30106 30109 30111 30114 30116 30119 30122 30125 30127 30130 30133 30136 30139 30141 30144 30147 30150 30153 30156 
</DataArray>
<DataArray type="UInt32" Name="types" format="ascii">
5 5 5 5 5 5 5 3 5 5 3 3 3 5 5 5 5 5 5 5 3 5 5 5 5 5 5 3 5 3 5 5 5 5 5 5 5 5 5 5 5 5 5 3 5 5 3 5 5 5 5 5 5 5 5 5 5 5 5 5 5 5 5 3 5 5 3 5 5 5 3 5 5 5 5 5 5 3 3 5 5 5 5 5 5 5 5 5 5 5 5 5 5 5 5 5 3 3 5 5 5 3 5 5 5 5 5 3 3 3 3 5 5 3 5 3 5 5 5 5 3 3 5 5 5 5 5 5 5 5 5 5 5 5 5 5 5 5 5 5 3 5 5 5 5 5 5 3 5 5 3 5 5 5 5 5 5 5 5 5 5 5 5 5 5 5 5 5 5 5 5 5 5 5 5 5 5 3 5 5 5 5 5 5 3 5 3 5 5 5 3 5 5 5 5 5 5 5 5 3 3 5 5 5 5 5 5 5 5 5 5 5 5 3 5 5 5 5 5 5 5 5 5 5 3 5 3 5 5 5 5 5 5 5 5 5 5 5 5 5 5 5 5 5 5 5 5 5 5 5 5 5 5 5 5 5 5 5 5 5 5 5 5 3 5 5 5 5 5 5 5 5 3 5 3 3 5 3 5 5 5 3 5 3 5 5 5 5 5 5 5 5 3 5 5 5 5 5 5 5 5 5 5 5 5 5 5 3 5 3 5 3 5 3 5 5 5 5 3 5 5 5 5 5 3 5 5 3 5 5 3 5 5 5 3 5 3 5 3 5 5 5 3 5 3 5 5 5 5 5 5 5 5 5 3 5 5 5 5 5 5 3 5 5 3 5 5 3 5 5 5 3 3 5 3 5 3 5 5 5 3 5 3 5 5 5 5 3 5 5 5 5 3 5 5 3 5 5 5 5 5 3 5 5 5 3 5 5 5 5 5 3 3 5 3 5 5 5 5 5 3 5 3 5 5 5 5 5 5 5 5 5 5 5 5 5 5 5 5 5 3 5 5 5 5 5 5 3 5 5 5 5 5 5 5 5 5 5 5 5 5 5 5 5 5 5 5 5 5 5 5 5 5 5 5 3 5 3 5 5 3 5 5 5 3 3 5 5 5 5 5 5 5 5 5 5 5 5 5 5 5 5 5 5 5 5 5 5 5 5 5 5 3 5 3 5 5 5 5 3 5 5 5 5 5 5 5 5 5 5 5 5 5 5 5 5 5 5 5 5 5 5 5 5 5 5 5 5 5 3 5 5 5 5 5 3 5 5 5 5 5 5 5 5 5 5 5 5 5 5 5 5 5 5 5 5 5 5 5 5 5 5 5 5 5 5 5 5 5 5 5 5 5 5 5 5 5 5 3 5 3 5 5 3 5 5 5 5 5 5 5 5 5 5 5 5 3 5 5 5 5 5 5 5 5 5 5 3 5 5 3 5 5 5 5 5 3 5 5 5 5 5 5 5 5 3 5 5 3 5 5 5 5 5 3 5 5 5 3 5 5 5 5 5 5 5 5 5 5 5 5 5 5 5 5 5 5 5 5 5 5 5 5 5 5 5 5 5 5 5 5 5 5 5 5 5 3 5 5 5 5 5 5 5 5 5 5 5 5 3 5 5 5 5 3 5 3 3 5 5 5 5 3 3 5 5 5 5 5 5 5 3 5 5 5 5 5 5 5 5 5 5 5 5 5 5 5 5 5 5 5 5 5 5 5 5 5 5 5 5 5 5 5 5 5 5 5 5 5 5 5 3 5 5 5 5 5 5 5 5 5 5 5 5 5 5 3 5 5 5 5 5 5 5 5 5 5 5 5 5 5 5 5 5 5 3 5 5 3 5 3 5 3 5 5 5 5 5 5 5 5 3 5 3 5 5 5 5 5 5 5 5 5 5 5 5 5 5 5 5 5 5 5 5 5 5 5 3 5 5 5 5 3 5 5 5 5 5 5 5 3 5 5 5 3 5 5 3 5 3 3 5 5 5 5 5 5 3 3 5 5 5 3 3 3 3 3 3 5 5 5 5 5 5 3 3 5 5 5 3 3 5 3 3 3 5 5 5 3 5 5 5 5 5 5 3 5 5 5 5 3 5 5 3 5 3 3 3 5 5 5 5 5 3 5 5 5 3 5 5 3 3 5 3 3 5 3 5 5 3 3 3 5 5 5 3 3 5 5 5 5 5 3 5 3 5 5 5 3 5 3 5 3 5 5 5 3 3 5 5 3 5 5 5 5 3 3 3 5 5 3 5 5 5 5 5 5 3 5 3 5 3 5 5 3 5 5 3 5 3 5 5 5 3 5 5 3 5 5 5 5 5 5 5 5 5 5 5 3 5 5 3 5 3 5 5 3 5 5 5 5 5 3 5 3 5 5 5 5 5 5 5 5 5 5 5 5 3 5 5 5 5 5 5 5 5 5 5 5 5 5 5 5 5 5 5 3 5 5 5 5 5 5 5 3 5 5 5 3 5 3 5 5 5 5 3 3 5 5 5 5 3 5 5 5 3 5 3 5 5 3 5 3 5 3 5 5 3 5 5 5 5 5 5 3 5 5 3 5 5 5 5 5 5 5 5 3 5 5 5 5 5 5 3 5 5 5 5 5 5 3 5 5 5 5 5 5 5 5 5 3 5 5 5 5 3 5 5 5 5 5 5 5 3 5 5 3 5 5 5 3 3 5 5 5 5 5 5 5 5 5 5 5 5 3 5 5 5 3 5 5 5 5 5 5 5 5 5 5 5 3 5 5 5 5 5 5 5 5 5 5 5 5 3 3 5 5 5 5 5 5 3 5 5 5 5 5 5 5 5 5 3 5 5 5 5 5 5 5 5 5 5 5 5 5 3 5 5 5 5 5 5 5 5 5 5 5 3 5 5 5 5 5 3 5 5 5 5 5 5 3 5 5 5 5 5 5 5 5 5 5 5 5 5 5 5 3 5 5 5 5 5 5 5 5 5 5 5 5 3 5 5 5 5 5 5 5 5 3 3 5 3 5 5 3 5 5 5 5 3 5 5 5 5 5 3 5 5 3 5 5 3 5 5 5 5 5 5 5 5 5 5 3 5 3 5 5 3 5 5 5 5 5 5 5 3 5 5 3 3 3 5 5 3 5 3 5 5 3 5 5 3 5 3 3 5 5 5 5 3 5 5 5 5 5 5 3 5 5 3 3 5 5 5 3 5 5 5 5 5 5 5 5 5 5 5 3 5 5 5 5 3 5 5 5 5 3 5 5 5 3 5 5 5 3 3 5 5 5 5 5 3 5 5 5 5 3 5 5 5 5 5 5 5 5 5 5 5 5 5 5 5 5 5 5 5 5 3 5 5 5 5 5 5 3 5 5 5 5 5 5 5 5 3 5 5 5 5 5 5 3 3 5 5 5 5 5 5 5 5 5 5 5 5 5 5 5 5 5 5 5 5 5 5 3 5 5 5 3 5 3 5 5 5 3 3 5 5 5 5 3 5 5 3 5 5 5 5 5 5 5 5 3 5 5 5 5 5 5 5 5 5 5 5 5 5 5 5 3 5 5 5 3 5 5 5 5 5 5 5 5 5 5 5 3 5 5 5 5 5 3 5 5 3 5 5 5 5 5 5 5 5 5 5 5 5 5 5 5 5 5 5 5 5 5 5 5 5 3 5 5 3 5 5 5 5 5 5 5 5 5 5 5 3 3 5 5 3 5 5 5 3 5 5 5 5 5 5 5 5 5 5 5 5 5 3 5 3 5 5 5 5 5 5 5 5 5 5 5 3 5 5 5 5 5 5 5 5 3 3 5 5 5 5 5 3 5 5 5 5 3 5 3 5 5 5 5 5 5 5 5 5 5 5 5 3 5 5 5 3 5 5 5 3 5 5 5 3 5 5 5 5 5 5 5 5 5 5 5 5 5 5 5 5 5 5 5 5 5 3 5 5 3 5 5 5 5 5 5 5 5 5 5 5 3 5 5 5 5 5 5 5 5 5 5 5 5 5 5 5 5 5 5 5 3 5 5 5 3 5 5 5 5 5 5 5 5 5 5 5 5 5 5 5 5 5 5 5 5 5 5 5 3 5 5 5 5 3 5 5 5 3 5 5 5 5 3 5 5 5 5 5 5 5 5 5 5 5 3 5 3 5 5 5 5 5 5 5 3 5 5 5 5 5 5 5 5 5 5 5 5 5 5 5 5 5 5 5 3 5 5 5 5 5 5 5 5 5 3 5 5 5 3 5 5 5 5 5 5 5 5 5 5 5 5 3 5 5 5 5 5 5 5 5 3 5 5 3 5 5 5 5 5 5 5 5 5 5 5 5 5 5 5 5 5 5 5 5 5 3 5 5 3 5 5 5 5 5 5 5 5 5 5 5 5 5 5 5 5 3 5 5 5 5 5 5 5 5 5 3 5 5 5 5 3 5 5 5 5 5 5 5 5 5 5 5 5 5 5 5 5 3 3 5 5 5 5 5 3 5 5 5 5 5 5 5 5 5 5 5 3 5 5 3 5 3 5 5 5 5 5 5 3 5 3 5 5 5 3 5 3 5 5 5 5 5 5 5 5 5 5 5 5 5 5 5 5 5 5 5 5 5 5 5 5 5 5 5 5 5 5 5 5 5 5 5 5 5 5 5 5 5 5 5 5 5 5 5 5 5 5 5 5 5 3 5 3 5 5 5 3 3 3 3 5 5 5 3 5 5 5 5 5 3 5 5 5 5 5 3 5 5 5 5 5 5 5 5 5 5 5 5 5 5 3 5 5 3 5 5 5 5 5 5 3 5 3 3 5 5 5 5 5 5 5 3 5 5 5 5 5 5 5 5 3 5 5 5 5 5 5 5 5 5 5 5 5 3 5 5 5 5 5 5 5 5 5 5 5 5 5 5 5 5 5 5 3 5 5 5 5 3 3 5 5 5 5 5 3 5 5 3 5 5 5 3 5 5 5 5 5 3 3 5 5 5 5 5 3 3 5 5 5 5 5 5 5 5 5 5 5 5 5 5 5 5 5 5 5 5 5 5 5 5 5 5 5 5 5 5 5 5 5 5 5 5 5 5 5 5 5 5 5 5 5 5 5 5 5 5 5 5 5 5 5 5 5 5 5 5 5 5 5 5 5 5 5 5 3 5 5 5 3 3 5 5 5 3 5 5 5 5 5 3 5 5 5 5 5 5 5 3 5 5 5 3 5 5 5 5 5 5 5 5 5 5 3 3 5 5 3 5 5 5 5 3 5 5 5 5 5 5 3 5 5 5 5 5 5 5 5 5 3 5 3 5 5 5 3 5 5 5 5 3 5 5 5 5 5 5 5 5 5 5 5 5 5 5 5 5 3 5 5 3 5 5 3 5 5 5 5 5 5 5 5 5 5 3 5 5 3 5 3 5 5 3 5 5 3 5 3 5 3 5 5 3 5 5 5 3 5 3 5 5 5 5 5 5 5 3 5 5 5 3 5 5 3 5 3 3 5 5 5 5 5 5 3 5 5 5 5 5 5 5 5 5 5 5 5 5 5 5 5 5 5 5 5 5 5 5 5 5 3 5 3 5 5 5 5 5 5 5 5 3 5 3 5 5 5 3 5 3 5 5 5 3 5 5 5 5 5 5 3 5 3 5 5 3 5 5 3 5 5 5 5 5 3 5 5 3 5 3 5 5 5 3 5 5 5 3 5 3 5 3 3 5 5 5 5 5 5 3 5 5 5 5 5 5 5 3 5 5 5 5 5 5 3 3 5 3 5 5 5 5 3 5 5 5 5 5 5 5 5 3 5 5 3 5 5 5 5 5 5 5 3 5 5 5 5 5 5 5 5 3 5 5 5 5 3 5 5 5 5 5 5 5 3 5 5 5 3 5 5 5 5 5 5 5 5 5 5 5 5 5 5 5 5 5 5 5 5 5 5 5 5 5 5 5 5 5 5 5 5 5 5 5 5 5 5 5 5 5 5 5 5 3 5 5 5 5 5 3 5 5 5 5 5 3 5 3 5 5 5 5 3 3 5 3 3 5 5 3 3 5 5 3 5 5 3 5 5 5 5 5 5 3 5 5 5 5 5 5 5 3 5 5 3 5 5 5 5 5 5 5 5 5 5 5 5 5 5 5 5 5 5 5 5 3 5 5 5 5 5 5 5 5 5 5 5 5 3 5 5 5 3 5 3 5 5 5 5 5 5 3 5 5 5 3 5 5 5 5 5 3 5 5 5 3 5 5 5 5 5 5 5 5 5 5 5 5 5 5 5 5 3 5 5 5 3 5 5 5 3 5 5 5 5 5 5 5 5 5 5 5 5 3 5 5 5 3 5 5 3 5 5 5 3 5 5 3 5 5 5 5 5 5 5 5 5 5 5 5 5 5 5 5 5 5 5 3 5 5 5 5 5 5 5 5 5 5 5 5 5 3 5 5 5 5 5 5 5 5 5 5 5 5 5 5 5 3 5 5 5 5 3 5 5 5 5 5 5 5 5 3 5 5 5 5 5 5 5 3 5 5 5 5 5 5 5 5 5 5 5 5 5 5 5 5 5 5 5 5 5 5 5 5 5 3 5 5 5 5 5 5 5 5 5 5 5 5 5 5 5 5 5 5 5 5 5 5 5 5 5 5 5 3 5 5 5 5 5 3 5 5 5 5 5 5 5 5 5 5 5 5 5 5 3 5 5 5 5 5 5 5 5 5 5 5 5 5 5 5 5 3 5 3 5 5 5 5 5 3 5 3 5 5 5 5 5 5 5 5 3 5 5 5 3 5 5 3 5 5 5 3 5 5 5 5 5 5 3 5 5 5 5 5 5 5 3 5 5 5 5 5 3 5 5 5 3 5 3 3 5 5 5 3 5 5 5 5 5 5 5 5 5 5 5 5 5 3 5 5 3 3 5 3 5 5 5 5 3 5 5 5 5 5 5 5 5 5 3 5 5 5 5 5 5 5 5 5 5 5 5 5 5 5 5 5 5 5 5 5 5 5 5 5 5 5 5 5 5 5 5 5 5 5 5 5 5 3 3 5 5 5 5 5 5 5 5 5 5 5 5 5 5 5 3 5 5 3 5 5 5 3 5 5 5 5 5 5 5 5 5 5 5 5 5 5 5 5 5 5 3 5 5 5 5 5 5 3 3 5 5 5 5 5 5 5 5 5 5 5 5 5 5 5 3 5 5 5 5 3 5 5 5 5 5 5 5 3 5 5 5 5 5 5 5 5 5 5 5 5 5 5 5 5 5 5 3 5 5 3 5 5 5 5 5 5 5 5 5 5 5 3 5 5 5 5 5 5 5 5 5 5 5 5 5 5 5 5 5 5 5 5 5 5 5 5 5 5 5 5 5 5 3 5 5 5 5 5 5 5 5 5 3 5 5 5 5 5 5 5 5 5 5 5 5 5 5 5 5 5 5 5 5 5 3 5 5 5 5 5 5 5 5 5 5 5 5 5 5 5 5 5 5 5 5 5 5 5 5 5 5 5 5 5 5 5 5 5 5 5 5 3 3 5 5 5 5 5 5 5 5 5 5 5 5 5 5 5 5 3 5 5 5 5 3 5 5 5 5 3 5 5 5 5 3 3 5 5 5 3 5 3 3 5 5 5 5 5 5 3 5 5 5 3 3 5 5 5 3 5 5 3 5 5 3 5 5 3 5 5 5 5 3 5 5 5 3 5 5 5 5 3 5 5 3 5 5 3 3 5 3 5 5 5 5 5 5 5 5 5 3 3 5 5 5 5 5 5 5 5 5 5 5 5 5 3 5 5 3 3 5 5 5 5 5 5 5 5 3 3 5 5 5 5 5 5 5 5 5 3 5 5 5 5 5 5 5 5 5 5 3 5 5 5 3 5 5 5 5 5 5 3 5 5 5 5 5 5 5 5 3 5 5 5 5 5 3 5 5 5 5 5 5 3 5 5 5 5 5 5 3 3 5 5 3 5 3 5 3 5 5 5 5 3 3 5 5 3 5 5 5 5 5 5 5 5 3 3 5 5 5 5 5 5 5 5 5 5 5 5 5 5 5 5 3 5 3 3 5 3 5 3 5 5 5 3 5 5 5 3 5 3 5 5 5 5 5 5 3 5 5 5 5 5 5 5 5 5 5 5 5 5 5 5 5 5 3 5 5 5 5 5 5 5 5 5 5 5 5 5 3 5 5 5 5 5 5 5 5 5 3 5 5 5 3 5 3 3 5 5 5 3 5 5 3 5 5 5 3 5 5 5 3 5 5 3 5 5 3 5 5 5 5 5 5 5 5 5 5 5 5 5 5 5 5 5 5 3 5 5 5 5 5 5 5 5 5 5 5 3 5 5 5 5 5 5 3 3 5 5 5 5 5 5 5 5 5 5 5 5 5 5 5 5 5 5 5 5 5 5 5 5 5 5 5 5 5 5 5 5 5 5 5 5 5 5 5 5 5 5 5 5 5 5 3 5 5 5 5 5 5 5 5 5 5 5 5 5 5 5 5 5 5 5 5 5 5 5 5 5 5 5 5 5 5 5 5 5 5 5 5 5 5 5 5 5 5 5 5 5 5 5 5 5 5 5 5 5 5 5 5 5 5 5 5 5 5 5 5 5 5 5 5 5 3 3 5 5 5 5 3 5 3 5 5 5 5 5 5 5 5 5 5 5 5 5 5 5 3 5 5 5 5 5 5 5 5 5 5 5 5 5 5 5 5 5 5 5 5 5 5 5 5 5 5 5 5 5 5 5 5 5 5 5 5 5 5 5 5 5 5 5 5 5 5 5 5 5 5 5 5 5 5 5 5 5 5 5 5 5 5 5 5 5 5 5 5 5 5 5 5 5 5 5 5 5 5 5 5 5 5 5 5 5 5 5 5 5 5 5 3 3 5 5 5 5 5 5 5 5 3 5 5 3 5 5 5 5 3 5 5 5 5 5 5 3 5 5 5 3 5 5 5 5 5 5 5 5 5 5 5 5 5 5 5 5 3 5 5 5 5 5 5 3 5 5 5 5 5 5 5 5 5 5 5 5 5 3 5 5 5 3 5 5 3 5 3 3 5 5 5 3 5 5 5 5 5 3 5 5 5 3 5 5 5 5 5 5 5 5 5 5 5 3 5 5 5 5 5 3 5 5 5 5 5 3 5 5 5 5 5 5 5 3 3 5 3 5 3 3 5 5 5 5 5 5 5 5 5 5 5 5 5 5 5 5 5 5 5 5 5 5 5 5 5 5 5 5 5 5 5 5 5 5 5 5 5 5 5 5 5 5 5 5 5 5 5 5 5 5 5 5 5 5 5 3 5 3 5 5 5 5 5 5 5 5 5 3 5 5 5 3 5 5 3 5 5 5 5 5 3 5 5 5 5 3 3 5 5 5 5 5 5 5 5 5 5 5 5 5 5 3 3 5 5 5 5 5 5 3 5 3 5 5 5 5 5 3 5 5 5 5 3 5 5 3 5 5 5 5 5 3 5 5 3 5 5 5 5 5 5 3 5 5 5 3 5 5 5 3 5 5 5 5 5 5 5 3 5 5 5 5 3 5 5 5 3 5 5 5 5 3 3 5 5 5 5 5 3 5 5 5 5 5 5 5 5 5 5 5 5 3 5 3 5 5 3 5 5 5 5 5 5 5 5 5 5 5 5 5 5 5 5 5 5 5 5 5 5 5 5 5 5 5 5 5 5 5 5 5 5 5 5 5 5 5 5 3 5 5 5 3 5 5 3 5 5 5 5 5 5 5 3 5 5 5 5 5 3 5 5 5 5 5 5 5 5 5 5 3 5 3 5 5 5 5 5 5 5 5 5 5 5 3 5 3 5 3 5 3 5 5 5 3 5 5 5 5 5 5 5 5 5 5 5 5 5 5 5 5 5 5 5 5 3 5 3 3 5 5 3 5 5 3 5 3 5 3 3 5 5 5 5 5 5 3 5 3 5 3 5 5 5 5 5 5 5 5 3 3 5 5 5 5 5 5 5 3 5 5 5 5 5 5 5 5 5 5 5 5 5 3 5 5 5 5 5 5 5 5 5 5 5 5 5 5 5 5 5 5 3 3 5 5 5 5 5 3 5 5 5 5 5 3 5 5 5 5 3 5 5 5 5 3 3 5 3 5 5 3 3 5 3 5 5 5 3 5 5 5 3 3 5 3 5 3 5 3 5 5 5 5 3 5 3 3 3 3 5 5 5 5 3 5 5 5 5 5 5 5 3 5 5 5 5 5 5 5 5 3 5 5 5 5 5 5 5 5 5 3 3 5 3 5 5 3 5 5 5 5 5 5 5 3 5 5 5 5 5 5 5 5 5 5 5 5 5 5 5 5 3 5 5 5 5 5 5 5 5 5 5 5 5 5 5 5 5 5 5 5 5 5 5 5 5 5 5 3 5 3 5 3 5 5 5 5 5 5 3 5 5 5 3 5 3 5 5 5 5 5 5 3 3 5 5 5 5 5 5 5 3 5 5 3 5 5 3 5 5 3 5 5 3 5 5 3 5 5 5 5 5 5 5 5 5 5 5 3 5 5 5 5 5 5 5 5 5 5 5 5 5 5 3 5 3 5 5 5 5 5 5 3 5 5 5 5 5 5 5 3 5 5 5 5 5 3 5 5 5 3 5 5 5 5 5 5 3 5 5 5 5 5 5 5 3 5 5 3 5 5 3 5 5 5 5 5 5 5 3 3 5 3 5 5 5 5 5 5 5 5 5 5 5 5 5 5 5 5 5 5 5 5 3 5 5 5 5 5 5 5 5 5 5 5 3 5 5 5 5 5 3 3 5 5 3 3 5 5 5 5 5 5 3 5 3 5 3 5 5 5 5 5 5 5 5 5 5 5 5 5 3 5 5 3 5 5 5 3 5 5 5 5 5 5 5 5 5 5 5 5 5 5 5 5 5 5 5 5 5 5 5 5 5 3 5 5 5 3 5 5 5 5 3 5 5 3 5 5 3 5 5 5 5 5 5 5 5 3 5 5 3 5 5 5 5 3 5 5 5 5 5 3 5 5 5 5 5 5 5 5 5 3 5 5 5 3 5 5 3 5 5 5 5 5 5 5 5 5 5 5 5 5 5 5 5 5 5 5 5 5 5 5 5 5 5 5 5 5 5 5 5 5 5 5 5 5 5 5 5 5 5 5 5 5 5 5 5 5 5 5 5 5 3 5 5 3 3 5 5 5 5 5 5 5 3 5 5 5 5 5 5 5 5 5 5 5 5 5 3 5 3 5 5 5 5 5 5 3 5 5 5 5 3 5 5 5 3 5 5 5 5 5 5 5 5 5 5 5 5 5 5 5 5 5 5 5 5 5 5 5 5 5 5 3 5 5 5 3 5 5 5 3 5 5 5 5 3 5 3 5 5 5 5 5 5 5 5 5 5 5 5 5 5 5 5 5 3 5 5 3 5 5 5 5 5 3 5 5 3 5 5 5 5 5 5 5 5 5 5 5 5 5 5 5 5 5 5 5 5 5 5 5 3 5 5 5 3 5 5 3 5 5 5 5 5 5 5 5 5 5 5 5 5 5 5 5 5 3 5 3 5 5 5 5 3 5 5 5 5 5 5 5 5 5 3 5 5 5 5 3 5 3 5 5 5 5 5 5 5 5 5 5 5 3 5 5 5 5 5 5 5 5 5 5 5 5 5 5 5 5 5 5 5 5 5 5 5 5 5 5 5 5 5 5 5 5 5 5 5 5 5 5 3 5 5 5 3 5 5 5 5 5 5 5 5 3 5 5 3 5 5 5 5 5 5 5 5 5 5 5 5 3 5 3 5 5 5 3 5 3 5 5 5 5 5 5 5 5 5 5 5 5 5 5 5 5 5 5 5 5 5 5 5 3 5 5 5 5 3 5 5 3 5 5 3 5 5 5 5 5 5 5 3 5 5 5 5 5 5 5 3 5 5 5 5 5 5 3 5 5 5 3 5 5 5 5 5 5 3 5 5 5 5 3 3 5 5 5 5 5 5 5 5 5 5 5 5 5 5 3 5 5 5 5 5 5 5 5 5 5 5 5 5 5 5 5 5 5 5 5 3 5 5 5 5 5 5 5 5 5 5 3 5 5 3 3 3 5 5 5 5 3 5 5 5 5 3 5 5 5 5 5 5 5 5 5 5 5 5 5 5 5 5 5 3 5 5 5 5 5 5 3 5 5 5 5 5 3 5 5 5 5 5 5 5 5 5 5 5 5 5 5 5 5 5 5 5 5 5 5 5 5 5 5 5 5 5 5 5 5 5 5 5 5 5 5 3 5 5 5 3 5 5 3 5 5 5 5 3 5 5 3 5 5 5 5 5 5 5 5 5 5 5 5 5 5 3 5 5 5 3 5 5 5 5 5 5 5 5 5 5 3 5 5 5 3 5 5 5 5 5 5 5 5 5 5 5 5 5 5 3 5 5 3 5 5 5 5 5 5 5 3 5 5 5 5 5 5 5 5 5 5 5 5 3 5 5 3 3 5 5 5 5 5 5 5 5 5 5 5 5 5 5 3 5 5 5 5 5 5 5 5 5 5 5 5 5 5 5 5 5 5 3 5 3 5 5 5 5 5 5 5 5 5 5 3 5 5 3 5 5 3 5 3 5 3 3 5 5 5 5 5 5 5 5 5 5 5 5 5 5 5 5 3 5 5 5 5 5 5 5 5 5 5 5 5 5 5 5 5 5 5 5 5 5 5 5 5 5 5 5 5 5 3 5 5 5 5 5 5 5 5 5 3 5 5 5 5 5 5 3 5 5 5 5 5 3 5 3 5 5 5 3 5 3 5 5 5 5 5 5 5 5 5 5 5 5 3 5 5 5 5 5 5 5 5 5 5 5 5 5 5 5 5 5 5 3 5 5 3 5 5 5 5 5 5 5 5 5 3 5 5 3 5 5 3 5 5 3 5 3 5 5 5 5 5 5 5 3 5 5 5 5 5 5 5 5 3 3 5 5 3 5 5 5 3 5 3 5 5 5 5 5 5 3 5 5 5 5 5 5 3 5 3 5 5 3 5 5 5 5 3 5 5 5 5 5 5 5 3 5 5 5 5 5 5 5 3 3 3 5 5 5 5 3 5 5 3 3 5 5 5 3 5 5 3 5 5 5 5 5 5 5 5 5 5 5 5 5 3 5 3 5 5 3 5 5 5 5 3 5 5 5 5 5 5 5 5 5 5 5 5 5 5 5 5 5 5 5 5 5 3 5 5 5 5 3 5 5 5 5 5 5 5 3 5 5 5 5 5 3 5 5 3 5 3 5 5 5 3 3 3 3 5 5 5 5 5 5 5 5 5 5 5 5 5 5 5 5 5 5 5 5 5 3 5 5 5 3 5 5 5 5 5 5 5 5 5 3 5 5 5 5 3 5 5 3 5 5 5 5 5 5 5 5 5 3 5 5 5 5 5 5 5 5 3 5 5 5 5 5 5 5 5 5 5 5 5 5 5 5 3 5 5 5 5 5 5 5 5 5 3 5 5 5 5 5 5 5 5 5 5 5 5 5 5 5 5 5 5 5 5 5 5 5 5 5 5 5 5 5 5 3 5 5 5 5 3 5 5 5 5 5 5 5 5 5 3 5 5 5 5 5 5 5 5 5 5 5 5 5 5 5 5 5 5 5 5 5 5 5 5 5 3 5 5 5 5 5 3 5 3 3 5 5 3 5 5 5 5 5 5 5 3 5 5 5 5 5 5 5 5 5 5 5 5 5 5 3 5 3 5 5 3 3 5 5 5 5 5 5 3 5 5 3 5 5 5 5 3 5 3 3 5 5 5 5 5 5 5 5 5 3 5 5 5 5 5 5 5 3 5 5 5 5 5 5 5 5 5 5 5 5 5 5 5 3 5 3 5 3 5 5 5 3 5 5 5 5 3 5 5 5 5 3 5 3 5 5 5 5 5 5 5 3 3 3 5 5 5 5 5 5 3 5 5 5 3 5 5 5 5 5 5 5 5 5 5 3 5 5 5 5 5 5 5 3 3 5 3 5 5 5 5 3 3 5 5 5 5 5 5 5 5 5 3 5 5 3 5 5 5 5 5 5 5 5 5 5 5 5 5 5 5 5 5 5 5 5 5 5 5 5 5 5 5 5 5 3 5 5 3 5 5 5 5 5 5 5 5 5 5 5 5 5 5 3 5 5 5 5 5 5 5 5 5 5 5 5 5 5 5 5 5 5 5 5 3 5 5 5 5 3 5 5 3 5 5 5 5 5 5 5 5 5 5 3 5 3 5 5 5 5 5 5 5 5 5 5 5 5 5 5 5 5 3 5 3 3 5 5 5 5 3 5 5 5 3 5 5 5 5 5 5 5 5 5 5 3 3 5 5 5 3 5 5 5 5 3 5 5 5 5 5 5 5 5 3 5 5 5 5 3 5 5 5 3 5 5 5 5 5 5 5 5 5 5 5 5 5 5 5 5 5 5 5 5 5 5 5 5 5 5 5 5 3 5 5 5 5 5 5 5 3 5 5 3 5 3 5 5 5 5 5 5 5 3 5 5 5 5 5 5 5 5 5 5 5 3 5 5 5 5 5 5 5 3 5 3 5 5 5 5 5 5 5 5 5 5 3 5 5 5 5 5 5 5 5 5 5 5 5 5 5 5 3 5 5 5 5 5 5 3 5 5 5 5 5 3 5 5 5 5 5 3 5 5 5 5 5 5 5 5 5 5 3 5 5 5 5 3 5 5 5 5 5 5 5 5 5 5 5 5 3 5 3 5 5 5 5 5 3 5 5 5 3 5 5 3 5 5 3 5 5 5 5 5 5 5 5 3 5 3 5 5 5 5 5 3 5 5 5 5 3 5 5 5 5 5 5 5 5 5 3 5 5 5 3 5 3 3 3 5 5 5 5 5 5 5 5 5 5 5 5 5 5 5 5 5 5 5 5 5 5 5 5 5 5 5 5 5 5 5 5 5 5 5 3 5 5 3 5 5 5 5 5 5 5 5 5 5 5 5 3 5 5 5 5 5 5 3 3 5 5 5 5 3 5 5 3 5 5 3 5 5 5 5 5 5 5 5 5 5 5 5 5 5 5 3 5 5 5 3 5 3 5 5 5 3 5 5 5 5 5 5 5 5 5 5 5 5 5 3 5 5 3 5 3 5 3 5 5 5 3 3 5 5 5 5 5 5 5 5 5 3 5 3 5 3 5 5 5 3 5 3 5 3 5 5 5 5 5 5 5 3 5 5 5 5 3 5 5 5 5 5 3 5 5 3 5 5 5 5 5 3 5 3 3 5 5 3 5 5 5 3 5 3 5 5 3 5 5 5 5 5 3 5 5 3 5 5 5 5 5 5 5 5 5 5 5 5 5 5 5 5 5 5 5 5 5 5 5 5 5 3 5 3 5 5 5 5 5 5 5 5 3 5 5 5 3 5 5 5 5 5 5 3 5 5 5 5 3 5 5 5 5 5 5 5 5 5 5 5 5 5 5 5 5 5 5 5 5 5 5 5 5 5 5 5 5 5 5 5 5 3 5 5 5 5 5 5 5 5 5 5 5 5 5 3 5 3 3 5 3 5 3 5 3 5 5 3 5 3 5 3 5 3 5 5 3 5 3 5 5 3 5 5 3 3 5 5 5 5 5 5 5 5 3 5 5 5 5 5 5 5 5 5 5 5 5 5 3 5 5 5 5 5 5 5 5 3 5 5 3 3 3 5 5 3 5 5 5 5 5 5 5 5 5 5 5 5 3 5 5 5 3 5 5 5 5 5 3 5 5 5 5 3 5 5 5 5 5 5 5 5 5 3 5 5 3 5 5 5 5 5 5 5 5 3 5 5 3 5 3 5 3 5 5 5 5 5 5 5 3 5 5 5 5 5 5 5 5 5 5 5 5 5 5 5 5 5 5 5 5 5 5 5 5 5 5 5 5 5 5 5 5 5 5 5 5 5 5 5 3 5 5 5 5 5 5 5 5 5 5 5 5 5 5 5 5 5 5 5 5 5 5 5 5 5 5 5 5 5 5 5 5 5 5 5 5 5 5 5 5 5 3 5 5 5 5 3 5 5 5 5 3 5 5 5 5 3 5 5 5 5 5 5 5 5 5 5 5 5 5 5 5 5 5 5 5 5 5 3 5 5 5 5 5 5 3 5 5 5 5 5 3 5 5 5 5 5 5 3 5 5 5 3 5 5 5 5 5 5 5 5 5 5 5 3 5 5 5 5 5 5 5 5 5 5 5 5 5 5 5 5 5 5 5 5 5 5 5 5 3 5 5 5 5 5 5 5 3 5 5 5 5 5 5 5 5 3 5 3 5 5 5 5 3 5 5 3 5 5 5 5 3 5 3 5 5 5 5 5 5 5 5 5 5 5 3 5 5 3 5 3 5 5 3 3 5 5 5 5 5 5 5 5 5 5 5 5 3 5 5 5 3 5 5 3 5 3 5 3 5 5 5 5 5 5 5 3 5 3 5 5 5 5 5 5 5 5 5 3 5 5 5 3 5 5 5 5 5 5 3 5 5 5 5 5 5 5 5 5 3 5 5 5 5 5 5 5 5 5 5 5 3 5 5 5 5 5 5 3 5 5 3 5 5 3 5 5 5 5 3 5 5 5 5 5 5 5 5 5 5 5 5 3 5 3 5 5 3 5 5 3 5 5 5 5 3 5 5 5 5 5 5 3 5 5 5 5 5 5 3 5 5 5 5 5 3 5 5 5 5 5 5 5 5 5 5 5 5 5 5 5 5 5 3 5 5 5 3 5 5 5 5 5 3 3 5 5 5 3 5 3 5 3 5 5 3 3 5 5 5 5 5 5 5 5 5 5 3 5 5 5 3 5 5 5 5 5 5 5 5 5 5 5 5 5 5 5 5 5 5 5 5 5 5 5 5 5 3 3 5 3 3 5 5 5 5 5 5 5 5 5 3 5 5 5 5 5 5 3 5 5 5 5 3 5 5 5 5 5 5 5 5 5 5 5 5 5 5 5 5 5 5 5 5 5 5 5 5 5 3 5 5 5 5 5 3 5 5 3 5 5 3 5 5 3 5 5 5 3 5 5 5 3 5 5 5 5 5 5 5 5 5 5 5 3 5 5 5 5 5 5 3 3 5 5 5 5 3 3 5 5 5 5 3 5 5 5 3 5 5 5 5 5 3 5 5 5 5 5 5 5 5 5 5 3 5 5 5 5 3 5 5 3 5 5 5 5 5 3 5 5 5 5 5 5 3 5 5 5 5 5 5 5 5 5 5 5 5 5 5 5 5 5 5 5 5 5 5 5 3 5 3 5 3 5 5 3 5 5 3 5 5 5 5 5 5 5 5 5 5 5 3 5 5 3 5 5 3 5 5 5 5 5 5 5 5 3 5 5 5 5 5 3 3 5 5 3 3 3 5 5 5 5 3 5 5 5 3 5 5 3 3 5 5 5 5 5 5 5 5 5 5 5 5 5 3 5 3 5 5 5 5 5 5 5 5 3 5 5 5 5 5 3 5 5 3 5 5 5 5 5 5 5 5 5 5 5 5 5 5 5 5 5 5 5 5 5 5 5 3 5 5 5 5 5 5 3 5 5 5 5 5 5 5 5 5 5 5 5 5 5 5 5 5 5 5 5 5 5 5 5 5 5 5 5 5 5 5 5 5 3 5 5 5 5 5 5 5 5 5 5 5 5 5 5 5 5 5 5 3 5 5 5 3 5 5 5 5 5 5 3 5 5 5 5 5 5 5 5 5 5 5 5 5 5 5 5 5 5 3 5 3 5 5 3 5 5 3 5 3 5 5 5 5 5 3 5 5 5 5 3 5 3 5 5 5 5 5 3 5 5 5 5 5 5 5 5 5 5 5 5 5 5 5 5 5 5 5 5 5 5 3 5 5 5 5 5 5 5 5 5 5 3 5 3 5 5 5 5 5 3 5 5 5 5 5 5 5 3 5 5 5 3 5 5 3 5 5 5 3 3 5 5 3 3 5 5 5 5 5 5 5 5 5 5 5 5 5 5 5 5 5 5 3 3 5 5 3 5 5 5 3 5 5 5 3 5 5 5 5 5 5 3 5 3 5 5 5 5 5 5 5 5 5 5 5 5 5 5 3 5 5 3 5 3 5 5 5 3 5 5 5 5 5 5 5 5 5 5 5 5 5 5 5 5 5 5 5 5 5 5 5 5 5 5 5 5 5 5 5 5 5 3 5 5 5 5 3 5 3 5 5 5 5 5 5 3 5 5 5 3 5 3 5 5 3 5 5 5 3 5 3 5 5 5 5 5 5 5 5 5 5 3 5 5 5 5 5 3 5 5 5 5 5 3 5 5 5 5 5 5 3 5 5 5 5 5 5 5 5 5 5 5 5 5 5 5 5 5 5 5 5 3 5 5 5 5 5 5 5 5 5 5 5 5 5 5 3 5 3 5 3 5 3 5 5 3 5 5 3 5 5 5 3 5 3 5 5 5 5 3 5 5 5 5 3 5 5 5 3 5 5 3 3 5 5 3 5 5 5 3 5 5 3 3 5 5 3 5 5 5 5 5 5 5 5 5 5 5 5 5 5 5 5 5 5 5 5 5 5 5 5 5 5 5 5 5 5 5 5 5 5 5 5 3 3 5 5 3 5 3 3 5 5 5 3 5 3 5 5 5 5 5 5 5 3 5 5 5 3 5 5 5 3 5 5 5 3 5 5 5 5 5 3 5 5 3 5 3 5 5 3 5 5 5 5 5 3 5 5 5 3 5 5 5 5 5 5 5 5 5 3 5 5 3 5 5 3 5 3 5 5 5 5 5 3 5 5 3 5 5 3 5 5 3 5 5 5 5 5 5 5 5 5 5 5 5 5 3 5 5 5 5 5 5 5 5 5 3 5 5 5 5 5 5 5 3 3 5 5 3 5 5 5 5 5 5 5 5 3 5 5 5 5 5 5 5 5 5 5 5 5 5 5 5 5 5 5 5 5 5 5 5 5 5 5 5 5 5 5 5 5 5 5 5 5 5 5 5 5 5 5 5 5 5 5 5 5 5 5 5 5 5 5 5 5 5 5 5 5 5 5 5 5 5 5 5 5 5 5 5 5 5 5 5 5 5 5 5 5 5 5 5 5 5 5 5 5 5 5 5 5 5 5 5 5 5 5 5 5 5 5 5 5 5 5 5 5 5 5 5 3 5 5 5 5 5 5 5 5 5 5 5 5 5 5 5 5 5 3 5 5 5 3 5 5 5 5 5 5 5 3 5 3 5 3 5 5 3 5 5 5 5 3 5 5 3 3 5 3 5 5 3 5 5 3 5 5 3 5 5 3 5 5 3 5 5 3 5 5 3 3 5 5 3 5 5 5 5 5 5 5 5 5 5 5 5 5 5 3 5 5 3 5 5 5 5 5 5 5 5 5 5 3 5 5 5 3 5 5 5 5 5 5 5 3 5 5 5 5 5 5 5 5 5 5 3 5 5 5 5 5 5 5 5 5 5 5 5 5 5 5 5 3 5 5 5 5 3 5 3 5 5 5 3 3 5 3 5 3 3 5 5 3 3 5 5 5 5 5 5 5 5 5 5 5 5 3 5 5 5 5 5 5 5 5 5 3 5 5 5 5 5 5 5 5 5 5 5 5 5 5 5 5 5 5 5 5 5 5 5 5 5 5 5 5 5 5 5 5 5 5 5 5 5 5 5 5 5 5 5 5 5 5 5 5 5 5 5 5 5 5 5 5 5 5 5 5 5 5 5 5 5 5 5 5 5 5 5 5 5 5 5 5 5 5 5 5 5 5 5 5 5 5 5 5 5 5 5 5 5 5 5 5 5 5 5 5 5 3 5 5 5 3 3 5 5 5 5 5 5 3 5 3 5 5 5 5 5 3 5 5 5 5 5 5 5 5 5 3 5 5 5 5 5 3 5 3 5 5 3 5 3 5 5 3 3 5 5 5 5 5 3 5 5 5 5 5 5 3 5 5 5 5 5 5 5 5 5 5 3 5 5 3 5 5 5 5 5 5 5 5 3 5 3 5 5 3 5 5 5 5 3 5 5 5 3 5 5 3 5 5 3 5 5 3 5 5 5 3 5 5 5 5 3 5 5 3 5 3 5 5 5 5 5 5 5 3 5 5 5 5 5 5 3 5 5 3 5 3 5 3 5 5 5 5 5 5 5 3 3 5 5 5 5 5 5 5 5 5 5 5 5 5 5 5 5 5 5 5 5 5 5 3 5 5 5 5 5 5 5 5 5 5 5 5 3 5 5 5 5 5 5 5 5 5 5 5 5 5 5 5 5 5 5 5 5 5 5 5 5 5 5 5 5 5 5 5 3 5 5 5 5 5 3 5 5 5 5 3 5 5 5 5 5 5 3 5 5 5 5 5 5 5 5 5 5 5 5 5 3 5 3 5 5 5 5 5 5 5 5 5 5 5 5 5 5 5 5 5 5 5 5 5 3 5 5 5 5 5 5 5 5 5 5 5 5 5 5 5 5 3 5 3 5 5 5 3 3 3 5 5 5 5 3 5 3 5 5 5 5 5 5 5 5 3 5 5 3 5 5 3 5 5 5 3 5 5 5 3 3 5 5 3 5 3 3 5 5 3 5 5 3 5 5 5 5 5 3 5 5 5 5 5 5 5 5 5 5 5 5 5 5 5 5 5 5 5 5 5 5 5 5 5 5 5 5 5 5 5 5 5 5 5 5 5 5 5 5 5 5 5 3 5 5 5 5 5 5 5 5 5 5 5 5 5 5 5 5 5 5 5 5 3 5 5 3 3 5 5 5 5 5 5 5 5 5 5 5 5 5 5 5 3 5 5 5 5 5 5 5 3 5 5 5 5 5 5 5 5 5 5 5 5 5 5 5 5 5 5 5 3 5 5 5 3 5 3 5 5 5 5 5 5 5 5 5 5 5 5 5 5 5 5 5 5 5 5 5 5 5 5 5 5 5 5 5 5 5 5 5 5 5 5 5 5 5 5 5 5 5 5 5 5 5 5 5 5 5 5 5 5 5 3 5 5 5 5 5 5 5 5 5 5 5 5 5 5 5 5 5 5 5 5 3 5 5 5 3 5 5 3 5 5 5 5 5 3 5 5 5 5 5 5 5 3 5 5 5 5 5 5 3 5 5 5 3 5 5 5 5 5 5 5 5 5 5 5 3 5 5 3 5 5 5 5 5 5 5 5 5 5 5 5 5 3 5 5 5 5 3 5 5 5 5 5 5 5 5 5 5 5 5 5 5 5 5 5 5 3 5 5 5 5 5 5 5 5 5 5 5 5 5 5 5 5 5 5 3 5 5 5 5 5 5 5 5 3 5 5 5 5 5 5 5 5 5 5 5 5 5 5 5 5 5 5 3 5 5 5 5 3 5 5 5 5 5 3 5 5 5 3 5 5 5 3 5 5 5 3 3 3 5 5 3 5 5 3 5 5 3 3 5 5 3 5 5 5 5 5 5 5 5 3 5 5 3 5 5 3 3 5 3 3 5 3 5 5 5 5 5 5 5 5 5 5 5 5 5 5 5 5 5 5 5 5 3 5 5 5 5 5 5 5 5 3 5 5 5 5 5 5 5 3 5 5 5 5 5 5 3 5 5 5 5 5 5 5 5 5 5 5 5 5 5 5 5 5 3 3 5 5 5 3 3 5 5 5 5 5 5 5 3 5 5 5 5 5 5 3 5 5 5 5 5 5 3 5 5 5 5 5 5 5 5 5 5 5 5 5 5 5 5 5 3 3 3 5 5 3 5 3 5 5 3 3 5 5 5 5 5 5 3 5 5 3 5 5 3 5 5 3 5 5 3 5 5 3 5 5 5 3 5 5 5 3 5 3 5 5 5 5 5 3 5 5 5 5 5 3 3 5 5 3 5 3 5 5 5 5 5 5 5 5 5 5 5 5 5 5 5 5 5 5 5 5 5 5 5 5 5 5 3 3 5 5 5 5 5 5 5 5 5 5 5 5 5 5 5 5 5 3 5 5 5 5 5 5 5 3 5 5 5 3 5 5 5 5 5 5 5 5 5 5 3 5 3 5 5 3 5 5 5 5 5 5 5 3 5 5 5 5 5 3 5 3 5 3 5 5 5 5 5 5 3 5 5 5 5 5 5 5 5 5 5 3 5 5 5 5 3 5 5 5 5 5 5 5 5 5 5 5 5 5 5 5 5 5 5 5 5 5 5 5 5 5 5 5 5 3 5 5 5 5 5 5 3 5 5 3 5 5 5 5 5 5 5 5 5 5 5 5 5 5 5 3 5 5 5 5 5 3 5 5 5 5 5 5 5 5 5 5 5 3 5 3 5 5 3 5 5 5 5 5 3 5 3 5 5 3 5 5 5 5 5 5 5 5 3 5 5 3 3 5 5 5 5 5 5 5 5 5 5 5 5 5 5 5 5 5 5 5 5 5 5 5 5 5 5 5 5 5 3 5 3 5 5 5 5 5 5 3 5 3 3 5 5 3 5 5 5 3 5 5 5 5 5 3 5 5 5 5 5 5 5 5 5 5 3 5 5 5 5 5 5 5 5 5 5 5 3 5 5 5 5 5 5 5 5 5 5 5 5 5 5 5 5 5 5 5 5 5 5 3 3 5 5 5 5 5 5 5 5 5 5 5 5 5 5 3 3 5 5 5 5 5 5 5 5 5 5 5 5 5 5 5 5 5 5 5 5 5 5 5 5 5 5 5 5 5 5 5 5 3 5 5 5 5 5 5 5 3 5 5 5 5 5 5 5 5 5 5 5 5 5 5 5 5 5 3 5 5 5 5 5 5 5 5 5 5 5 3 5 5 5 5 5 5 5 5 3 5 5 5 5 5 3 5 5 5 5 5 5 5 5 5 5 5 5 5 5 5 5 5 3 5 5 5 5 5 5 3 5 5 3 5 5 5 5 5 5 5 3 5 5 5 5 5 5 5 5 5 5 5 5 5 5 5 5 5 5 3 5 3 5 5 5 5 5 5 5 5 3 5 5 5 5 5 5 5 5 5 3 5 5 5 5 5 5 5 5 5 5 5 5 5 3 5 5 5 3 5 5 5 5 5 5 5 5 5 3 5 5 5 5 5 3 5 5 5 5 5 5 5 5 5 5 5 5 5 5 5 5 5 5 5 5 5 5 5 5 5 5 5 5 5 5 5 5 5 5 5 5 5 5 5 5 5 5 5 5 5 5 5 5 5 5 5 5 5 5 5 5 5 5 5 5 5 5 5 5 5 5 5 5 5 5 5 5 5 5 5 5 5 5 5 5 5 5 5 5 5 5 5 5 5 5 5 5 5 5 5 5 5 5 5 5 5 5 5 5 5 3 5 5 5 5 5 5 5 5 5 5 5 5 3 5 5 5 5 5 5 5 5 5 5 5 5 5 5 5 5 5 5 5 5 5 5 5 5 5 5 5 5 5 5 5 5 5 5 5 5 3 5 5 5 5 5 3 5 5 5 5 5 5 5 5 5 3 5 5 3 5 3 5 5 3 5 5 5 5 5 5 5 3 5 5 5 5 5 5 5 5 5 3 5 5 5 5 5 5 5 5 5 5 5 3 5 5 5 5 5 5 3 3 5 3 5 5 5 5 5 5 5 5 5 5 3 3 3 5 5 5 5 3 3 5 5 5 3 5 5 5 3 5 5 3 5 5 5 5 3 5 5 5 5 5 5 5 3 5 5 5 3 3 5 5 5 5 5 3 5 5 5 3 5 5 5 5 5 5 5 5 5 5 5 5 3 3 3 5 5 5 5 3 5 5 5 5 3 5 3 5 5 3 5 5 5 3 3 3 5 3 5 5 3 3 5 5 5 5 5 5 3 5 5 5 5 5 5 3 3 3 5 5 5 5 5 5 5 5 5 5 5 5 5 5 5 5 5 5 5 5 5 5 5 3 5 5 5 5 5 5 5 5 5 3 5 3 5 5 5 5 5 5 5 5 3 5 5 5 5 5 5 3 5 3 5 3 5 5 5 3 5 5 5 5 3 5 5 5 5 5 
</DataArray>
</Cells>
<PointData Scalars="" Vectors="displacement," Tensors="">
<DataArray type="Float64" Name="displacement" NumberOfComponents="3" format="ascii">
-0.024998798411101673 -1.2761132140909946e-07 0 -0.023790214789427569 -0.00011922782158860477 0 -0.022070292474955722 -2.057198080215467e-07 0 -0.024998798411101673 -1.2761132140909946e-07 0 -0.023790214789427569 -0.00011922782158860477 0 -0.024998092113779569 -2.6808151001000306e-07 0 -0.023790214789427569 -0.00011922782158860477 0 -0.022070292474955722 -2.057198080215467e-07 0 -0.022902112770005721 -8.6488360073202391e-05 0 -0.022070292474955722 -2.057198080215467e-07 0 -0.022902112770005721 -8.6488360073202391e-05 0 -0.022219336171409594 -4.8182650161904898e-05 0 -0.023410457576207425 -9.5492149726747805e-05 0 -0.023740549249218652 -8.3639074850089455e-05 0 -0.023065492891065954 -0.00010536037974433042 0 -0.024684323101461313 0.00016612431125659287 0 -0.024680721969524998 0.00012242662897600813 0 -0.024633776914268782 0.00027826561233488932 0 -0.024684323101461313 0.00016612431125659287 0 -0.024672547945828342 0.00023370031392761883 0 -0.024633776914268782 0.00027826561233488932 0 -0.024291276880196024 -1.9007199456033239e-05 0 -0.02335033153956248 2.387628846098185e-05 0 -0.023410457576207425 -9.5492149726747805e-05 0 -0.023514702377478519 -0.00010764427631900635 0 -0.023740549249218652 -8.3639074850089455e-05 0 -0.023410457576207425 -9.5492149726747805e-05 0 -0.023083976218460235 -8.6206703379147239e-05 0 -0.023514702377478519 -0.00010764427631900635 0 -0.024432862951899361 0.00021464891081003512 0 -0.023988229096801615 9.1975483766528626e-05 0 -0.023308585406750178 -0.00011301952207842437 0 -0.02335033153956248 2.387628846098185e-05 0 -0.023988229096801615 9.1975483766528626e-05 0 -0.023414518374063536 2.6847883863114245e-05 0 -0.023410457576207425 -9.5492149726747805e-05 0 -0.023083976218460235 -8.6206703379147239e-05 0 -0.023083190316461052 -4.8861567930726643e-05 0 -0.023083976218460235 -8.6206703379147239e-05 0 -0.022902112770005721 -8.6488360073202391e-05 0 -0.022657390596560821 -6.0737553397421432e-05 0 -0.023083976218460235 -8.6206703379147239e-05 0 -0.022902112770005721 -8.6488360073202391e-05 0 -0.023514702377478519 -0.00010764427631900635 0 -0.023790214789427569 -0.00011922782158860477 0 -0.023514702377478519 -0.00010764427631900635 0 -0.024107342611082272 -6.499483804134065e-05 0 -0.023790214789427569 -0.00011922782158860477 0 -0.022902112770005721 -8.6488360073202391e-05 0 -0.023514702377478519 -0.00010764427631900635 0 -0.023514702377478519 -0.00010764427631900635 0 -0.023740549249218652 -8.3639074850089455e-05 0 -0.024107342611082272 -6.499483804134065e-05 0 -0.024684323101461313 0.00016612431125659287 0 -0.024680721969524998 0.00012242662897600813 0 -0.024714993110711788 0.00014886568949775189 0 -0.024291276880196024 -1.9007199456033239e-05 0 -0.024610526093854303 -9.369491167945437e-05 0 -0.023790214789427569 -0.00011922782158860477 0 -0.024107342611082272 -6.499483804134065e-05 0 -0.024998092113779569 -2.6808151001000306e-07 0 -0.024725369717790536 -3.9594523587147943e-05 0 -0.024107342611082272 -6.499483804134065e-05 0 -0.024998092113779569 -2.6808151001000306e-07 0 -0.023740549249218652 -8.3639074850089455e-05 0 -0.024725369717790536 -3.9594523587147943e-05 0 -0.024107342611082272 -6.499483804134065e-05 0 -0.024725369717790536 -3.9594523587147943e-05 0 -0.024998092113779569 -2.6808151001000306e-07 0 -0.025000532071692286 3.4330244897467786e-08 0 -0.024725369717790536 -3.9594523587147943e-05 0 -0.024897709532387475 2.736568706127791e-05 0 -0.025000532071692286 3.4330244897467786e-08 0 -0.024725369717790536 -3.9594523587147943e-05 0 -0.024897709532387475 2.736568706127791e-05 0 -0.024781372063295008 9.8541062324494148e-05 0 -0.024314317510456679 5.5587598753621501e-05 0 -0.024061163188535958 9.1921943904144682e-05 0 -0.024998409899996736 8.8689706970862024e-07 0 -0.024998673619535429 -7.0962928365458153e-07 0 -0.024118313957382263 6.7894723642965629e-05 0 -0.024314317510456679 5.5587598753621501e-05 0 -0.024999678826726619 6.4501513063338832e-08 0 -0.02374871034859459 -1.6441811977888512e-05 0 -0.024998673619535429 -7.0962928365458153e-07 0 -0.024118313957382263 6.7894723642965629e-05 0 -0.02374871034859459 -1.6441811977888512e-05 0 -0.024118313957382263 6.7894723642965629e-05 0 -0.023471077201510419 7.5322742710789945e-05 0 -0.024118313957382263 6.7894723642965629e-05 0 -0.023471077201510419 7.5322742710789945e-05 0 -0.023234980730150574 1.5128072603389968e-05 0 -0.023471077201510419 7.5322742710789945e-05 0 -0.022988252493957227 -3.6529396149807391e-05 0 -0.023234980730150574 1.5128072603389968e-05 0 -0.023471077201510419 7.5322742710789945e-05 0 -0.023126596092400718 2.7517312954957014e-05 0 -0.023065114346241082 5.6884416834240958e-05 0 -0.023471077201510419 7.5322742710789945e-05 0 -0.023126596092400718 2.7517312954957014e-05 0 -0.022988252493957227 -3.6529396149807391e-05 0 -0.024625594645180535 0.00027810431277659785 0 -0.024802695758249886 0.0001244027916103012 0 -0.024781372063295008 9.8541062324494148e-05 0 -0.024680721969524998 0.00012242662897600813 0 -0.024725369717790536 -3.9594523587147943e-05 0 -0.024781372063295008 9.8541062324494148e-05 0 -0.024680721969524998 0.00012242662897600813 0 -0.024714993110711788 0.00014886568949775189 0 -0.024781372063295008 9.8541062324494148e-05 0 -0.024897709532387475 2.736568706127791e-05 0 -0.024802695758249886 0.0001244027916103012 0 -0.024781372063295008 9.8541062324494148e-05 0 -0.02374871034859459 -1.6441811977888512e-05 0 -0.023471077201510419 7.5322742710789945e-05 0 -0.023206546097309634 2.5319243779571541e-05 0 -0.023471077201510419 7.5322742710789945e-05 0 -0.023206546097309634 2.5319243779571541e-05 0 -0.023065114346241082 5.6884416834240958e-05 0 -0.024684029092552118 0.00023580421143759632 0 -0.024714993110711788 0.00014886568949775189 0 -0.024781372063295008 9.8541062324494148e-05 0 -0.023414518374063536 2.6847883863114245e-05 0 -0.024061163188535958 9.1921943904144682e-05 0 -0.024625594645180535 0.00027810431277659785 0 -0.02462378789331859 0.00030766763578089849 0 -0.024802695758249886 0.0001244027916103012 0 -0.023013176568339132 3.8638326326262052e-05 0 -0.023206546097309634 2.5319243779571541e-05 0 -0.023065114346241082 5.6884416834240958e-05 0 -0.023988229096801615 9.1975483766528626e-05 0 -0.024924574359183455 0.0001050613619690984 0 -0.024684323101461313 0.00016612431125659287 0 -0.024684029092552118 0.00023580421143759632 0 -0.024714993110711788 0.00014886568949775189 0 -0.023013176568339132 3.8638326326262052e-05 0 -0.023065114346241082 5.6884416834240958e-05 0 -0.022899548011998377 -4.8872770541214025e-06 0 -0.023126596092400718 2.7517312954957014e-05 0 -0.023065114346241082 5.6884416834240958e-05 0 -0.022870561010550284 -1.2977552828645452e-05 0 -0.023065114346241082 5.6884416834240958e-05 0 -0.022870561010550284 -1.2977552828645452e-05 0 -0.022899548011998377 -4.8872770541214025e-06 0 -0.022870561010550284 -1.2977552828645452e-05 0 -0.022899548011998377 -4.8872770541214025e-06 0 -0.022602328918373663 -0.00012022058441896176 0 -0.023126596092400718 2.7517312954957014e-05 0 -0.022988252493957227 -3.6529396149807391e-05 0 -0.022644870365351361 -0.00010261726396859774 0 -0.023126596092400718 2.7517312954957014e-05 0 -0.022870561010550284 -1.2977552828645452e-05 0 -0.022644870365351361 -0.00010261726396859774 0 -0.022870561010550284 -1.2977552828645452e-05 0 -0.022644870365351361 -0.00010261726396859774 0 -0.022602328918373663 -0.00012022058441896176 0 -0.022988252493957227 -3.6529396149807391e-05 0 -0.022644870365351361 -0.00010261726396859774 0 -0.022468575850645281 -0.00019400634787397982 0 -0.022644870365351361 -0.00010261726396859774 0 -0.022233087410256043 -0.00026252455678023892 0 -0.022353536185835899 -0.00020370778296286072 0 -0.022644870365351361 -0.00010261726396859774 0 -0.022233087410256043 -0.00026252455678023892 0 -0.022468575850645281 -0.00019400634787397982 0 -0.022644870365351361 -0.00010261726396859774 0 -0.022353536185835899 -0.00020370778296286072 0 -0.022602328918373663 -0.00012022058441896176 0 -0.022353536185835899 -0.00020370778296286072 0 -0.021919184031383359 -0.00036250428732067467 0 -0.022112271968029971 -0.00034420186517717858 0 -0.022353536185835899 -0.00020370778296286072 0 -0.022602328918373663 -0.00012022058441896176 0 -0.022112271968029971 -0.00034420186517717858 0 -0.022233087410256043 -0.00026252455678023892 0 -0.021919184031383359 -0.00036250428732067467 0 -0.021881674770234887 -0.00040347412954591389 0 -0.022233087410256043 -0.00026252455678023892 0 -0.022353536185835899 -0.00020370778296286072 0 -0.021919184031383359 -0.00036250428732067467 0 -0.022358226282493978 -5.9668309764548774e-05 0 -0.022365514173560169 -0.00017289299116103585 0 -0.022899548011998377 -4.8872770541214025e-06 0 -0.022763351339450882 -0.00016375460373048819 0 -0.022602328918373663 -0.00012022058441896176 0 -0.022602328918373663 -0.00012022058441896176 0 -0.022530368896352432 -0.00027461013354821264 0 -0.022112271968029971 -0.00034420186517717858 0 -0.022365514173560169 -0.00017289299116103585 0 -0.022322314397687035 -0.00027492456677135577 0 -0.022763351339450882 -0.00016375460373048819 0 -0.022530368896352432 -0.00027461013354821264 0 -0.022716389910032594 -0.00045585210588877835 0 -0.022763351339450882 -0.00016375460373048819 0 -0.022602328918373663 -0.00012022058441896176 0 -0.022530368896352432 -0.00027461013354821264 0 -0.02194480926780739 -0.00015852871967312246 0 -0.021964775726810999 -0.00021771643537925206 0 -0.021915859118529907 -0.00024011568373870503 0 -0.021699210211427927 -0.0001158955692460346 0 -0.021980838724253406 0.00025647395338601793 0 -0.021431879258382344 -4.069812112636358e-05 0 -0.021214417973646576 4.8682963729331092e-05 0 -0.021484814593566066 0.00045985379506291733 0 -0.02194480926780739 -0.00015852871967312246 0 -0.021975663299523943 -0.00014406012134563439 0 -0.021964775726810999 -0.00021771643537925206 0 -0.021976238228907836 -0.00010253379019023355 0 -0.021975663299523943 -0.00014406012134563439 0 -0.021980135269523065 -0.00013167952455956305 0 -0.021976238228907836 -0.00010253379019023355 0 -0.02194480926780739 -0.00015852871967312246 0 -0.021975663299523943 -0.00014406012134563439 0 -0.021434495776840274 -0.00012685791252155961 0 -0.021214417973646576 4.8682963729331092e-05 0 -0.021230991381258002 -0.00023482370825484019 0 -0.021431879258382344 -4.069812112636358e-05 0 -0.021434495776840274 -0.00012685791252155961 0 -0.021214417973646576 4.8682963729331092e-05 0 -0.021699210211427927 -0.0001158955692460346 0 -0.021732332970469701 -0.00013095049188612998 0 -0.021255314678903361 3.9147327271096341e-05 0 -0.021646182645835857 -0.00010701453575900708 0 -0.021214417973646576 4.8682963729331092e-05 0 -0.021097227596246149 6.460105113467649e-05 0 -0.021230991381258002 -0.00023482370825484019 0 -0.021097227596246149 6.460105113467649e-05 0 -0.02141645079872424 -2.8504111558428423e-05 0 -0.022030103512116216 0.00011067044596748885 0 -0.021214417973646576 4.8682963729331092e-05 0 -0.021097227596246149 6.460105113467649e-05 0 -0.020901488991044537 0.0002409259205511581 0 -0.021214417973646576 4.8682963729331092e-05 0 -0.020901488991044537 0.0002409259205511581 0 -0.021484814593566066 0.00045985379506291733 0 -0.021097227596246149 6.460105113467649e-05 0 -0.020901488991044537 0.0002409259205511581 0 -0.020082653400028769 0.00012683139222609125 0 -0.020082653400028769 0.00012683139222609125 0 -0.019915287142470185 -7.5179131982761716e-07 0 -0.018335072075258484 2.6244575821817907e-06 0 -0.021097227596246149 6.460105113467649e-05 0 -0.020082653400028769 0.00012683139222609125 0 -0.020643535071389527 4.4181930242668136e-05 0 -0.020082653400028769 0.00012683139222609125 0 -0.019915287142470185 -7.5179131982761716e-07 0 -0.020643535071389527 4.4181930242668136e-05 0 -0.019915287142470185 -7.5179131982761716e-07 0 -0.020643535071389527 4.4181930242668136e-05 0 -0.02141645079872424 -2.8504111558428423e-05 0 -0.021097227596246149 6.460105113467649e-05 0 -0.020643535071389527 4.4181930242668136e-05 0 -0.02141645079872424 -2.8504111558428423e-05 0 -0.022070292474955722 -2.057198080215467e-07 0 -0.019915287142470185 -7.5179131982761716e-07 0 -0.02141645079872424 -2.8504111558428423e-05 0 -0.02141645079872424 -2.8504111558428423e-05 0 -0.022219336171409594 -4.8182650161904898e-05 0 -0.022199973266099186 -5.3642094875275012e-06 0 -0.022070292474955722 -2.057198080215467e-07 0 -0.02141645079872424 -2.8504111558428423e-05 0 -0.022219336171409594 -4.8182650161904898e-05 0 -0.022902112770005721 -8.6488360073202391e-05 0 -0.022219336171409594 -4.8182650161904898e-05 0 -0.022657390596560821 -6.0737553397421432e-05 0 -0.022219336171409594 -4.8182650161904898e-05 0 -0.022657390596560821 -6.0737553397421432e-05 0 -0.022199973266099186 -5.3642094875275012e-06 0 -0.022657390596560821 -6.0737553397421432e-05 0 -0.022702812047344516 4.5452900917650111e-05 0 -0.022199973266099186 -5.3642094875275012e-06 0 -0.023083976218460235 -8.6206703379147239e-05 0 -0.022657390596560821 -6.0737553397421432e-05 0 -0.022861854179485205 -3.4668880149322437e-05 0 -0.022462519806164642 -0.00015451708882451178 0 -0.021942975632449097 -0.0002072023483978302 0 -0.023414518374063536 2.6847883863114245e-05 0 -0.022358226282493978 -5.9668309764548774e-05 0 -0.023083976218460235 -8.6206703379147239e-05 0 -0.023083190316461052 -4.8861567930726643e-05 0 -0.02304786706928786 -4.027742048695259e-05 0 -0.021463081247794134 -0.00057235943942801171 0 -0.021397705377024973 -0.00049109994726123857 0 -0.021442510962828822 -0.00032160373760250176 0 -0.023083976218460235 -8.6206703379147239e-05 0 -0.022861854179485205 -3.4668880149322437e-05 0 -0.02304786706928786 -4.027742048695259e-05 0 -0.022854510130104838 -6.5124147847224611e-05 0 -0.021942975632449097 -0.0002072023483978302 0 -0.022358652126837752 -0.00013848448293826891 0 -0.022358333249876457 -0.00013528023265597412 0 -0.022343860630052049 -0.00016820613270213333 0 -0.02200357000487153 -6.7067967408467285e-05 0 -0.021976238228907836 -0.00010253379019023355 0 -0.022002963195579872 -7.6041056165027299e-05 0 -0.022861854179485205 -3.4668880149322437e-05 0 -0.023001343503727605 -2.0392108861245204e-05 0 -0.02304786706928786 -4.027742048695259e-05 0 -0.023478909098119886 -5.4315981436743309e-06 0 -0.023370576105681037 8.2637422718013806e-05 0 -0.023370820041360006 0.00013402426887800095 0 -0.023476460641097589 -8.2471836012248595e-05 0 -0.023478909098119886 -5.4315981436743309e-06 0 -0.023370576105681037 8.2637422718013806e-05 0 -0.023414518374063536 2.6847883863114245e-05 0 -0.022854510130104838 -6.5124147847224611e-05 0 -0.023988229096801615 9.1975483766528626e-05 0 -0.02335033153956248 2.387628846098185e-05 0 -0.022462519806164642 -0.00015451708882451178 0 -0.022854510130104838 -6.5124147847224611e-05 0 -0.02335033153956248 2.387628846098185e-05 0 -0.022854510130104838 -6.5124147847224611e-05 0 -0.022657390596560821 -6.0737553397421432e-05 0 -0.022861854179485205 -3.4668880149322437e-05 0 -0.022702812047344516 4.5452900917650111e-05 0 -0.022861854179485205 -3.4668880149322437e-05 0 -0.023001343503727605 -2.0392108861245204e-05 0 -0.022819588621840643 2.4046821174910138e-05 0 -0.022462519806164642 -0.00015451708882451178 0 -0.022203627512693763 -0.00018438781714768521 0 -0.022861854179485205 -3.4668880149322437e-05 0 -0.022819588621840643 2.4046821174910138e-05 0 -0.022702812047344516 4.5452900917650111e-05 0 -0.022203627512693763 -0.00018438781714768521 0 -0.02210486201698366 -0.00019708071473644804 0 -0.021434495776840274 -0.00012685791252155961 0 -0.021397705377024973 -0.00049109994726123857 0 -0.021442510962828822 -0.00032160373760250176 0 -0.021434495776840274 -0.00012685791252155961 0 -0.021397705377024973 -0.00049109994726123857 0 -0.021372215817076379 -0.00045075103490616508 0 -0.021976238228907836 -0.00010253379019023355 0 -0.022002963195579872 -7.6041056165027299e-05 0 -0.021989890698190646 -0.00010398074900146461 0 -0.021434495776840274 -0.00012685791252155961 0 -0.021372215817076379 -0.00045075103490616508 0 -0.021230991381258002 -0.00023482370825484019 0 -0.02210486201698366 -0.00019708071473644804 0 -0.021646182645835857 -0.00010701453575900708 0 -0.021732332970469701 -0.00013095049188612998 0 -0.021942975632449097 -0.0002072023483978302 0 -0.021976238228907836 -0.00010253379019023355 0 -0.021980135269523065 -0.00013167952455956305 0 -0.021989890698190646 -0.00010398074900146461 0 -0.02141645079872424 -2.8504111558428423e-05 0 -0.022030103512116216 0.00011067044596748885 0 -0.022199973266099186 -5.3642094875275012e-06 0 -0.022702812047344516 4.5452900917650111e-05 0 -0.022030103512116216 0.00011067044596748885 0 -0.022199973266099186 -5.3642094875275012e-06 0 -0.024932831299705045 4.3322413500184556e-05 0 -0.024917570897045174 6.8385081364802648e-05 0 -0.024960390568692273 3.5424719331327256e-05 0 -0.024932831299705045 4.3322413500184556e-05 0 -0.024973189170658029 1.7362431837316127e-05 0 -0.024960390568692273 3.5424719331327256e-05 0 -0.024932831299705045 4.3322413500184556e-05 0 -0.024872940380212566 8.6823459983169547e-05 0 -0.024917570897045174 6.8385081364802648e-05 0 -0.024973189170658029 1.7362431837316127e-05 0 -0.024999964897730372 9.4865985172249115e-09 0 -0.024999971316176015 7.7989807423378712e-09 0 -0.024973189170658029 1.7362431837316127e-05 0 -0.024999964897730372 9.4865985172249115e-09 0 -0.024971392115429911 1.6863487401636789e-05 0 -0.024932831299705045 4.3322413500184556e-05 0 -0.024973189170658029 1.7362431837316127e-05 0 -0.024971392115429911 1.6863487401636789e-05 0 -0.024999960678634421 1.2902803605184896e-08 0 -0.024955737604711696 2.681262708234413e-05 0 -0.024999964067887105 9.0436417982248255e-09 0 -0.024971392115429911 1.6863487401636789e-05 0 -0.024999960678634421 1.2902803605184896e-08 0 -0.024955737604711696 2.681262708234413e-05 0 -0.024999964897730372 9.4865985172249115e-09 0 -0.024971392115429911 1.6863487401636789e-05 0 -0.024999960678634421 1.2902803605184896e-08 0 -0.024955737604711696 2.681262708234413e-05 0 -0.024920738419757241 5.7197371350405221e-05 0 -0.024916044579272038 5.3800885941791323e-05 0 -0.024932831299705045 4.3322413500184556e-05 0 -0.024971392115429911 1.6863487401636789e-05 0 -0.024955737604711696 2.681262708234413e-05 0 -0.024932831299705045 4.3322413500184556e-05 0 -0.024955737604711696 2.681262708234413e-05 0 -0.024920738419757241 5.7197371350405221e-05 0 -0.024932831299705045 4.3322413500184556e-05 0 -0.024920738419757241 5.7197371350405221e-05 0 -0.024872940380212566 8.6823459983169547e-05 0 -0.024955737604711696 2.681262708234413e-05 0 -0.024948670479800504 2.4526529893176313e-05 0 -0.024916044579272038 5.3800885941791323e-05 0 -0.022724998649744761 8.631513814729386e-05 0 -0.022588245416377283 -0.00015530928663867632 0 -0.022263243513120434 -7.1306496032229463e-05 0 -0.023836935622625479 4.5094667966892924e-05 0 -0.023588637435357374 -1.5576793993360339e-05 0 -0.024955737604711696 2.681262708234413e-05 0 -0.024948670479800504 2.4526529893176313e-05 0 -0.024974445594224248 1.3709234768168043e-05 0 -0.024955737604711696 2.681262708234413e-05 0 -0.024999964067887105 9.0436417982248255e-09 0 -0.024974445594224248 1.3709234768168043e-05 0 -0.024999964067887105 9.0436417982248255e-09 0 -0.024974445594224248 1.3709234768168043e-05 0 -0.024999968747707192 1.1484643832476997e-08 0 -0.024948670479800504 2.4526529893176313e-05 0 -0.024974445594224248 1.3709234768168043e-05 0 -0.024981790228972758 8.0106994251463734e-06 0 -0.024974445594224248 1.3709234768168043e-05 0 -0.024981790228972758 8.0106994251463734e-06 0 -0.024999968747707192 1.1484643832476997e-08 0 -0.024998409899996736 8.8689706970862024e-07 0 -0.024118313957382263 6.7894723642965629e-05 0 -0.023527391663844401 0.00019954528277015842 0 -0.024999632644467772 -7.0785345222078555e-08 0 -0.024241830307455636 4.9060495413346226e-05 0 -0.024999995784617632 -3.8839840862930954e-09 0 -0.024981790228972758 8.0106994251463734e-06 0 -0.024999968747707192 1.1484643832476997e-08 0 -0.024118313957382263 6.7894723642965629e-05 0 -0.023527391663844401 0.00019954528277015842 0 -0.023234980730150574 1.5128072603389968e-05 0 -0.023836935622625479 4.5094667966892924e-05 0 -0.024241830307455636 4.9060495413346226e-05 0 -0.022724998649744761 8.631513814729386e-05 0 -0.023527391663844401 0.00019954528277015842 0 -0.023234980730150574 1.5128072603389968e-05 0 -0.022724998649744761 8.631513814729386e-05 0 -0.023234980730150574 1.5128072603389968e-05 0 -0.022588245416377283 -0.00015530928663867632 0 -0.022988252493957227 -3.6529396149807391e-05 0 -0.023234980730150574 1.5128072603389968e-05 0 -0.022588245416377283 -0.00015530928663867632 0 -0.022988252493957227 -3.6529396149807391e-05 0 -0.022588245416377283 -0.00015530928663867632 0 -0.022468575850645281 -0.00019400634787397982 0 -0.022588245416377283 -0.00015530928663867632 0 -0.022362581731280026 -0.00022814730431633282 0 -0.022256463037099924 -0.00023366740030620329 0 -0.022588245416377283 -0.00015530928663867632 0 -0.022362581731280026 -0.00022814730431633282 0 -0.022468575850645281 -0.00019400634787397982 0 -0.022362581731280026 -0.00022814730431633282 0 -0.022468575850645281 -0.00019400634787397982 0 -0.02218415936803303 -0.00029706904431377862 0 -0.022233087410256043 -0.00026252455678023892 0 -0.022468575850645281 -0.00019400634787397982 0 -0.02218415936803303 -0.00029706904431377862 0 -0.022233087410256043 -0.00026252455678023892 0 -0.02218415936803303 -0.00029706904431377862 0 -0.021881674770234887 -0.00040347412954591389 0 -0.02218415936803303 -0.00029706904431377862 0 -0.021881674770234887 -0.00040347412954591389 0 -0.022022645239065428 -0.00034486944573766757 0 -0.022022645239065428 -0.00034486944573766757 0 -0.022173454810799464 -0.00028905980794735088 0 -0.022077603623291697 -0.00028037128602260639 0 -0.022022645239065428 -0.00034486944573766757 0 -0.022077603623291697 -0.00028037128602260639 0 -0.021996589978995441 -0.00028746690868509489 0 -0.02218415936803303 -0.00029706904431377862 0 -0.022022645239065428 -0.00034486944573766757 0 -0.022173454810799464 -0.00028905980794735088 0 -0.022362581731280026 -0.00022814730431633282 0 -0.022173454810799464 -0.00028905980794735088 0 -0.022256463037099924 -0.00023366740030620329 0 -0.022362581731280026 -0.00022814730431633282 0 -0.02218415936803303 -0.00029706904431377862 0 -0.022173454810799464 -0.00028905980794735088 0 -0.022173454810799464 -0.00028905980794735088 0 -0.022077603623291697 -0.00028037128602260639 0 -0.022256463037099924 -0.00023366740030620329 0 -0.022073511300196413 -0.00024633707246851319 0 -0.022256463037099924 -0.00023366740030620329 0 -0.02203440455331639 -0.00019069315968871798 0 -0.022077603623291697 -0.00028037128602260639 0 -0.022073511300196413 -0.00024633707246851319 0 -0.022256463037099924 -0.00023366740030620329 0 -0.022077603623291697 -0.00028037128602260639 0 -0.021984347090832891 -0.00021312699170557238 0 -0.021967062330589374 -0.00020256036785085968 0 -0.022077603623291697 -0.00028037128602260639 0 -0.021984347090832891 -0.00021312699170557238 0 -0.022073511300196413 -0.00024633707246851319 0 -0.021984347090832891 -0.00021312699170557238 0 -0.022073511300196413 -0.00024633707246851319 0 -0.022002197824081308 -0.00022592598464341604 0 -0.022256463037099924 -0.00023366740030620329 0 -0.022263243513120434 -7.1306496032229463e-05 0 -0.02203440455331639 -0.00019069315968871798 0 -0.022588245416377283 -0.00015530928663867632 0 -0.022256463037099924 -0.00023366740030620329 0 -0.022263243513120434 -7.1306496032229463e-05 0 -0.024920738419757241 5.7197371350405221e-05 0 -0.024916044579272038 5.3800885941791323e-05 0 -0.024911256010963469 9.3884527006617176e-05 0 -0.024920738419757241 5.7197371350405221e-05 0 -0.024911256010963469 9.3884527006617176e-05 0 -0.024872940380212566 8.6823459983169547e-05 0 -0.024839805894993405 0.00011008001509192991 0 -0.024911256010963469 9.3884527006617176e-05 0 -0.024872940380212566 8.6823459983169547e-05 0 -0.023588637435357374 -1.5576793993360339e-05 0 -0.023486546597410382 -5.3071682679079981e-05 0 -0.022073511300196413 -0.00024633707246851319 0 -0.02203440455331639 -0.00019069315968871798 0 -0.022002197824081308 -0.00022592598464341604 0 -0.021984347090832891 -0.00021312699170557238 0 -0.022002197824081308 -0.00022592598464341604 0 -0.021906848117096724 -0.00014992199843917014 0 -0.022002197824081308 -0.00022592598464341604 0 -0.02199940981225559 -0.00022867747907055885 0 -0.021906848117096724 -0.00014992199843917014 0 -0.02203440455331639 -0.00019069315968871798 0 -0.022002197824081308 -0.00022592598464341604 0 -0.02199940981225559 -0.00022867747907055885 0 -0.024839805894993405 0.00011008001509192991 0 -0.024856237394973363 -0.00018605325496532974 0 -0.024733500724030077 9.2788925337750224e-05 0 -0.024839805894993405 0.00011008001509192991 0 -0.024911256010963469 9.3884527006617176e-05 0 -0.024856237394973363 -0.00018605325496532974 0 -0.023486546597410382 -5.3071682679079981e-05 0 -0.023371493807961278 -0.00022818653544966929 0 -0.024856237394973363 -0.00018605325496532974 0 -0.024733500724030077 9.2788925337750224e-05 0 -0.024124537089731838 -0.00036049984254263496 0 -0.023371493807961278 -0.00022818653544966929 0 -0.023365270922583305 -0.00063986236093810768 0 -0.024856237394973363 -0.00018605325496532974 0 -0.024124537089731838 -0.00036049984254263496 0 -0.024143671159753393 -0.0011524678145952755 0 -0.024124537089731838 -0.00036049984254263496 0 -0.0236539761043526 0.00068904894950068754 0 -0.023193113215723486 -0.00012555611127318834 0 -0.024733500724030077 9.2788925337750224e-05 0 -0.024124537089731838 -0.00036049984254263496 0 -0.0236539761043526 0.00068904894950068754 0 -0.024721398798757753 0.00012044020523428439 0 -0.024262314379931666 0.00039608565932271514 0 -0.024904997790502051 0.00011696362560512643 0 -0.024839410763377395 9.4500533772769589e-05 0 -0.024917570897045174 6.8385081364802648e-05 0 -0.024733500724030077 9.2788925337750224e-05 0 -0.024904997790502051 0.00011696362560512643 0 -0.024839410763377395 9.4500533772769589e-05 0 -0.024839805894993405 0.00011008001509192991 0 -0.024733500724030077 9.2788925337750224e-05 0 -0.024839410763377395 9.4500533772769589e-05 0 -0.024839805894993405 0.00011008001509192991 0 -0.024839410763377395 9.4500533772769589e-05 0 -0.024872940380212566 8.6823459983169547e-05 0 -0.024839410763377395 9.4500533772769589e-05 0 -0.024872940380212566 8.6823459983169547e-05 0 -0.024917570897045174 6.8385081364802648e-05 0 -0.018687535777260168 -3.4981666293611121e-05 0 -0.019880752362105243 0.00082648403574788875 0 -0.019655818754077251 -0.00057106459945708427 0 -0.019880752362105243 0.00082648403574788875 0 -0.020763795480688272 -0.00023421875747006656 0 -0.019655818754077251 -0.00057106459945708427 0 -0.018687535777260168 -3.4981666293611121e-05 0 -0.019880752362105243 0.00082648403574788875 0 -0.018451626495926278 0.0010879498542759568 0 -0.020717430695366416 0.00062299496268958059 0 -0.021245592558000268 -0.00068023854665112422 0 -0.023365270922583305 -0.00063986236093810768 0 -0.021245592558000268 -0.00068023854665112422 0 -0.02203122156936901 8.4263885489687803e-05 0 -0.02208194635180542 -0.00014045308885663482 0 -0.02221645842129669 3.0570191928469442e-05 0 -0.024143671159753393 -0.0011524678145952755 0 -0.023092548271413386 -0.0010053248421355637 0 -0.023323548677756288 -0.0020744201660029787 0 -0.024124537089731838 -0.00036049984254263496 0 -0.024143671159753393 -0.0011524678145952755 0 -0.023092548271413386 -0.0010053248421355637 0 -0.02203122156936901 8.4263885489687803e-05 0 -0.02208194635180542 -0.00014045308885663482 0 -0.021869484013509199 -2.3660986500791697e-05 0 -0.02199940981225559 -0.00022867747907055885 0 -0.02208194635180542 -0.00014045308885663482 0 -0.021906848117096724 -0.00014992199843917014 0 -0.02208194635180542 -0.00014045308885663482 0 -0.021869484013509199 -2.3660986500791697e-05 0 -0.021906848117096724 -0.00014992199843917014 0 -0.021984347090832891 -0.00021312699170557238 0 -0.021906848117096724 -0.00014992199843917014 0 -0.021889883636937762 -0.00011588635718526876 0 -0.021869484013509199 -2.3660986500791697e-05 0 -0.021906848117096724 -0.00014992199843917014 0 -0.021764124520696131 -2.3008731364030028e-06 0 -0.021906848117096724 -0.00014992199843917014 0 -0.021764124520696131 -2.3008731364030028e-06 0 -0.021889883636937762 -0.00011588635718526876 0 -0.021869484013509199 -2.3660986500791697e-05 0 -0.021764124520696131 -2.3008731364030028e-06 0 -0.021579810291088807 0.00019216462400113739 0 -0.021764124520696131 -2.3008731364030028e-06 0 -0.021579810291088807 0.00019216462400113739 0 -0.021763551962437684 -2.8680843684276336e-06 0 -0.021579810291088807 0.00019216462400113739 0 -0.021517364311616643 -0.00018167721290358874 0 -0.021763551962437684 -2.8680843684276336e-06 0 -0.020717430695366416 0.00062299496268958059 0 -0.021637819459925333 0.00017478238973418872 0 -0.019880752362105243 0.00082648403574788875 0 -0.021579810291088807 0.00019216462400113739 0 -0.020763795480688272 -0.00023421875747006656 0 -0.02203122156936901 8.4263885489687803e-05 0 -0.021869484013509199 -2.3660986500791697e-05 0 -0.021579810291088807 0.00019216462400113739 0 -0.021660937324575198 -0.00049164453342159017 0 -0.021517364311616643 -0.00018167721290358874 0 -0.021200379235680987 -0.00056580967067035282 0 -0.020763795480688272 -0.00023421875747006656 0 -0.021517364311616643 -0.00018167721290358874 0 -0.021200379235680987 -0.00056580967067035282 0 -0.021660937324575198 -0.00049164453342159017 0 -0.021517364311616643 -0.00018167721290358874 0 -0.02173916754411323 -0.00020553423900550609 0 -0.021517364311616643 -0.00018167721290358874 0 -0.02173916754411323 -0.00020553423900550609 0 -0.021763551962437684 -2.8680843684276336e-06 0 -0.021579810291088807 0.00019216462400113739 0 -0.020763795480688272 -0.00023421875747006656 0 -0.021517364311616643 -0.00018167721290358874 0 -0.021846952068181727 -0.00014356650939594107 0 -0.021893125947907082 -0.00020430791220254585 0 -0.021890251213838769 -9.4560326577059831e-05 0 -0.02173916754411323 -0.00020553423900550609 0 -0.021846952068181727 -0.00014356650939594107 0 -0.021763551962437684 -2.8680843684276336e-06 0 -0.02173916754411323 -0.00020553423900550609 0 -0.021846952068181727 -0.00014356650939594107 0 -0.021893125947907082 -0.00020430791220254585 0 -0.021906548035734785 -0.00029047781687239268 0 -0.021156940724524762 -0.00049753799989986922 0 -0.021660937324575198 -0.00049164453342159017 0 -0.02173916754411323 -0.00020553423900550609 0 -0.021893125947907082 -0.00020430791220254585 0 -0.021156940724524762 -0.00049753799989986922 0 -0.020880624288659673 -0.00040626046964304979 0 -0.021893125947907082 -0.00020430791220254585 0 -0.021945155587256855 -0.0001089175210322873 0 -0.021890251213838769 -9.4560326577059831e-05 0 -0.019756054543791653 -0.00078437306784949034 0 -0.019903411399690266 -0.00070181776499511671 0 -0.019811667742732009 -0.00089047521514330373 0 -0.019903411399690266 -0.00070181776499511671 0 -0.019950166074946193 -0.00088111642604186849 0 -0.019811667742732009 -0.00089047521514330373 0 -0.021945155587256855 -0.0001089175210322873 0 -0.021925690811213937 -0.00010507882657438717 0 -0.021890251213838769 -9.4560326577059831e-05 0 -0.021945155587256855 -0.0001089175210322873 0 -0.021925690811213937 -0.00010507882657438717 0 -0.021941194576068336 -0.00013517093320083992 0 -0.021925690811213937 -0.00010507882657438717 0 -0.021864907167037876 -6.3475181347101735e-05 0 -0.021890251213838769 -9.4560326577059831e-05 0 -0.021864907167037876 -6.3475181347101735e-05 0 -0.021890251213838769 -9.4560326577059831e-05 0 -0.021763551962437684 -2.8680843684276336e-06 0 -0.021846952068181727 -0.00014356650939594107 0 -0.021890251213838769 -9.4560326577059831e-05 0 -0.021763551962437684 -2.8680843684276336e-06 0 -0.021764124520696131 -2.3008731364030028e-06 0 -0.021864907167037876 -6.3475181347101735e-05 0 -0.021763551962437684 -2.8680843684276336e-06 0 -0.021764124520696131 -2.3008731364030028e-06 0 -0.021864907167037876 -6.3475181347101735e-05 0 -0.021889883636937762 -0.00011588635718526876 0 -0.021864907167037876 -6.3475181347101735e-05 0 -0.021889883636937762 -0.00011588635718526876 0 -0.021938636555833259 -0.00014088703283063447 0 -0.021889883636937762 -0.00011588635718526876 0 -0.021967062330589374 -0.00020256036785085968 0 -0.021938636555833259 -0.00014088703283063447 0 -0.021984347090832891 -0.00021312699170557238 0 -0.021889883636937762 -0.00011588635718526876 0 -0.021967062330589374 -0.00020256036785085968 0 -0.022077603623291697 -0.00028037128602260639 0 -0.021967062330589374 -0.00020256036785085968 0 -0.021996589978995441 -0.00028746690868509489 0 -0.021967062330589374 -0.00020256036785085968 0 -0.021954591604996024 -0.00022983524016600469 0 -0.021996589978995441 -0.00028746690868509489 0 -0.021967062330589374 -0.00020256036785085968 0 -0.021938636555833259 -0.00014088703283063447 0 -0.021954591604996024 -0.00022983524016600469 0 -0.021925690811213937 -0.00010507882657438717 0 -0.021864907167037876 -6.3475181347101735e-05 0 -0.021938636555833259 -0.00014088703283063447 0 -0.021938636555833259 -0.00014088703283063447 0 -0.021941194576068336 -0.00013517093320083992 0 -0.021954591604996024 -0.00022983524016600469 0 -0.021925690811213937 -0.00010507882657438717 0 -0.021938636555833259 -0.00014088703283063447 0 -0.021941194576068336 -0.00013517093320083992 0 -0.021941194576068336 -0.00013517093320083992 0 -0.021921863562980884 -0.00018319033102773049 0 -0.021954591604996024 -0.00022983524016600469 0 -0.021921863562980884 -0.00018319033102773049 0 -0.021834714737448833 -0.00027414109468286316 0 -0.021895976803245822 -8.0847900022991892e-05 0 -0.021941194576068336 -0.00013517093320083992 0 -0.021921863562980884 -0.00018319033102773049 0 -0.021895976803245822 -8.0847900022991892e-05 0 -0.021904791133504214 -0.00027989792136048582 0 -0.021820160571210657 -0.00037039877932000542 0 -0.021834714737448833 -0.00027414109468286316 0 -0.021921863562980884 -0.00018319033102773049 0 -0.021904791133504214 -0.00027989792136048582 0 -0.021834714737448833 -0.00027414109468286316 0 -0.021921863562980884 -0.00018319033102773049 0 -0.021904791133504214 -0.00027989792136048582 0 -0.021954591604996024 -0.00022983524016600469 0 -0.021904791133504214 -0.00027989792136048582 0 -0.021954591604996024 -0.00022983524016600469 0 -0.021930859981720115 -0.00032929202990505599 0 -0.021954591604996024 -0.00022983524016600469 0 -0.021930859981720115 -0.00032929202990505599 0 -0.021996589978995441 -0.00028746690868509489 0 -0.021904791133504214 -0.00027989792136048582 0 -0.021930859981720115 -0.00032929202990505599 0 -0.021820160571210657 -0.00037039877932000542 0 -0.022022645239065428 -0.00034486944573766757 0 -0.021930859981720115 -0.00032929202990505599 0 -0.021867128102352539 -0.00039396035296258885 0 -0.022022645239065428 -0.00034486944573766757 0 -0.021930859981720115 -0.00032929202990505599 0 -0.021996589978995441 -0.00028746690868509489 0 -0.021881674770234887 -0.00040347412954591389 0 -0.022022645239065428 -0.00034486944573766757 0 -0.021867128102352539 -0.00039396035296258885 0 -0.021881674770234887 -0.00040347412954591389 0 -0.021867128102352539 -0.00039396035296258885 0 -0.021709765483365537 -0.0004582142282105083 0 -0.021881674770234887 -0.00040347412954591389 0 -0.021709765483365537 -0.0004582142282105083 0 -0.021613563873311967 -0.00049557362393912326 0 -0.021930859981720115 -0.00032929202990505599 0 -0.021867128102352539 -0.00039396035296258885 0 -0.021820160571210657 -0.00037039877932000542 0 -0.021867128102352539 -0.00039396035296258885 0 -0.021709765483365537 -0.0004582142282105083 0 -0.021820160571210657 -0.00037039877932000542 0 -0.021709765483365537 -0.0004582142282105083 0 -0.021613563873311967 -0.00049557362393912326 0 -0.021528664363750984 -0.0005217054149821203 0 -0.020931049551757081 -0.00053781779237334197 0 -0.021211095955090145 -0.00059446988533354446 0 -0.020730975336710752 -0.00097625171360802925 0 -0.020368814064003152 -0.0009418721374709532 0 -0.02113410896280048 -0.00065303426600192994 0 -0.021709765483365537 -0.0004582142282105083 0 -0.021656516402774387 -0.00041317984360148555 0 -0.021528664363750984 -0.0005217054149821203 0 -0.021656516402774387 -0.00041317984360148555 0 -0.021888639296434607 -1.1635137978089174e-05 0 -0.02113410896280048 -0.00065303426600192994 0 -0.021709765483365537 -0.0004582142282105083 0 -0.021656516402774387 -0.00041317984360148555 0 -0.021820160571210657 -0.00037039877932000542 0 -0.021656516402774387 -0.00041317984360148555 0 -0.021820160571210657 -0.00037039877932000542 0 -0.021834714737448833 -0.00027414109468286316 0 -0.021656516402774387 -0.00041317984360148555 0 -0.021834714737448833 -0.00027414109468286316 0 -0.021888639296434607 -1.1635137978089174e-05 0 -0.021834714737448833 -0.00027414109468286316 0 -0.021888639296434607 -1.1635137978089174e-05 0 -0.021895976803245822 -8.0847900022991892e-05 0 -0.020730975336710752 -0.00097625171360802925 0 -0.020368814064003152 -0.0009418721374709532 0 -0.020583984849528857 -0.0013103156030469932 0 -0.020931049551757081 -0.00053781779237334197 0 -0.019279157345256006 -0.0010328867007648947 0 -0.020730975336710752 -0.00097625171360802925 0 -0.020583984849528857 -0.0013103156030469932 0 -0.020865535143670469 -0.0010115946421059194 0 -0.019279157345256006 -0.0010328867007648947 0 -0.019880891765388733 -0.0013569954213730315 0 -0.020931049551757081 -0.00053781779237334197 0 -0.020978202153070745 -0.00050745544431765935 0 -0.019903411399690266 -0.00070181776499511671 0 -0.020049617801731132 -0.00062205896249641871 0 -0.020100213429179295 -0.00075065156084534854 0 -0.020880624288659673 -0.00040626046964304979 0 -0.020931049551757081 -0.00053781779237334197 0 -0.021945155587256855 -0.0001089175210322873 0 -0.021941194576068336 -0.00013517093320083992 0 -0.021891677654513352 -8.2111627144169916e-05 0 -0.021941194576068336 -0.00013517093320083992 0 -0.021891677654513352 -8.2111627144169916e-05 0 -0.021895976803245822 -8.0847900022991892e-05 0 -0.019903411399690266 -0.00070181776499511671 0 -0.020100213429179295 -0.00075065156084534854 0 -0.019950166074946193 -0.00088111642604186849 0 -0.019279157345256006 -0.0010328867007648947 0 -0.019061108713397598 -0.00066146234424780998 0 -0.017820760142502584 -0.00067930464128293326 0 -0.017779001049206964 -0.00060887603858365965 0 -0.017829551165991199 -0.00058577866749550409 0 -0.019279157345256006 -0.0010328867007648947 0 -0.018260477355645153 -0.00083846114296743908 0 -0.019019892030579928 -0.0014566470745762756 0 -0.018746548185078083 -0.00097483562648768873 0 -0.018650197990445806 -0.0013419759276455316 0 -0.017779001049206964 -0.00060887603858365965 0 -0.017829551165991199 -0.00058577866749550409 0 -0.017739907675411941 -0.00053468372649170088 0 -0.017829551165991199 -0.00058577866749550409 0 -0.017864444108944423 -0.00052797182235528285 0 -0.017739907675411941 -0.00053468372649170088 0 -0.017820760142502584 -0.00067930464128293326 0 -0.017829551165991199 -0.00058577866749550409 0 -0.017900153391527437 -0.00059353541352418686 0 -0.017829551165991199 -0.00058577866749550409 0 -0.017900153391527437 -0.00059353541352418686 0 -0.017864444108944423 -0.00052797182235528285 0 -0.015479999753868552 2.6259974259575108e-05 0 -0.015464930730797542 -2.881630908060198e-05 0 -0.015481010854087833 -4.3468473763578455e-05 0 -0.015479999753868552 2.6259974259575108e-05 0 -0.015523029869889337 1.920993841485394e-05 0 -0.015464930730797542 -2.881630908060198e-05 0 -0.015479999753868552 2.6259974259575108e-05 0 -0.015523029869889337 1.920993841485394e-05 0 -0.015613942025146588 0.00013007535230598327 0 -0.016370587665104779 -0.00021469021450243157 0 -0.017077254793580333 -0.00021071737299672988 0 -0.015523029869889337 1.920993841485394e-05 0 -0.015458772857667549 -8.1431628584544157e-05 0 -0.015524893910565881 -0.0001048915572767127 0 -0.015523029869889337 1.920993841485394e-05 0 -0.015458772857667549 -8.1431628584544157e-05 0 -0.015464930730797542 -2.881630908060198e-05 0 -0.015458772857667549 -8.1431628584544157e-05 0 -0.015524893910565881 -0.0001048915572767127 0 -0.015431028432241294 -0.00014236032607242943 0 -0.015458772857667549 -8.1431628584544157e-05 0 -0.015431028432241294 -0.00014236032607242943 0 -0.015440032870039609 -8.5310389037054505e-05 0 -0.015458772857667549 -8.1431628584544157e-05 0 -0.015451459607351834 -6.6451652740940242e-05 0 -0.015440032870039609 -8.5310389037054505e-05 0 -0.015458772857667549 -8.1431628584544157e-05 0 -0.015451459607351834 -6.6451652740940242e-05 0 -0.015464930730797542 -2.881630908060198e-05 0 -0.015451459607351834 -6.6451652740940242e-05 0 -0.015464930730797542 -2.881630908060198e-05 0 -0.015466134672048798 -5.2802895242141256e-05 0 -0.015464930730797542 -2.881630908060198e-05 0 -0.015466134672048798 -5.2802895242141256e-05 0 -0.015481010854087833 -4.3468473763578455e-05 0 -0.015451459607351834 -6.6451652740940242e-05 0 -0.015466134672048798 -5.2802895242141256e-05 0 -0.015466070844298746 -3.0848972019929546e-05 0 -0.015466134672048798 -5.2802895242141256e-05 0 -0.015494783558123613 -4.3987086879381359e-05 0 -0.015466070844298746 -3.0848972019929546e-05 0 -0.015494783558123613 -4.3987086879381359e-05 0 -0.015535869137565691 -4.5812628223786781e-05 0 -0.015514646397342145 -3.8930359619722551e-06 0 -0.015466134672048798 -5.2802895242141256e-05 0 -0.015494783558123613 -4.3987086879381359e-05 0 -0.01551682652029906 -7.2264485792101205e-05 0 -0.015466134672048798 -5.2802895242141256e-05 0 -0.015481010854087833 -4.3468473763578455e-05 0 -0.01551682652029906 -7.2264485792101205e-05 0 -0.01979677601315771 -0.0010144645439583418 0 -0.019700666021885201 -0.0009459126214564162 0 -0.019596053145502244 -0.0010405240512237929 0 -0.017823253523796344 -0.00070893312338141199 0 -0.019295531101826045 -0.0013144976807307311 0 -0.018140511073197182 -0.0011672175217521115 0 -0.017943811727148751 -0.0011953001015664918 0 -0.01799067590076146 -0.0013113533168873188 0 -0.017823253523796344 -0.00070893312338141199 0 -0.016589863885251955 -0.00073576029620889976 0 -0.017900153391527437 -0.00059353541352418686 0 -0.017864444108944423 -0.00052797182235528285 0 -0.017976045936612114 -0.00052180859180670479 0 -0.016370587665104779 -0.00021469021450243157 0 -0.017823253523796344 -0.00070893312338141199 0 -0.019950166074946193 -0.00088111642604186849 0 -0.01979677601315771 -0.0010144645439583418 0 -0.019811667742732009 -0.00089047521514330373 0 -0.019061108713397598 -0.00066146234424780998 0 -0.017823253523796344 -0.00070893312338141199 0 -0.019756054543791653 -0.00078437306784949034 0 -0.019700666021885201 -0.0009459126214564162 0 -0.019619944300938549 -0.00091997583705944169 0 -0.019756054543791653 -0.00078437306784949034 0 -0.019811667742732009 -0.00089047521514330373 0 -0.019700666021885201 -0.0009459126214564162 0 -0.01979677601315771 -0.0010144645439583418 0 -0.019811667742732009 -0.00089047521514330373 0 -0.019700666021885201 -0.0009459126214564162 0 -0.021660937324575198 -0.00049164453342159017 0 -0.02220599309536864 -0.00016002899522948554 0 -0.021408655575268873 -0.00096642358789639086 0 -0.021156940724524762 -0.00049753799989986922 0 -0.020521443897907936 -0.00092469400541825568 0 -0.021660937324575198 -0.00049164453342159017 0 -0.021408655575268873 -0.00096642358789639086 0 -0.021200379235680987 -0.00056580967067035282 0 -0.020763795480688272 -0.00023421875747006656 0 -0.020574024558601609 -0.0010111578045681564 0 -0.019655818754077251 -0.00057106459945708427 0 -0.021408655575268873 -0.00096642358789639086 0 -0.021200379235680987 -0.00056580967067035282 0 -0.020574024558601609 -0.0010111578045681564 0 -0.020763795480688272 -0.00023421875747006656 0 -0.021200379235680987 -0.00056580967067035282 0 -0.020574024558601609 -0.0010111578045681564 0 -0.020574024558601609 -0.0010111578045681564 0 -0.020406249901096022 -0.0018064732400025218 0 -0.019673786270957092 -0.001221029405482817 0 -0.020521443897907936 -0.00092469400541825568 0 -0.019733530067917542 -0.0014831282934637657 0 -0.019369527567612413 -0.0016365587189878909 0 -0.019845993824000398 -0.0015840798820964226 0 -0.019382389384575281 -0.0020340705717823305 0 -0.021408655575268873 -0.00096642358789639086 0 -0.020574024558601609 -0.0010111578045681564 0 -0.020406249901096022 -0.0018064732400025218 0 -0.019733530067917542 -0.0014831282934637657 0 -0.019295531101826045 -0.0013144976807307311 0 -0.019619944300938549 -0.00091997583705944169 0 -0.019502344646695924 -0.0010421668357572275 0 -0.019619919974235747 -0.0010250413210342024 0 -0.019700666021885201 -0.0009459126214564162 0 -0.019619944300938549 -0.00091997583705944169 0 -0.019619919974235747 -0.0010250413210342024 0 -0.019788645744590546 -0.00086423230235341589 0 -0.019295531101826045 -0.0013144976807307311 0 -0.017943811727148751 -0.0011953001015664918 0 -0.01799067590076146 -0.0013113533168873188 0 -0.017796239335224468 -0.0013379760028782014 0 -0.01551682652029906 -7.2264485792101205e-05 0 -0.015535869137565691 -4.5812628223786781e-05 0 -0.015603612556395755 -5.6622835397151501e-05 0 -0.015494783558123613 -4.3987086879381359e-05 0 -0.01551682652029906 -7.2264485792101205e-05 0 -0.015535869137565691 -4.5812628223786781e-05 0 -0.016589863885251955 -0.00073576029620889976 0 -0.016727019649501074 -0.00068340803789554904 0 -0.015535869137565691 -4.5812628223786781e-05 0 -0.015603612556395755 -5.6622835397151501e-05 0 -0.015596486343616434 9.6362465351646404e-06 0 -0.019295531101826045 -0.0013144976807307311 0 -0.018523971350139137 -0.0017239240587845271 0 -0.01799067590076146 -0.0013113533168873188 0 -0.017835735011629158 -0.0014596471692272189 0 -0.017796239335224468 -0.0013379760028782014 0 -0.019733530067917542 -0.0014831282934637657 0 -0.018962903716533839 -0.0020725715733154087 0 -0.019369527567612413 -0.0016365587189878909 0 -0.019382389384575281 -0.0020340705717823305 0 -0.018938227950772487 -0.0020355073372049677 0 -0.019529155806269346 -0.001647997854940473 0 -0.019125971493060938 -0.0020197313352370285 0 -0.018948376115128979 -0.0016989519713605718 0 -0.017835735011629158 -0.0014596471692272189 0 -0.017796239335224468 -0.0013379760028782014 0 -0.017652969831147284 -0.0014844329877522055 0 -0.018523971350139137 -0.0017239240587845271 0 -0.018254100950791531 -0.0019785304767500986 0 -0.019382389384575281 -0.0020340705717823305 0 -0.018938227950772487 -0.0020355073372049677 0 -0.018896238763111188 -0.0025307441610027898 0 -0.018962903716533839 -0.0020725715733154087 0 -0.018533411055064522 -0.0024253774761667096 0 -0.018938227950772487 -0.0020355073372049677 0 -0.018896238763111188 -0.0025307441610027898 0 -0.01845082329692125 -0.0024773595963600878 0 -0.018896238763111188 -0.0025307441610027898 0 -0.01845082329692125 -0.0024773595963600878 0 -0.018416522721273393 -0.0027174789941265074 0 -0.01845082329692125 -0.0024773595963600878 0 -0.018709172024572059 -0.0020250165855477289 0 -0.01829619948381906 -0.0019433585194764526 0 -0.019125971493060938 -0.0020197313352370285 0 -0.01845082329692125 -0.0024773595963600878 0 -0.018709172024572059 -0.0020250165855477289 0 -0.019125971493060938 -0.0020197313352370285 0 -0.018709172024572059 -0.0020250165855477289 0 -0.018948376115128979 -0.0016989519713605718 0 -0.018948376115128979 -0.0016989519713605718 0 -0.018278091497924392 -0.0014340826820478604 0 -0.01829619948381906 -0.0019433585194764526 0 -0.018709172024572059 -0.0020250165855477289 0 -0.018948376115128979 -0.0016989519713605718 0 -0.01829619948381906 -0.0019433585194764526 0 -0.018948376115128979 -0.0016989519713605718 0 -0.018892895912333226 -0.00099761659443091443 0 -0.018278091497924392 -0.0014340826820478604 0 -0.018948376115128979 -0.0016989519713605718 0 -0.019673786270957092 -0.001221029405482817 0 -0.018892895912333226 -0.00099761659443091443 0 -0.019733530067917542 -0.0014831282934637657 0 -0.019120214646749404 -0.0017597379838575015 0 -0.020406249901096022 -0.0018064732400025218 0 -0.018948376115128979 -0.0016989519713605718 0 -0.019673786270957092 -0.001221029405482817 0 -0.019673786270957092 -0.001221029405482817 0 -0.019655818754077251 -0.00057106459945708427 0 -0.018892895912333226 -0.00099761659443091443 0 -0.020574024558601609 -0.0010111578045681564 0 -0.019673786270957092 -0.001221029405482817 0 -0.019655818754077251 -0.00057106459945708427 0 -0.018687535777260168 -3.4981666293611121e-05 0 -0.018892895912333226 -0.00099761659443091443 0 -0.018173272508361309 -0.00073858536273469562 0 -0.018687535777260168 -3.4981666293611121e-05 0 -0.019655818754077251 -0.00057106459945708427 0 -0.018892895912333226 -0.00099761659443091443 0 -0.016335418684062145 -0.00085707573658962307 0 -0.016820403862087319 -0.0010245733032910654 0 -0.01678659508320245 -0.00056909787083101056 0 -0.01643615149311849 -0.00042662799227872328 0 -0.018096664410733598 -0.00048164065392651112 0 -0.016943181001588415 -0.00012097803844747744 0 -0.016973534767939995 -6.6707829962716646e-05 0 -0.016839280132541282 -5.1598077263645056e-05 0 -0.016943181001588415 -0.00012097803844747744 0 -0.016842955471690943 -8.6777324323750567e-05 0 -0.016839280132541282 -5.1598077263645056e-05 0 -0.018096664410733598 -0.00048164065392651112 0 -0.016331147380305291 -0.0011612768738457988 0 -0.018267989564082484 -0.0012068674877602544 0 -0.018610242495198652 -0.00089652838532663925 0 -0.018210784130250408 -0.00042089522121491901 0 -0.018610242495198652 -0.00089652838532663925 0 -0.018210784130250408 -0.00042089522121491901 0 -0.019030784571291082 -0.00063544703678657729 0 -0.018096664410733598 -0.00048164065392651112 0 -0.019775004721574826 5.0314932835460345e-05 0 -0.019150108437486279 -0.00045052107986887226 0 -0.019714121552952133 -0.00064920965969832351 0 -0.019176624698696878 -0.00086677807972116469 0 -0.018648812523046641 -0.0013393628369832678 0 -0.018610242495198652 -0.00089652838532663925 0 -0.018975083247628692 -0.0012073657593837475 0 -0.018267989564082484 -0.0012068674877602544 0 -0.018648812523046641 -0.0013393628369832678 0 -0.018610242495198652 -0.00089652838532663925 0 -0.020391879295719811 -0.00083572673187616066 0 -0.021720411284149775 -0.0013876610489448953 0 -0.018096664410733598 -0.00048164065392651112 0 -0.020391879295719811 -0.00083572673187616066 0 -0.015403237624985871 -0.0016330093495456476 0 -0.015625544340977165 -0.0014867835651341465 0 -0.015864988728675783 -0.001754483019654121 0 -0.016331147380305291 -0.0011612768738457988 0 -0.015294259729281643 -0.0013229611392280127 0 -0.015403237624985871 -0.0016330093495456476 0 -0.015625544340977165 -0.0014867835651341465 0 -0.015351307360370733 -0.0010932561498697545 0 -0.016331147380305291 -0.0011612768738457988 0 -0.01863218827775729 -0.001259851570017111 0 -0.015625544340977165 -0.0014867835651341465 0 -0.015784310658903445 -0.0013293235320613864 0 -0.015636738045105986 -0.0012039234733475692 0 -0.015369182247357532 -0.0021119722749276767 0 -0.014613141173562832 -0.001919863413591163 0 -0.015315326191274087 -0.0013118855808474425 0 -0.016335418684062145 -0.00085707573658962307 0 -0.01678659508320245 -0.00056909787083101056 0 -0.016257171991788503 -0.00043069933338802697 0 -0.016331147380305291 -0.0011612768738457988 0 -0.015319068547291707 -0.0011769368546129869 0 -0.016257171991788503 -0.00043069933338802697 0 -0.015857787960990768 -0.00068907692700992884 0 -0.015733952360267426 -0.00029239323233184333 0 -0.015319068547291707 -0.0011769368546129869 0 -0.015347745078429587 -0.00046613476999006953 0 -0.016335418684062145 -0.00085707573658962307 0 -0.016257171991788503 -0.00043069933338802697 0 -0.015857787960990768 -0.00068907692700992884 0 -0.016307121170183451 0.00010930405136179334 0 -0.016851110648768746 -7.5693334935304313e-05 0 -0.015515963558184699 9.1281582026939297e-07 0 -0.016805593021775787 -1.5934338859034992e-05 0 -0.016307121170183451 0.00010930405136179334 0 -0.016851110648768746 -7.5693334935304313e-05 0 -0.016851110648768746 -7.5693334935304313e-05 0 -0.016923398571500898 -8.5560926852656159e-07 0 -0.015515963558184699 9.1281582026939297e-07 0 -0.016568997585795418 -0.00023053878644909372 0 -0.015347745078429587 -0.00046613476999006953 0 -0.016851110648768746 -7.5693334935304313e-05 0 -0.016863574329070829 -5.3091284070825189e-05 0 -0.017011495167740389 -0.00011070999216380703 0 -0.016805593021775787 -1.5934338859034992e-05 0 -0.016851110648768746 -7.5693334935304313e-05 0 -0.016863574329070829 -5.3091284070825189e-05 0 -0.016851110648768746 -7.5693334935304313e-05 0 -0.017011495167740389 -0.00011070999216380703 0 -0.017189865826688706 -0.0001097311215080722 0 -0.016851110648768746 -7.5693334935304313e-05 0 -0.016923398571500898 -8.5560926852656159e-07 0 -0.017189865826688706 -0.0001097311215080722 0 -0.01643615149311849 -0.00042662799227872328 0 -0.016568997585795418 -0.00023053878644909372 0 -0.016943181001588415 -0.00012097803844747744 0 -0.017020353932864819 -0.00014617470271885416 0 -0.017011495167740389 -0.00011070999216380703 0 -0.016805593021775787 -1.5934338859034992e-05 0 -0.016863574329070829 -5.3091284070825189e-05 0 -0.017011495167740389 -0.00011070999216380703 0 -0.016568997585795418 -0.00023053878644909372 0 -0.016758852540745432 -0.0001935593035943515 0 -0.017011495167740389 -0.00011070999216380703 0 -0.016973534767939995 -6.6707829962716646e-05 0 -0.017189865826688706 -0.0001097311215080722 0 -0.016943181001588415 -0.00012097803844747744 0 -0.017011495167740389 -0.00011070999216380703 0 -0.016973534767939995 -6.6707829962716646e-05 0 -0.016973534767939995 -6.6707829962716646e-05 0 -0.016992099186667664 8.3216297112738435e-05 0 -0.017189865826688706 -0.0001097311215080722 0 -0.016992099186667664 8.3216297112738435e-05 0 -0.017189865826688706 -0.0001097311215080722 0 -0.018330009529768952 8.0774825386723652e-07 0 -0.016923398571500898 -8.5560926852656159e-07 0 -0.017189865826688706 -0.0001097311215080722 0 -0.018330009529768952 8.0774825386723652e-07 0 -0.018601575389295775 0.00067557113677323101 0 -0.018332039205654807 1.8235806745299121e-07 0 -0.020082653400028769 0.00012683139222609125 0 -0.02042286939830211 0.0011948264564707026 0 -0.018335072075258484 2.6244575821817907e-06 0 -0.020901488991044537 0.0002409259205511581 0 -0.020082653400028769 0.00012683139222609125 0 -0.02042286939830211 0.0011948264564707026 0 -0.020901488991044537 0.0002409259205511581 0 -0.02042286939830211 0.0011948264564707026 0 -0.021484814593566066 0.00045985379506291733 0 -0.018601575389295775 0.00067557113677323101 0 -0.019775004721574826 5.0314932835460345e-05 0 -0.02042286939830211 0.0011948264564707026 0 -0.02140123033990354 0.0015606757957452437 0 -0.021484814593566066 0.00045985379506291733 0 -0.016973534767939995 -6.6707829962716646e-05 0 -0.016992099186667664 8.3216297112738435e-05 0 -0.016839280132541282 -5.1598077263645056e-05 0 -0.021949883528810048 -0.00033357021418404663 0 -0.021930153494857267 -0.00028983207834720298 0 -0.021964775726810999 -0.00021771643537925206 0 -0.021922216540898695 -0.00034804147014070729 0 -0.021949883528810048 -0.00033357021418404663 0 -0.021930153494857267 -0.00028983207834720298 0 -0.021922216540898695 -0.00034804147014070729 0 -0.021930153494857267 -0.00028983207834720298 0 -0.021895350498268858 -0.00033885818029047232 0 -0.020391879295719811 -0.00083572673187616066 0 -0.02228203523265394 -0.0010410115090690485 0 -0.020391879295719811 -0.00083572673187616066 0 -0.019775004721574826 5.0314932835460345e-05 0 -0.021930153494857267 -0.00028983207834720298 0 -0.021964775726810999 -0.00021771643537925206 0 -0.021915859118529907 -0.00024011568373870503 0 -0.019775004721574826 5.0314932835460345e-05 0 -0.021980838724253406 0.00025647395338601793 0 -0.022530368896352432 -0.00027461013354821264 0 -0.022716389910032594 -0.00045585210588877835 0 -0.022417966985945958 -0.00053372000553332055 0 -0.022417966985945958 -0.00053372000553332055 0 -0.022065604975602181 -0.00075692188762621214 0 -0.022112271968029971 -0.00034420186517717858 0 -0.022530368896352432 -0.00027461013354821264 0 -0.022417966985945958 -0.00053372000553332055 0 -0.022112271968029971 -0.00034420186517717858 0 -0.022065604975602181 -0.00075692188762621214 0 -0.02353583109379604 -0.0012956725440974228 0 -0.022450261482481679 -0.0014712859732536453 0 -0.022417966985945958 -0.00053372000553332055 0 -0.022065604975602181 -0.00075692188762621214 0 -0.022712213222466599 -0.00098506208234695573 0 -0.02246188674848975 -0.00085427186113539518 0 -0.02228203523265394 -0.0010410115090690485 0 -0.022065604975602181 -0.00075692188762621214 0 -0.021567111032098879 -0.0012583704025207053 0 -0.022450261482481679 -0.0014712859732536453 0 -0.022322314397687035 -0.00027492456677135577 0 -0.02228203523265394 -0.0010410115090690485 0 -0.022716389910032594 -0.00045585210588877835 0 -0.022417966985945958 -0.00053372000553332055 0 -0.022712213222466599 -0.00098506208234695573 0 -0.021930153494857267 -0.00028983207834720298 0 -0.021915859118529907 -0.00024011568373870503 0 -0.021895350498268858 -0.00033885818029047232 0 -0.021613563873311967 -0.00049557362393912326 0 -0.02113410896280048 -0.00065303426600192994 0 -0.021528664363750984 -0.0005217054149821203 0 -0.021919184031383359 -0.00036250428732067467 0 -0.021881674770234887 -0.00040347412954591389 0 -0.021613563873311967 -0.00049557362393912326 0 -0.021919184031383359 -0.00036250428732067467 0 -0.021613563873311967 -0.00049557362393912326 0 -0.021622146243788404 -0.0004821954533196328 0 -0.021613563873311967 -0.00049557362393912326 0 -0.021622146243788404 -0.0004821954533196328 0 -0.02113410896280048 -0.00065303426600192994 0 -0.022065604975602181 -0.00075692188762621214 0 -0.022112271968029971 -0.00034420186517717858 0 -0.021497594995913409 -0.00062027191195398676 0 -0.021622146243788404 -0.0004821954533196328 0 -0.022112271968029971 -0.00034420186517717858 0 -0.021497594995913409 -0.00062027191195398676 0 -0.021919184031383359 -0.00036250428732067467 0 -0.021622146243788404 -0.0004821954533196328 0 -0.022112271968029971 -0.00034420186517717858 0 -0.022065604975602181 -0.00075692188762621214 0 -0.021497594995913409 -0.00062027191195398676 0 -0.021567111032098879 -0.0012583704025207053 0 -0.021497594995913409 -0.00062027191195398676 0 -0.020561204932464935 -0.0010846067528987836 0 -0.021567111032098879 -0.0012583704025207053 0 -0.021497594995913409 -0.00062027191195398676 0 -0.02113410896280048 -0.00065303426600192994 0 -0.020561204932464935 -0.0010846067528987836 0 -0.021622146243788404 -0.0004821954533196328 0 -0.021497594995913409 -0.00062027191195398676 0 -0.02113410896280048 -0.00065303426600192994 0 -0.02113410896280048 -0.00065303426600192994 0 -0.020561204932464935 -0.0010846067528987836 0 -0.020872558520478507 -0.00095125409579314589 0 -0.020730975336710752 -0.00097625171360802925 0 -0.02113410896280048 -0.00065303426600192994 0 -0.020872558520478507 -0.00095125409579314589 0 -0.021656516402774387 -0.00041317984360148555 0 -0.02113410896280048 -0.00065303426600192994 0 -0.021528664363750984 -0.0005217054149821203 0 -0.020730975336710752 -0.00097625171360802925 0 -0.020872558520478507 -0.00095125409579314589 0 -0.020865535143670469 -0.0010115946421059194 0 -0.020343091117166392 -0.0011415542099442956 0 -0.019880891765388733 -0.0013569954213730315 0 -0.020561204932464935 -0.0010846067528987836 0 -0.020872558520478507 -0.00095125409579314589 0 -0.020865535143670469 -0.0010115946421059194 0 -0.020561204932464935 -0.0010846067528987836 0 -0.018776701012854117 -0.001728715118600385 0 -0.019901971686132773 -0.0015527200606041916 0 -0.018776701012854117 -0.001728715118600385 0 -0.019901971686132773 -0.0015527200606041916 0 -0.018999754067190375 -0.0015854677009769804 0 -0.018776701012854117 -0.001728715118600385 0 -0.018999754067190375 -0.0015854677009769804 0 -0.018671398511758645 -0.0014834575877727652 0 -0.019901971686132773 -0.0015527200606041916 0 -0.018510853971943662 -0.0016206904818156216 0 -0.017202102943954127 -0.0021269399893794824 0 -0.019901971686132773 -0.0015527200606041916 0 -0.021567111032098879 -0.0012583704025207053 0 -0.022224265600783798 -0.002041518868361751 0 -0.01968243609685166 -0.0016286664328342617 0 -0.019932409507905088 -0.0020941900399541555 0 -0.019901971686132773 -0.0015527200606041916 0 -0.018999754067190375 -0.0015854677009769804 0 -0.018510853971943662 -0.0016206904818156216 0 -0.018999754067190375 -0.0015854677009769804 0 -0.018510853971943662 -0.0016206904818156216 0 -0.018289908828407881 -0.0014356508043970242 0 -0.020561204932464935 -0.0010846067528987836 0 -0.019901971686132773 -0.0015527200606041916 0 -0.021567111032098879 -0.0012583704025207053 0 -0.018510853971943662 -0.0016206904818156216 0 -0.017723757887059956 -0.0015457196121198688 0 -0.018289908828407881 -0.0014356508043970242 0 -0.018510853971943662 -0.0016206904818156216 0 -0.017723757887059956 -0.0015457196121198688 0 -0.017202102943954127 -0.0021269399893794824 0 -0.017723757887059956 -0.0015457196121198688 0 -0.017756052561431559 -0.0012803811106148423 0 -0.017242953442440354 -0.0011963292280260962 0 -0.017723757887059956 -0.0015457196121198688 0 -0.017756052561431559 -0.0012803811106148423 0 -0.018289908828407881 -0.0014356508043970242 0 -0.017756052561431559 -0.0012803811106148423 0 -0.018012055941725495 -0.0011947326973035294 0 -0.018289908828407881 -0.0014356508043970242 0 -0.017756052561431559 -0.0012803811106148423 0 -0.017535946725393232 -0.0010080818352365083 0 -0.017242953442440354 -0.0011963292280260962 0 -0.017535946725393232 -0.0010080818352365083 0 -0.018012055941725495 -0.0011947326973035294 0 -0.017800711403601552 -0.00097984581015376137 0 -0.017535946725393232 -0.0010080818352365083 0 -0.017800711403601552 -0.00097984581015376137 0 -0.017497271258224114 -0.00082347874578045334 0 -0.017756052561431559 -0.0012803811106148423 0 -0.017535946725393232 -0.0010080818352365083 0 -0.018012055941725495 -0.0011947326973035294 0 -0.017800711403601552 -0.00097984581015376137 0 -0.018256008292553874 -0.0011603267004408064 0 -0.017941571239082434 -0.00094052829736686935 0 -0.018012055941725495 -0.0011947326973035294 0 -0.017800711403601552 -0.00097984581015376137 0 -0.018256008292553874 -0.0011603267004408064 0 -0.018012055941725495 -0.0011947326973035294 0 -0.018351860187118783 -0.0013308328101154594 0 -0.018256008292553874 -0.0011603267004408064 0 -0.018999754067190375 -0.0015854677009769804 0 -0.018351860187118783 -0.0013308328101154594 0 -0.018289908828407881 -0.0014356508043970242 0 -0.018012055941725495 -0.0011947326973035294 0 -0.018351860187118783 -0.0013308328101154594 0 -0.018289908828407881 -0.0014356508043970242 0 -0.018999754067190375 -0.0015854677009769804 0 -0.018351860187118783 -0.0013308328101154594 0 -0.018671398511758645 -0.0014834575877727652 0 -0.018351860187118783 -0.0013308328101154594 0 -0.018671398511758645 -0.0014834575877727652 0 -0.018256008292553874 -0.0011603267004408064 0 -0.018256008292553874 -0.0011603267004408064 0 -0.018650197990445806 -0.0013419759276455316 0 -0.018311922438890179 -0.00098502964800297409 0 -0.018671398511758645 -0.0014834575877727652 0 -0.018256008292553874 -0.0011603267004408064 0 -0.018650197990445806 -0.0013419759276455316 0 -0.018256008292553874 -0.0011603267004408064 0 -0.018099811357870303 -0.00095901171453782578 0 -0.017941571239082434 -0.00094052829736686935 0 -0.018256008292553874 -0.0011603267004408064 0 -0.018311922438890179 -0.00098502964800297409 0 -0.018099811357870303 -0.00095901171453782578 0 -0.018746548185078083 -0.00097483562648768873 0 -0.018650197990445806 -0.0013419759276455316 0 -0.018311922438890179 -0.00098502964800297409 0 -0.018776701012854117 -0.001728715118600385 0 -0.018671398511758645 -0.0014834575877727652 0 -0.018650197990445806 -0.0013419759276455316 0 -0.019019892030579928 -0.0014566470745762756 0 -0.018776701012854117 -0.001728715118600385 0 -0.018650197990445806 -0.0013419759276455316 0 -0.02353583109379604 -0.0012956725440974228 0 -0.022450261482481679 -0.0014712859732536453 0 -0.022747127904796681 -0.0019724112355502059 0 -0.019932409507905088 -0.0020941900399541555 0 -0.01863218827775729 -0.001259851570017111 0 -0.023357211831093887 -0.001700947342465913 0 -0.022747127904796681 -0.0019724112355502059 0 -0.023313933861022516 -0.0022235652101468021 0 -0.021720411284149775 -0.0013876610489448953 0 -0.01863218827775729 -0.001259851570017111 0 -0.018610242495198652 -0.00089652838532663925 0 -0.018975083247628692 -0.0012073657593837475 0 -0.019030784571291082 -0.00063544703678657729 0 -0.02353583109379604 -0.0012956725440974228 0 -0.023585422561122095 -0.001628371341764267 0 -0.022747127904796681 -0.0019724112355502059 0 -0.02228203523265394 -0.0010410115090690485 0 -0.021720411284149775 -0.0013876610489448953 0 -0.021706148016842151 -0.001239817798693306 0 -0.021653820419633877 -0.00091778640628405195 0 -0.021642041519946215 -0.0010281203852463175 0 -0.021250948209835138 -0.0010805000451325668 0 -0.021654263442622668 -0.0009175109637033893 0 -0.021642041519946215 -0.0010281203852463175 0 -0.021250948209835138 -0.0010805000451325668 0 -0.021706148016842151 -0.001239817798693306 0 -0.021642041519946215 -0.0010281203852463175 0 -0.021720411284149775 -0.0013876610489448953 0 -0.021721807686206539 -0.0013383917398117054 0 -0.021720411284149775 -0.0013876610489448953 0 -0.023204772621152232 -0.0016660256110561369 0 -0.022224265600783798 -0.002041518868361751 0 -0.022747127904796681 -0.0019724112355502059 0 -0.023313933861022516 -0.0022235652101468021 0 -0.022450261482481679 -0.0014712859732536453 0 -0.022224265600783798 -0.002041518868361751 0 -0.022747127904796681 -0.0019724112355502059 0 -0.017202102943954127 -0.0021269399893794824 0 -0.016624084926698628 -0.0015622399934815644 0 -0.015909560935054599 -0.0016543888534860487 0 -0.021567111032098879 -0.0012583704025207053 0 -0.022450261482481679 -0.0014712859732536453 0 -0.022224265600783798 -0.002041518868361751 0 -0.017723757887059956 -0.0015457196121198688 0 -0.017202102943954127 -0.0021269399893794824 0 -0.017105191985017611 -0.0015146846826786927 0 -0.017202102943954127 -0.0021269399893794824 0 -0.016624084926698628 -0.0015622399934815644 0 -0.017105191985017611 -0.0015146846826786927 0 -0.016624084926698628 -0.0015622399934815644 0 -0.017105191985017611 -0.0015146846826786927 0 -0.016825263928312843 -0.0012006405571341845 0 -0.016624084926698628 -0.0015622399934815644 0 -0.016552337119395369 -0.001162033811934916 0 -0.016825263928312843 -0.0012006405571341845 0 -0.017723757887059956 -0.0015457196121198688 0 -0.017105191985017611 -0.0015146846826786927 0 -0.017242953442440354 -0.0011963292280260962 0 -0.017105191985017611 -0.0015146846826786927 0 -0.017242953442440354 -0.0011963292280260962 0 -0.016825263928312843 -0.0012006405571341845 0 -0.017242953442440354 -0.0011963292280260962 0 -0.016871858323008106 -0.00093183599221412184 0 -0.01713397029464328 -0.00087408280019978023 0 -0.017535946725393232 -0.0010080818352365083 0 -0.017242953442440354 -0.0011963292280260962 0 -0.01713397029464328 -0.00087408280019978023 0 -0.017242953442440354 -0.0011963292280260962 0 -0.016825263928312843 -0.0012006405571341845 0 -0.016871858323008106 -0.00093183599221412184 0 -0.016552337119395369 -0.001162033811934916 0 -0.016825263928312843 -0.0012006405571341845 0 -0.016586669900717936 -0.00092495642582255441 0 -0.016825263928312843 -0.0012006405571341845 0 -0.016871858323008106 -0.00093183599221412184 0 -0.016586669900717936 -0.00092495642582255441 0 -0.016586669900717936 -0.00092495642582255441 0 -0.016339474356368608 -0.0010498136551092513 0 -0.016393894400943701 -0.00078128445336390938 0 -0.016339474356368608 -0.0010498136551092513 0 -0.015975831945640003 -0.0013510796104837693 0 -0.016198080350792215 -0.00083785271134774843 0 -0.016552337119395369 -0.001162033811934916 0 -0.016586669900717936 -0.00092495642582255441 0 -0.016339474356368608 -0.0010498136551092513 0 -0.016339474356368608 -0.0010498136551092513 0 -0.016347935583551517 -0.0013025983277052749 0 -0.015975831945640003 -0.0013510796104837693 0 -0.016552337119395369 -0.001162033811934916 0 -0.016339474356368608 -0.0010498136551092513 0 -0.016347935583551517 -0.0013025983277052749 0 -0.016624084926698628 -0.0015622399934815644 0 -0.016347935583551517 -0.0013025983277052749 0 -0.016216082499512827 -0.0014655036883977311 0 -0.016624084926698628 -0.0015622399934815644 0 -0.016216082499512827 -0.0014655036883977311 0 -0.015909560935054599 -0.0016543888534860487 0 -0.016624084926698628 -0.0015622399934815644 0 -0.016552337119395369 -0.001162033811934916 0 -0.016347935583551517 -0.0013025983277052749 0 -0.016347935583551517 -0.0013025983277052749 0 -0.016216082499512827 -0.0014655036883977311 0 -0.015975831945640003 -0.0013510796104837693 0 -0.015625544340977165 -0.0014867835651341465 0 -0.015864988728675783 -0.001754483019654121 0 -0.015876229671743458 -0.0015997202925306917 0 -0.016216082499512827 -0.0014655036883977311 0 -0.015909560935054599 -0.0016543888534860487 0 -0.015975831945640003 -0.0013510796104837693 0 -0.01863218827775729 -0.001259851570017111 0 -0.016603881022933906 -0.0015269971622137552 0 -0.015625544340977165 -0.0014867835651341465 0 -0.015876229671743458 -0.0015997202925306917 0 -0.015784310658903445 -0.0013293235320613864 0 -0.016603881022933906 -0.0015269971622137552 0 -0.015990202674915764 -0.000743334502920328 0 -0.015784310658903445 -0.0013293235320613864 0 -0.015890970804009027 -0.00088663567328933724 0 -0.015729753175736057 -0.0010796531838099008 0 -0.015975831945640003 -0.0013510796104837693 0 -0.01615211788875592 -0.00044537757462607952 0 -0.016198080350792215 -0.00083785271134774843 0 -0.015876229671743458 -0.0015997202925306917 0 -0.015784310658903445 -0.0013293235320613864 0 -0.015890970804009027 -0.00088663567328933724 0 -0.015902546306608249 -0.0015998902932609566 0 -0.015928427124083388 -0.0010200282889603681 0 -0.015890970804009027 -0.00088663567328933724 0 -0.016603881022933906 -0.0015269971622137552 0 -0.015730841080459211 -0.00095944422610159778 0 -0.015890970804009027 -0.00088663567328933724 0 -0.015607474890586042 -0.0008988864221543449 0 -0.015729753175736057 -0.0010796531838099008 0 -0.016287786864500973 -0.00048909047671315937 0 -0.01641086673378065 -0.00056073689483685082 0 -0.016325365896018244 -0.00032840504496365458 0 -0.01615211788875592 -0.00044537757462607952 0 -0.016287786864500973 -0.00048909047671315937 0 -0.016325365896018244 -0.00032840504496365458 0 -0.01615211788875592 -0.00044537757462607952 0 -0.016287786864500973 -0.00048909047671315937 0 -0.016288100454124748 -0.00061865617184691157 0 -0.016287786864500973 -0.00048909047671315937 0 -0.01641086673378065 -0.00056073689483685082 0 -0.016288100454124748 -0.00061865617184691157 0 -0.01615211788875592 -0.00044537757462607952 0 -0.016288100454124748 -0.00061865617184691157 0 -0.016198080350792215 -0.00083785271134774843 0 -0.01641086673378065 -0.00056073689483685082 0 -0.016288100454124748 -0.00061865617184691157 0 -0.016393894400943701 -0.00078128445336390938 0 -0.016288100454124748 -0.00061865617184691157 0 -0.016198080350792215 -0.00083785271134774843 0 -0.016393894400943701 -0.00078128445336390938 0 -0.016339474356368608 -0.0010498136551092513 0 -0.016198080350792215 -0.00083785271134774843 0 -0.016393894400943701 -0.00078128445336390938 0 -0.016586669900717936 -0.00092495642582255441 0 -0.016393894400943701 -0.00078128445336390938 0 -0.016609048628045325 -0.0007192837876782935 0 -0.016871858323008106 -0.00093183599221412184 0 -0.016586669900717936 -0.00092495642582255441 0 -0.016609048628045325 -0.0007192837876782935 0 -0.016871858323008106 -0.00093183599221412184 0 -0.016609048628045325 -0.0007192837876782935 0 -0.016853521513918647 -0.00071489953991465288 0 -0.016609048628045325 -0.0007192837876782935 0 -0.016853521513918647 -0.00071489953991465288 0 -0.016640958335116467 -0.00045860509945514481 0 -0.01641086673378065 -0.00056073689483685082 0 -0.016393894400943701 -0.00078128445336390938 0 -0.016609048628045325 -0.0007192837876782935 0 -0.016871858323008106 -0.00093183599221412184 0 -0.01713397029464328 -0.00087408280019978023 0 -0.016853521513918647 -0.00071489953991465288 0 -0.01713397029464328 -0.00087408280019978023 0 -0.016853521513918647 -0.00071489953991465288 0 -0.016972688039813548 -0.00059960170878921196 0 -0.01713397029464328 -0.00087408280019978023 0 -0.016972688039813548 -0.00059960170878921196 0 -0.017238200535418774 -0.00075386241856657701 0 -0.01693982267535311 -0.00042136522180114493 0 -0.016640958335116467 -0.00045860509945514481 0 -0.016687584948932972 -0.00024922826167718138 0 -0.016972688039813548 -0.00059960170878921196 0 -0.01693982267535311 -0.00042136522180114493 0 -0.016640958335116467 -0.00045860509945514481 0 -0.016853521513918647 -0.00071489953991465288 0 -0.016972688039813548 -0.00059960170878921196 0 -0.016640958335116467 -0.00045860509945514481 0 -0.01641086673378065 -0.00056073689483685082 0 -0.016640958335116467 -0.00045860509945514481 0 -0.016325365896018244 -0.00032840504496365458 0 -0.01641086673378065 -0.00056073689483685082 0 -0.016609048628045325 -0.0007192837876782935 0 -0.016640958335116467 -0.00045860509945514481 0 -0.016640958335116467 -0.00045860509945514481 0 -0.016385432995099088 -0.00012843619658618079 0 -0.016325365896018244 -0.00032840504496365458 0 -0.016640958335116467 -0.00045860509945514481 0 -0.016687584948932972 -0.00024922826167718138 0 -0.016385432995099088 -0.00012843619658618079 0 -0.016687584948932972 -0.00024922826167718138 0 -0.016444813139919853 -4.0148591286781848e-05 0 -0.01703608642874601 -0.000253912015682803 0 -0.016687584948932972 -0.00024922826167718138 0 -0.016444813139919853 -4.0148591286781848e-05 0 -0.016385432995099088 -0.00012843619658618079 0 -0.016444813139919853 -4.0148591286781848e-05 0 -0.016385432995099088 -0.00012843619658618079 0 -0.016218526530160988 1.964527115853231e-05 0 -0.016385432995099088 -0.00012843619658618079 0 -0.016162986967342259 1.9443957239548593e-05 0 -0.016218526530160988 1.964527115853231e-05 0 -0.01615211788875592 -0.00044537757462607952 0 -0.016325365896018244 -0.00032840504496365458 0 -0.016162986967342259 1.9443957239548593e-05 0 -0.015990202674915764 -0.000743334502920328 0 -0.016062428456276683 -0.00020735601147985218 0 -0.015928427124083388 -0.0010200282889603681 0 -0.015890970804009027 -0.00088663567328933724 0 -0.015969348896507234 -0.00042965012929337674 0 -0.015890970804009027 -0.00088663567328933724 0 -0.015969348896507234 -0.00042965012929337674 0 -0.015685047237444672 -0.00059264371732758796 0 -0.016385432995099088 -0.00012843619658618079 0 -0.016325365896018244 -0.00032840504496365458 0 -0.016162986967342259 1.9443957239548593e-05 0 -0.015890970804009027 -0.00088663567328933724 0 -0.015685047237444672 -0.00059264371732758796 0 -0.015607474890586042 -0.0008988864221543449 0 -0.018746548185078083 -0.00097483562648768873 0 -0.018090030433388134 -0.00064268277303549152 0 -0.018095426906634803 -0.00031497338823963415 0 -0.018260477355645153 -0.00083846114296743908 0 -0.017077254793580333 -0.00021071737299672988 0 -0.018090030433388134 -0.00064268277303549152 0 -0.017946328521084923 -0.00032792514800584539 0 -0.018095426906634803 -0.00031497338823963415 0 -0.018746548185078083 -0.00097483562648768873 0 -0.018311922438890179 -0.00098502964800297409 0 -0.018090030433388134 -0.00064268277303549152 0 -0.018311922438890179 -0.00098502964800297409 0 -0.018019213286867158 -0.00080157303843247701 0 -0.018090030433388134 -0.00064268277303549152 0 -0.018311922438890179 -0.00098502964800297409 0 -0.018099811357870303 -0.00095901171453782578 0 -0.018019213286867158 -0.00080157303843247701 0 -0.018099811357870303 -0.00095901171453782578 0 -0.017858185427031523 -0.00079818824961344159 0 -0.017941571239082434 -0.00094052829736686935 0 -0.018019213286867158 -0.00080157303843247701 0 -0.017739299866685806 -0.00059924295576219513 0 -0.017858185427031523 -0.00079818824961344159 0 -0.018099811357870303 -0.00095901171453782578 0 -0.018019213286867158 -0.00080157303843247701 0 -0.017858185427031523 -0.00079818824961344159 0 -0.018019213286867158 -0.00080157303843247701 0 -0.017739299866685806 -0.00059924295576219513 0 -0.018090030433388134 -0.00064268277303549152 0 -0.017739299866685806 -0.00059924295576219513 0 -0.018090030433388134 -0.00064268277303549152 0 -0.017735406875525765 -0.000424038715247212 0 -0.018090030433388134 -0.00064268277303549152 0 -0.017735406875525765 -0.000424038715247212 0 -0.017946328521084923 -0.00032792514800584539 0 -0.017739299866685806 -0.00059924295576219513 0 -0.017735406875525765 -0.000424038715247212 0 -0.017470481347713823 -0.00038990310149898569 0 -0.017739299866685806 -0.00059924295576219513 0 -0.017401733682040361 -0.00048898195724955175 0 -0.017470481347713823 -0.00038990310149898569 0 -0.017401733682040361 -0.00048898195724955175 0 -0.017197480596681074 -0.00047603421821846502 0 -0.01703608642874601 -0.000253912015682803 0 -0.017401733682040361 -0.00048898195724955175 0 -0.017427233928659462 -0.00063534002293501009 0 -0.017197480596681074 -0.00047603421821846502 0 -0.017401733682040361 -0.00048898195724955175 0 -0.017427233928659462 -0.00063534002293501009 0 -0.017632586035026369 -0.00067087976460340542 0 -0.017739299866685806 -0.00059924295576219513 0 -0.017632586035026369 -0.00067087976460340542 0 -0.017858185427031523 -0.00079818824961344159 0 -0.017739299866685806 -0.00059924295576219513 0 -0.017401733682040361 -0.00048898195724955175 0 -0.017632586035026369 -0.00067087976460340542 0 -0.017632586035026369 -0.00067087976460340542 0 -0.017858185427031523 -0.00079818824961344159 0 -0.017693903393463006 -0.00081036715246618246 0 -0.017858185427031523 -0.00079818824961344159 0 -0.017941571239082434 -0.00094052829736686935 0 -0.017693903393463006 -0.00081036715246618246 0 -0.017800711403601552 -0.00097984581015376137 0 -0.017941571239082434 -0.00094052829736686935 0 -0.017693903393463006 -0.00081036715246618246 0 -0.017800711403601552 -0.00097984581015376137 0 -0.017693903393463006 -0.00081036715246618246 0 -0.017497271258224114 -0.00082347874578045334 0 -0.017427233928659462 -0.00063534002293501009 0 -0.017693903393463006 -0.00081036715246618246 0 -0.017497271258224114 -0.00082347874578045334 0 -0.017427233928659462 -0.00063534002293501009 0 -0.017632586035026369 -0.00067087976460340542 0 -0.017693903393463006 -0.00081036715246618246 0 -0.017427233928659462 -0.00063534002293501009 0 -0.017497271258224114 -0.00082347874578045334 0 -0.017198668533200862 -0.00060155312858616006 0 -0.017535946725393232 -0.0010080818352365083 0 -0.017497271258224114 -0.00082347874578045334 0 -0.017238200535418774 -0.00075386241856657701 0 -0.017535946725393232 -0.0010080818352365083 0 -0.01713397029464328 -0.00087408280019978023 0 -0.017238200535418774 -0.00075386241856657701 0 -0.017497271258224114 -0.00082347874578045334 0 -0.017238200535418774 -0.00075386241856657701 0 -0.017198668533200862 -0.00060155312858616006 0 -0.016972688039813548 -0.00059960170878921196 0 -0.017238200535418774 -0.00075386241856657701 0 -0.017198668533200862 -0.00060155312858616006 0 -0.016972688039813548 -0.00059960170878921196 0 -0.01693982267535311 -0.00042136522180114493 0 -0.017198668533200862 -0.00060155312858616006 0 -0.01693982267535311 -0.00042136522180114493 0 -0.017197480596681074 -0.00047603421821846502 0 -0.01703608642874601 -0.000253912015682803 0 -0.017427233928659462 -0.00063534002293501009 0 -0.017198668533200862 -0.00060155312858616006 0 -0.017197480596681074 -0.00047603421821846502 0 -0.01693982267535311 -0.00042136522180114493 0 -0.017198668533200862 -0.00060155312858616006 0 -0.017197480596681074 -0.00047603421821846502 0 -0.01693982267535311 -0.00042136522180114493 0 -0.016687584948932972 -0.00024922826167718138 0 -0.01703608642874601 -0.000253912015682803 0 -0.016444813139919853 -4.0148591286781848e-05 0 -0.01703608642874601 -0.000253912015682803 0 -0.016595160424215223 3.0027708648833918e-05 0 -0.017344696607323188 -0.00016597472072398217 0 -0.017067384656645059 6.348948531919072e-05 0 -0.016595160424215223 3.0027708648833918e-05 0 -0.01703608642874601 -0.000253912015682803 0 -0.017344696607323188 -0.00016597472072398217 0 -0.016595160424215223 3.0027708648833918e-05 0 -0.01703608642874601 -0.000253912015682803 0 -0.017470481347713823 -0.00038990310149898569 0 -0.017344696607323188 -0.00016597472072398217 0 -0.017401733682040361 -0.00048898195724955175 0 -0.01703608642874601 -0.000253912015682803 0 -0.017470481347713823 -0.00038990310149898569 0 -0.015523029869889337 1.920993841485394e-05 0 -0.015613942025146588 0.00013007535230598327 0 -0.015686609877956715 9.2512871574063489e-05 0 -0.017344696607323188 -0.00016597472072398217 0 -0.017946328521084923 -0.00032792514800584539 0 -0.018040220043785363 -0.00031018897180151375 0 -0.017735406875525765 -0.000424038715247212 0 -0.017470481347713823 -0.00038990310149898569 0 -0.017344696607323188 -0.00016597472072398217 0 -0.017735406875525765 -0.000424038715247212 0 -0.017344696607323188 -0.00016597472072398217 0 -0.017946328521084923 -0.00032792514800584539 0 -0.017077254793580333 -0.00021071737299672988 0 -0.016390645992931458 1.4378836514848081e-05 0 -0.017344696607323188 -0.00016597472072398217 0 -0.018040220043785363 -0.00031018897180151375 0 -0.017067384656645059 6.348948531919072e-05 0 -0.017193134841994525 -0.00020610503946950887 0 -0.017077254793580333 -0.00021071737299672988 0 -0.015523029869889337 1.920993841485394e-05 0 -0.015686609877956715 9.2512871574063489e-05 0 -0.015524893910565881 -0.0001048915572767127 0 -0.015686609877956715 9.2512871574063489e-05 0 -0.015911435696740223 -1.9499919609473462e-06 0 -0.015524893910565881 -0.0001048915572767127 0 -0.016390645992931458 1.4378836514848081e-05 0 -0.016111126798762226 -4.3863050191278173e-05 0 -0.017067384656645059 6.348948531919072e-05 0 -0.016595160424215223 3.0027708648833918e-05 0 -0.015911435696740223 -1.9499919609473462e-06 0 -0.016444813139919853 -4.0148591286781848e-05 0 -0.016595160424215223 3.0027708648833918e-05 0 -0.016098056403341575 4.560936475350182e-05 0 -0.016595160424215223 3.0027708648833918e-05 0 -0.015911435696740223 -1.9499919609473462e-06 0 -0.016098056403341575 4.560936475350182e-05 0 -0.015717957714307066 -0.00011043342188235756 0 -0.015559747022543979 -0.00021721919099828177 0 -0.015140640318324263 -0.00051992973184185559 0 -0.015717957714307066 -0.00011043342188235756 0 -0.015911435696740223 -1.9499919609473462e-06 0 -0.016098056403341575 4.560936475350182e-05 0 -0.015717957714307066 -0.00011043342188235756 0 -0.015559747022543979 -0.00021721919099828177 0 -0.015911435696740223 -1.9499919609473462e-06 0 -0.015559747022543979 -0.00021721919099828177 0 -0.015524893910565881 -0.0001048915572767127 0 -0.015409969151028708 -0.00022620214281963017 0 -0.015524893910565881 -0.0001048915572767127 0 -0.015409969151028708 -0.00022620214281963017 0 -0.015431028432241294 -0.00014236032607242943 0 -0.015559747022543979 -0.00021721919099828177 0 -0.015911435696740223 -1.9499919609473462e-06 0 -0.015524893910565881 -0.0001048915572767127 0 -0.015969348896507234 -0.00042965012929337674 0 -0.016013053502735887 -2.6172927952538652e-06 0 -0.015715298063118593 -0.00012841651250952054 0 -0.015969348896507234 -0.00042965012929337674 0 -0.015715298063118593 -0.00012841651250952054 0 -0.015685047237444672 -0.00059264371732758796 0 -0.016162986967342259 1.9443957239548593e-05 0 -0.016078718456721545 3.551239681003458e-05 0 -0.016013053502735887 -2.6172927952538652e-06 0 -0.016062428456276683 -0.00020735601147985218 0 -0.016031729890564495 -6.9016627063295741e-06 0 -0.016162986967342259 1.9443957239548593e-05 0 -0.016218526530160988 1.964527115853231e-05 0 -0.016078718456721545 3.551239681003458e-05 0 -0.016444813139919853 -4.0148591286781848e-05 0 -0.016218526530160988 1.964527115853231e-05 0 -0.016098056403341575 4.560936475350182e-05 0 -0.016218526530160988 1.964527115853231e-05 0 -0.016098056403341575 4.560936475350182e-05 0 -0.016078718456721545 3.551239681003458e-05 0 -0.015717957714307066 -0.00011043342188235756 0 -0.015808578940713136 -4.8364253567613568e-05 0 -0.015140640318324263 -0.00051992973184185559 0 -0.016078718456721545 3.551239681003458e-05 0 -0.015808578940713136 -4.8364253567613568e-05 0 -0.016013053502735887 -2.6172927952538652e-06 0 -0.016098056403341575 4.560936475350182e-05 0 -0.016078718456721545 3.551239681003458e-05 0 -0.015808578940713136 -4.8364253567613568e-05 0 -0.015717957714307066 -0.00011043342188235756 0 -0.016098056403341575 4.560936475350182e-05 0 -0.015808578940713136 -4.8364253567613568e-05 0 -0.016013053502735887 -2.6172927952538652e-06 0 -0.015715298063118593 -0.00012841651250952054 0 -0.016052589104592382 2.0645043332641857e-05 0 -0.015808578940713136 -4.8364253567613568e-05 0 -0.016013053502735887 -2.6172927952538652e-06 0 -0.016052589104592382 2.0645043332641857e-05 0 -0.012304901937763239 -0.00085689209183738789 0 -0.012801433708257788 -0.00077012683732202258 0 -0.013370455157273571 -0.0011612453532781704 0 -0.013865855453270111 -0.00031284895712793909 0 -0.014687028487555476 -0.00052943696203026067 0 -0.015357948397827767 0.00022656729993302276 0 -0.015715298063118593 -0.00012841651250952054 0 -0.016052589104592382 2.0645043332641857e-05 0 -0.012304901937763239 -0.00085689209183738789 0 -0.012171912861800653 -0.00021715732090091296 0 -0.012062252435638732 -0.00053953511194116375 0 -0.013865855453270111 -0.00031284895712793909 0 -0.013356618395845562 -6.3728102821406741e-05 0 -0.015276274312330366 -0.00054524666145177952 0 -0.014270728509319095 -0.00046663442061563282 0 -0.014474041923889163 0.00017082773787538991 0 -0.015357948397827767 0.00022656729993302276 0 -0.015276274312330366 -0.00054524666145177952 0 -0.014474041923889163 0.00017082773787538991 0 -0.015357948397827767 0.00022656729993302276 0 -0.015715298063118593 -0.00012841651250952054 0 -0.015276274312330366 -0.00054524666145177952 0 -0.015715298063118593 -0.00012841651250952054 0 -0.015685047237444672 -0.00059264371732758796 0 -0.015276274312330366 -0.00054524666145177952 0 -0.015685047237444672 -0.00059264371732758796 0 -0.015607474890586042 -0.0008988864221543449 0 -0.015276274312330366 -0.00054524666145177952 0 -0.01528595510992746 -0.00055316943700129133 0 -0.015294259729281643 -0.0013229611392280127 0 -0.015607474890586042 -0.0008988864221543449 0 -0.015276274312330366 -0.00054524666145177952 0 -0.015351307360370733 -0.0010932561498697545 0 -0.015276274312330366 -0.00054524666145177952 0 -0.014547322528405335 -0.0011272192694275324 0 -0.014270728509319095 -0.00046663442061563282 0 -0.015276274312330366 -0.00054524666145177952 0 -0.015315326191274087 -0.0013118855808474425 0 -0.014547322528405335 -0.0011272192694275324 0 -0.014613141173562832 -0.001919863413591163 0 -0.015315326191274087 -0.0013118855808474425 0 -0.014547322528405335 -0.0011272192694275324 0 -0.015784310658903445 -0.0013293235320613864 0 -0.015636738045105986 -0.0012039234733475692 0 -0.015729753175736057 -0.0010796531838099008 0 -0.015625544340977165 -0.0014867835651341465 0 -0.015636738045105986 -0.0012039234733475692 0 -0.015351307360370733 -0.0010932561498697545 0 -0.015607474890586042 -0.0008988864221543449 0 -0.015636738045105986 -0.0012039234733475692 0 -0.015351307360370733 -0.0010932561498697545 0 -0.015607474890586042 -0.0008988864221543449 0 -0.015636738045105986 -0.0012039234733475692 0 -0.015729753175736057 -0.0010796531838099008 0 -0.015347745078429587 -0.00046613476999006953 0 -0.014108513474673024 -0.00053210922630076926 0 -0.015512994856570796 2.3154581380158601e-07 0 -0.014555259211058292 -2.4162118852983879e-07 0 -0.014784192073231193 -2.7519401221193868e-05 0 -0.01529022607855815 5.9284082417382208e-05 0 -0.015512994856570796 2.3154581380158601e-07 0 -0.014784192073231193 -2.7519401221193868e-05 0 -0.015347745078429587 -0.00046613476999006953 0 -0.015514720109336837 -1.7305281145045171e-07 0 -0.013825140778395003 -0.001721343696088686 0 -0.014547322528405335 -0.0011272192694275324 0 -0.013527179899634843 -0.00080346677530043927 0 -0.014613141173562832 -0.001919863413591163 0 -0.013825140778395003 -0.001721343696088686 0 -0.014547322528405335 -0.0011272192694275324 0 -0.014547322528405335 -0.0011272192694275324 0 -0.014270728509319095 -0.00046663442061563282 0 -0.013527179899634843 -0.00080346677530043927 0 -0.014270728509319095 -0.00046663442061563282 0 -0.013527179899634843 -0.00080346677530043927 0 -0.013426128013005552 -2.9325465437340911e-06 0 -0.014555259211058292 -2.4162118852983879e-07 0 -0.014784192073231193 -2.7519401221193868e-05 0 -0.013594866347998056 2.3829381216490499e-07 0 -0.014108513474673024 -0.00053210922630076926 0 -0.013595061592134737 -2.8657387009401961e-07 0 -0.013527179899634843 -0.00080346677530043927 0 -0.01359252279846929 3.7645198101461778e-07 0 -0.013426128013005552 -2.9325465437340911e-06 0 -0.01359252279846929 3.7645198101461778e-07 0 -0.013426128013005552 -2.9325465437340911e-06 0 -0.012583367735362689 -0.000220263745449309 0 -0.014270728509319095 -0.00046663442061563282 0 -0.013426128013005552 -2.9325465437340911e-06 0 -0.014474041923889163 0.00017082773787538991 0 -0.013381366304851757 -5.8333634739927462e-06 0 -0.013356618395845562 -6.3728102821406741e-05 0 -0.012171912861800653 -0.00021715732090091296 0 -0.012583367735362689 -0.000220263745449309 0 -0.012062252435638732 -0.00053953511194116375 0 -0.01359252279846929 3.7645198101461778e-07 0 -0.012583367735362689 -0.000220263745449309 0 -0.012389762466883262 -7.8103440893258794e-07 0 -0.013426128013005552 -2.9325465437340911e-06 0 -0.012171912861800653 -0.00021715732090091296 0 -0.012583367735362689 -0.000220263745449309 0 -0.012583367735362689 -0.000220263745449309 0 -0.011935833110736864 -0.00027909605643807481 0 -0.012389762466883262 -7.8103440893258794e-07 0 -0.011935833110736864 -0.00027909605643807481 0 -0.012389762466883262 -7.8103440893258794e-07 0 -0.011184091950696038 -3.3159973087216029e-07 0 -0.012583367735362689 -0.000220263745449309 0 -0.011935833110736864 -0.00027909605643807481 0 -0.012062252435638732 -0.00053953511194116375 0 -0.011935833110736864 -0.00027909605643807481 0 -0.011852827178741169 -0.0003842991754285088 0 -0.012062252435638732 -0.00053953511194116375 0 -0.011377622538186419 -0.00019680963195229048 0 -0.011852827178741169 -0.0003842991754285088 0 -0.01176883627441758 -0.00021595397417779606 0 -0.011935833110736864 -0.00027909605643807481 0 -0.011377622538186419 -0.00019680963195229048 0 -0.011852827178741169 -0.0003842991754285088 0 -0.011935833110736864 -0.00027909605643807481 0 -0.011377622538186419 -0.00019680963195229048 0 -0.011184091950696038 -3.3159973087216029e-07 0 -0.012801433708257788 -0.00077012683732202258 0 -0.01235792125345651 -0.00050116244692013207 0 -0.013351217271395228 -0.00043733161688804233 0 -0.012304901937763239 -0.00085689209183738789 0 -0.012801433708257788 -0.00077012683732202258 0 -0.01235792125345651 -0.00050116244692013207 0 -0.012304901937763239 -0.00085689209183738789 0 -0.01235792125345651 -0.00050116244692013207 0 -0.012062252435638732 -0.00053953511194116375 0 -0.011852827178741169 -0.0003842991754285088 0 -0.01235792125345651 -0.00050116244692013207 0 -0.012062252435638732 -0.00053953511194116375 0 -0.011852827178741169 -0.0003842991754285088 0 -0.01235792125345651 -0.00050116244692013207 0 -0.01176883627441758 -0.00021595397417779606 0 -0.01235792125345651 -0.00050116244692013207 0 -0.012355114341300443 -0.00018096842862018662 0 -0.01176883627441758 -0.00021595397417779606 0 -0.01235792125345651 -0.00050116244692013207 0 -0.012857090260455327 -0.00022454550030805484 0 -0.013351217271395228 -0.00043733161688804233 0 -0.01235792125345651 -0.00050116244692013207 0 -0.012355114341300443 -0.00018096842862018662 0 -0.012857090260455327 -0.00022454550030805484 0 -0.012734079972199972 3.7361952914940813e-05 0 -0.012377315418553336 0.00035693415987786008 0 -0.013088156490179633 0.00034050286168493598 0 -0.012355114341300443 -0.00018096842862018662 0 -0.012857090260455327 -0.00022454550030805484 0 -0.012734079972199972 3.7361952914940813e-05 0 -0.012355114341300443 -0.00018096842862018662 0 -0.012734079972199972 3.7361952914940813e-05 0 -0.012118319834369977 1.9368517457492025e-05 0 -0.012734079972199972 3.7361952914940813e-05 0 -0.012118319834369977 1.9368517457492025e-05 0 -0.012377315418553336 0.00035693415987786008 0 -0.012118319834369977 1.9368517457492025e-05 0 -0.01176883627441758 -0.00021595397417779606 0 -0.011477784855033635 7.8729170875989395e-05 0 -0.012355114341300443 -0.00018096842862018662 0 -0.012118319834369977 1.9368517457492025e-05 0 -0.01176883627441758 -0.00021595397417779606 0 -0.012118319834369977 1.9368517457492025e-05 0 -0.011477784855033635 7.8729170875989395e-05 0 -0.012377315418553336 0.00035693415987786008 0 -0.011477784855033635 7.8729170875989395e-05 0 -0.012377315418553336 0.00035693415987786008 0 -0.011306183049970185 0.00044781636186242324 0 -0.012377315418553336 0.00035693415987786008 0 -0.012466887961050862 0.0010605689724879524 0 -0.013160722854115549 0.00067392555936477241 0 -0.011377622538186419 -0.00019680963195229048 0 -0.0109809511734424 -6.8921215131923072e-05 0 -0.0099793471384161253 -1.7782493093672474e-07 0 -0.011377622538186419 -0.00019680963195229048 0 -0.011184091950696038 -3.3159973087216029e-07 0 -0.0099793471384161253 -1.7782493093672474e-07 0 -0.01176883627441758 -0.00021595397417779606 0 -0.011477784855033635 7.8729170875989395e-05 0 -0.0109809511734424 -6.8921215131923072e-05 0 -0.011377622538186419 -0.00019680963195229048 0 -0.01176883627441758 -0.00021595397417779606 0 -0.0109809511734424 -6.8921215131923072e-05 0 -0.011477784855033635 7.8729170875989395e-05 0 -0.010301112079814738 0.00011054717938407422 0 -0.011306183049970185 0.00044781636186242324 0 -0.011477784855033635 7.8729170875989395e-05 0 -0.0109809511734424 -6.8921215131923072e-05 0 -0.010301112079814738 0.00011054717938407422 0 -0.010301112079814738 0.00011054717938407422 0 -0.0099793471384161253 -1.7782493093672474e-07 0 -0.0087738785861899652 5.740807327289065e-07 0 -0.0109809511734424 -6.8921215131923072e-05 0 -0.010301112079814738 0.00011054717938407422 0 -0.0099793471384161253 -1.7782493093672474e-07 0 -0.010301112079814738 0.00011054717938407422 0 -0.0087738785861899652 5.740807327289065e-07 0 -0.0095904276514818705 0.00049890780557672494 0 -0.0087738785861899652 5.740807327289065e-07 0 -0.0075700716140929729 1.1623133941705767e-06 0 -0.0082443283965235037 0.0002573557766717192 0 -0.0096322761832068806 0.00053308638245969716 0 -0.0075280393293438441 0.00089641076759572834 0 -0.0087738785861899652 5.740807327289065e-07 0 -0.0095904276514818705 0.00049890780557672494 0 -0.0082443283965235037 0.0002573557766717192 0 -0.0095904276514818705 0.00049890780557672494 0 -0.010408542786795823 0.0016657472752978015 0 -0.011074405885574717 0.001141609542190518 0 -0.0095904276514818705 0.00049890780557672494 0 -0.010408542786795823 0.0016657472752978015 0 -0.0092316045718398316 0.0024798709889482357 0 -0.010512375757323989 0.00045534805275622192 0 -0.011306183049970185 0.00044781636186242324 0 -0.011074405885574717 0.001141609542190518 0 -0.0095904276514818705 0.00049890780557672494 0 -0.010512375757323989 0.00045534805275622192 0 -0.011074405885574717 0.001141609542190518 0 -0.010301112079814738 0.00011054717938407422 0 -0.010512375757323989 0.00045534805275622192 0 -0.011306183049970185 0.00044781636186242324 0 -0.010301112079814738 0.00011054717938407422 0 -0.0095904276514818705 0.00049890780557672494 0 -0.010512375757323989 0.00045534805275622192 0 -0.011306183049970185 0.00044781636186242324 0 -0.012466887961050862 0.0010605689724879524 0 -0.011074405885574717 0.001141609542190518 0 -0.012377315418553336 0.00035693415987786008 0 -0.011306183049970185 0.00044781636186242324 0 -0.012466887961050862 0.0010605689724879524 0 -0.012466887961050862 0.0010605689724879524 0 -0.011502574770840426 0.002392879428992981 0 -0.01300854918946776 0.002382694213298741 0 -0.010408542786795823 0.0016657472752978015 0 -0.011074405885574717 0.001141609542190518 0 -0.011502574770840426 0.002392879428992981 0 -0.012466887961050862 0.0010605689724879524 0 -0.011074405885574717 0.001141609542190518 0 -0.011502574770840426 0.002392879428992981 0 -0.008129622608022375 0.0013251872897042441 0 -0.0090798803485380702 0.0011828312756418998 0 -0.0049600352452233648 0.00012179930363777671 0 -0.0050050605977982861 3.3800425320151877e-06 0 -0.0049222158365198028 3.8246815493020693e-05 0 -0.0049600352452233648 0.00012179930363777671 0 -0.0049370227325887996 0.00010339386429164481 0 -0.0049222158365198028 3.8246815493020693e-05 0 -0.0066158512889576094 -1.1841373239242282e-05 0 -0.0065288494962244398 -1.4776898045224885e-07 0 -0.0075669312162741902 1.5798440321769408e-07 0 -0.0049370227325887996 0.00010339386429164481 0 -0.0051341821329440179 0.00019540381902200069 0 -0.0050905934365977562 0.00024061552892032359 0 -0.0058203873403814303 -9.6703045911915653e-05 0 -0.0075280393293438441 0.00089641076759572834 0 -0.0066158512889576094 -1.1841373239242282e-05 0 -0.0075669312162741902 1.5798440321769408e-07 0 -0.0073381145335414738 2.6564541567682699e-05 0 -0.0075684012804453716 6.2798981473512175e-07 0 -0.0075280393293438441 0.00089641076759572834 0 -0.008129622608022375 0.0013251872897042441 0 -0.0075280393293438441 0.00089641076759572834 0 -0.0049600352452233648 0.00012179930363777671 0 -0.0049370227325887996 0.00010339386429164481 0 -0.0050905934365977562 0.00024061552892032359 0 -0.010408542786795823 0.0016657472752978015 0 -0.011502574770840426 0.002392879428992981 0 -0.0092316045718398316 0.0024798709889482357 0 -0.0051571577885387056 -6.288863838954576e-05 0 -0.0052124760003263914 -1.4317020171983167e-05 0 -0.0053463262019114617 -7.8887896878523846e-05 0 -0.014208314847009611 0.0022795816765554763 0 -0.014894397343794824 0.0017914865356685454 0 -0.015218450797038399 0.0022337530914083793 0 -0.0094341949243402709 0.0011131935433565847 0 -0.011318286852353835 0.0010533149026704072 0 -0.015542135194401679 0.0027207250022366855 0 -0.011318286852353835 0.0010533149026704072 0 -0.0052124760003263914 -1.4317020171983167e-05 0 -0.0052827769588653564 -4.6014152158715676e-06 0 -0.0053463262019114617 -7.8887896878523846e-05 0 -0.0052124760003263914 -1.4317020171983167e-05 0 -0.0052827769588653564 -4.6014152158715676e-06 0 -0.0051915758967879073 4.5792011089160905e-05 0 -0.0052124760003263914 -1.4317020171983167e-05 0 -0.0051210377329283267 2.8391665054170002e-05 0 -0.0051915758967879073 4.5792011089160905e-05 0 -0.0051571577885387056 -6.288863838954576e-05 0 -0.0052124760003263914 -1.4317020171983167e-05 0 -0.0051210377329283267 2.8391665054170002e-05 0 -0.0051571577885387056 -6.288863838954576e-05 0 -0.0051210377329283267 2.8391665054170002e-05 0 -0.0050381160499939018 2.0141756240664294e-05 0 -0.0050381160499939018 2.0141756240664294e-05 0 -0.0050050605977982861 3.3800425320151877e-06 0 -0.0049222158365198028 3.8246815493020693e-05 0 -0.014208314847009611 0.0022795816765554763 0 -0.01300854918946776 0.002382694213298741 0 -0.013896386822279925 0.0016530996930918091 0 -0.0094341949243402709 0.0011131935433565847 0 -0.0090798803485380702 0.0011828312756418998 0 -0.0051571577885387056 -6.288863838954576e-05 0 -0.0050381160499939018 2.0141756240664294e-05 0 -0.0050050605977982861 3.3800425320151877e-06 0 -0.01300854918946776 0.002382694213298741 0 -0.013896386822279925 0.0016530996930918091 0 -0.013398775600056345 0.0011803156249515583 0 -0.012466887961050862 0.0010605689724879524 0 -0.01300854918946776 0.002382694213298741 0 -0.013398775600056345 0.0011803156249515583 0 -0.013398775600056345 0.0011803156249515583 0 -0.013160722854115549 0.00067392555936477241 0 -0.01390704776360447 0.00069038824113941562 0 -0.012466887961050862 0.0010605689724879524 0 -0.013398775600056345 0.0011803156249515583 0 -0.013160722854115549 0.00067392555936477241 0 -0.013398775600056345 0.0011803156249515583 0 -0.014166440998870307 0.0010782475446319776 0 -0.01390704776360447 0.00069038824113941562 0 -0.013896386822279925 0.0016530996930918091 0 -0.013398775600056345 0.0011803156249515583 0 -0.014166440998870307 0.0010782475446319776 0 -0.014166440998870307 0.0010782475446319776 0 -0.014711006804858184 0.00096150708887920576 0 -0.014482601859388581 0.00057164924641374913 0 -0.014166440998870307 0.0010782475446319776 0 -0.014515737137410905 0.001463501467510698 0 -0.014711006804858184 0.00096150708887920576 0 -0.014208314847009611 0.0022795816765554763 0 -0.013896386822279925 0.0016530996930918091 0 -0.014515737137410905 0.001463501467510698 0 -0.014208314847009611 0.0022795816765554763 0 -0.014515737137410905 0.001463501467510698 0 -0.014894397343794824 0.0017914865356685454 0 -0.013896386822279925 0.0016530996930918091 0 -0.014166440998870307 0.0010782475446319776 0 -0.014515737137410905 0.001463501467510698 0 -0.014894397343794824 0.0017914865356685454 0 -0.015093190426709127 0.0011151618827090154 0 -0.015476334627485941 0.0016915158492553381 0 -0.014515737137410905 0.001463501467510698 0 -0.014894397343794824 0.0017914865356685454 0 -0.015093190426709127 0.0011151618827090154 0 -0.014515737137410905 0.001463501467510698 0 -0.015093190426709127 0.0011151618827090154 0 -0.014711006804858184 0.00096150708887920576 0 -0.015093190426709127 0.0011151618827090154 0 -0.014711006804858184 0.00096150708887920576 0 -0.014960764704804657 0.00048619884425572194 0 -0.014960764704804657 0.00048619884425572194 0 -0.01536019557106947 0.00037115420525142442 0 -0.015263918187519177 0.00011290170302502266 0 -0.015093190426709127 0.0011151618827090154 0 -0.014960764704804657 0.00048619884425572194 0 -0.01536019557106947 0.00037115420525142442 0 -0.014960764704804657 0.00048619884425572194 0 -0.014482601859388581 0.00057164924641374913 0 -0.014828033896723217 0.00014959575777076948 0 -0.014711006804858184 0.00096150708887920576 0 -0.014960764704804657 0.00048619884425572194 0 -0.014482601859388581 0.00057164924641374913 0 -0.014166440998870307 0.0010782475446319776 0 -0.014482601859388581 0.00057164924641374913 0 -0.01390704776360447 0.00069038824113941562 0 -0.014482601859388581 0.00057164924641374913 0 -0.014828033896723217 0.00014959575777076948 0 -0.014179205058524701 0.00024209809702535512 0 -0.014828033896723217 0.00014959575777076948 0 -0.014179205058524701 0.00024209809702535512 0 -0.014502582974819506 -8.6884542656582434e-05 0 -0.014828033896723217 0.00014959575777076948 0 -0.015157484134730975 -0.00015824627712556196 0 -0.015263918187519177 0.00011290170302502266 0 -0.014960764704804657 0.00048619884425572194 0 -0.014828033896723217 0.00014959575777076948 0 -0.015263918187519177 0.00011290170302502266 0 -0.012377315418553336 0.00035693415987786008 0 -0.013088156490179633 0.00034050286168493598 0 -0.013160722854115549 0.00067392555936477241 0 -0.013088156490179633 0.00034050286168493598 0 -0.013160722854115549 0.00067392555936477241 0 -0.013644906078528571 0.00042605820866538347 0 -0.013160722854115549 0.00067392555936477241 0 -0.013644906078528571 0.00042605820866538347 0 -0.01390704776360447 0.00069038824113941562 0 -0.014482601859388581 0.00057164924641374913 0 -0.01390704776360447 0.00069038824113941562 0 -0.014179205058524701 0.00024209809702535512 0 -0.013644906078528571 0.00042605820866538347 0 -0.01390704776360447 0.00069038824113941562 0 -0.014179205058524701 0.00024209809702535512 0 -0.013644906078528571 0.00042605820866538347 0 -0.014179205058524701 0.00024209809702535512 0 -0.013461369760445365 9.8188139162303946e-06 0 -0.014179205058524701 0.00024209809702535512 0 -0.013461369760445365 9.8188139162303946e-06 0 -0.014502582974819506 -8.6884542656582434e-05 0 -0.013088156490179633 0.00034050286168493598 0 -0.013644906078528571 0.00042605820866538347 0 -0.013461369760445365 9.8188139162303946e-06 0 -0.012857090260455327 -0.00022454550030805484 0 -0.012734079972199972 3.7361952914940813e-05 0 -0.013461369760445365 9.8188139162303946e-06 0 -0.012734079972199972 3.7361952914940813e-05 0 -0.013088156490179633 0.00034050286168493598 0 -0.013461369760445365 9.8188139162303946e-06 0 -0.012857090260455327 -0.00022454550030805484 0 -0.013461369760445365 9.8188139162303946e-06 0 -0.013351217271395228 -0.00043733161688804233 0 -0.013461369760445365 9.8188139162303946e-06 0 -0.013351217271395228 -0.00043733161688804233 0 -0.014502582974819506 -8.6884542656582434e-05 0 -0.013351217271395228 -0.00043733161688804233 0 -0.014502582974819506 -8.6884542656582434e-05 0 -0.015140640318324263 -0.00051992973184185559 0 -0.013351217271395228 -0.00043733161688804233 0 -0.015140640318324263 -0.00051992973184185559 0 -0.013370455157273571 -0.0011612453532781704 0 -0.015098246736282529 -0.00052225555582779916 0 -0.014687028487555476 -0.00052943696203026067 0 -0.015808578940713136 -4.8364253567613568e-05 0 -0.015140640318324263 -0.00051992973184185559 0 -0.016052589104592382 2.0645043332641857e-05 0 -0.012801433708257788 -0.00077012683732202258 0 -0.013351217271395228 -0.00043733161688804233 0 -0.013370455157273571 -0.0011612453532781704 0 -0.015157484134730975 -0.00015824627712556196 0 -0.01539776613393812 -8.0874325431267734e-05 0 -0.015263918187519177 0.00011290170302502266 0 -0.015157484134730975 -0.00015824627712556196 0 -0.015409969151028708 -0.00022620214281963017 0 -0.01539776613393812 -8.0874325431267734e-05 0 -0.014502582974819506 -8.6884542656582434e-05 0 -0.015140640318324263 -0.00051992973184185559 0 -0.015157484134730975 -0.00015824627712556196 0 -0.014828033896723217 0.00014959575777076948 0 -0.014502582974819506 -8.6884542656582434e-05 0 -0.015157484134730975 -0.00015824627712556196 0 -0.015140640318324263 -0.00051992973184185559 0 -0.015157484134730975 -0.00015824627712556196 0 -0.015409969151028708 -0.00022620214281963017 0 -0.015559747022543979 -0.00021721919099828177 0 -0.015140640318324263 -0.00051992973184185559 0 -0.015409969151028708 -0.00022620214281963017 0 -0.015431028432241294 -0.00014236032607242943 0 -0.01539776613393812 -8.0874325431267734e-05 0 -0.015440032870039609 -8.5310389037054505e-05 0 -0.015409969151028708 -0.00022620214281963017 0 -0.015431028432241294 -0.00014236032607242943 0 -0.01539776613393812 -8.0874325431267734e-05 0 -0.01539776613393812 -8.0874325431267734e-05 0 -0.015440032870039609 -8.5310389037054505e-05 0 -0.015457646251413824 2.2804603167113739e-06 0 -0.01539776613393812 -8.0874325431267734e-05 0 -0.015457646251413824 2.2804603167113739e-06 0 -0.015438779638438635 0.00012826677986494344 0 -0.015451459607351834 -6.6451652740940242e-05 0 -0.015440032870039609 -8.5310389037054505e-05 0 -0.015466070844298746 -3.0848972019929546e-05 0 -0.015440032870039609 -8.5310389037054505e-05 0 -0.015466070844298746 -3.0848972019929546e-05 0 -0.015457646251413824 2.2804603167113739e-06 0 -0.01544612624701608 -2.2721272660849887e-05 0 -0.015544431964410603 -9.9321838522453524e-08 0 -0.015494783558123613 -4.3987086879381359e-05 0 -0.015466070844298746 -3.0848972019929546e-05 0 -0.015514646397342145 -3.8930359619722551e-06 0 -0.015466070844298746 -3.0848972019929546e-05 0 -0.015468864734579186 1.2633813942958915e-05 0 -0.015466875407726049 3.4519306771112222e-05 0 -0.015466875407726049 3.4519306771112222e-05 0 -0.015457646251413824 2.2804603167113739e-06 0 -0.015459389231524489 7.7681914141178245e-05 0 -0.015466070844298746 -3.0848972019929546e-05 0 -0.015466875407726049 3.4519306771112222e-05 0 -0.015457646251413824 2.2804603167113739e-06 0 -0.015457646251413824 2.2804603167113739e-06 0 -0.015459389231524489 7.7681914141178245e-05 0 -0.015438779638438635 0.00012826677986494344 0 -0.015459389231524489 7.7681914141178245e-05 0 -0.015441889568094509 0.00013797040976469975 0 -0.015438779638438635 0.00012826677986494344 0 -0.015466875407726049 3.4519306771112222e-05 0 -0.015459389231524489 7.7681914141178245e-05 0 -0.015453784512623596 6.5496443867700202e-05 0 -0.015459389231524489 7.7681914141178245e-05 0 -0.015453784512623596 6.5496443867700202e-05 0 -0.015435979534298294 0.00010484184831993774 0 -0.015435979534298294 0.00010484184831993774 0 -0.015441889568094509 0.00013797040976469975 0 -0.015425157763555689 0.00015649937993915611 0 -0.015459389231524489 7.7681914141178245e-05 0 -0.015435979534298294 0.00010484184831993774 0 -0.015441889568094509 0.00013797040976469975 0 -0.015441889568094509 0.00013797040976469975 0 -0.015419183897897258 0.00020594531604410025 0 -0.015425157763555689 0.00015649937993915611 0 -0.015419183897897258 0.00020594531604410025 0 -0.01536019557106947 0.00037115420525142442 0 -0.015405995671054284 0.00021553958540960295 0 -0.015441889568094509 0.00013797040976469975 0 -0.015419183897897258 0.00020594531604410025 0 -0.015438779638438635 0.00012826677986494344 0 -0.015419183897897258 0.00020594531604410025 0 -0.01536019557106947 0.00037115420525142442 0 -0.015438779638438635 0.00012826677986494344 0 -0.01536019557106947 0.00037115420525142442 0 -0.015263918187519177 0.00011290170302502266 0 -0.015438779638438635 0.00012826677986494344 0 -0.01539776613393812 -8.0874325431267734e-05 0 -0.015263918187519177 0.00011290170302502266 0 -0.015438779638438635 0.00012826677986494344 0 -0.01854523226424035 -0.0036983604971930653 0 -0.019185087416647165 -0.0030741230017475008 0 -0.018256701768493141 -0.0031537879206891758 0 -0.015469345887928252 1.4949759462456794e-05 0 -0.015464497058615481 2.4189044279948152e-05 0 -0.015460134308514509 2.6444813021445855e-05 0 -0.017279684503134118 -0.0017262911074220932 0 -0.016985213906496145 -0.0012671646729847 0 -0.01854523226424035 -0.0036983604971930653 0 -0.018256701768493141 -0.0031537879206891758 0 -0.018039497664488625 -0.0037151523093912975 0 -0.017652969831147284 -0.0014844329877522055 0 -0.01768418061451139 -0.0016053621052122375 0 -0.017519081718614098 -0.0016278106758875037 0 -0.016985213906496145 -0.0012671646729847 0 -0.018181167743350504 -0.0026436317618840507 0 -0.018896238763111188 -0.0025307441610027898 0 -0.018416522721273393 -0.0027174789941265074 0 -0.018283800328032448 -0.0031475049289896749 0 -0.018254100950791531 -0.0019785304767500986 0 -0.018181167743350504 -0.0026436317618840507 0 -0.017835735011629158 -0.0014596471692272189 0 -0.017652969831147284 -0.0014844329877522055 0 -0.01768418061451139 -0.0016053621052122375 0 -0.016727019649501074 -0.00068340803789554904 0 -0.016985213906496145 -0.0012671646729847 0 -0.015471442140418283 1.8853769249666083e-05 0 -0.015464497058615481 2.4189044279948152e-05 0 -0.015462115378713325 2.9629743448081499e-05 0 -0.015469345887928252 1.4949759462456794e-05 0 -0.015471442140418283 1.8853769249666083e-05 0 -0.015464497058615481 2.4189044279948152e-05 0 -0.015464497058615481 2.4189044279948152e-05 0 -0.015462115378713325 2.9629743448081499e-05 0 -0.015456592508741861 3.5196028937171378e-05 0 -0.015462115378713325 2.9629743448081499e-05 0 -0.01545954576049067 3.9615999772079272e-05 0 -0.01545253493916255 4.7434601782839279e-05 0 -0.015462115378713325 2.9629743448081499e-05 0 -0.015464428675241988 2.5481054713617533e-05 0 -0.015465121302070461 2.7476025904497761e-05 0 -0.015462115378713325 2.9629743448081499e-05 0 -0.015465121302070461 2.7476025904497761e-05 0 -0.01545954576049067 3.9615999772079272e-05 0 -0.015471442140418283 1.8853769249666083e-05 0 -0.015462115378713325 2.9629743448081499e-05 0 -0.015464428675241988 2.5481054713617533e-05 0 -0.015603612556395755 -5.6622835397151501e-05 0 -0.01571881421063075 4.6299028229997409e-06 0 -0.015596486343616434 9.6362465351646404e-06 0 -0.016985213906496145 -0.0012671646729847 0 -0.01526825663394576 7.7921758421754545e-05 0 -0.015535869137565691 -4.5812628223786781e-05 0 -0.015514646397342145 -3.8930359619722551e-06 0 -0.015596486343616434 9.6362465351646404e-06 0 -0.015544431964410603 -9.9321838522453524e-08 0 -0.01526825663394576 7.7921758421754545e-05 0 -0.015468864734579186 1.2633813942958915e-05 0 -0.015464428675241988 2.5481054713617533e-05 0 -0.015465121302070461 2.7476025904497761e-05 0 -0.015466875407726049 3.4519306771112222e-05 0 -0.015465121302070461 2.7476025904497761e-05 0 -0.01545954576049067 3.9615999772079272e-05 0 -0.015468864734579186 1.2633813942958915e-05 0 -0.015466875407726049 3.4519306771112222e-05 0 -0.015465121302070461 2.7476025904497761e-05 0 -0.015453784512623596 6.5496443867700202e-05 0 -0.01545954576049067 3.9615999772079272e-05 0 -0.01544336425482894 6.7189130579215989e-05 0 -0.015466875407726049 3.4519306771112222e-05 0 -0.015453784512623596 6.5496443867700202e-05 0 -0.01545954576049067 3.9615999772079272e-05 0 -0.01545954576049067 3.9615999772079272e-05 0 -0.01544336425482894 6.7189130579215989e-05 0 -0.01545253493916255 4.7434601782839279e-05 0 -0.015435979534298294 0.00010484184831993774 0 -0.01544336425482894 6.7189130579215989e-05 0 -0.015413274795067464 8.3074789789725195e-05 0 -0.015453784512623596 6.5496443867700202e-05 0 -0.015435979534298294 0.00010484184831993774 0 -0.01544336425482894 6.7189130579215989e-05 0 -0.01544336425482894 6.7189130579215989e-05 0 -0.015439780210750006 5.3033904585387666e-05 0 -0.015413274795067464 8.3074789789725195e-05 0 -0.01544336425482894 6.7189130579215989e-05 0 -0.015439780210750006 5.3033904585387666e-05 0 -0.01545253493916255 4.7434601782839279e-05 0 -0.015439780210750006 5.3033904585387666e-05 0 -0.01545253493916255 4.7434601782839279e-05 0 -0.015456592508741861 3.5196028937171378e-05 0 -0.015462115378713325 2.9629743448081499e-05 0 -0.01545253493916255 4.7434601782839279e-05 0 -0.015456592508741861 3.5196028937171378e-05 0 -0.015439780210750006 5.3033904585387666e-05 0 -0.015456592508741861 3.5196028937171378e-05 0 -0.015460134308514509 2.6444813021445855e-05 0 -0.015464497058615481 2.4189044279948152e-05 0 -0.015456592508741861 3.5196028937171378e-05 0 -0.015460134308514509 2.6444813021445855e-05 0 -0.015439780210750006 5.3033904585387666e-05 0 -0.015457085695575043 3.2752590423938806e-05 0 -0.015460134308514509 2.6444813021445855e-05 0 -0.015439780210750006 5.3033904585387666e-05 0 -0.015457085695575043 3.2752590423938806e-05 0 -0.015435259980674064 5.9774460946325157e-05 0 -0.015457085695575043 3.2752590423938806e-05 0 -0.015460134308514509 2.6444813021445855e-05 0 -0.015464023804306249 1.7852785618396456e-05 0 -0.015469345887928252 1.4949759462456794e-05 0 -0.015460134308514509 2.6444813021445855e-05 0 -0.015464023804306249 1.7852785618396456e-05 0 -0.015469345887928252 1.4949759462456794e-05 0 -0.015464023804306249 1.7852785618396456e-05 0 -0.015467238322613599 6.1790416005490863e-06 0 -0.011949219870191517 -0.003527465759276688 0 -0.012085845186130862 -0.0036395548358508756 0 -0.012082998235332964 -0.0035206012277713113 0 -0.011949219870191517 -0.003527465759276688 0 -0.011896169107858783 -0.0033354152047806755 0 -0.012082998235332964 -0.0035206012277713113 0 -0.011949219870191517 -0.003527465759276688 0 -0.011866986809723373 -0.0036263639598816508 0 -0.012085845186130862 -0.0036395548358508756 0 -0.012019850040222643 -0.0037660465941309201 0 -0.011866986809723373 -0.0036263639598816508 0 -0.012085845186130862 -0.0036395548358508756 0 -0.013582859414586906 -0.0017536275953826119 0 -0.013665041137918284 -0.0018075691650398357 0 -0.015439780210750006 5.3033904585387666e-05 0 -0.015435259980674064 5.9774460946325157e-05 0 -0.015421672178618579 6.8878650642251624e-05 0 -0.011949219870191517 -0.003527465759276688 0 -0.011866986809723373 -0.0036263639598816508 0 -0.011829785069740422 -0.0034271139348074739 0 -0.011866986809723373 -0.0036263639598816508 0 -0.011708989748005267 -0.0034610966942931077 0 -0.011829785069740422 -0.0034271139348074739 0 -0.015435259980674064 5.9774460946325157e-05 0 -0.015401140522144653 7.3783763629445845e-05 0 -0.015421672178618579 6.8878650642251624e-05 0 -0.013665041137918284 -0.0018075691650398357 0 -0.013664145467028061 -0.001658079225025425 0 -0.015439780210750006 5.3033904585387666e-05 0 -0.015421672178618579 6.8878650642251624e-05 0 -0.015413274795067464 8.3074789789725195e-05 0 -0.015401140522144653 7.3783763629445845e-05 0 -0.015421672178618579 6.8878650642251624e-05 0 -0.015413274795067464 8.3074789789725195e-05 0 -0.015413274795067464 8.3074789789725195e-05 0 -0.015388495216494557 8.1985006225804643e-05 0 -0.015408788856238495 0.00010619430023689362 0 -0.015401140522144653 7.3783763629445845e-05 0 -0.015413274795067464 8.3074789789725195e-05 0 -0.015388495216494557 8.1985006225804643e-05 0 -0.0099769988231445273 -0.0024227384067251403 0 -0.010261279739727288 -0.0025611033228948102 0 -0.010784828934572359 -0.0023698704669724308 0 -0.015388495216494557 8.1985006225804643e-05 0 -0.015370791557500676 7.119177259871118e-05 0 -0.015370153494228635 7.2719761667071963e-05 0 -0.015401140522144653 7.3783763629445845e-05 0 -0.015388495216494557 8.1985006225804643e-05 0 -0.015370791557500676 7.119177259871118e-05 0 -0.012378629728189558 -0.0022619439355652179 0 -0.013065547672151102 -0.00075402414230096469 0 -0.0060715044214997927 -0.0039667946983173701 0 -0.0055903361116590279 -0.0038314073506482316 0 -0.0058406197113882209 -0.003619656814858048 0 -0.010261279739727288 -0.0025611033228948102 0 -0.0098460076616892038 -0.0026814812407553413 0 -0.010696355591672025 -0.0028778305855621674 0 -0.0060715044214997927 -0.0039667946983173701 0 -0.0061892238986878392 -0.0035944846289728228 0 -0.0058406197113882209 -0.003619656814858048 0 -0.0077232098482412082 -0.0033117141745067575 0 -0.0083883114042825647 -0.002756742974349705 0 -0.0099769988231445273 -0.0024227384067251403 0 -0.010261279739727288 -0.0025611033228948102 0 -0.0098460076616892038 -0.0026814812407553413 0 -0.0060715044214997927 -0.0039667946983173701 0 -0.0065794955949652579 -0.0041053331047008158 0 -0.0061892238986878392 -0.0035944846289728228 0 -0.0077232098482412082 -0.0033117141745067575 0 -0.0088366782389332123 -0.0035921081630753975 0 -0.0099769988231445273 -0.0024227384067251403 0 -0.0098460076616892038 -0.0026814812407553413 0 -0.0089925726120768084 -0.0025060956512223237 0 -0.012378629728189558 -0.0022619439355652179 0 -0.0088366782389332123 -0.0035921081630753975 0 -0.013664145467028061 -0.001658079225025425 0 -0.012378629728189558 -0.0022619439355652179 0 -0.011591807256632851 -0.0033061371520671881 0 -0.011763491287410405 -0.0033166154775634035 0 -0.011739159819685147 -0.0033474854792062791 0 -0.011708989748005267 -0.0034610966942931077 0 -0.011591807256632851 -0.0033061371520671881 0 -0.011739159819685147 -0.0033474854792062791 0 -0.011949219870191517 -0.003527465759276688 0 -0.011829785069740422 -0.0034271139348074739 0 -0.011896169107858783 -0.0033354152047806755 0 -0.011708989748005267 -0.0034610966942931077 0 -0.011829785069740422 -0.0034271139348074739 0 -0.011739159819685147 -0.0033474854792062791 0 -0.0087155034397038336 -0.0038950213032561392 0 -0.0079783611332384582 -0.0040299878023951283 0 -0.0092306840695818293 -0.0043514422292361913 0 -0.011829785069740422 -0.0034271139348074739 0 -0.011804474621966316 -0.0033103623254825752 0 -0.011896169107858783 -0.0033354152047806755 0 -0.0093449841599328905 -0.0037533160634498734 0 -0.010063839479419792 -0.004513433313383667 0 -0.0068445589638185212 -0.0050898022782464745 0 -0.010063839479419792 -0.004513433313383667 0 -0.0066783783061231039 -0.0041033555395879676 0 -0.0065794955949652579 -0.0041053331047008158 0 -0.0067365334930564449 -0.0040693054477340595 0 -0.0087155034397038336 -0.0038950213032561392 0 -0.008177947998978842 -0.0039146521584735618 0 -0.0079783611332384582 -0.0040299878023951283 0 -0.0059941609614819298 -0.0045502257035766863 0 -0.0065648194698373569 -0.004520315567606928 0 -0.0062037749355080309 -0.0047329217171759863 0 -0.0068445589638185212 -0.0050898022782464745 0 -0.0077834941610615497 -0.0043038084039976913 0 -0.0077834941610615497 -0.0043038084039976913 0 -0.005398106007102544 -0.005116833017130981 0 -0.0077834941610615497 -0.0043038084039976913 0 -0.0093449841599328905 -0.0037533160634498734 0 -0.0093449841599328905 -0.0037533160634498734 0 -0.0088366782389332123 -0.0035921081630753975 0 -0.0077834941610615497 -0.0043038084039976913 0 -0.0088366782389332123 -0.0035921081630753975 0 -0.0093449841599328905 -0.0037533160634498734 0 -0.011441694674517876 -0.0029863702029103755 0 -0.0089446131681860767 -0.0038220071778727114 0 -0.0088866791579268536 -0.003853676717062585 0 -0.0087793102957255224 -0.0038222083538104541 0 -0.011829785069740422 -0.0034271139348074739 0 -0.011804474621966316 -0.0033103623254825752 0 -0.011739159819685147 -0.0033474854792062791 0 -0.011776156766686622 -0.0033211373702898149 0 -0.011763491287410405 -0.0033166154775634035 0 -0.011739159819685147 -0.0033474854792062791 0 -0.0024271292035696296 -0.0061593101609051836 0 -0.0026529459037321146 -0.005514966041948584 0 -0.0021981535899323161 -0.0053735367144398926 0 -0.0065794955949652579 -0.0041053331047008158 0 -0.0067365334930564449 -0.0040693054477340595 0 -0.0061892238986878392 -0.0035944846289728228 0 -0.0024271292035696296 -0.0061593101609051836 0 -0.0021981535899323161 -0.0053735367144398926 0 -0.0016303580084017298 -0.0055300066245809942 0 -0.005398106007102544 -0.005116833017130981 0 -0.0038025152375345639 -0.004584819079455172 0 -0.0068445589638185212 -0.0050898022782464745 0 -0.005398106007102544 -0.005116833017130981 0 -0.0049359847239070446 -0.0065118234598004069 0 -0.0049234700133755334 -0.0065000469231135862 0 -0.0051202944903150421 -0.0063667616479840244 0 -0.0024271292035696296 -0.0061593101609051836 0 -0.0026529459037321146 -0.005514966041948584 0 -0.0031771055689090964 -0.0056820105715660501 0 -0.0049359847239070446 -0.0065118234598004069 0 -0.0051568353261102814 -0.0065329149091519828 0 -0.0051202944903150421 -0.0063667616479840244 0 -0.005398106007102544 -0.005116833017130981 0 -0.0037506302787573388 -0.0062805294031724485 0 -0.0068445589638185212 -0.0050898022782464745 0 -0.0070485223152253361 -0.006423636125269948 0 -0.008115565327947865 -0.0060744521165831062 0 -0.0082664649006602281 -0.0062096895329921036 0 -0.0090846774413362776 -0.0060606745447762192 0 -0.010063839479419792 -0.004513433313383667 0 -0.012582980473163426 -0.0033057966206945758 0 -0.010063839479419792 -0.004513433313383667 0 -0.010748678781552003 -0.0050062400471288021 0 -0.014984437667117613 0.00072560552823611993 0 -0.015648967721055521 0.0007084498147010423 0 -0.016095780259819153 0.0016293201754501779 0 -0.015476334627485941 0.0016915158492553381 0 -0.015756191915787358 0.0010417185810585969 0 -0.015093190426709127 0.0011151618827090154 0 -0.01536019557106947 0.00037115420525142442 0 -0.015756191915787358 0.0010417185810585969 0 -0.015093190426709127 0.0011151618827090154 0 -0.015476334627485941 0.0016915158492553381 0 -0.015756191915787358 0.0010417185810585969 0 -0.015357599847206693 0.00034624544904443029 0 -0.015648967721055521 0.0007084498147010423 0 -0.015413611688889267 0.00021979717935652858 0 -0.015405995671054284 0.00021553958540960295 0 -0.015425157763555689 0.00015649937993915611 0 -0.015419183897897258 0.00020594531604410025 0 -0.015405995671054284 0.00021553958540960295 0 -0.015425157763555689 0.00015649937993915611 0 -0.015425157763555689 0.00015649937993915611 0 -0.015408788856238495 0.00010619430023689362 0 -0.015386581786986344 9.1309189522605132e-05 0 -0.015435979534298294 0.00010484184831993774 0 -0.015425157763555689 0.00015649937993915611 0 -0.015408788856238495 0.00010619430023689362 0 -0.015435979534298294 0.00010484184831993774 0 -0.015413274795067464 8.3074789789725195e-05 0 -0.015408788856238495 0.00010619430023689362 0 -0.015388495216494557 8.1985006225804643e-05 0 -0.015408788856238495 0.00010619430023689362 0 -0.015386581786986344 9.1309189522605132e-05 0 -0.014984437667117613 0.00072560552823611993 0 -0.015584371758327773 -7.6530923462606759e-05 0 -0.015444330814952664 8.8239402011619191e-05 0 -0.015425157763555689 0.00015649937993915611 0 -0.015405696965483785 7.9621814755367125e-05 0 -0.015386581786986344 9.1309189522605132e-05 0 -0.015405696965483785 7.9621814755367125e-05 0 -0.015386017456768453 3.6347743567077373e-05 0 -0.015425157763555689 0.00015649937993915611 0 -0.015386581786986344 9.1309189522605132e-05 0 -0.015405696965483785 7.9621814755367125e-05 0 -0.015444330814952664 8.8239402011619191e-05 0 -0.015405696965483785 7.9621814755367125e-05 0 -0.015386017456768453 3.6347743567077373e-05 0 -0.014984437667117613 0.00072560552823611993 0 -0.011874495588466224 -0.00025744206424683179 0 -0.015444330814952664 8.8239402011619191e-05 0 -0.015386017456768453 3.6347743567077373e-05 0 -0.015384114334249067 2.2503849771249455e-05 0 -0.015386017456768453 3.6347743567077373e-05 0 -0.015383583371612445 2.212469641248365e-05 0 -0.015331905860164842 1.6902970943122898e-05 0 -0.011874495588466224 -0.00025744206424683179 0 -0.013065547672151102 -0.00075402414230096469 0 -0.011029363555451865 -0.00075704034926171412 0 -0.01028522104517998 -0.00086376331927795914 0 -0.010674025286421206 -0.0013009188156238968 0 -0.012387186862518586 -0.00036212385423474376 0 -0.011874495588466224 -0.00025744206424683179 0 -0.011874495588466224 -0.00025744206424683179 0 -0.0095931156318721494 -0.0012221240086316429 0 -0.015703087306932755 0.00047458833956188015 0 -0.013065547672151102 -0.00075402414230096469 0 -0.015388495216494557 8.1985006225804643e-05 0 -0.015386581786986344 9.1309189522605132e-05 0 -0.015370153494228635 7.2719761667071963e-05 0 -0.015386581786986344 9.1309189522605132e-05 0 -0.015386017456768453 3.6347743567077373e-05 0 -0.015331905860164842 1.6902970943122898e-05 0 -0.011029363555451865 -0.00075704034926171412 0 -0.01028522104517998 -0.00086376331927795914 0 -0.0097382139202178437 -0.00082017167891839683 0 -0.01028522104517998 -0.00086376331927795914 0 -0.0097382139202178437 -0.00082017167891839683 0 -0.010090266419130302 -0.0013818598535274957 0 -0.010261279739727288 -0.0025611033228948102 0 -0.010784828934572359 -0.0023698704669724308 0 -0.010696355591672025 -0.0028778305855621674 0 -0.013065547672151102 -0.00075402414230096469 0 -0.0083883114042825647 -0.002756742974349705 0 -0.0097382139202178437 -0.00082017167891839683 0 -0.010090266419130302 -0.0013818598535274957 0 -0.0095683931220808746 -0.0018805787727726553 0 -0.010090266419130302 -0.0013818598535274957 0 -0.010191054477713077 -0.0020351195034797997 0 -0.010667966069759385 -0.0013082014399359888 0 -0.01028522104517998 -0.00086376331927795914 0 -0.010090266419130302 -0.0013818598535274957 0 -0.010667966069759385 -0.0013082014399359888 0 -0.0071182725670803793 -0.0021885078754435784 0 -0.0083883114042825647 -0.002756742974349705 0 -0.010090266419130302 -0.0013818598535274957 0 -0.010191054477713077 -0.0020351195034797997 0 -0.0095683931220808746 -0.0018805787727726553 0 -0.0096644584453534875 -0.00056910645197581842 0 -0.0095932641509164276 -0.00033628947684257213 0 -0.0094377200548264005 -0.00041475566231007765 0 -0.011874495588466224 -0.00025744206424683179 0 -0.008126316944362966 -0.0010826185027921619 0 -0.0095931156318721494 -0.0012221240086316429 0 -0.008126316944362966 -0.0010826185027921619 0 -0.0099006226316063328 -0.00098287560770901009 0 -0.0099739432839120092 -0.0008619533495030368 0 -0.009818118673674681 -0.00070022891922561967 0 -0.0071182725670803793 -0.0021885078754435784 0 -0.0095931156318721494 -0.0012221240086316429 0 -0.010018516700614998 -0.0012819549408478613 0 -0.0095931156318721494 -0.0012221240086316429 0 -0.0081113416668752974 -0.0015250523457663472 0 -0.0079806189639320558 -0.0017317655919968998 0 -0.0077899549092766791 -0.0015225915358857316 0 -0.0071182725670803793 -0.0021885078754435784 0 -0.006667633250914155 -0.001259327178175563 0 -0.0081113416668752974 -0.0015250523457663472 0 -0.0077899549092766791 -0.0015225915358857316 0 -0.0077687192649528499 -0.0014368473386679643 0 -0.0064213120739262898 -0.0013176870894403617 0 -0.0064111632392846564 -0.0012819468499752332 0 -0.0063895589491574836 -0.0012774957869242788 0 -0.008126316944362966 -0.0010826185027921619 0 -0.006667633250914155 -0.001259327178175563 0 -0.006667633250914155 -0.001259327178175563 0 -0.006630753499904633 -0.0012535377620472969 0 -0.0076589177085868753 -4.9994568181833691e-05 0 -0.0064733070229524388 -0.00053426278000743134 0 -0.0095932641509164276 -0.00033628947684257213 0 -0.0094377200548264005 -0.00041475566231007765 0 -0.0094146005062644145 -0.00015565793355378524 0 -0.0094377200548264005 -0.00041475566231007765 0 -0.0092079408077256533 -0.00043363734557988053 0 -0.0094146005062644145 -0.00015565793355378524 0 -0.0094377200548264005 -0.00041475566231007765 0 -0.0093104315830527598 -0.00058145049989114276 0 -0.0092079408077256533 -0.00043363734557988053 0 -0.014984437667117613 0.00072560552823611993 0 -0.011937272894207002 0.00036109975740082043 0 -0.011874495588466224 -0.00025744206424683179 0 -0.011937272894207002 0.00036109975740082043 0 -0.0096644584453534875 -0.00056910645197581842 0 -0.0094377200548264005 -0.00041475566231007765 0 -0.0093104315830527598 -0.00058145049989114276 0 -0.012896888550150826 0.00048359879604333033 0 -0.01267289677063139 0.00015222034211001491 0 -0.013078046050877149 0.00017382874337683741 0 -0.016095780259819153 0.0016293201754501779 0 -0.015476334627485941 0.0016915158492553381 0 -0.015707460913700216 0.0022146746545138392 0 -0.014894397343794824 0.0017914865356685454 0 -0.015476334627485941 0.0016915158492553381 0 -0.015230083556438755 0.0022006597441246245 0 -0.015476334627485941 0.0016915158492553381 0 -0.015707460913700216 0.0022146746545138392 0 -0.015230083556438755 0.0022006597441246245 0 -0.011937272894207002 0.00036109975740082043 0 -0.011318286852353835 0.0010533149026704072 0 -0.010098797056514799 0.00059564956522811666 0 -0.010397719492052079 0.00061297480691811389 0 -0.010217279221142541 0.00039087167006145824 0 -0.011318286852353835 0.0010533149026704072 0 -0.0076589177085868753 -4.9994568181833691e-05 0 -0.0053416598115071656 -0.00015056283376745823 0 -0.0052389077067880171 -1.7418194481801267e-05 0 -0.0052756250413630197 -5.0746934179248028e-05 0 -0.0053416598115071656 -0.00015056283376745823 0 -0.0052756250413630197 -5.0746934179248028e-05 0 -0.0054573304777120971 -3.4238748947119851e-06 0 -0.0052827769588653564 -4.6014152158715676e-06 0 -0.0053838463973147682 -2.1599886373755519e-05 0 -0.0052782800782392525 5.6578427974781834e-05 0 -0.0076589177085868753 -4.9994568181833691e-05 0 -0.0050919111677821885 0.00017803382284251791 0 -0.0052827769588653564 -4.6014152158715676e-06 0 -0.0053463262019114617 -7.8887896878523846e-05 0 -0.0053838463973147682 -2.1599886373755519e-05 0 -0.011937272894207002 0.00036109975740082043 0 -0.0076589177085868753 -4.9994568181833691e-05 0 -0.0052756250413630197 -5.0746934179248028e-05 0 -0.0053344104091203864 0.00011914047189631616 0 -0.0054573304777120971 -3.4238748947119851e-06 0 -0.0055695739950146969 0.00031941036582537613 0 -0.0039910556446216203 -0.00060607416498771507 0 -0.0052389077067880171 -1.7418194481801267e-05 0 -0.0052756250413630197 -5.0746934179248028e-05 0 -0.005234229411473475 6.1326098885141641e-05 0 -0.0052756250413630197 -5.0746934179248028e-05 0 -0.005234229411473475 6.1326098885141641e-05 0 -0.0052852183091574518 9.0660271105398929e-05 0 -0.005234229411473475 6.1326098885141641e-05 0 -0.0052852183091574518 9.0660271105398929e-05 0 -0.00518689868468644 0.00016475230552905989 0 -0.0039910556446216203 -0.00060607416498771507 0 -0.0038128663922146746 -0.00069779105150337688 0 -0.0039910556446216203 -0.00060607416498771507 0 -0.003073625098522301 -0.0015421566602804783 0 -0.0041816095494469734 -0.0014517301302700157 0 -0.003977116544576235 -0.0014665014672200871 0 -0.0039560836980284571 -0.0011834444396884203 0 -0.003977116544576235 -0.0014665014672200871 0 -0.0038426951053448957 -0.0013220953426032658 0 -0.003896443024050325 -0.0016638637593907369 0 -0.0047138667367409093 -0.0019789282842719849 0 -0.003983829813655658 -0.0019116300276839423 0 -0.0040335112632228862 -0.0015787718445084849 0 -0.003977116544576235 -0.0014665014672200871 0 -0.003896443024050325 -0.0016638637593907369 0 -0.0041816095494469734 -0.0014517301302700157 0 -0.0040335112632228862 -0.0015787718445084849 0 -0.0040779909092634051 -0.001734703837548189 0 -0.0041816095494469734 -0.0014517301302700157 0 -0.0040335112632228862 -0.0015787718445084849 0 -0.003977116544576235 -0.0014665014672200871 0 -0.003977116544576235 -0.0014665014672200871 0 -0.0038426951053448957 -0.0013220953426032658 0 -0.0039560836980284571 -0.0011834444396884203 0 -0.0047138667367409093 -0.0019789282842719849 0 -0.0064733070229524388 -0.00053426278000743134 0 -0.0039910556446216203 -0.00060607416498771507 0 -0.0064733070229524388 -0.00053426278000743134 0 -0.008126316944362966 -0.0010826185027921619 0 -0.0064733070229524388 -0.00053426278000743134 0 -0.0063895589491574836 -0.0012774957869242788 0 -0.0063574177273088041 -0.0011250493882430177 0 -0.00630283565014636 -0.0011987526797501943 0 -0.0064213120739262898 -0.0013176870894403617 0 -0.0063895589491574836 -0.0012774957869242788 0 -0.00630283565014636 -0.0011987526797501943 0 -0.006667633250914155 -0.001259327178175563 0 -0.0047138667367409093 -0.0019789282842719849 0 -0.0041582539859391652 -0.0025117438322644413 0 -0.0041130769271634721 -0.0023963933895947069 0 -0.0042144802221603505 -0.0024697461527593335 0 -0.0064093925155973459 -0.0012824075851189287 0 -0.0063895589491574836 -0.0012774957869242788 0 -0.0063574177273088041 -0.0011250493882430177 0 -0.0042637920322765015 -0.0025397494475501697 0 -0.0041582539859391652 -0.0025117438322644413 0 -0.0042144802221603505 -0.0024697461527593335 0 -0.0041130769271634721 -0.0023963933895947069 0 -0.0042144802221603505 -0.0024697461527593335 0 -0.0042132102359506429 -0.0024008190571682721 0 -0.0072758437641482591 -0.0022998291503037965 0 -0.0067755195432970287 -0.002175817892849913 0 -0.0065922370296162842 -0.003338180158148219 0 -0.0055903361116590279 -0.0038314073506482316 0 -0.0056293928786588527 -0.0034435919096466551 0 -0.0058406197113882209 -0.003619656814858048 0 -0.0083883114042825647 -0.002756742974349705 0 -0.0054876353813829888 -0.0031734220833565621 0 -0.0042637920322765015 -0.0025397494475501697 0 -0.0042144802221603505 -0.0024697461527593335 0 -0.0043279145466810862 -0.0024364627878826445 0 -0.0071182725670803793 -0.0021885078754435784 0 -0.0054876353813829888 -0.0031734220833565621 0 -0.0042144802221603505 -0.0024697461527593335 0 -0.0042132102359506429 -0.0024008190571682721 0 -0.0043279145466810862 -0.0024364627878826445 0 -0.0054876353813829888 -0.0031734220833565621 0 -0.0055980542897312276 -0.0032625700863128547 0 -0.0042467013831423202 -0.0023353573339293448 0 -0.0043462192855773518 -0.0023310357878641792 0 -0.0041856698428636152 -0.0021622780909543314 0 -0.0043279145466810862 -0.0024364627878826445 0 -0.0042467013831423202 -0.0023353573339293448 0 -0.0043462192855773518 -0.0023310357878641792 0 -0.0054876353813829888 -0.0031734220833565621 0 -0.0030095804396764797 -0.0037067502410051477 0 -0.0056028786294070659 -0.0034508475777205957 0 -0.0056499070452692484 -0.0031438691239120873 0 -0.0057294580916952094 -0.003264499731694662 0 -0.0042132102359506429 -0.0024008190571682721 0 -0.0043279145466810862 -0.0024364627878826445 0 -0.0042467013831423202 -0.0023353573339293448 0 -0.0030095804396764797 -0.0037067502410051477 0 -0.0012882226068948522 -0.0048461460408279911 0 -0.003998009712735966 -0.0024881560127102977 0 -0.0041517271610873431 -0.0022933473705834977 0 -0.0039203183505824397 -0.0022130656303726215 0 -0.0047138667367409093 -0.0019789282842719849 0 -0.0039992310712411751 -0.0025084573271765055 0 -0.0042132102359506429 -0.0024008190571682721 0 -0.0042467013831423202 -0.0023353573339293448 0 -0.0041517271610873431 -0.0022933473705834977 0 -0.0041130769271634721 -0.0023963933895947069 0 -0.0042132102359506429 -0.0024008190571682721 0 -0.0041517271610873431 -0.0022933473705834977 0 -0.0042467013831423202 -0.0023353573339293448 0 -0.0041517271610873431 -0.0022933473705834977 0 -0.0041856698428636152 -0.0021622780909543314 0 -0.0020134202230704694 -0.0031758024558314786 0 -0.0013756685300390919 -0.0029653292387445667 0 -0.0041856698428636152 -0.0021622780909543314 0 -0.0039250231275894274 -0.0019407896091364972 0 -0.0039203183505824397 -0.0022130656303726215 0 -0.0041517271610873431 -0.0022933473705834977 0 -0.0041856698428636152 -0.0021622780909543314 0 -0.0039203183505824397 -0.0022130656303726215 0 -0.0030095804396764797 -0.0037067502410051477 0 -0.0020134202230704694 -0.0031758024558314786 0 3.2237557735044228e-05 -0.0042985516832913569 0 -0.0007902135712755 -0.0043849060631617675 0 -0.0004757489242787138 -0.0037552096595551841 0 -0.00072205423041692444 -0.0049243068501956463 0 3.2237557735044228e-05 -0.0042985516832913569 0 -0.0007902135712755 -0.0043849060631617675 0 3.2237557735044228e-05 -0.0042985516832913569 0 -0.0004757489242787138 -0.0037552096595551841 0 0.00016918463144077346 -0.0036955675751516614 0 -0.0004757489242787138 -0.0037552096595551841 0 -0.00084971734987225156 -0.00318146443012141 0 0.00031080207108269225 -0.0030543175829777468 0 3.2237557735044228e-05 -0.0042985516832913569 0 0.00016918463144077346 -0.0036955675751516614 0 0.0008302696909295265 -0.0036152641287331973 0 -0.0004757489242787138 -0.0037552096595551841 0 0.00016918463144077346 -0.0036955675751516614 0 0.00031080207108269225 -0.0030543175829777468 0 0.00016918463144077346 -0.0036955675751516614 0 0.00049879092316994266 -0.003402854744640053 0 0.0008302696909295265 -0.0036152641287331973 0 0.00016918463144077346 -0.0036955675751516614 0 0.00049879092316994266 -0.003402854744640053 0 0.00031080207108269225 -0.0030543175829777468 0 0.00049879092316994266 -0.003402854744640053 0 0.0007187149624581032 -0.0032412770429301107 0 0.00031080207108269225 -0.0030543175829777468 0 0.00049879092316994266 -0.003402854744640053 0 0.0007187149624581032 -0.0032412770429301107 0 0.0008302696909295265 -0.0036152641287331973 0 0.0007187149624581032 -0.0032412770429301107 0 0.0011364176247120662 -0.0035525940792358285 0 0.00091103475636065132 -0.0028295365222677261 0 -0.0015796537633738967 -0.0023239310873888154 0 0.00087731378225369434 -0.0029323119604345101 0 0.0007187149624581032 -0.0032412770429301107 0 0.00090553443009734895 -0.0035453318068177238 0 0.0011364176247120662 -0.0035525940792358285 0 0.0007187149624581032 -0.0032412770429301107 0 0.0008302696909295265 -0.0036152641287331973 0 0.00090553443009734895 -0.0035453318068177238 0 -0.0013756685300390919 -0.0029653292387445667 0 -0.0011743426023319375 -0.0028951544569241375 0 0.00082912543999499769 -0.0036113247827045647 0 0.00090553443009734895 -0.0035453318068177238 0 0.0011364176247120662 -0.0035525940792358285 0 -0.0013756685300390919 -0.0029653292387445667 0 -0.0015796537633738967 -0.0023239310873888154 0 -0.0020768591234185175 -0.0013079272077159716 0 -0.0019769157067261373 -0.001290977549544513 0 -0.0020102037779744608 -0.0013451553448170536 0 0.00099160618454637267 -0.0029388439123576586 0 0.0016344537803621984 -0.0029062435226611333 0 0.0012963897236778236 -0.0024534435272039429 0 -0.0015796537633738967 -0.0023239310873888154 0 0.00028021754213205353 -0.0021158059209457282 0 -0.0020494981643130266 -0.0014424434662053851 0 -0.0020102037779744608 -0.0013451553448170536 0 -0.0019596311333366931 -0.0013694288277521025 0 -0.0020494981643130266 -0.0014424434662053851 0 -0.0020102037779744608 -0.0013451553448170536 0 -0.0020600041091041513 -0.0013746758053832175 0 -0.0020768591234185175 -0.0013079272077159716 0 -0.0020102037779744608 -0.0013451553448170536 0 -0.0020600041091041513 -0.0013746758053832175 0 -0.0019769157067261373 -0.001290977549544513 0 -0.0020102037779744608 -0.0013451553448170536 0 -0.0019596311333366931 -0.0013694288277521025 0 -0.0039250231275894274 -0.0019407896091364972 0 -0.0038227594982723507 -0.0019232665805644098 0 -0.0039203183505824397 -0.0022130656303726215 0 -0.0015796537633738967 -0.0023239310873888154 0 -0.003983829813655658 -0.0019116300276839423 0 -0.0040335112632228862 -0.0015787718445084849 0 -0.0040779909092634051 -0.001734703837548189 0 -0.003896443024050325 -0.0016638637593907369 0 -0.0015796537633738967 -0.0023239310873888154 0 -0.003073625098522301 -0.0015421566602804783 0 -0.0039498760697625583 -0.0020424051161731151 0 -0.0040779909092634051 -0.001734703837548189 0 -0.003896443024050325 -0.0016638637593907369 0 -0.0028998621847321918 -0.0048498530652313554 0 -0.0025144696236760388 -0.0050699505507807658 0 -0.0024589856910899413 -0.0044679694994154201 0 -0.0028998621847321918 -0.0048498530652313554 0 -0.0029324662525989512 -0.0052444522772715765 0 -0.0025144696236760388 -0.0050699505507807658 0 -0.0029324662525989512 -0.0052444522772715765 0 -0.0026529459037321146 -0.005514966041948584 0 -0.0031771055689090964 -0.0056820105715660501 0 -0.0029324662525989512 -0.0052444522772715765 0 -0.0026529459037321146 -0.005514966041948584 0 -0.0025144696236760388 -0.0050699505507807658 0 -0.0026529459037321146 -0.005514966041948584 0 -0.0021981535899323161 -0.0053735367144398926 0 -0.0025144696236760388 -0.0050699505507807658 0 -0.0021981535899323161 -0.0053735367144398926 0 -0.0025144696236760388 -0.0050699505507807658 0 -0.0019905961415427583 -0.0048432265559281446 0 -0.0025144696236760388 -0.0050699505507807658 0 -0.0019905961415427583 -0.0048432265559281446 0 -0.0024589856910899413 -0.0044679694994154201 0 -0.0019905961415427583 -0.0048432265559281446 0 -0.0016303580084017298 -0.0055300066245809942 0 -0.0013566931436219966 -0.004697276557643057 0 -0.0019905961415427583 -0.0048432265559281446 0 -0.0013566931436219966 -0.004697276557643057 0 -0.0017226576886050034 -0.0042686502084191289 0 -0.0021981535899323161 -0.0053735367144398926 0 -0.0019905961415427583 -0.0048432265559281446 0 -0.0016303580084017298 -0.0055300066245809942 0 -0.0061892238986878392 -0.0035944846289728228 0 -0.0058406197113882209 -0.003619656814858048 0 -0.0057294580916952094 -0.003264499731694662 0 -0.0030095804396764797 -0.0037067502410051477 0 -0.0038025152375345639 -0.004584819079455172 0 -0.0056293928786588527 -0.0034435919096466551 0 -0.0058406197113882209 -0.003619656814858048 0 -0.0057294580916952094 -0.003264499731694662 0 -0.00075690566513495015 -0.0048300955724755786 0 -0.0007902135712755 -0.0043849060631617675 0 -0.0013566931436219966 -0.004697276557643057 0 -0.0056499070452692484 -0.0031438691239120873 0 -0.0061892238986878392 -0.0035944846289728228 0 -0.0057294580916952094 -0.003264499731694662 0 -0.00075690566513495015 -0.0048300955724755786 0 -0.0016303580084017298 -0.0055300066245809942 0 -0.0013566931436219966 -0.004697276557643057 0 -0.0007902135712755 -0.0043849060631617675 0 -0.0004757489242787138 -0.0037552096595551841 0 -0.0012316030564035994 -0.0038373318081301286 0 -0.0007902135712755 -0.0043849060631617675 0 -0.0013566931436219966 -0.004697276557643057 0 -0.0012787961152024691 -0.0042991951741360585 0 -0.0007902135712755 -0.0043849060631617675 0 -0.0012787961152024691 -0.0042991951741360585 0 -0.0012316030564035994 -0.0038373318081301286 0 -0.0012316030564035994 -0.0038373318081301286 0 -0.0018153676037797586 -0.003271759858256321 0 -0.00084971734987225156 -0.00318146443012141 0 -0.0004757489242787138 -0.0037552096595551841 0 -0.0012316030564035994 -0.0038373318081301286 0 -0.00084971734987225156 -0.00318146443012141 0 -0.0017131917131633777 -0.0038318915025270855 0 -0.0020778457031015683 -0.0039459722204352437 0 -0.0018153676037797586 -0.003271759858256321 0 -0.0012316030564035994 -0.0038373318081301286 0 -0.0017131917131633777 -0.0038318915025270855 0 -0.0018153676037797586 -0.003271759858256321 0 -0.0017131917131633777 -0.0038318915025270855 0 -0.0017226576886050034 -0.0042686502084191289 0 -0.0020778457031015683 -0.0039459722204352437 0 -0.0012787961152024691 -0.0042991951741360585 0 -0.0012316030564035994 -0.0038373318081301286 0 -0.0017226576886050034 -0.0042686502084191289 0 -0.0012316030564035994 -0.0038373318081301286 0 -0.0017131917131633777 -0.0038318915025270855 0 -0.0017226576886050034 -0.0042686502084191289 0 -0.0013566931436219966 -0.004697276557643057 0 -0.0012787961152024691 -0.0042991951741360585 0 -0.0017226576886050034 -0.0042686502084191289 0 -0.0024589856910899413 -0.0044679694994154201 0 -0.0020778457031015683 -0.0039459722204352437 0 -0.0025607347417667711 -0.003834445053916927 0 -0.0019905961415427583 -0.0048432265559281446 0 -0.0017226576886050034 -0.0042686502084191289 0 -0.0024589856910899413 -0.0044679694994154201 0 -0.0017226576886050034 -0.0042686502084191289 0 -0.0024589856910899413 -0.0044679694994154201 0 -0.0020778457031015683 -0.0039459722204352437 0 -0.0024364170611388116 -0.003955038399215534 0 -0.00081515908538097321 -0.0032102905457319594 0 -0.0020778457031015683 -0.0039459722204352437 0 -0.0025607347417667711 -0.003834445053916927 0 -0.0018153676037797586 -0.003271759858256321 0 -0.0020638994029954665 -0.0039780592956480919 0 -0.0021794584675377308 -0.0034386796411253048 0 -0.001178185595581068 -0.0034546492807232183 0 -0.0020638994029954665 -0.0039780592956480919 0 -0.0021794584675377308 -0.0034386796411253048 0 -0.0027092111251300747 -0.0038619321822507676 0 -0.0020638994029954665 -0.0039780592956480919 0 -0.0029242432265366458 -0.0044561353768349174 0 -0.0027092111251300747 -0.0038619321822507676 0 -0.0021794584675377308 -0.0034386796411253048 0 -0.0031372879152867547 -0.0034429828897116965 0 -0.0027092111251300747 -0.0038619321822507676 0 -0.0028998621847321918 -0.0048498530652313554 0 -0.0024589856910899413 -0.0044679694994154201 0 -0.0032295774116272865 -0.0043769228964251772 0 -0.0024589856910899413 -0.0044679694994154201 0 -0.0025607347417667711 -0.003834445053916927 0 -0.0032295774116272865 -0.0043769228964251772 0 -0.0024364170611388116 -0.003955038399215534 0 -0.0030483512593704959 -0.004401581923620306 0 -0.00046431409963581941 -0.0026595586505637038 0 0.00046826852363188447 -0.0023914563045382086 0 -0.00083854893144254109 -0.001714440606128901 0 0.00046826852363188447 -0.0023914563045382086 0 0.00050782856306126189 -0.0012977894273574571 0 -0.00083854893144254109 -0.001714440606128901 0 -9.2094042094481834e-05 -0.0033695993565887221 0 -0.00046431409963581941 -0.0026595586505637038 0 0.00046826852363188447 -0.0023914563045382086 0 -0.00095873432210587771 -0.0034270077246188061 0 -0.0023596462181122656 -0.0034094666001297041 0 -9.2094042094481834e-05 -0.0033695993565887221 0 -0.00046431409963581941 -0.0026595586505637038 0 -0.0015101020880974184 -0.0033795852538300456 0 -0.00095873432210587771 -0.0034270077246188061 0 -0.00081515908538097321 -0.0032102905457319594 0 -9.2094042094481834e-05 -0.0033695993565887221 0 0.00046826852363188447 -0.0023914563045382086 0 0.0012356973607623497 -0.0033699975798046002 0 0.00046826852363188447 -0.0023914563045382086 0 0.0014101999365963385 -0.0021196526909210422 0 0.00050782856306126189 -0.0012977894273574571 0 0.00046826852363188447 -0.0023914563045382086 0 0.0014101999365963385 -0.0021196526909210422 0 0.0012356973607623497 -0.0033699975798046002 0 0.0014101999365963385 -0.0021196526909210422 0 0.0012356973607623497 -0.0033699975798046002 0 0.0023447658756931785 -0.002678749009844428 0 -0.00081515908538097321 -0.0032102905457319594 0 0.00086601469150795172 -0.0025087258183230736 0 -0.00081515908538097321 -0.0032102905457319594 0 -0.00094167290163486893 -0.0030447517004922224 0 -0.001600891010320065 -0.0029057130989372034 0 -0.00068834792565648263 -0.0029333783037498863 0 -0.0008558960130959464 -0.0024377424520366509 0 -0.00068834792565648263 -0.0029333783037498863 0 -0.0008558960130959464 -0.0024377424520366509 0 -0.00052701991479351274 -0.002597808819154349 0 0.0014101999365963385 -0.0021196526909210422 0 0.0023447658756931785 -0.002678749009844428 0 0.0022062560942618724 -0.0017974734887230511 0 0.0023447658756931785 -0.002678749009844428 0 0.0022062560942618724 -0.0017974734887230511 0 0.0027974591199327273 -0.0019707058286775672 0 0.0026878853963671263 -0.0013999743007849447 0 0.0037583436808679483 -0.0019681760503115916 0 0.0022062560942618724 -0.0017974734887230511 0 0.00266110083114605 -0.0013425100947700986 0 0.0017908157030259236 -0.00087838224991571424 0 0.0022062560942618724 -0.0017974734887230511 0 0.00266110083114605 -0.0013425100947700986 0 0.0027974591199327273 -0.0019707058286775672 0 0.0032320332051038788 -0.0016909450616113993 0 0.0030155476322560756 -0.0015858152392891351 0 0.003398722110390464 -0.0014281635470763934 0 0.0037583436808679483 -0.0019681760503115916 0 0.0056286670936555212 -0.0020962977809884263 0 0.0060599494123785187 -0.0031569020475567793 0 0.007331510490663138 -0.0026949627109568177 0 0.006694209364138384 -0.0023565283742196593 0 0.0055889503459695383 -0.0024432841772319869 0 0.0073333656734799781 -0.0021920555374852833 0 0.0060599494123785187 -0.0031569020475567793 0 0.0054129101394321654 -0.0028423060461315467 0 0.006694209364138384 -0.0023565283742196593 0 0.0042948402311017491 -0.0024103675778012435 0 0.0040147712912955843 -0.0022776683838292571 0 0.0038242201303534799 -0.0025957592942540382 0 0.0037583436808679483 -0.0019681760503115916 0 0.0055889503459695383 -0.0024432841772319869 0 0.0014101999365963385 -0.0021196526909210422 0 0.0017908157030259236 -0.00087838224991571424 0 0.00050782856306126189 -0.0012977894273574571 0 0.0037583436808679483 -0.0019681760503115916 0 0.0020166947869741914 -0.0019406129585097171 0 0.0014101999365963385 -0.0021196526909210422 0 0.0022062560942618724 -0.0017974734887230511 0 0.0017908157030259236 -0.00087838224991571424 0 0.0055889503459695383 -0.0024432841772319869 0 0.0036214858517103379 -0.0024746584739390146 0 0.0040147712912955843 -0.0022776683838292571 0 0.0038242201303534799 -0.0025957592942540382 0 0.0037061346025766663 -0.0023992036151544542 0 0.0043993069828128957 -0.0021752431201997775 0 0.0038952978839622548 -0.0023671988249857208 0 0.0037932081211261314 -0.0018974513676039231 0 0.0055889503459695383 -0.0024432841772319869 0 0.0054296644965365556 -0.0019518442996570744 0 0.0038952978839622548 -0.0023671988249857208 0 0.0035709032829502039 -0.0022609045755466487 0 0.0033897453959385441 -0.0025262761017317554 0 0.0038952978839622548 -0.0023671988249857208 0 0.0035709032829502039 -0.0022609045755466487 0 0.0037932081211261314 -0.0018974513676039231 0 0.0034084701172710377 -0.0020728626976210733 0 0.0035709032829502039 -0.0022609045755466487 0 0.0037932081211261314 -0.0018974513676039231 0 0.0034084701172710377 -0.0020728626976210733 0 0.0037932081211261314 -0.0018974513676039231 0 0.0033411232196024054 -0.0019029079343823097 0 0.0035709032829502039 -0.0022609045755466487 0 0.0033897453959385441 -0.0025262761017317554 0 0.0033145091064575283 -0.0022424625434180174 0 0.0034084701172710377 -0.0020728626976210733 0 0.0035709032829502039 -0.0022609045755466487 0 0.0033145091064575283 -0.0022424625434180174 0 0.0020166947869741914 -0.0019406129585097171 0 0.0013014337266473127 -0.0022528652598754941 0 0.0038242201303534799 -0.0025957592942540382 0 0.0037061346025766663 -0.0023992036151544542 0 0.0033897453959385441 -0.0025262761017317554 0 0.0038242201303534799 -0.0025957592942540382 0 0.0033897453959385441 -0.0025262761017317554 0 0.0033052206275122481 -0.0028257351801773503 0 0.0036214858517103379 -0.0024746584739390146 0 0.0035058363443187051 -0.0024889196887507244 0 0.0013434647576259639 -0.0018710795104196207 0 0.00066134196253349905 -0.0020922273735900134 0 0.00082203553733149499 -0.0014160842640092912 0 0.0013434647576259639 -0.0018710795104196207 0 0.0010329423273116008 -0.0022321513443210512 0 0.00066134196253349905 -0.0020922273735900134 0 0.0013434647576259639 -0.0018710795104196207 0 0.0019629303049510912 -0.0015844286460129995 0 0.0018083431353999968 -0.0022251372365979663 0 0.0013434647576259639 -0.0018710795104196207 0 0.0012963897236778236 -0.0024534435272039429 0 0.0010329423273116008 -0.0022321513443210512 0 0.0013434647576259639 -0.0018710795104196207 0 0.0012963897236778236 -0.0024534435272039429 0 0.0018083431353999968 -0.0022251372365979663 0 0.0016344537803621984 -0.0029062435226611333 0 0.0012963897236778236 -0.0024534435272039429 0 0.0018083431353999968 -0.0022251372365979663 0 0.00099160618454637267 -0.0029388439123576586 0 0.0012963897236778236 -0.0024534435272039429 0 0.00084383028090290082 -0.0024945262293074345 0 0.0012963897236778236 -0.0024534435272039429 0 0.0010329423273116008 -0.0022321513443210512 0 0.00084383028090290082 -0.0024945262293074345 0 0.00087731378225369434 -0.0029323119604345101 0 0.00066207239563099388 -0.0020928743619377118 0 0.0010329423273116008 -0.0022321513443210512 0 0.00084383028090290082 -0.0024945262293074345 0 0.00066134196253349905 -0.0020922273735900134 0 0.0007187149624581032 -0.0032412770429301107 0 0.00031080207108269225 -0.0030543175829777468 0 0.00049293886629320086 -0.0026051118248356601 0 0.0007187149624581032 -0.0032412770429301107 0 0.00091103475636065132 -0.0028295365222677261 0 0.00049293886629320086 -0.0026051118248356601 0 0.00031080207108269225 -0.0030543175829777468 0 0.00049293886629320086 -0.0026051118248356601 0 -0.00014739140135109128 -0.0025782160235354821 0 0.00049293886629320086 -0.0026051118248356601 0 -0.00014739140135109128 -0.0025782160235354821 0 0.00020684325699076692 -0.002241478777916168 0 0.00091103475636065132 -0.0028295365222677261 0 0.00049293886629320086 -0.0026051118248356601 0 0.00066134196253349905 -0.0020922273735900134 0 -0.00094167290163486893 -0.0030447517004922224 0 0.00033720881738714351 -0.0030625752810661371 0 -0.00068834792565648263 -0.0029333783037498863 0 0.00031080207108269225 -0.0030543175829777468 0 -0.00014739140135109128 -0.0025782160235354821 0 -0.00068834792565648263 -0.0029333783037498863 0 -0.00014739140135109128 -0.0025782160235354821 0 -0.00052701991479351274 -0.002597808819154349 0 -0.00014739140135109128 -0.0025782160235354821 0 -0.00027215687523375625 -0.002349017724089934 0 0.00020684325699076692 -0.002241478777916168 0 -0.0008558960130959464 -0.0024377424520366509 0 -0.00052701991479351274 -0.002597808819154349 0 -0.00027215687523375625 -0.002349017724089934 0 -0.00014739140135109128 -0.0025782160235354821 0 -0.00052701991479351274 -0.002597808819154349 0 -0.00027215687523375625 -0.002349017724089934 0 0.0023447658756931785 -0.002678749009844428 0 0.0033572198834276893 -0.0019926296619124256 0 0.0027974591199327273 -0.0019707058286775672 0 0.00086601469150795172 -0.0025087258183230736 0 0.0016226212702534755 -0.0019665693658222618 0 -0.0008558960130959464 -0.0024377424520366509 0 -0.00027215687523375625 -0.002349017724089934 0 -8.3754469135019709e-06 -0.0018759418366636944 0 -0.00027215687523375625 -0.002349017724089934 0 -8.3754469135019709e-06 -0.0018759418366636944 0 0.00020684325699076692 -0.002241478777916168 0 0.0033572198834276893 -0.0019926296619124256 0 0.0027974591199327273 -0.0019707058286775672 0 0.0034254476502138761 -0.0018293323842989157 0 -8.3754469135019709e-06 -0.0018759418366636944 0 0.00042541215498049796 -0.0018960370930460944 0 0.00082203553733149499 -0.0014160842640092912 0 0.00066134196253349905 -0.0020922273735900134 0 0.00042541215498049796 -0.0018960370930460944 0 0.00082203553733149499 -0.0014160842640092912 0 0.00066134196253349905 -0.0020922273735900134 0 0.00020684325699076692 -0.002241478777916168 0 0.00042541215498049796 -0.0018960370930460944 0 0.00049293886629320086 -0.0026051118248356601 0 0.00066134196253349905 -0.0020922273735900134 0 0.00020684325699076692 -0.002241478777916168 0 -8.3754469135019709e-06 -0.0018759418366636944 0 0.00020684325699076692 -0.002241478777916168 0 0.00042541215498049796 -0.0018960370930460944 0 0.0034254476502138761 -0.0018293323842989157 0 0.003410220800403257 -0.0016256669194941757 0 0.0036056140530158851 -0.0015560123591342317 0 0.0016226212702534755 -0.0019665693658222618 0 0.0023803217890167503 -0.0015329751738590639 0 0.0033572198834276893 -0.0019926296619124256 0 0.0034254476502138761 -0.0018293323842989157 0 0.0037558971982741417 -0.0016983665213568069 0 0.0034254476502138761 -0.0018293323842989157 0 0.0036056140530158851 -0.0015560123591342317 0 0.0037558971982741417 -0.0016983665213568069 0 0.0032320332051038788 -0.0016909450616113993 0 0.0034254476502138761 -0.0018293323842989157 0 0.003410220800403257 -0.0016256669194941757 0 0.00266110083114605 -0.0013425100947700986 0 0.0027974591199327273 -0.0019707058286775672 0 0.0034254476502138761 -0.0018293323842989157 0 0.0026878853963671263 -0.0013999743007849447 0 0.0034687177000555878 -0.0018247723328093028 0 0.0032320332051038788 -0.0016909450616113993 0 0.003410220800403257 -0.0016256669194941757 0 0.003398722110390464 -0.0014281635470763934 0 0.003398722110390464 -0.0014281635470763934 0 0.0036056140530158851 -0.0015560123591342317 0 0.0038238920159530702 -0.0012752679641280132 0 0.003410220800403257 -0.0016256669194941757 0 0.003398722110390464 -0.0014281635470763934 0 0.0036056140530158851 -0.0015560123591342317 0 0.0038196643523213661 -0.0014930424060344415 0 0.0037558971982741417 -0.0016983665213568069 0 0.0040173888908891448 -0.0015248017984392272 0 0.0036056140530158851 -0.0015560123591342317 0 0.0038196643523213661 -0.0014930424060344415 0 0.0038238920159530702 -0.0012752679641280132 0 0.0038196643523213661 -0.0014930424060344415 0 0.0040173888908891448 -0.0015248017984392272 0 0.0038238920159530702 -0.0012752679641280132 0 0.0036056140530158851 -0.0015560123591342317 0 0.0038196643523213661 -0.0014930424060344415 0 0.0037558971982741417 -0.0016983665213568069 0 0.0023803217890167503 -0.0015329751738590639 0 0.0022368068218636501 -0.0012637019965959834 0 0.0013434647576259639 -0.0018710795104196207 0 0.00082203553733149499 -0.0014160842640092912 0 0.001406964281595708 -0.0014766935663614118 0 0.001406964281595708 -0.0014766935663614118 0 0.0014888145825374989 -0.0010340311686746211 0 0.0019629303049510912 -0.0015844286460129995 0 0.0022368068218636501 -0.0012637019965959834 0 0.002131517496735695 -0.0016974125535153851 0 0.0013434647576259639 -0.0018710795104196207 0 0.001406964281595708 -0.0014766935663614118 0 0.0019629303049510912 -0.0015844286460129995 0 0.0022846053810698162 -0.0015993673319369594 0 0.0023839390955746509 -0.0015437618275307944 0 0.002377202225666797 -0.0018137923974648115 0 0.00082203553733149499 -0.0014160842640092912 0 0.001406964281595708 -0.0014766935663614118 0 0.0014888145825374989 -0.0010340311686746211 0 0.0022368068218636501 -0.0012637019965959834 0 0.0022958892713822337 -0.0014352263094928675 0 0.0022368068218636501 -0.0012637019965959834 0 0.0055715383884219613 -0.0017237352012243006 0 0.0023814670278741266 -0.0015342830587600058 0 0.0023715761337112853 -0.0014821385372039808 0 0.0023878661712474028 -0.0014971950351901704 0 0.0023839390955746509 -0.0015437618275307944 0 0.0023878661712474028 -0.0014971950351901704 0 0.002414778388382042 -0.0014778924057684956 0 0.0023814670278741266 -0.0015342830587600058 0 0.0023839390955746509 -0.0015437618275307944 0 0.0023878661712474028 -0.0014971950351901704 0 0.0023839390955746509 -0.0015437618275307944 0 0.0024591372718898445 -0.0014902480445530642 0 0.002414778388382042 -0.0014778924057684956 0 0.0023839390955746509 -0.0015437618275307944 0 0.0025079623097804026 -0.0016089649493193237 0 0.0024591372718898445 -0.0014902480445530642 0 0.0025079623097804026 -0.0016089649493193237 0 0.0024591372718898445 -0.0014902480445530642 0 0.0025593631097567695 -0.0014922032053041813 0 0.0025079623097804026 -0.0016089649493193237 0 0.0026366312284614494 -0.0015879134562925791 0 0.0026314440084949466 -0.0017820808561883612 0 0.0026366312284614494 -0.0015879134562925791 0 0.0026594483969884807 -0.0014720679788043794 0 0.0025593631097567695 -0.0014922032053041813 0 0.0025079623097804026 -0.0016089649493193237 0 0.0026366312284614494 -0.0015879134562925791 0 0.0025593631097567695 -0.0014922032053041813 0 0.0025079623097804026 -0.0016089649493193237 0 0.0026314440084949466 -0.0017820808561883612 0 0.002377202225666797 -0.0018137923974648115 0 0.0023839390955746509 -0.0015437618275307944 0 0.0025079623097804026 -0.0016089649493193237 0 0.002377202225666797 -0.0018137923974648115 0 0.0019629303049510912 -0.0015844286460129995 0 0.0024521046007477303 -0.0021075204042801565 0 0.0018083431353999968 -0.0022251372365979663 0 0.002131517496735695 -0.0016974125535153851 0 0.002458360815473556 -0.0020884609349142128 0 0.0026314440084949466 -0.0017820808561883612 0 0.0024521046007477303 -0.0021075204042801565 0 0.0026650253697659042 -0.0019756627151538602 0 0.0026314440084949466 -0.0017820808561883612 0 0.002377202225666797 -0.0018137923974648115 0 0.0024521046007477303 -0.0021075204042801565 0 0.0024521046007477303 -0.0021075204042801565 0 0.0027373640607758682 -0.0022096250096678752 0 0.0026650253697659042 -0.0019756627151538602 0 0.0019803261480903422 -0.00084103616147877141 0 -0.0012101152093704545 -0.00075419875976743796 0 0.0021632791660627952 -0.0024358902572056925 0 0.0027373640607758682 -0.0022096250096678752 0 0.0022714067704924256 -0.0028241627479173681 0 0.0024521046007477303 -0.0021075204042801565 0 0.0021632791660627952 -0.0024358902572056925 0 0.0027373640607758682 -0.0022096250096678752 0 0.0024521046007477303 -0.0021075204042801565 0 0.0021632791660627952 -0.0024358902572056925 0 0.0018083431353999968 -0.0022251372365979663 0 0.0016344537803621984 -0.0029062435226611333 0 0.0021632791660627952 -0.0024358902572056925 0 0.0018083431353999968 -0.0022251372365979663 0 -3.4633117128459037e-05 0.00047486217268809998 0 -0.00013613354864212089 0.00069797075641412081 0 0.00022594039152719789 0.0006100733617423064 0 0.00014433419104933339 0.00043340053367657674 0 -3.4633117128459037e-05 0.00047486217268809998 0 0.00022594039152719789 0.0006100733617423064 0 0.00014433419104933339 0.00043340053367657674 0 0.00015671317204619397 0.00033769980624737074 0 5.6282818770751191e-05 0.00035189315413321654 0 0.00014433419104933339 0.00043340053367657674 0 5.6282818770751191e-05 0.00035189315413321654 0 -3.4633117128459037e-05 0.00047486217268809998 0 0.00034690856814567541 0.00041296550059118325 0 0.00047173920510516765 0.00058690929725505102 0 0.00022594039152719789 0.0006100733617423064 0 0.00014433419104933339 0.00043340053367657674 0 0.00034690856814567541 0.00041296550059118325 0 0.00022594039152719789 0.0006100733617423064 0 0.00014433419104933339 0.00043340053367657674 0 0.00034690856814567541 0.00041296550059118325 0 0.00015671317204619397 0.00033769980624737074 0 0.0019803261480903422 -0.00084103616147877141 0 0.00096509408724104143 -0.00066083805418462604 0 0.00034690856814567541 0.00041296550059118325 0 0.00017380025460603821 0.00025373936176111076 0 0.00015671317204619397 0.00033769980624737074 0 0.0027373640607758682 -0.0022096250096678752 0 0.0026650253697659042 -0.0019756627151538602 0 0.0029260670715615107 -0.0018622467948483329 0 0.00034690856814567541 0.00041296550059118325 0 0.00017981304789981687 0.00013348341182078176 0 0.00017380025460603821 0.00025373936176111076 0 0.0026314440084949466 -0.0017820808561883612 0 0.0026650253697659042 -0.0019756627151538602 0 0.0029260670715615107 -0.0018622467948483329 0 0.00017981304789981687 0.00013348341182078176 0 0.00017380025460603821 0.00025373936176111076 0 0.00012652931755047074 0.00016316745592978698 0 0.00017380025460603821 0.00025373936176111076 0 0.00015671317204619397 0.00033769980624737074 0 6.7740066565849646e-05 0.00023238650616187013 0 5.6282818770751191e-05 0.00035189315413321654 0 6.7740066565849646e-05 0.00023238650616187013 0 -7.7509734790228791e-05 0.00027240847631321806 0 0.00015671317204619397 0.00033769980624737074 0 5.6282818770751191e-05 0.00035189315413321654 0 6.7740066565849646e-05 0.00023238650616187013 0 6.7740066565849646e-05 0.00023238650616187013 0 0.00012652931755047074 0.00016316745592978698 0 5.8330941383764987e-05 9.6225152593532856e-05 0 6.7740066565849646e-05 0.00023238650616187013 0 5.8330941383764987e-05 9.6225152593532856e-05 0 -7.7509734790228791e-05 0.00027240847631321806 0 0.00017380025460603821 0.00025373936176111076 0 6.7740066565849646e-05 0.00023238650616187013 0 0.00012652931755047074 0.00016316745592978698 0 0.00017981304789981687 0.00013348341182078176 0 0.00012652931755047074 0.00016316745592978698 0 5.8330941383764987e-05 9.6225152593532856e-05 0 0.00096509408724104143 -0.00066083805418462604 0 0.00021444099429426255 -4.0775026318689248e-05 0 0.00096509408724104143 -0.00066083805418462604 0 0.0017022112864173388 -0.00092713232111277645 0 0.00041713259113836196 0.00014530522864765781 0 0.00027493954411809306 4.3473661243268405e-07 0 0.00046505900466561081 -0.00013533458031983226 0 0.00017981304789981687 0.00013348341182078176 0 5.8330941383764987e-05 9.6225152593532856e-05 0 7.907185151497713e-05 -4.9828455977987523e-05 0 0.0026314440084949466 -0.0017820808561883612 0 0.0029260670715615107 -0.0018622467948483329 0 0.0028426740577438144 -0.001605184719367887 0 0.0026366312284614494 -0.0015879134562925791 0 0.0026314440084949466 -0.0017820808561883612 0 0.0028426740577438144 -0.001605184719367887 0 0.0026366312284614494 -0.0015879134562925791 0 0.0028426740577438144 -0.001605184719367887 0 0.0026594483969884807 -0.0014720679788043794 0 0.0028426740577438144 -0.001605184719367887 0 0.0026594483969884807 -0.0014720679788043794 0 0.002779535220971584 -0.0014114424337556789 0 0.0017022112864173388 -0.00092713232111277645 0 0.0015579610868068125 -0.00086157260168619849 0 0.00046505900466561081 -0.00013533458031983226 0 0.00045000056152368583 -0.00032254457565774995 0 0.0003886227287735577 -0.00026998794502184806 0 0.00027493954411809306 4.3473661243268405e-07 0 0.00032083893597295056 -0.00018520048282273522 0 0.00019632061726923333 -0.00018229777840973358 0 0.00027493954411809306 4.3473661243268405e-07 0 0.00046505900466561081 -0.00013533458031983226 0 0.00032083893597295056 -0.00018520048282273522 0 0.00046505900466561081 -0.00013533458031983226 0 0.00032083893597295056 -0.00018520048282273522 0 0.0003886227287735577 -0.00026998794502184806 0 0.00032083893597295056 -0.00018520048282273522 0 0.00028956613363114695 -0.0002463754011801386 0 0.0003886227287735577 -0.00026998794502184806 0 0.00032083893597295056 -0.00018520048282273522 0 0.00028956613363114695 -0.0002463754011801386 0 0.00019632061726923333 -0.00018229777840973358 0 0.00028956613363114695 -0.0002463754011801386 0 0.00019632061726923333 -0.00018229777840973358 0 6.815272111116642e-05 -0.00020382475111761203 0 0.00019632061726923333 -0.00018229777840973358 0 5.3904311811193996e-05 -0.0001818851679002377 0 6.815272111116642e-05 -0.00020382475111761203 0 0.00027493954411809306 4.3473661243268405e-07 0 0.00019632061726923333 -0.00018229777840973358 0 5.3904311811193996e-05 -0.0001818851679002377 0 0.00021444099429426255 -4.0775026318689248e-05 0 6.0097889022349489e-05 -0.0001722661874228584 0 0.00043062903275344939 -0.00032030139631554467 0 0.00030632869882116351 -0.00031575940899170811 0 0.00042429394164209732 -0.0003415353979607605 0 0.00030632869882116351 -0.00031575940899170811 0 0.0002130158187672319 -0.0002987879148757734 0 0.00039162796005384574 -0.00032360923689949095 0 0.00030632869882116351 -0.00031575940899170811 0 0.00039162796005384574 -0.00032360923689949095 0 0.00042429394164209732 -0.0003415353979607605 0 0.0002130158187672319 -0.0002987879148757734 0 0.00010263928533231048 -0.00025424253563248049 0 -6.3441554771437059e-05 -0.00024585649332952412 0 0.00030632869882116351 -0.00031575940899170811 0 0.0002130158187672319 -0.0002987879148757734 0 0.00010263928533231048 -0.00025424253563248049 0 0.00043062903275344939 -0.00032030139631554467 0 0.00030632869882116351 -0.00031575940899170811 0 0.00010263928533231048 -0.00025424253563248049 0 0.00010263928533231048 -0.00025424253563248049 0 -0.00029770708425451295 -0.00016560785906452014 0 -9.1523446920896447e-05 -7.0910281511004283e-05 0 0.00043062903275344939 -0.00032030139631554467 0 0.00010263928533231048 -0.00025424253563248049 0 -9.1523446920896447e-05 -7.0910281511004283e-05 0 0.00010263928533231048 -0.00025424253563248049 0 -6.3441554771437059e-05 -0.00024585649332952412 0 -0.00029770708425451295 -0.00016560785906452014 0 -0.00029770708425451295 -0.00016560785906452014 0 -0.00072015774755074344 -2.1168125363583909e-05 0 -9.1523446920896447e-05 -7.0910281511004283e-05 0 5.3904311811193996e-05 -0.0001818851679002377 0 6.815272111116642e-05 -0.00020382475111761203 0 -0.00030136615691207683 8.2300506027111538e-05 0 7.907185151497713e-05 -4.9828455977987523e-05 0 5.3904311811193996e-05 -0.0001818851679002377 0 -0.00030136615691207683 8.2300506027111538e-05 0 5.8330941383764987e-05 9.6225152593532856e-05 0 7.907185151497713e-05 -4.9828455977987523e-05 0 -0.00030136615691207683 8.2300506027111538e-05 0 0.00024148634425602837 -0.00026155806247631709 0 -0.00019859727073388243 1.1697774060844142e-05 0 -0.00034657307234406935 -2.6013891423922575e-07 0 0.00014184575576865299 -0.00018740934554590619 0 -0.00072157251606588899 -0.00013995457275546878 0 0.00014184575576865299 -0.00018740934554590619 0 -6.3441554771437059e-05 -0.00024585649332952412 0 -0.00072157251606588899 -0.00013995457275546878 0 0.00014184575576865299 -0.00018740934554590619 0 -6.3441554771437059e-05 -0.00024585649332952412 0 0.00034632292372159561 -0.0002786887468635889 0 0.0002130158187672319 -0.0002987879148757734 0 -6.3441554771437059e-05 -0.00024585649332952412 0 0.00034632292372159561 -0.0002786887468635889 0 -6.3441554771437059e-05 -0.00024585649332952412 0 -0.00029770708425451295 -0.00016560785906452014 0 -0.00072157251606588899 -0.00013995457275546878 0 -0.00029770708425451295 -0.00016560785906452014 0 -0.00072157251606588899 -0.00013995457275546878 0 -0.00072015774755074344 -2.1168125363583909e-05 0 -0.00034657307234406935 -2.6013891423922575e-07 0 -0.00072157251606588899 -0.00013995457275546878 0 -0.0017098814075172677 -7.8294747773112698e-07 0 -0.00072157251606588899 -0.00013995457275546878 0 -0.0017098814075172677 -7.8294747773112698e-07 0 -0.0016721395152192163 9.2258221492303079e-05 0 -0.00072157251606588899 -0.00013995457275546878 0 -0.00072015774755074344 -2.1168125363583909e-05 0 -0.0016721395152192163 9.2258221492303079e-05 0 -0.00070666842162651379 0.00055320391424837378 0 -0.0016721395152192163 9.2258221492303079e-05 0 -0.00088922387997394535 0.00083764323311080226 0 -0.00072015774755074344 -2.1168125363583909e-05 0 -0.00070666842162651379 0.00055320391424837378 0 -0.0016721395152192163 9.2258221492303079e-05 0 -0.0030727966073525658 2.5166678528270033e-07 0 -0.002719437661329635 0.00052807610748381248 0 -0.0016721395152192163 9.2258221492303079e-05 0 -0.0030702659929169739 2.2446227171215253e-06 0 -0.00088922387997394535 0.00083764323311080226 0 -0.0017098814075172677 -7.8294747773112698e-07 0 -0.0016721395152192163 9.2258221492303079e-05 0 -0.0030702659929169739 2.2446227171215253e-06 0 5.8330941383764987e-05 9.6225152593532856e-05 0 -7.7509734790228791e-05 0.00027240847631321806 0 -0.00030136615691207683 8.2300506027111538e-05 0 -7.7509734790228791e-05 0.00027240847631321806 0 -0.00030136615691207683 8.2300506027111538e-05 0 -0.00027583895759707166 0.00041938709668370901 0 -0.00070666842162651379 0.00055320391424837378 0 -0.00030136615691207683 8.2300506027111538e-05 0 -0.00027583895759707166 0.00041938709668370901 0 -0.00065123089773459048 0.0005285362023795025 0 -0.00019859727073388243 1.1697774060844142e-05 0 -0.00072015774755074344 -2.1168125363583909e-05 0 -0.00070666842162651379 0.00055320391424837378 0 -9.1523446920896447e-05 -7.0910281511004283e-05 0 -0.00070666842162651379 0.00055320391424837378 0 -0.00027583895759707166 0.00041938709668370901 0 -0.00013613354864212089 0.00069797075641412081 0 -0.00070666842162651379 0.00055320391424837378 0 -0.00013613354864212089 0.00069797075641412081 0 -0.00088922387997394535 0.00083764323311080226 0 -0.00027583895759707166 0.00041938709668370901 0 -3.4633117128459037e-05 0.00047486217268809998 0 -0.00013613354864212089 0.00069797075641412081 0 5.6282818770751191e-05 0.00035189315413321654 0 -7.7509734790228791e-05 0.00027240847631321806 0 -3.4633117128459037e-05 0.00047486217268809998 0 -7.7509734790228791e-05 0.00027240847631321806 0 -0.00027583895759707166 0.00041938709668370901 0 -3.4633117128459037e-05 0.00047486217268809998 0 -0.0024549269639153205 0.00046717906910887256 0 -0.002719437661329635 0.00052807610748381248 0 -0.0048567828408334207 0.00024053440380445928 0 -0.0047256135263478057 3.1293239607724897e-05 0 -0.0045388937445350894 0.00033684532003207756 0 -0.0047256135263478057 3.1293239607724897e-05 0 -0.0048970554645900799 8.5115465166477075e-05 0 -0.0048214142012969492 1.6223641081672423e-07 0 -0.0048567828408334207 0.00024053440380445928 0 -0.0047256135263478057 3.1293239607724897e-05 0 -0.0048970554645900799 8.5115465166477075e-05 0 -0.0030749027590368529 1.1933150534315052e-06 0 -0.0045388937445350894 0.00033684532003207756 0 -0.0043494440912353093 -3.8507033265685022e-05 0 -0.0030749027590368529 1.1933150534315052e-06 0 -0.0043494440912353093 -3.8507033265685022e-05 0 -0.004280893333571025 -6.7624938665506149e-07 0 -0.0047256135263478057 3.1293239607724897e-05 0 -0.0045388937445350894 0.00033684532003207756 0 -0.0043494440912353093 -3.8507033265685022e-05 0 -0.0047256135263478057 3.1293239607724897e-05 0 -0.0043494440912353093 -3.8507033265685022e-05 0 -0.0047103634752650638 -9.7675780248230001e-05 0 -0.0043494440912353093 -3.8507033265685022e-05 0 -0.004280893333571025 -6.7624938665506149e-07 0 -0.0047103634752650638 -9.7675780248230001e-05 0 -0.004280893333571025 -6.7624938665506149e-07 0 -0.0047103634752650638 -9.7675780248230001e-05 0 -0.0054859262280131903 2.2127373520830691e-07 0 -0.0047103634752650638 -9.7675780248230001e-05 0 -0.0049690953371509423 7.4341555139312285e-05 0 -0.0054859262280131903 2.2127373520830691e-07 0 -0.0047256135263478057 3.1293239607724897e-05 0 -0.0047103634752650638 -9.7675780248230001e-05 0 -0.0048214142012969492 1.6223641081672423e-07 0 -0.0047103634752650638 -9.7675780248230001e-05 0 -0.0049690953371509423 7.4341555139312285e-05 0 -0.0048214142012969492 1.6223641081672423e-07 0 -0.0049370227325887996 0.00010339386429164481 0 -0.0051341821329440179 0.00019540381902200069 0 -0.0049690953371509423 7.4341555139312285e-05 0 -0.0049370227325887996 0.00010339386429164481 0 -0.0049690953371509423 7.4341555139312285e-05 0 -0.0048214142012969492 1.6223641081672423e-07 0 -0.0066158512889576094 -1.1841373239242282e-05 0 -0.0065288494962244398 -1.4776898045224885e-07 0 -0.0054883490960705049 1.4667674557041198e-07 0 -0.0058203873403814303 -9.6703045911915653e-05 0 -0.0054885053412933515 -9.2501520302358028e-08 0 -0.0051341821329440179 0.00019540381902200069 0 -0.0049690953371509423 7.4341555139312285e-05 0 -0.0054859262280131903 2.2127373520830691e-07 0 -0.0048970554645900799 8.5115465166477075e-05 0 -0.0048214142012969492 1.6223641081672423e-07 0 -0.0049222158365198028 3.8246815493020693e-05 0 -0.0049370227325887996 0.00010339386429164481 0 -0.0048214142012969492 1.6223641081672423e-07 0 -0.0049222158365198028 3.8246815493020693e-05 0 -0.0048970554645900799 8.5115465166477075e-05 0 -0.0049222158365198028 3.8246815493020693e-05 0 -0.005022753827042213 7.7176258801760602e-05 0 -0.0050381160499939018 2.0141756240664294e-05 0 -0.0049222158365198028 3.8246815493020693e-05 0 -0.005022753827042213 7.7176258801760602e-05 0 -0.0048970554645900799 8.5115465166477075e-05 0 -0.005022753827042213 7.7176258801760602e-05 0 -0.0049937838184979967 0.00013320834216622231 0 -0.005022753827042213 7.7176258801760602e-05 0 -0.0050783145892502168 0.00014172912488262608 0 -0.0049937838184979967 0.00013320834216622231 0 -0.005022753827042213 7.7176258801760602e-05 0 -0.0051100300105271865 8.2000466472914631e-05 0 -0.0050783145892502168 0.00014172912488262608 0 -0.0051210377329283267 2.8391665054170002e-05 0 -0.0050381160499939018 2.0141756240664294e-05 0 -0.005022753827042213 7.7176258801760602e-05 0 -0.0051210377329283267 2.8391665054170002e-05 0 -0.005022753827042213 7.7176258801760602e-05 0 -0.0051100300105271865 8.2000466472914631e-05 0 -0.0051915758967879073 4.5792011089160905e-05 0 -0.0051765800482332577 9.38350875702648e-05 0 -0.0051100300105271865 8.2000466472914631e-05 0 -0.0051210377329283267 2.8391665054170002e-05 0 -0.0051915758967879073 4.5792011089160905e-05 0 -0.0051100300105271865 8.2000466472914631e-05 0 -0.0050919111677821885 0.00017803382284251791 0 -0.0052379211148991323 1.8565220636899253e-05 0 -0.0052782800782392525 5.6578427974781834e-05 0 -0.0051915758967879073 4.5792011089160905e-05 0 -0.0051765800482332577 9.38350875702648e-05 0 -0.0052389077067880171 -1.7418194481801267e-05 0 -0.005234229411473475 6.1326098885141641e-05 0 -0.0051765800482332577 9.38350875702648e-05 0 -0.0052827769588653564 -4.6014152158715676e-06 0 -0.0052782800782392525 5.6578427974781834e-05 0 -0.0051915758967879073 4.5792011089160905e-05 0 -0.005234229411473475 6.1326098885141641e-05 0 -0.0051765800482332577 9.38350875702648e-05 0 -0.00518689868468644 0.00016475230552905989 0 -0.0051765800482332577 9.38350875702648e-05 0 -0.0051100300105271865 8.2000466472914631e-05 0 -0.0050783145892502168 0.00014172912488262608 0 -0.0050783145892502168 0.00014172912488262608 0 -0.00518689868468644 0.00016475230552905989 0 -0.0050948097879544825 0.00022818757953249277 0 -0.0051765800482332577 9.38350875702648e-05 0 -0.0050783145892502168 0.00014172912488262608 0 -0.00518689868468644 0.00016475230552905989 0 -0.0019769157067261373 -0.001290977549544513 0 -0.0019596311333366931 -0.0013694288277521025 0 -0.0018591822805409909 -0.0012728342916846563 0 -0.0038128663922146746 -0.00069779105150337688 0 -0.0012101152093704545 -0.00075419875976743796 0 0.00028021754213205353 -0.0021158059209457282 0 -0.0012101152093704545 -0.00075419875976743796 0 0.0016344537803621984 -0.0029062435226611333 0 0.0021632791660627952 -0.0024358902572056925 0 0.0022714067704924256 -0.0028241627479173681 0 -0.0012101152093704545 -0.00075419875976743796 0 -0.0026213752007145513 0.00055676397769637855 0 -0.0050783145892502168 0.00014172912488262608 0 -0.0050948097879544825 0.00022818757953249277 0 -0.0049849301726985961 0.00022949258378961984 0 -0.0048567828408334207 0.00024053440380445928 0 -0.0048970554645900799 8.5115465166477075e-05 0 -0.0049849301726985961 0.00022949258378961984 0 -0.0024549269639153205 0.00046717906910887256 0 -0.0026213752007145513 0.00055676397769637855 0 -0.0048970554645900799 8.5115465166477075e-05 0 -0.0049849301726985961 0.00022949258378961984 0 -0.0049937838184979967 0.00013320834216622231 0 -0.0050783145892502168 0.00014172912488262608 0 -0.0049849301726985961 0.00022949258378961984 0 -0.0049937838184979967 0.00013320834216622231 0 0.00029352464763951128 -0.006198709627950794 0 0.00047339423542907725 -0.004638298830543822 0 0.0018797811470225682 -0.0056307375798601298 0 0.00029352464763951128 -0.006198709627950794 0 -0.00083515407451272884 -0.0048715169534597974 0 -0.0012801953250485805 -0.0067634289871436742 0 0.0023622445166791074 -0.004364744265109269 0 -0.0036404000905402643 -0.0058196402356788775 0 0.00029352464763951128 -0.006198709627950794 0 -0.00083515407451272884 -0.0048715169534597974 0 0.00047339423542907725 -0.004638298830543822 0 0.0018797811470225682 -0.0056307375798601298 0 0.0027832959550606767 -0.004083563425364355 0 0.0014286931345283496 -0.0035187718336567335 0 0.00047339423542907725 -0.004638298830543822 0 0.0018797811470225682 -0.0056307375798601298 0 0.0014286931345283496 -0.0035187718336567335 0 0.0018797811470225682 -0.0056307375798601298 0 0.0027832959550606767 -0.004083563425364355 0 0.0035094089340813642 -0.0050285560657133705 0 -0.0097810359106025313 -0.0049313798772867307 0 -0.0098883078089022254 -0.0057846363608873895 0 -0.0086253988165484931 -0.0053578850096780801 0 -0.0038206017777614397 -0.0052478030245986041 0 -0.002521634441089798 -0.0046881196652703216 0 -0.0097810359106025313 -0.0049313798772867307 0 -0.008516369814156979 -0.0043496223847734657 0 -0.0086253988165484931 -0.0053578850096780801 0 -0.010497263936737441 -0.0054851326438172211 0 -0.0097810359106025313 -0.0049313798772867307 0 -0.010327770758236741 -0.0058670680608296595 0 -0.0056080972577539304 -0.0059695534399439466 0 -0.0038206017777614397 -0.0052478030245986041 0 -0.0098883078089022254 -0.0057846363608873895 0 -0.010264780828770416 -0.0061853043488861829 0 -0.010327770758236741 -0.0058670680608296595 0 -0.0097810359106025313 -0.0049313798772867307 0 -0.0098883078089022254 -0.0057846363608873895 0 -0.010327770758236741 -0.0058670680608296595 0 -0.0098362089361975335 -0.0058190559296338257 0 -0.0092758868514134039 -0.0061262921346769365 0 -0.0098883078089022254 -0.0057846363608873895 0 -0.0086253988165484931 -0.0053578850096780801 0 -0.0086666386235403244 -0.0062724743781490061 0 -0.01000478329891729 -0.0061697329014299036 0 -0.0097284360267463135 -0.006082437923649129 0 -0.0096971070609427525 -0.0065340624071007318 0 -0.0098883078089022254 -0.0057846363608873895 0 -0.01000478329891729 -0.0061697329014299036 0 -0.0097284360267463135 -0.006082437923649129 0 -0.0098883078089022254 -0.0057846363608873895 0 -0.01000478329891729 -0.0061697329014299036 0 -0.010264780828770416 -0.0061853043488861829 0 -0.01000478329891729 -0.0061697329014299036 0 -0.010264780828770416 -0.0061853043488861829 0 -0.010330707819628894 -0.0065497401040493066 0 -0.010264780828770416 -0.0061853043488861829 0 -0.010571246567995546 -0.0059969611545160322 0 -0.010382827624767501 -0.0064386227274577882 0 -0.010264780828770416 -0.0061853043488861829 0 -0.010327770758236741 -0.0058670680608296595 0 -0.010571246567995546 -0.0059969611545160322 0 -0.010497263936737441 -0.0054851326438172211 0 -0.010327770758236741 -0.0058670680608296595 0 -0.010571246567995546 -0.0059969611545160322 0 -0.010497263936737441 -0.0054851326438172211 0 -0.010571246567995546 -0.0059969611545160322 0 -0.010894563220862656 -0.0057655838868498491 0 -0.010571246567995546 -0.0059969611545160322 0 -0.010894563220862656 -0.0057655838868498491 0 -0.010917345274759216 -0.0059010420975565301 0 -0.0056080972577539304 -0.0059695534399439466 0 -0.0036404000905402643 -0.0058196402356788775 0 -0.010571246567995546 -0.0059969611545160322 0 -0.010917345274759216 -0.0059010420975565301 0 -0.01063341138840254 -0.0063520258601941233 0 -0.0072638976682713125 -0.0061213014557667924 0 -0.010714005568900568 -0.0061526008888143713 0 -0.0089050179432198177 -0.0066618781328112416 0 -0.0092371024126559863 -0.0068687993683355904 0 -0.0091621274718853684 -0.0062347694961756737 0 -0.009422084008725632 -0.0070002395005777972 0 -0.0099705388202669699 -0.0060958290302552199 0 -0.0092941775129897798 -0.0063089927456329783 0 -0.0072638976682713125 -0.0061213014557667924 0 -0.0093066123119603106 -0.0064659233952996369 0 -0.0089050179432198177 -0.0066618781328112416 0 -0.0086193098257180793 -0.0063850321802532027 0 -0.0091621274718853684 -0.0062347694961756737 0 -0.0086193098257180793 -0.0063850321802532027 0 -0.0081325286433215106 -0.0063318491828005946 0 -0.008395670348705862 -0.006101588473863862 0 -0.0086193098257180793 -0.0063850321802532027 0 -0.0083636780707287486 -0.006775700173355984 0 -0.0081325286433215106 -0.0063318491828005946 0 -0.0089050179432198177 -0.0066618781328112416 0 -0.0086193098257180793 -0.0063850321802532027 0 -0.0083636780707287486 -0.006775700173355984 0 -0.0089050179432198177 -0.0066618781328112416 0 -0.0083636780707287486 -0.006775700173355984 0 -0.0091330716515440804 -0.0070372129149943513 0 -0.001654273103618616 -0.0057752016603517704 0 -0.0011305180826428687 -0.0055813825172182094 0 -0.0013448649324046033 -0.0051450275235513602 0 -0.001654273103618616 -0.0057752016603517704 0 -0.0018797914568558177 -0.0053349287044117399 0 -0.0013448649324046033 -0.0051450275235513602 0 -0.0057549986568528316 -0.0064982619426895158 0 -0.0034357269865847024 -0.0061490488585187004 0 0.0038709865297461179 -0.0046558311712028549 0 0.0037815473870867664 -0.0046869800461810012 0 0.0036330388253271667 -0.0042944384653738022 0 -0.0052167170909145329 -0.0059323005067137315 0 -0.0054074960823866985 -0.00600273821470037 0 -0.0052840741622945525 -0.0062273639225589412 0 -0.0036404000905402643 -0.0058196402356788775 0 -0.0034357269865847024 -0.0061490488585187004 0 -0.0034357269865847024 -0.0061490488585187004 0 -0.0072638976682713125 -0.0061213014557667924 0 -0.0036404000905402643 -0.0058196402356788775 0 -0.0072638976682713125 -0.0061213014557667924 0 -0.0089050179432198177 -0.0066618781328112416 0 -0.0091330716515440804 -0.0070372129149943513 0 -0.0092371024126559863 -0.0068687993683355904 0 0.0027495694050316778 -0.0053512740485597583 0 0.0028966987227160425 -0.0052993243251125378 0 0.0026198941688420981 -0.0047088395105843676 0 -0.0015691127794741522 -0.0053163901764997938 0 -0.0054456090605948283 -0.0059526849160491209 0 -0.007494614023821523 -0.0064844219785383361 0 -0.00734967455799556 -0.0061589787748618941 0 -0.0075842598362540091 -0.0061651212820906442 0 -0.0027311017604366634 -0.0055588270085058858 0 -0.0054456090605948283 -0.0059526849160491209 0 -0.0038729879886180763 -0.0052553818241173333 0 -0.0033491727840387871 -0.0050631275306649223 0 -0.0036996446479433064 -0.005842870747630206 0 -0.007494614023821523 -0.0064844219785383361 0 -0.0075842598362540091 -0.0061651212820906442 0 -0.0078189201000081129 -0.006154576337328274 0 -0.0015691127794741522 -0.0053163901764997938 0 -0.0027311017604366634 -0.0055588270085058858 0 -0.0083636780707287486 -0.006775700173355984 0 -0.007494614023821523 -0.0064844219785383361 0 -0.0081325286433215106 -0.0063318491828005946 0 -0.007494614023821523 -0.0064844219785383361 0 -0.0081325286433215106 -0.0063318491828005946 0 -0.0078189201000081129 -0.006154576337328274 0 -0.0057549986568528316 -0.0064982619426895158 0 -0.0027311017604366634 -0.0055588270085058858 0 -0.001654273103618616 -0.0057752016603517704 0 -0.0021857993210747263 -0.0059684977860027626 0 -0.0018797914568558177 -0.0053349287044117399 0 -0.0027311017604366634 -0.0055588270085058858 0 0.0010429495297630312 -0.0049595726822969444 0 -0.0015691127794741522 -0.0053163901764997938 0 0.0030641685828066722 -0.0045826095837157438 0 0.0028966987227160425 -0.0052993243251125378 0 0.0032394832780896312 -0.0046375458180732132 0 0.0026198941688420981 -0.0047088395105843676 0 0.0032394832780896312 -0.0046375458180732132 0 0.0030694876835626259 -0.0042215927726845775 0 0.0026198941688420981 -0.0047088395105843676 0 0.0030694876835626259 -0.0042215927726845775 0 0.0028196944317313045 -0.0039756481967053361 0 0.0026198941688420981 -0.0047088395105843676 0 0.0032394832780896312 -0.0046375458180732132 0 0.0033100247005794165 -0.004031341099078151 0 0.0030694876835626259 -0.0042215927726845775 0 0.0010429495297630312 -0.0049595726822969444 0 0.0015783983793424884 -0.0041747878979456476 0 0.0032394832780896312 -0.0046375458180732132 0 0.0033100247005794165 -0.004031341099078151 0 0.0035581933022662761 -0.0039957954832104368 0 0.0033100247005794165 -0.004031341099078151 0 0.0035251889744149162 -0.0039310594561995527 0 0.0031858920974246877 -0.0038669398265611878 0 0.0033100247005794165 -0.004031341099078151 0 0.0035581933022662761 -0.0039957954832104368 0 0.0035251889744149162 -0.0039310594561995527 0 0.0033100247005794165 -0.004031341099078151 0 0.0030694876835626259 -0.0042215927726845775 0 0.0031858920974246877 -0.0038669398265611878 0 0.0030694876835626259 -0.0042215927726845775 0 0.0028196944317313045 -0.0039756481967053361 0 0.0031858920974246877 -0.0038669398265611878 0 0.0040820986547699016 -0.0040338400158606855 0 0.0038709865297461179 -0.0046558311712028549 0 0.0036330388253271667 -0.0042944384653738022 0 -0.0034357269865847024 -0.0061490488585187004 0 0.0014720486278193908 -0.004819134550208385 0 -0.0018797914568558177 -0.0053349287044117399 0 -0.0013448649324046033 -0.0051450275235513602 0 -0.0015634621619105213 -0.0047020209023712085 0 0.0036330388253271667 -0.0042944384653738022 0 0.0034705008545218114 -0.003912057537362095 0 0.0038368907129812209 -0.0038006910042785429 0 0.0014720486278193908 -0.004819134550208385 0 0.0015783983793424884 -0.0041747878979456476 0 0.0015783983793424884 -0.0041747878979456476 0 0.0018135998290761998 -0.0042904739012967815 0 0.0040820986547699016 -0.0040338400158606855 0 0.0036330388253271667 -0.0042944384653738022 0 0.0038368907129812209 -0.0038006910042785429 0 0.0038368907129812209 -0.0038006910042785429 0 0.0037610704703832983 -0.0034868533417984249 0 0.0042295475190831829 -0.0034457848390504714 0 0.0035577205845281901 -0.0039894070489048085 0 0.0035251889744149162 -0.0039310594561995527 0 0.0037610704703832983 -0.0034868533417984249 0 0.0015783983793424884 -0.0041747878979456476 0 0.0041770178300114692 -0.0032782068765427751 0 0.0034705008545218114 -0.003912057537362095 0 0.0038368907129812209 -0.0038006910042785429 0 0.0037610704703832983 -0.0034868533417984249 0 0.0035251889744149162 -0.0039310594561995527 0 0.0037610704703832983 -0.0034868533417984249 0 0.0034171514473187725 -0.0035673864018685698 0 0.0037610704703832983 -0.0034868533417984249 0 0.0035639446982601592 -0.0031432712057071484 0 0.003952090468478644 -0.0031215344755015197 0 0.0037610704703832983 -0.0034868533417984249 0 0.0034171514473187725 -0.0035673864018685698 0 0.0035639446982601592 -0.0031432712057071484 0 0.0037610704703832983 -0.0034868533417984249 0 0.003952090468478644 -0.0031215344755015197 0 0.0042295475190831829 -0.0034457848390504714 0 0.0028196944317313045 -0.0039756481967053361 0 0.0031858920974246877 -0.0038669398265611878 0 0.0029387023371430982 -0.0035436385823203295 0 0.0035251889744149162 -0.0039310594561995527 0 0.0034171514473187725 -0.0035673864018685698 0 0.0031858920974246877 -0.0038669398265611878 0 0.0034171514473187725 -0.0035673864018685698 0 0.0031858920974246877 -0.0038669398265611878 0 0.0029387023371430982 -0.0035436385823203295 0 0.0034171514473187725 -0.0035673864018685698 0 0.0029387023371430982 -0.0035436385823203295 0 0.0035639446982601592 -0.0031432712057071484 0 0.0029387023371430982 -0.0035436385823203295 0 0.0028805671592906793 -0.0030241035996340059 0 0.0035639446982601592 -0.0031432712057071484 0 0.0034872805139797352 -0.0029917320591897932 0 0.0035639446982601592 -0.0031432712057071484 0 0.0036427290824536775 -0.0028090732406128804 0 0.0031941297051589425 -0.0030198197007330432 0 0.0035536502092522798 -0.0031368903099261033 0 0.0035639446982601592 -0.0031432712057071484 0 0.0036427290824536775 -0.0028090732406128804 0 0.0038098071328564183 -0.0029205560727291057 0 0.0036427290824536775 -0.0028090732406128804 0 0.0038098071328564183 -0.0029205560727291057 0 0.0038768803648839495 -0.0027151889397513144 0 0.0034872805139797352 -0.0029917320591897932 0 0.0036427290824536775 -0.0028090732406128804 0 0.0034284564555307384 -0.0027824060466415355 0 0.0035639446982601592 -0.0031432712057071484 0 0.003952090468478644 -0.0031215344755015197 0 0.0038098071328564183 -0.0029205560727291057 0 0.0044067104742920946 -0.002931939951996265 0 0.0037858539255720171 -0.0026816767838148819 0 0.0038098071328564183 -0.0029205560727291057 0 0.0040107101769471104 -0.0028418424461671178 0 0.0038768803648839495 -0.0027151889397513144 0 0.003952090468478644 -0.0031215344755015197 0 0.0040107101769471104 -0.0028418424461671178 0 0.0043161258277177881 -0.0029697231216002777 0 0.003952090468478644 -0.0031215344755015197 0 0.0038098071328564183 -0.0029205560727291057 0 0.0040107101769471104 -0.0028418424461671178 0 0.0042916911724606016 -0.0028482952001520762 0 0.0044725427163732311 -0.0027626287775863521 0 0.0045965275497188368 -0.0029444299865987625 0 0.0044067104742920946 -0.002931939951996265 0 0.0032132614555585317 -0.0026554029278412065 0 0.0044725427163732311 -0.0027626287775863521 0 0.0045965275497188368 -0.0029444299865987625 0 0.0046311842714558786 -0.0027780421575178764 0 0.0046311842714558786 -0.0027780421575178764 0 0.0047666709295764303 -0.0028230623059099474 0 0.0047933581988845357 -0.0026708360718706043 0 0.0046025239422203493 -0.0028822261601875849 0 0.0046311842714558786 -0.0027780421575178764 0 0.0047666709295764303 -0.0028230623059099474 0 0.0032132614555585317 -0.0026554029278412065 0 0.0042191483794019055 -0.0027202909861137746 0 0.0046025239422203493 -0.0028822261601875849 0 0.0047666709295764303 -0.0028230623059099474 0 0.004847818148337844 -0.0029966972075966018 0 4.6636383023952892e-05 -0.0011444832544837461 0 0.00063546892404108826 -0.0023185549169709718 0 0.0016516463370043765 -0.0018316769813300066 0 4.6636383023952892e-05 -0.0011444832544837461 0 -0.00038672309286633642 -0.0029858490667444559 0 0.00063546892404108826 -0.0023185549169709718 0 0.0032132614555585317 -0.0026554029278412065 0 0.0030400736674885943 -0.0022886580966286173 0 0.0032132614555585317 -0.0026554029278412065 0 0.0016740491944223031 -0.003137784573870111 0 0.003952090468478644 -0.0031215344755015197 0 0.0043161258277177881 -0.0029697231216002777 0 0.0042295475190831829 -0.0034457848390504714 0 -0.00038672309286633642 -0.0029858490667444559 0 0.00063546892404108826 -0.0023185549169709718 0 0.0014286931345283496 -0.0035187718336567335 0 0.00047339423542907725 -0.004638298830543822 0 -0.00038672309286633642 -0.0029858490667444559 0 0.0014286931345283496 -0.0035187718336567335 0 0.0040820986547699016 -0.0040338400158606855 0 0.0038368907129812209 -0.0038006910042785429 0 0.0042295475190831829 -0.0034457848390504714 0 -0.00083515407451272884 -0.0048715169534597974 0 0.00047339423542907725 -0.004638298830543822 0 -0.00038672309286633642 -0.0029858490667444559 0 0.0023622445166791074 -0.004364744265109269 0 0.0016740491944223031 -0.003137784573870111 0 0.0027832959550606767 -0.004083563425364355 0 0.0014286931345283496 -0.0035187718336567335 0 0.0033297174719804459 -0.0025371749852793148 0 0.00063546892404108826 -0.0023185549169709718 0 0.0014286931345283496 -0.0035187718336567335 0 0.0016516463370043765 -0.0018316769813300066 0 0.0014286931345283496 -0.0035187718336567335 0 0.0016516463370043765 -0.0018316769813300066 0 0.0033297174719804459 -0.0025371749852793148 0 0.004847818148337844 -0.0029966972075966018 0 0.0050963526785200329 -0.0028824081630974972 0 0.0050414924748269641 -0.0031309596828152206 0 0.0030400736674885943 -0.0022886580966286173 0 0.0042448958920217094 -0.0028824476362926854 0 0.0047666709295764303 -0.0028230623059099474 0 0.0049568880460249759 -0.0026980432612339245 0 0.0047933581988845357 -0.0026708360718706043 0 0.0047666709295764303 -0.0028230623059099474 0 0.004847818148337844 -0.0029966972075966018 0 0.0049568880460249759 -0.0026980432612339245 0 0.004847818148337844 -0.0029966972075966018 0 0.0050963526785200329 -0.0028824081630974972 0 0.0049568880460249759 -0.0026980432612339245 0 0.0050963526785200329 -0.0028824081630974972 0 0.0053709892261790378 -0.0027519297329317944 0 0.0052344089668685959 -0.0025332008049123527 0 0.0050963526785200329 -0.0028824081630974972 0 0.005181231125064893 -0.0030505095479519176 0 0.0050414924748269641 -0.0031309596828152206 0 0.005181231125064893 -0.0030505095479519176 0 0.0053709892261790378 -0.0027519297329317944 0 0.0054654362677045336 -0.0030807361014099539 0 0.0050963526785200329 -0.0028824081630974972 0 0.005181231125064893 -0.0030505095479519176 0 0.0053709892261790378 -0.0027519297329317944 0 0.0053709892261790378 -0.0027519297329317944 0 0.0056219634672367213 -0.002814232975121895 0 0.0054654362677045336 -0.0030807361014099539 0 0.0056219634672367213 -0.002814232975121895 0 0.0058883584317038322 -0.0027951085702727281 0 0.0058941190171729885 -0.0026057368706843905 0 0.0056219634672367213 -0.002814232975121895 0 0.0058883584317038322 -0.0027951085702727281 0 0.0058392705994111645 -0.0029572293510500372 0 0.0056219634672367213 -0.002814232975121895 0 0.0056687150120026206 -0.0030030029471459583 0 0.0058392705994111645 -0.0029572293510500372 0 0.0056687150120026206 -0.0030030029471459583 0 0.0057982692561375677 -0.0031464692555356979 0 0.0054654362677045336 -0.0030807361014099539 0 0.0056687150120026206 -0.0030030029471459583 0 0.0057982692561375677 -0.0031464692555356979 0 0.0058392705994111645 -0.0029572293510500372 0 0.0056219634672367213 -0.002814232975121895 0 0.0056687150120026206 -0.0030030029471459583 0 0.0054654362677045336 -0.0030807361014099539 0 0.0054654362677045336 -0.0030807361014099539 0 0.005504383996470635 -0.003358430251007973 0 0.0050450791742120173 -0.0033870788058740064 0 0.0057982692561375677 -0.0031464692555356979 0 0.0054654362677045336 -0.0030807361014099539 0 0.005504383996470635 -0.003358430251007973 0 0.0057982692561375677 -0.0031464692555356979 0 0.005504383996470635 -0.003358430251007973 0 0.0058130130621824325 -0.003396887323516928 0 0.005504383996470635 -0.003358430251007973 0 0.0058130130621824325 -0.003396887323516928 0 0.0056919342466630459 -0.003751468913244173 0 -0.0055913909075638859 -0.0032244212470819715 0 -0.0048453668538822109 -0.0032948111909785254 0 -0.0051840152371980556 -0.0040216365156825308 0 0.005504383996470635 -0.003358430251007973 0 0.0050450791742120173 -0.0033870788058740064 0 0.0050391956579847802 -0.0042516981952827318 0 0.00021038689309301568 -0.0034963991547490021 0 -0.0010713915699948006 -0.0040246883110066694 0 0.005504383996470635 -0.003358430251007973 0 0.0056919342466630459 -0.003751468913244173 0 0.0050391956579847802 -0.0042516981952827318 0 0.0050450791742120173 -0.0033870788058740064 0 0.0039618557371294298 -0.0038624626262137342 0 0.0050391956579847802 -0.0042516981952827318 0 0.0027832959550606767 -0.004083563425364355 0 0.0039618557371294298 -0.0038624626262137342 0 0.0033297174719804459 -0.0025371749852793148 0 0.0050450791742120173 -0.0033870788058740064 0 0.0039618557371294298 -0.0038624626262137342 0 0.0033297174719804459 -0.0025371749852793148 0 0.005181231125064893 -0.0030505095479519176 0 0.0054654362677045336 -0.0030807361014099539 0 0.0050450791742120173 -0.0033870788058740064 0 0.005181231125064893 -0.0030505095479519176 0 0.0050450791742120173 -0.0033870788058740064 0 0.0050414924748269641 -0.0031309596828152206 0 0.0049939400706068256 -0.0033300372075463825 0 0.0042448958920217094 -0.0028824476362926854 0 0.0033897453959385441 -0.0025262761017317554 0 0.002907532866386891 -0.0026342542150367206 0 0.0033052206275122481 -0.0028257351801773503 0 0.0033897453959385441 -0.0025262761017317554 0 0.002907532866386891 -0.0026342542150367206 0 0.0030143798288715423 -0.0022832410037500269 0 0.0033145091064575283 -0.0022424625434180174 0 0.0032073368798904442 -0.0020639931980574655 0 0.0030143798288715423 -0.0022832410037500269 0 0.0033897453959385441 -0.0025262761017317554 0 0.0033145091064575283 -0.0022424625434180174 0 0.0030143798288715423 -0.0022832410037500269 0 0.0032073368798904442 -0.0020639931980574655 0 0.0030143798288715423 -0.0022832410037500269 0 0.0030657142843643682 -0.0018216643781220087 0 0.0034084701172710377 -0.0020728626976210733 0 0.0033145091064575283 -0.0022424625434180174 0 0.0032073368798904442 -0.0020639931980574655 0 0.0034084701172710377 -0.0020728626976210733 0 0.0032073368798904442 -0.0020639931980574655 0 0.0033411232196024054 -0.0019029079343823097 0 0.0030143798288715423 -0.0022832410037500269 0 0.0025440610222650126 -0.0023532363487914374 0 0.0030657142843643682 -0.0018216643781220087 0 0.0042497250883681108 -0.0027153845416648219 0 0.0049474698434822852 -0.0022515360732773275 0 0.0062323848202095076 -0.003059108215476784 0 0.0066683024203722466 -0.0026197343904846237 0 0.0063616736790154524 -0.0026853534242203226 0 0.0062323848202095076 -0.003059108215476784 0 0.0061594853631773026 -0.0027440354629840657 0 0.0063616736790154524 -0.0026853534242203226 0 0.002907532866386891 -0.0026342542150367206 0 0.0025257935594713214 -0.0027503010121665895 0 0.002643203597647587 -0.0030775382577229327 0 0.002907532866386891 -0.0026342542150367206 0 0.0030143798288715423 -0.0022832410037500269 0 0.0025440610222650126 -0.0023532363487914374 0 0.002907532866386891 -0.0026342542150367206 0 0.0025440610222650126 -0.0023532363487914374 0 0.0025257935594713214 -0.0027503010121665895 0 0.0025440610222650126 -0.0023532363487914374 0 0.0025257935594713214 -0.0027503010121665895 0 0.0020298899619125262 -0.002863221914249676 0 0.0042497250883681108 -0.0027153845416648219 0 0.004758150824171528 -0.0033696440017501402 0 0.0061126987303852277 -0.0027817119995627916 0 0.004758150824171528 -0.0033696440017501402 0 0.0062323848202095076 -0.003059108215476784 0 0.0058459841137916482 -0.0028302676818624914 0 0.0057869209406912099 -0.0034958420508242722 0 0.0062323848202095076 -0.003059108215476784 0 0.0061594853631773026 -0.0027440354629840657 0 0.0058459841137916482 -0.0028302676818624914 0 0.0060969263555984534 -0.0027725911894668112 0 0.0058883584317038322 -0.0027951085702727281 0 0.0059937880700187823 -0.0029385299557677875 0 0.0060969263555984534 -0.0027725911894668112 0 0.0058883584317038322 -0.0027951085702727281 0 0.0058941190171729885 -0.0026057368706843905 0 0.0058883584317038322 -0.0027951085702727281 0 0.0058392705994111645 -0.0029572293510500372 0 0.0059937880700187823 -0.0029385299557677875 0 0.0059937880700187823 -0.0029385299557677875 0 0.0060205518678819797 -0.0031451746450546375 0 0.0060901296608711552 -0.003197177976079468 0 0.0060969263555984534 -0.0027725911894668112 0 0.0059937880700187823 -0.0029385299557677875 0 0.0060901296608711552 -0.003197177976079468 0 0.0058392705994111645 -0.0029572293510500372 0 0.0059937880700187823 -0.0029385299557677875 0 0.0059165112819865254 -0.0030647617223260948 0 0.0059937880700187823 -0.0029385299557677875 0 0.0060205518678819797 -0.0031451746450546375 0 0.0059165112819865254 -0.0030647617223260948 0 0.0060205518678819797 -0.0031451746450546375 0 0.0060349219442702978 -0.0031905615987950038 0 0.0060901296608711552 -0.003197177976079468 0 0.0060205518678819797 -0.0031451746450546375 0 0.0059366202812520729 -0.0031671264067415408 0 0.0059985202048910757 -0.0032099487476175892 0 0.0060205518678819797 -0.0031451746450546375 0 0.0059366202812520729 -0.0031671264067415408 0 0.0059165112819865254 -0.0030647617223260948 0 0.0060205518678819797 -0.0031451746450546375 0 0.0059985202048910757 -0.0032099487476175892 0 0.0060349219442702978 -0.0031905615987950038 0 0.0057982692561375677 -0.0031464692555356979 0 0.0059366202812520729 -0.0031671264067415408 0 0.0059165112819865254 -0.0030647617223260948 0 0.0057982692561375677 -0.0031464692555356979 0 0.0058392705994111645 -0.0029572293510500372 0 0.0059165112819865254 -0.0030647617223260948 0 0.0058130130621824325 -0.003396887323516928 0 0.0059471727197109737 -0.0032738152730829137 0 0.006076240630520857 -0.0034842168102497085 0 0.0059471727197109737 -0.0032738152730829137 0 0.006076240630520857 -0.0034842168102497085 0 0.0060901296608711552 -0.003197177976079468 0 0.0057982692561375677 -0.0031464692555356979 0 0.0059366202812520729 -0.0031671264067415408 0 0.0059471727197109737 -0.0032738152730829137 0 0.0057982692561375677 -0.0031464692555356979 0 0.0058130130621824325 -0.003396887323516928 0 0.0059471727197109737 -0.0032738152730829137 0 0.0059471727197109737 -0.0032738152730829137 0 0.0059985202048910757 -0.0032099487476175892 0 0.0060901296608711552 -0.003197177976079468 0 0.0059366202812520729 -0.0031671264067415408 0 0.0059471727197109737 -0.0032738152730829137 0 0.0059985202048910757 -0.0032099487476175892 0 0.0059985202048910757 -0.0032099487476175892 0 0.0060349219442702978 -0.0031905615987950038 0 0.0060901296608711552 -0.003197177976079468 0 -0.0047651782693437783 -0.0033174059281589111 0 -0.0035703361115493643 -0.0033978436361970666 0 -0.0048453668538822109 -0.0032948111909785254 0 -0.0040153530493518596 -0.0034406851319098422 0 -0.0044934606653077649 -0.0037435994192324658 0 -0.0048453668538822109 -0.0032948111909785254 0 -0.0040231848241183889 -0.0032258546227753693 0 -0.0030964198907530811 -0.0033839729121773309 0 0.0058130130621824325 -0.003396887323516928 0 0.0056919342466630459 -0.003751468913244173 0 0.006076240630520857 -0.0034842168102497085 0 0.00021038689309301568 -0.0034963991547490021 0 0.00015382013834253211 -0.0028686179062421368 0 -0.0055913909075638859 -0.0032244212470819715 0 -0.0048453668538822109 -0.0032948111909785254 0 -0.0040382030964794396 -0.0026918158934579155 0 -0.0017058735979870409 -0.0031625844101847425 0 0.00015382013834253211 -0.0028686179062421368 0 -0.0048453668538822109 -0.0032948111909785254 0 -0.0040231848241183889 -0.0032258546227753693 0 -0.0040382030964794396 -0.0026918158934579155 0 -0.0040231848241183889 -0.0032258546227753693 0 -0.0039528985619965706 -0.0026781255119413625 0 -0.0030964198907530811 -0.0033839729121773309 0 -0.0039528985619965706 -0.0026781255119413625 0 -0.0030964198907530811 -0.0033839729121773309 0 -0.0023098351575588068 -0.0021716054864979011 0 0.00015382013834253211 -0.0028686179062421368 0 0.004758150824171528 -0.0033696440017501402 0 0.00015382013834253211 -0.0028686179062421368 0 -8.0620516344139724e-05 -0.0026835114823211088 0 0.0025257935594713214 -0.0027503010121665895 0 0.0020298899619125262 -0.002863221914249676 0 0.002643203597647587 -0.0030775382577229327 0 0.0019897923899049683 -0.0033137266801378895 0 0.0020298899619125262 -0.002863221914249676 0 0.002643203597647587 -0.0030775382577229327 0 -0.0040153530493518596 -0.0034406851319098422 0 -0.0031372879152867547 -0.0034429828897116965 0 -0.003624486262596054 -0.0038132016008985228 0 -0.0030964198907530811 -0.0033839729121773309 0 -0.0023098351575588068 -0.0021716054864979011 0 -0.0015101020880974184 -0.0033795852538300456 0 -0.0035703361115493643 -0.0033978436361970666 0 -0.0023596462181122656 -0.0034094666001297041 0 0.002907532866386891 -0.0026342542150367206 0 0.002643203597647587 -0.0030775382577229327 0 0.0033052206275122481 -0.0028257351801773503 0 -0.0023098351575588068 -0.0021716054864979011 0 -0.0015101020880974184 -0.0033795852538300456 0 -0.00083854893144254109 -0.001714440606128901 0 -8.0620516344139724e-05 -0.0026835114823211088 0 0.0013014337266473127 -0.0022528652598754941 0 -0.00046431409963581941 -0.0026595586505637038 0 -0.0015101020880974184 -0.0033795852538300456 0 -0.00083854893144254109 -0.001714440606128901 0 -0.0029242432265366458 -0.0044561353768349174 0 -0.0032120060300252916 -0.0039644919414733087 0 -0.003652219460938075 -0.004252220829065294 0 -0.0029242432265366458 -0.0044561353768349174 0 -0.0027092111251300747 -0.0038619321822507676 0 -0.0032120060300252916 -0.0039644919414733087 0 -0.0031372879152867547 -0.0034429828897116965 0 -0.0027092111251300747 -0.0038619321822507676 0 -0.0032120060300252916 -0.0039644919414733087 0 -0.0032120060300252916 -0.0039644919414733087 0 -0.003624486262596054 -0.0038132016008985228 0 -0.003652219460938075 -0.004252220829065294 0 -0.0031372879152867547 -0.0034429828897116965 0 -0.0032120060300252916 -0.0039644919414733087 0 -0.003624486262596054 -0.0038132016008985228 0 -0.003624486262596054 -0.0038132016008985228 0 -0.003652219460938075 -0.004252220829065294 0 -0.0040825188247476793 -0.0039443014932698502 0 -0.0029242432265366458 -0.0044561353768349174 0 -0.003652219460938075 -0.004252220829065294 0 -0.0037785135356992248 -0.004877094498740007 0 -0.0030483512593704959 -0.004401581923620306 0 -0.0037367311087029629 -0.0048433773318197881 0 -0.003652219460938075 -0.004252220829065294 0 -0.0041317382536457219 -0.0045016832793350935 0 -0.0037785135356992248 -0.004877094498740007 0 -0.0041317382536457219 -0.0045016832793350935 0 -0.004489160345673383 -0.0041687853440520754 0 -0.004659441348319319 -0.0050064979941501228 0 -0.0041317382536457219 -0.0045016832793350935 0 -0.0040825188247476793 -0.0039443014932698502 0 -0.004489160345673383 -0.0041687853440520754 0 -0.003652219460938075 -0.004252220829065294 0 -0.0041317382536457219 -0.0045016832793350935 0 -0.0040825188247476793 -0.0039443014932698502 0 -0.0040153530493518596 -0.0034406851319098422 0 -0.003624486262596054 -0.0038132016008985228 0 -0.0040825188247476793 -0.0039443014932698502 0 -0.0040153530493518596 -0.0034406851319098422 0 -0.0040825188247476793 -0.0039443014932698502 0 -0.0044934606653077649 -0.0037435994192324658 0 -0.0040825188247476793 -0.0039443014932698502 0 -0.004489160345673383 -0.0041687853440520754 0 -0.0044934606653077649 -0.0037435994192324658 0 -0.004489160345673383 -0.0041687853440520754 0 -0.0044934606653077649 -0.0037435994192324658 0 -0.0051840152371980556 -0.0040216365156825308 0 -0.0048453668538822109 -0.0032948111909785254 0 -0.0044934606653077649 -0.0037435994192324658 0 -0.0051840152371980556 -0.0040216365156825308 0 -0.004489160345673383 -0.0041687853440520754 0 -0.004659441348319319 -0.0050064979941501228 0 -0.0051840152371980556 -0.0040216365156825308 0 -0.0060022282505312686 -0.0055782571784946475 0 -0.006078419049723215 -0.0060866692821794875 0 -0.0065267415432524551 -0.005782308930888793 0 -0.006078419049723215 -0.0060866692821794875 0 -0.0057708848271731533 -0.0063272366433894077 0 -0.0054754607614816804 -0.0060398605384376792 0 -0.004659441348319319 -0.0050064979941501228 0 -0.0037785135356992248 -0.004877094498740007 0 -0.0038470323174820053 -0.0052983359468884352 0 -0.0041317382536457219 -0.0045016832793350935 0 -0.004659441348319319 -0.0050064979941501228 0 -0.0037785135356992248 -0.004877094498740007 0 -0.0060022282505312686 -0.0055782571784946475 0 -0.006078419049723215 -0.0060866692821794875 0 -0.0054754607614816804 -0.0060398605384376792 0 -0.0053258698086124977 -0.0052980233701047279 0 -0.0047655387413213972 -0.0056106031956528043 0 -0.0037785135356992248 -0.004877094498740007 0 -0.0038470323174820053 -0.0052983359468884352 0 -0.0033308250698665461 -0.0050745782301129232 0 -0.0057708848271731533 -0.0063272366433894077 0 -0.0054754607614816804 -0.0060398605384376792 0 -0.0053835147603264501 -0.0063461501952841205 0 -0.0054754607614816804 -0.0060398605384376792 0 -0.0051202944903150421 -0.0063667616479840244 0 -0.0053835147603264501 -0.0063461501952841205 0 -0.0047655387413213972 -0.0056106031956528043 0 -0.0037506302787573388 -0.0062805294031724485 0 -0.0029324662525989512 -0.0052444522772715765 0 -0.0033308250698665461 -0.0050745782301129232 0 -0.0031771055689090964 -0.0056820105715660501 0 -0.0038470323174820053 -0.0052983359468884352 0 -0.0033308250698665461 -0.0050745782301129232 0 -0.0031771055689090964 -0.0056820105715660501 0 -0.0032295774116272865 -0.0043769228964251772 0 -0.0037785135356992248 -0.004877094498740007 0 -0.0033308250698665461 -0.0050745782301129232 0 -0.0028998621847321918 -0.0048498530652313554 0 -0.0032295774116272865 -0.0043769228964251772 0 -0.0033308250698665461 -0.0050745782301129232 0 -0.0028998621847321918 -0.0048498530652313554 0 -0.0029324662525989512 -0.0052444522772715765 0 -0.0033308250698665461 -0.0050745782301129232 0 -0.0078807441650957672 -0.004788525781056918 0 -0.0073069567964747012 -0.0049615411215798468 0 -0.0074011053679146959 -0.0040546390597140233 0 -0.0078807441650957672 -0.004788525781056918 0 -0.0073069567964747012 -0.0049615411215798468 0 -0.0076808608087097106 -0.0054152813625243535 0 -0.0078807441650957672 -0.004788525781056918 0 -0.0076808608087097106 -0.0054152813625243535 0 -0.0086253988165484931 -0.0053578850096780801 0 -0.0078807441650957672 -0.004788525781056918 0 -0.008516369814156979 -0.0043496223847734657 0 -0.0086253988165484931 -0.0053578850096780801 0 0.0027832959550606767 -0.004083563425364355 0 0.0039618557371294298 -0.0038624626262137342 0 0.0035094089340813642 -0.0050285560657133705 0 -0.0078807441650957672 -0.004788525781056918 0 -0.008516369814156979 -0.0043496223847734657 0 -0.0074011053679146959 -0.0040546390597140233 0 -0.002521634441089798 -0.0046881196652703216 0 -0.0010713915699948006 -0.0040246883110066694 0 -0.008516369814156979 -0.0043496223847734657 0 -0.0070777514805272935 -0.0037721778624337115 0 -0.0074011053679146959 -0.0040546390597140233 0 0.0039618557371294298 -0.0038624626262137342 0 0.0035094089340813642 -0.0050285560657133705 0 0.0050391956579847802 -0.0042516981952827318 0 -0.0055913909075638859 -0.0032244212470819715 0 -0.0070777514805272935 -0.0037721778624337115 0 -0.0061935869621562801 -0.0039393683651538797 0 -0.0070777514805272935 -0.0037721778624337115 0 -0.0074011053679146959 -0.0040546390597140233 0 -0.0061935869621562801 -0.0039393683651538797 0 -0.0074011053679146959 -0.0040546390597140233 0 -0.0061935869621562801 -0.0039393683651538797 0 -0.0058310116698105322 -0.0046317471708221579 0 -0.0073692739157162407 -0.0040865261603972546 0 -0.0062830710300384191 -0.004761851902041492 0 -0.0055913909075638859 -0.0032244212470819715 0 -0.0061935869621562801 -0.0039393683651538797 0 -0.0051840152371980556 -0.0040216365156825308 0 -0.0061935869621562801 -0.0039393683651538797 0 -0.0051840152371980556 -0.0040216365156825308 0 -0.0058310116698105322 -0.0046317471708221579 0 -0.0053258698086124977 -0.0052980233701047279 0 -0.0062830710300384191 -0.004761851902041492 0 -0.004659441348319319 -0.0050064979941501228 0 -0.0051840152371980556 -0.0040216365156825308 0 -0.0058310116698105322 -0.0046317471708221579 0 -0.0073069567964747012 -0.0049615411215798468 0 -0.0074011053679146959 -0.0040546390597140233 0 -0.0066461013430736083 -0.0049643971120104224 0 -0.0073069567964747012 -0.0049615411215798468 0 -0.0066461013430736083 -0.0049643971120104224 0 -0.0070637113798764041 -0.0055039784824907102 0 -0.0070637113798764041 -0.0055039784824907102 0 -0.0069484872287868616 -0.0061190166252036602 0 -0.0074687940303822921 -0.0059287319393069322 0 -0.0070637113798764041 -0.0055039784824907102 0 -0.0065267415432524551 -0.005782308930888793 0 -0.0069484872287868616 -0.0061190166252036602 0 -0.0066461013430736083 -0.0049643971120104224 0 -0.0070637113798764041 -0.0055039784824907102 0 -0.0065267415432524551 -0.005782308930888793 0 -0.0060022282505312686 -0.0055782571784946475 0 -0.0066461013430736083 -0.0049643971120104224 0 -0.0065267415432524551 -0.005782308930888793 0 -0.006078419049723215 -0.0060866692821794875 0 -0.0065267415432524551 -0.005782308930888793 0 -0.0065488937117016604 -0.0063579119645420252 0 -0.0065267415432524551 -0.005782308930888793 0 -0.0065488937117016604 -0.0063579119645420252 0 -0.0069484872287868616 -0.0061190166252036602 0 -0.0065488937117016604 -0.0063579119645420252 0 -0.0069484872287868616 -0.0061190166252036602 0 -0.0068438137150644779 -0.0064670280301170084 0 -0.0069484872287868616 -0.0061190166252036602 0 -0.0073798481538797011 -0.0062723121219734551 0 -0.0074687940303822921 -0.0059287319393069322 0 -0.0069484872287868616 -0.0061190166252036602 0 -0.007105797755952447 -0.0064203095702385473 0 -0.0068438137150644779 -0.0064670280301170084 0 -0.0069484872287868616 -0.0061190166252036602 0 -0.007105797755952447 -0.0064203095702385473 0 -0.0073798481538797011 -0.0062723121219734551 0 -0.007105797755952447 -0.0064203095702385473 0 -0.0073798481538797011 -0.0062723121219734551 0 -0.0076411075580584851 -0.0065602301705802741 0 -0.0073798481538797011 -0.0062723121219734551 0 -0.0078184742215329679 -0.0061759452298280762 0 -0.0076411075580584851 -0.0065602301705802741 0 -0.0078184742215329679 -0.0061759452298280762 0 -0.0086666386235403244 -0.0062724743781490061 0 -0.0076411075580584851 -0.0065602301705802741 0 -0.0078184742215329679 -0.0061759452298280762 0 -0.0074687940303822921 -0.0059287319393069322 0 -0.0080211239431108479 -0.0058504854279594776 0 -0.0073798481538797011 -0.0062723121219734551 0 -0.0078184742215329679 -0.0061759452298280762 0 -0.0074687940303822921 -0.0059287319393069322 0 -0.0070637113798764041 -0.0055039784824907102 0 -0.0074687940303822921 -0.0059287319393069322 0 -0.0076808608087097106 -0.0054152813625243535 0 -0.0074687940303822921 -0.0059287319393069322 0 -0.0080211239431108479 -0.0058504854279594776 0 -0.0076808608087097106 -0.0054152813625243535 0 -0.0073069567964747012 -0.0049615411215798468 0 -0.0070637113798764041 -0.0055039784824907102 0 -0.0076808608087097106 -0.0054152813625243535 0 -0.0080211239431108479 -0.0058504854279594776 0 -0.0076808608087097106 -0.0054152813625243535 0 -0.0086253988165484931 -0.0053578850096780801 0 -0.0080211239431108479 -0.0058504854279594776 0 -0.0086253988165484931 -0.0053578850096780801 0 -0.0086666386235403244 -0.0062724743781490061 0 -0.0078184742215329679 -0.0061759452298280762 0 -0.0080211239431108479 -0.0058504854279594776 0 -0.0086666386235403244 -0.0062724743781490061 0 -0.0092758868514134039 -0.0061262921346769365 0 -0.0081915005043748605 -0.0065344801362948284 0 -0.0097284360267463135 -0.006082437923649129 0 -0.0096971070609427525 -0.0065340624071007318 0 -0.0092980926554731783 -0.0063373572744684272 0 -0.011113863154720936 -0.0067312418962925261 0 -0.01135984371424085 -0.0065149001843658938 0 -0.011570042744933944 -0.0065816329630154352 0 -0.010375212928753872 -0.0066122028343572007 0 -0.010570274782368721 -0.0065438810862186092 0 -0.011113863154720936 -0.0067312418962925261 0 -0.01135984371424085 -0.0065149001843658938 0 -0.011062117191037042 -0.0064109305235896148 0 -0.01135984371424085 -0.0065149001843658938 0 -0.011429370619275856 -0.0063879862226374918 0 -0.011062117191037042 -0.0064109305235896148 0 -0.011532003164600102 -0.0064512702930909415 0 -0.011619007775586955 -0.0064268628552912235 0 -0.011634956463804386 -0.0063560135664888972 0 -0.01135984371424085 -0.0065149001843658938 0 -0.011429370619275856 -0.0063879862226374918 0 -0.011532003164600102 -0.0064512702930909415 0 -0.011429370619275856 -0.0063879862226374918 0 -0.011532003164600102 -0.0064512702930909415 0 -0.011634956463804386 -0.0063560135664888972 0 -0.01135984371424085 -0.0065149001843658938 0 -0.011532003164600102 -0.0064512702930909415 0 -0.011570042744933944 -0.0065816329630154352 0 -0.011532003164600102 -0.0064512702930909415 0 -0.011570042744933944 -0.0065816329630154352 0 -0.011619007775586955 -0.0064268628552912235 0 -0.0096971070609427525 -0.0065340624071007318 0 -0.009291099684114075 -0.0065365837260058278 0 -0.0092980926554731783 -0.0063373572744684272 0 -0.007105797755952447 -0.0064203095702385473 0 -0.0076411075580584851 -0.0065602301705802741 0 -0.0068723651661428036 -0.00679069536241336 0 -0.011570042744933944 -0.0065816329630154352 0 -0.011606015698489963 -0.0063425661866922519 0 -0.011611830666625533 -0.0064351249910027976 0 -0.009291099684114075 -0.0065365837260058278 0 -0.0092980926554731783 -0.0063373572744684272 0 -0.0089236820153550771 -0.0065511612385342356 0 -0.010570274782368721 -0.0065438810862186092 0 -0.0094338346032434659 -0.0065605678831590622 0 -0.0081915005043748605 -0.0065344801362948284 0 -0.0094338346032434659 -0.0065605678831590622 0 -0.007105797755952447 -0.0064203095702385473 0 -0.0068438137150644779 -0.0064670280301170084 0 -0.0068723651661428036 -0.00679069536241336 0 -0.011606015698489963 -0.0063425661866922519 0 -0.011528189845568094 -0.0062756208879354691 0 -0.011620704423347493 -0.0064043215185358429 0 -0.0094338346032434659 -0.0065605678831590622 0 -0.0084999108181497141 -0.0063972017526539304 0 -0.0065488937117016604 -0.0063579119645420252 0 -0.0068723651661428036 -0.00679069536241336 0 -0.0061390024200275789 -0.0067037536565773721 0 -0.011686239414953481 -0.0062236763474234772 0 -0.011528189845568094 -0.0062756208879354691 0 -0.010935658022145869 -0.0060873754736369863 0 -0.0065488937117016604 -0.0063579119645420252 0 -0.0068438137150644779 -0.0064670280301170084 0 -0.0068723651661428036 -0.00679069536241336 0 -0.0094338346032434659 -0.0065605678831590622 0 -0.01082602411686457 -0.0060630215822274937 0 -0.011528189845568094 -0.0062756208879354691 0 -0.011230098263898832 -0.0064413562772085665 0 -0.010935658022145869 -0.0060873754736369863 0 -0.011528189845568094 -0.0062756208879354691 0 -0.011601824269803119 -0.0064724094767506625 0 -0.011620704423347493 -0.0064043215185358429 0 -0.011528189845568094 -0.0062756208879354691 0 -0.011601824269803119 -0.0064724094767506625 0 -0.011230098263898832 -0.0064413562772085665 0 -0.011601824269803119 -0.0064724094767506625 0 -0.011230098263898832 -0.0064413562772085665 0 -0.0112124276824424 -0.006916492470213983 0 -0.011570042744933944 -0.0065816329630154352 0 -0.011611830666625533 -0.0064351249910027976 0 -0.011619007775586955 -0.0064268628552912235 0 -0.011611830666625533 -0.0064351249910027976 0 -0.011619007775586955 -0.0064268628552912235 0 -0.011620704423347493 -0.0064043215185358429 0 -0.011606015698489963 -0.0063425661866922519 0 -0.011611830666625533 -0.0064351249910027976 0 -0.011620704423347493 -0.0064043215185358429 0 -0.011601824269803119 -0.0064724094767506625 0 -0.011620704423347493 -0.0064043215185358429 0 -0.011625585344665935 -0.0064161912005092055 0 -0.011619007775586955 -0.0064268628552912235 0 -0.011625585344665935 -0.0064161912005092055 0 -0.011634956463804386 -0.0063560135664888972 0 -0.011619007775586955 -0.0064268628552912235 0 -0.011620704423347493 -0.0064043215185358429 0 -0.011625585344665935 -0.0064161912005092055 0 -0.011601824269803119 -0.0064724094767506625 0 -0.011625585344665935 -0.0064161912005092055 0 -0.01162777067327354 -0.0063821322311781933 0 -0.011625585344665935 -0.0064161912005092055 0 -0.01162777067327354 -0.0063821322311781933 0 -0.011634956463804386 -0.0063560135664888972 0 -0.011601824269803119 -0.0064724094767506625 0 -0.01162777067327354 -0.0063821322311781933 0 -0.011687624577760325 -0.0064103462526661891 0 -0.012615155083104013 -0.0067155649178690631 0 -0.012495885654680022 -0.0057131249524757979 0 -0.013272264300313811 -0.0068959467317149534 0 -0.01460675287238432 -0.0072532464776195972 0 -0.014295609492143441 -0.0060906467658371263 0 -0.011225164522589363 -0.0068261487142501102 0 -0.012495885654680022 -0.0057131249524757979 0 -0.013272264300313811 -0.0068959467317149534 0 -0.01319349592529802 -0.0058843811096896837 0 -0.011779233339489045 -0.0062693967199939611 0 -0.013272264300313811 -0.0068959467317149534 0 -0.014295609492143441 -0.0060906467658371263 0 -0.01319349592529802 -0.0058843811096896837 0 -0.01319349592529802 -0.0058843811096896837 0 -0.011779233339489045 -0.0062693967199939611 0 -0.012566212275311054 -0.0052245639635896081 0 -0.011779233339489045 -0.0062693967199939611 0 -0.011212497463029096 -0.0059629940734951051 0 -0.01154315193859895 -0.0053755066799641253 0 -0.011779233339489045 -0.0062693967199939611 0 -0.011212497463029096 -0.0059629940734951051 0 -0.011405516739075593 -0.0062666033783572456 0 -0.011212497463029096 -0.0059629940734951051 0 -0.01154315193859895 -0.0053755066799641253 0 -0.010806271556263057 -0.0055733172315858863 0 -0.011212497463029096 -0.0059629940734951051 0 -0.011405516739075593 -0.0062666033783572456 0 -0.011010771220050864 -0.0061777873530613333 0 -0.011062117191037042 -0.0064109305235896148 0 -0.011405516739075593 -0.0062666033783572456 0 -0.011010771220050864 -0.0061777873530613333 0 -0.011429370619275856 -0.0063879862226374918 0 -0.011062117191037042 -0.0064109305235896148 0 -0.011405516739075593 -0.0062666033783572456 0 -0.01162777067327354 -0.0063821322311781933 0 -0.011779233339489045 -0.0062693967199939611 0 -0.011634956463804386 -0.0063560135664888972 0 -0.011779233339489045 -0.0062693967199939611 0 -0.011405516739075593 -0.0062666033783572456 0 -0.011634956463804386 -0.0063560135664888972 0 -0.012615155083104013 -0.0067155649178690631 0 -0.011764364878934822 -0.006311469492995837 0 -0.011429370619275856 -0.0063879862226374918 0 -0.011405516739075593 -0.0062666033783572456 0 -0.011634956463804386 -0.0063560135664888972 0 -0.0082664649006602281 -0.0062096895329921036 0 -0.0092962379644116223 -0.0064880322460915442 0 -0.0090846774413362776 -0.0060606745447762192 0 -0.011843080624428733 -0.0033752329688879756 0 -0.012128521803792175 -0.0034267424308118306 0 -0.012082998235332964 -0.0035206012277713113 0 -0.0051202944903150421 -0.0063667616479840244 0 -0.005296092410303919 -0.0064554816630194604 0 -0.0053835147603264501 -0.0063461501952841205 0 -0.0051568353261102814 -0.0065329149091519828 0 -0.0051202944903150421 -0.0063667616479840244 0 -0.005296092410303919 -0.0064554816630194604 0 -0.005296092410303919 -0.0064554816630194604 0 -0.0053835147603264501 -0.0063461501952841205 0 -0.0055605002240652441 -0.006613208598461923 0 -0.0057708848271731533 -0.0063272366433894077 0 -0.0053835147603264501 -0.0063461501952841205 0 -0.0055605002240652441 -0.006613208598461923 0 -0.0051568353261102814 -0.0065329149091519828 0 -0.005296092410303919 -0.0064554816630194604 0 -0.0055605002240652441 -0.006613208598461923 0 -0.0070485223152253361 -0.006423636125269948 0 -0.0078287093568527397 -0.0063231880474021547 0 -0.010748678781552003 -0.0050062400471288021 0 -0.011171780814463309 -0.0050408939571192019 0 -0.0092962379644116223 -0.0064880322460915442 0 -0.010039410902794524 -0.0060551124927114 0 -0.010299883942381042 -0.00673604194894849 0 -0.0092962379644116223 -0.0064880322460915442 0 -0.0090846774413362776 -0.0060606745447762192 0 -0.010039410902794524 -0.0060551124927114 0 -0.010039410902794524 -0.0060551124927114 0 -0.010935658022145869 -0.0060873754736369863 0 -0.010757231431247747 -0.0064756457808134603 0 -0.010039410902794524 -0.0060551124927114 0 -0.010757231431247747 -0.0064756457808134603 0 -0.010299883942381042 -0.00673604194894849 0 -0.0057708848271731533 -0.0063272366433894077 0 -0.0055605002240652441 -0.006613208598461923 0 -0.0061390024200275789 -0.0067037536565773721 0 -0.0078287093568527397 -0.0063231880474021547 0 -0.0084999108181497141 -0.0063972017526539304 0 -0.006078419049723215 -0.0060866692821794875 0 -0.0065488937117016604 -0.0063579119645420252 0 -0.0061390024200275789 -0.0067037536565773721 0 -0.006078419049723215 -0.0060866692821794875 0 -0.0057708848271731533 -0.0063272366433894077 0 -0.0061390024200275789 -0.0067037536565773721 0 -0.011230098263898832 -0.0064413562772085665 0 -0.010935658022145869 -0.0060873754736369863 0 -0.010757231431247747 -0.0064756457808134603 0 -0.011230098263898832 -0.0064413562772085665 0 -0.0112124276824424 -0.006916492470213983 0 -0.010757231431247747 -0.0064756457808134603 0 -0.012495885654680022 -0.0057131249524757979 0 -0.011171780814463309 -0.0050408939571192019 0 -0.012541128753943236 -0.0035823725818146519 0 -0.012414039651318739 -0.0036791148182691515 0 -0.012345908884353954 -0.0035085031850035486 0 -0.012495885654680022 -0.0057131249524757979 0 -0.014299733489154202 -0.0048340933148781108 0 -0.0112124276824424 -0.006916492470213983 0 -0.010757231431247747 -0.0064756457808134603 0 -0.010299883942381042 -0.00673604194894849 0 -0.01460675287238432 -0.0072532464776195972 0 -0.014295609492143441 -0.0060906467658371263 0 -0.01574681557712472 -0.0062890128570276529 0 -0.014295609492143441 -0.0060906467658371263 0 -0.01574681557712472 -0.0062890128570276529 0 -0.015020899045099588 -0.0052851264965654565 0 -0.012414039651318739 -0.0036791148182691515 0 -0.012250563543119253 -0.0036575489371582378 0 -0.012284795805916864 -0.0037831140262140029 0 -0.012414039651318739 -0.0036791148182691515 0 -0.012345908884353954 -0.0035085031850035486 0 -0.012250563543119253 -0.0036575489371582378 0 -0.012128521803792175 -0.0034267424308118306 0 -0.012345908884353954 -0.0035085031850035486 0 -0.01217958493688477 -0.0035519090867297937 0 -0.012345908884353954 -0.0035085031850035486 0 -0.01217958493688477 -0.0035519090867297937 0 -0.012250563543119253 -0.0036575489371582378 0 -0.01217958493688477 -0.0035519090867297937 0 -0.012250563543119253 -0.0036575489371582378 0 -0.012085845186130862 -0.0036395548358508756 0 -0.012250563543119253 -0.0036575489371582378 0 -0.012085845186130862 -0.0036395548358508756 0 -0.01215440530620427 -0.0037708642548605698 0 -0.01217958493688477 -0.0035519090867297937 0 -0.012085845186130862 -0.0036395548358508756 0 -0.012082998235332964 -0.0035206012277713113 0 -0.012128521803792175 -0.0034267424308118306 0 -0.01217958493688477 -0.0035519090867297937 0 -0.012082998235332964 -0.0035206012277713113 0 -0.015457085695575043 3.2752590423938806e-05 0 -0.015464023804306249 1.7852785618396456e-05 0 -0.015467238322613599 6.1790416005490863e-06 0 -0.017279684503134118 -0.0017262911074220932 0 -0.014795137436948184 -0.0022751827635447207 0 -0.017842803309652738 -0.0044359910025585925 0 -0.017106087510685125 -0.0041445448076791302 0 -0.017736668819335801 -0.0037463588195714302 0 -0.012019850040222643 -0.0037660465941309201 0 -0.012085845186130862 -0.0036395548358508756 0 -0.01215440530620427 -0.0037708642548605698 0 -0.012019850040222643 -0.0037660465941309201 0 -0.012162592920406622 -0.0038884064463522291 0 -0.01215440530620427 -0.0037708642548605698 0 -0.013582859414586906 -0.0017536275953826119 0 -0.014795137436948184 -0.0022751827635447207 0 -0.012250563543119253 -0.0036575489371582378 0 -0.01215440530620427 -0.0037708642548605698 0 -0.012284795805916864 -0.0037831140262140029 0 -0.012162592920406622 -0.0038884064463522291 0 -0.01215440530620427 -0.0037708642548605698 0 -0.012284795805916864 -0.0037831140262140029 0 -0.017842803309652738 -0.0044359910025585925 0 -0.016839692704311356 -0.0053667149812890265 0 -0.017106087510685125 -0.0041445448076791302 0 -0.014795137436948184 -0.0022751827635447207 0 -0.014447517229036509 -0.0048644144733506955 0 -0.016839692704311356 -0.0053667149812890265 0 -0.017106087510685125 -0.0041445448076791302 0 -0.015987631580402548 -0.0047893892304132542 0 -0.017106087510685125 -0.0041445448076791302 0 -0.015987631580402548 -0.0047893892304132542 0 -0.016375865721223241 -0.0038336644744864428 0 -0.015987631580402548 -0.0047893892304132542 0 -0.015192391763868735 -0.0042998573156283462 0 -0.016375865721223241 -0.0038336644744864428 0 -0.014299733489154202 -0.0048340933148781108 0 -0.014447517229036509 -0.0048644144733506955 0 -0.01574681557712472 -0.0062890128570276529 0 -0.016839692704311356 -0.0053667149812890265 0 -0.015987631580402548 -0.0047893892304132542 0 -0.01574681557712472 -0.0062890128570276529 0 -0.015987631580402548 -0.0047893892304132542 0 -0.015020899045099588 -0.0052851264965654565 0 -0.015987631580402548 -0.0047893892304132542 0 -0.015020899045099588 -0.0052851264965654565 0 -0.015192391763868735 -0.0042998573156283462 0 -0.015192391763868735 -0.0042998573156283462 0 -0.015633747201565306 -0.0036401622179554 0 -0.015012697302752091 -0.0031716617005732939 0 -0.015192391763868735 -0.0042998573156283462 0 -0.015633747201565306 -0.0036401622179554 0 -0.016375865721223241 -0.0038336644744864428 0 -0.015633747201565306 -0.0036401622179554 0 -0.015012697302752091 -0.0031716617005732939 0 -0.016074580206068716 -0.0031139976021274975 0 -0.015012697302752091 -0.0031716617005732939 0 -0.015783580349926937 -0.0024515854288188832 0 -0.016074580206068716 -0.0031139976021274975 0 -0.015012697302752091 -0.0031716617005732939 0 -0.015783580349926937 -0.0024515854288188832 0 -0.015032077126967757 -0.0021096847553816528 0 -0.015783580349926937 -0.0024515854288188832 0 -0.016074580206068716 -0.0031139976021274975 0 -0.016635366367194218 -0.0023773291732781449 0 -0.016074580206068716 -0.0031139976021274975 0 -0.016943203121002889 -0.0031241902203143291 0 -0.016635366367194218 -0.0023773291732781449 0 -0.016074580206068716 -0.0031139976021274975 0 -0.016375865721223241 -0.0038336644744864428 0 -0.016943203121002889 -0.0031241902203143291 0 -0.015633747201565306 -0.0036401622179554 0 -0.016074580206068716 -0.0031139976021274975 0 -0.016375865721223241 -0.0038336644744864428 0 -0.016375865721223241 -0.0038336644744864428 0 -0.017345101455316425 -0.0035704961364985415 0 -0.016943203121002889 -0.0031241902203143291 0 -0.017106087510685125 -0.0041445448076791302 0 -0.016375865721223241 -0.0038336644744864428 0 -0.017345101455316425 -0.0035704961364985415 0 -0.017106087510685125 -0.0041445448076791302 0 -0.017345101455316425 -0.0035704961364985415 0 -0.017736668819335801 -0.0037463588195714302 0 -0.017345101455316425 -0.0035704961364985415 0 -0.017648252131443238 -0.0031894765519365808 0 -0.01766334739520508 -0.0034935179196505244 0 -0.017345101455316425 -0.0035704961364985415 0 -0.016943203121002889 -0.0031241902203143291 0 -0.017648252131443238 -0.0031894765519365808 0 -0.016943203121002889 -0.0031241902203143291 0 -0.017342216217006778 -0.0027398017734495887 0 -0.016635366367194218 -0.0023773291732781449 0 -0.016943203121002889 -0.0031241902203143291 0 -0.017342216217006778 -0.0027398017734495887 0 -0.017648252131443238 -0.0031894765519365808 0 -0.017342216217006778 -0.0027398017734495887 0 -0.017648252131443238 -0.0031894765519365808 0 -0.017970278017322507 -0.0027079106292932265 0 -0.018416522721273393 -0.0027174789941265074 0 -0.017970278017322507 -0.0027079106292932265 0 -0.018283800328032448 -0.0031475049289896749 0 -0.017755627648250286 -0.003104718317389633 0 -0.018181167743350504 -0.0026436317618840507 0 -0.017648252131443238 -0.0031894765519365808 0 -0.017970278017322507 -0.0027079106292932265 0 -0.018283800328032448 -0.0031475049289896749 0 -0.017648252131443238 -0.0031894765519365808 0 -0.018251624187960554 -0.003160397751590579 0 -0.018140215236846825 -0.003262571979329425 0 -0.018181167743350504 -0.0026436317618840507 0 -0.018106229841352222 -0.0027787904567967928 0 -0.018140215236846825 -0.003262571979329425 0 -0.017915427624281662 -0.0034742775698627863 0 -0.018039497664488625 -0.0037151523093912975 0 -0.018256701768493141 -0.0031537879206891758 0 -0.018140215236846825 -0.003262571979329425 0 -0.018039497664488625 -0.0037151523093912975 0 -0.017345101455316425 -0.0035704961364985415 0 -0.01766334739520508 -0.0034935179196505244 0 -0.017736668819335801 -0.0037463588195714302 0 -0.017648252131443238 -0.0031894765519365808 0 -0.018140215236846825 -0.003262571979329425 0 -0.017915427624281662 -0.0034742775698627863 0 -0.017648252131443238 -0.0031894765519365808 0 -0.017915427624281662 -0.0034742775698627863 0 -0.01766334739520508 -0.0034935179196505244 0 -0.017915427624281662 -0.0034742775698627863 0 -0.01766334739520508 -0.0034935179196505244 0 -0.017736668819335801 -0.0037463588195714302 0 -0.017915427624281662 -0.0034742775698627863 0 -0.017736668819335801 -0.0037463588195714302 0 -0.018039497664488625 -0.0037151523093912975 0 -0.017842803309652738 -0.0044359910025585925 0 -0.017736668819335801 -0.0037463588195714302 0 -0.018039497664488625 -0.0037151523093912975 0 -0.01854523226424035 -0.0036983604971930653 0 -0.017842803309652738 -0.0044359910025585925 0 -0.018039497664488625 -0.0037151523093912975 0 -0.012042656499121394 -0.0048641328860982349 0 -0.012698801328231951 -0.0042006441545288323 0 -0.012566212275311054 -0.0052245639635896081 0 -0.012042656499121394 -0.0048641328860982349 0 -0.012698801328231951 -0.0042006441545288323 0 -0.011581238221143226 -0.0044230817044120371 0 -0.01218012647914116 -0.0039357459424874137 0 -0.011183832776681411 -0.0052400144174215195 0 -0.012042656499121394 -0.0048641328860982349 0 -0.011581238221143226 -0.0044230817044120371 0 -0.01154315193859895 -0.0053755066799641253 0 -0.011581238221143226 -0.0044230817044120371 0 -0.01154315193859895 -0.0053755066799641253 0 -0.010806271556263057 -0.0055733172315858863 0 -0.012042656499121394 -0.0048641328860982349 0 -0.01154315193859895 -0.0053755066799641253 0 -0.012566212275311054 -0.0052245639635896081 0 -0.011779233339489045 -0.0062693967199939611 0 -0.01154315193859895 -0.0053755066799641253 0 -0.012566212275311054 -0.0052245639635896081 0 -0.01319349592529802 -0.0058843811096896837 0 -0.012566212275311054 -0.0052245639635896081 0 -0.013866816659909806 -0.0049785450736225404 0 -0.014295609492143441 -0.0060906467658371263 0 -0.015020899045099588 -0.0052851264965654565 0 -0.013866816659909806 -0.0049785450736225404 0 -0.014295609492143441 -0.0060906467658371263 0 -0.01319349592529802 -0.0058843811096896837 0 -0.013866816659909806 -0.0049785450736225404 0 -0.015020899045099588 -0.0052851264965654565 0 -0.015192391763868735 -0.0042998573156283462 0 -0.013866816659909806 -0.0049785450736225404 0 -0.015192391763868735 -0.0042998573156283462 0 -0.013866816659909806 -0.0049785450736225404 0 -0.013961477786647095 -0.003742619734643409 0 -0.012698801328231951 -0.0042006441545288323 0 -0.012566212275311054 -0.0052245639635896081 0 -0.013866816659909806 -0.0049785450736225404 0 -0.012698801328231951 -0.0042006441545288323 0 -0.013866816659909806 -0.0049785450736225404 0 -0.013961477786647095 -0.003742619734643409 0 -0.012698801328231951 -0.0042006441545288323 0 -0.013961477786647095 -0.003742619734643409 0 -0.012760334814910785 -0.0030996550716135395 0 -0.013961477786647095 -0.003742619734643409 0 -0.0142446555232075 -0.0026661957068377395 0 -0.012760334814910785 -0.0030996550716135395 0 -0.015012697302752091 -0.0031716617005732939 0 -0.013961477786647095 -0.003742619734643409 0 -0.0142446555232075 -0.0026661957068377395 0 -0.015192391763868735 -0.0042998573156283462 0 -0.015012697302752091 -0.0031716617005732939 0 -0.013961477786647095 -0.003742619734643409 0 -0.015012697302752091 -0.0031716617005732939 0 -0.0142446555232075 -0.0026661957068377395 0 -0.015032077126967757 -0.0021096847553816528 0 -0.0142446555232075 -0.0026661957068377395 0 -0.015032077126967757 -0.0021096847553816528 0 -0.014451933266888317 -0.0020583362471318744 0 -0.013578496957538778 -0.0023033765078062938 0 -0.01435076039611486 -0.0012939785980446124 0 -0.013841638657657744 -0.0015122931703454947 0 -0.0142446555232075 -0.0026661957068377395 0 -0.012760334814910785 -0.0030996550716135395 0 -0.014035825917446345 -0.001727503330335831 0 -0.01311355468076161 -0.0026949263094247192 0 -0.014494843095895991 -0.0016487552083099244 0 -0.013578496957538778 -0.0023033765078062938 0 -0.013841638657657744 -0.0015122931703454947 0 -0.013448824585159612 -0.0013682505733442966 0 -0.013578496957538778 -0.0023033765078062938 0 -0.012553509625061786 -0.0021064929401027224 0 -0.012857472467489722 -0.0014977732157895954 0 -0.013578496957538778 -0.0023033765078062938 0 -0.013448824585159612 -0.0013682505733442966 0 -0.012857472467489722 -0.0014977732157895954 0 -0.01218012647914116 -0.0039357459424874137 0 -0.01311355468076161 -0.0026949263094247192 0 -0.012756139510665504 -0.0034346671144846871 0 -0.013578496957538778 -0.0023033765078062938 0 -0.012553509625061786 -0.0021064929401027224 0 -0.012698801328231951 -0.0042006441545288323 0 -0.011581238221143226 -0.0044230817044120371 0 -0.012760334814910785 -0.0030996550716135395 0 -0.012756139510665504 -0.0034346671144846871 0 -0.012195329540179991 -0.0027716363552784981 0 -0.012553509625061786 -0.0021064929401027224 0 -0.012553509625061786 -0.0021064929401027224 0 -0.012046606277434551 -0.0015089002617712924 0 -0.012857472467489722 -0.0014977732157895954 0 -0.011848862457747581 -0.0021741178262172159 0 -0.011401299147943038 -0.0016504649112669995 0 -0.012046606277434551 -0.0015089002617712924 0 -0.012553509625061786 -0.0021064929401027224 0 -0.011848862457747581 -0.0021741178262172159 0 -0.012046606277434551 -0.0015089002617712924 0 -0.011301106057831698 -0.0022850309793889848 0 -0.010823156525455277 -0.0016989303948079233 0 -0.010798299661086953 -0.0025564782097848185 0 -0.011401299147943038 -0.0016504649112669995 0 -0.011301106057831698 -0.0022850309793889848 0 -0.010823156525455277 -0.0016989303948079233 0 -0.011848862457747581 -0.0021741178262172159 0 -0.011401299147943038 -0.0016504649112669995 0 -0.011301106057831698 -0.0022850309793889848 0 -0.011301106057831698 -0.0022850309793889848 0 -0.01122344945144208 -0.0027814164398176802 0 -0.011626402596489857 -0.0026120364794363334 0 -0.011301106057831698 -0.0022850309793889848 0 -0.01122344945144208 -0.0027814164398176802 0 -0.010798299661086953 -0.0025564782097848185 0 -0.01122344945144208 -0.0027814164398176802 0 -0.010798299661086953 -0.0025564782097848185 0 -0.010934515678907642 -0.0030054066185557795 0 -0.01122344945144208 -0.0027814164398176802 0 -0.011626402596489857 -0.0026120364794363334 0 -0.011566953955793508 -0.0030305638714069913 0 -0.012195329540179991 -0.0027716363552784981 0 -0.011626402596489857 -0.0026120364794363334 0 -0.011566953955793508 -0.0030305638714069913 0 -0.012195329540179991 -0.0027716363552784981 0 -0.012553509625061786 -0.0021064929401027224 0 -0.011848862457747581 -0.0021741178262172159 0 -0.012195329540179991 -0.0027716363552784981 0 -0.011848862457747581 -0.0021741178262172159 0 -0.011626402596489857 -0.0026120364794363334 0 -0.011848862457747581 -0.0021741178262172159 0 -0.011301106057831698 -0.0022850309793889848 0 -0.011626402596489857 -0.0026120364794363334 0 -0.009723347377130773 -0.0019651055076705731 0 -0.010184171029008142 -0.0018895359204751316 0 -0.0099503069022053477 -0.0021312962832702688 0 -0.009723347377130773 -0.0019651055076705731 0 -0.010184171029008142 -0.0018895359204751316 0 -0.0098287431267738996 -0.0015215112595385561 0 -0.010184171029008142 -0.0018895359204751316 0 -0.0098287431267738996 -0.0015215112595385561 0 -0.010349437819091105 -0.0013683746448398858 0 -0.010823156525455277 -0.0016989303948079233 0 -0.010798299661086953 -0.0025564782097848185 0 -0.010279305389590742 -0.0023574557431105961 0 -0.010184171029008142 -0.0018895359204751316 0 -0.010823156525455277 -0.0016989303948079233 0 -0.010349437819091105 -0.0013683746448398858 0 -0.010184171029008142 -0.0018895359204751316 0 -0.010823156525455277 -0.0016989303948079233 0 -0.0103004617296739 -0.0021981943384776453 0 -0.010782975945913313 -0.001735598750700429 0 -0.010237500817324588 -0.0022606005458406494 0 -0.010798299661086953 -0.0025564782097848185 0 -0.010579030190704984 -0.0030256477269170437 0 -0.010934515678907642 -0.0030054066185557795 0 -0.010798299661086953 -0.0025564782097848185 0 -0.010423999893587268 -0.0028049816307847385 0 -0.010579030190704984 -0.0030256477269170437 0 -0.010798299661086953 -0.0025564782097848185 0 -0.010423999893587268 -0.0028049816307847385 0 -0.010279305389590742 -0.0023574557431105961 0 -0.010139186862688436 -0.0021616592108657778 0 -0.0099838217387365116 -0.0023493802460869901 0 -0.0098896755455917459 -0.0029966955088602558 0 -0.010237500817324588 -0.0022606005458406494 0 -0.0099542458586060218 -0.003125636447270748 0 -0.010423999893587268 -0.0028049816307847385 0 -0.010279305389590742 -0.0023574557431105961 0 -0.010027600792808105 -0.0032561007576226175 0 -0.010184171029008142 -0.0018895359204751316 0 -0.010129510065260392 -0.0023751641238394031 0 -0.0099503069022053477 -0.0021312962832702688 0 -0.010184171029008142 -0.0018895359204751316 0 -0.0103004617296739 -0.0021981943384776453 0 -0.010129510065260392 -0.0023751641238394031 0 -0.010237500817324588 -0.0022606005458406494 0 -0.010075031215821 -0.0023732569405114125 0 -0.010129510065260392 -0.0023751641238394031 0 -0.0097613496467394006 -0.0022948910888008827 0 -0.0095756914820700062 -0.0025645768372672315 0 -0.009723347377130773 -0.0019651055076705731 0 -0.0097613496467394006 -0.0022948910888008827 0 -0.0099503069022053477 -0.0021312962832702688 0 -0.010129510065260392 -0.0023751641238394031 0 -0.0097613496467394006 -0.0022948910888008827 0 -0.0099503069022053477 -0.0021312962832702688 0 -0.010129510065260392 -0.0023751641238394031 0 -0.0094424290303508109 -0.003103435263855106 0 -0.0095756914820700062 -0.0025645768372672315 0 -0.010075031215821 -0.0023732569405114125 0 -0.0093930739489065367 -0.0031040972769677449 0 -0.0099838217387365116 -0.0023493802460869901 0 -0.0098896755455917459 -0.0029966955088602558 0 -0.0093623785362297127 -0.0030953163270068347 0 -0.010027600792808105 -0.0032561007576226175 0 -0.01048515863354974 -0.0034180314011712713 0 -0.010579030190704984 -0.0030256477269170437 0 -0.010423999893587268 -0.0028049816307847385 0 -0.010027600792808105 -0.0032561007576226175 0 -0.010579030190704984 -0.0030256477269170437 0 -0.010579030190704984 -0.0030256477269170437 0 -0.01078812326252682 -0.0032853360593345518 0 -0.010934515678907642 -0.0030054066185557795 0 -0.01048515863354974 -0.0034180314011712713 0 -0.010579030190704984 -0.0030256477269170437 0 -0.01078812326252682 -0.0032853360593345518 0 -0.01048515863354974 -0.0034180314011712713 0 -0.01078812326252682 -0.0032853360593345518 0 -0.010769856081815601 -0.0036611790078510112 0 -0.010769856081815601 -0.0036611790078510112 0 -0.011025535199956082 -0.0039711985465312643 0 -0.010599553606566253 -0.0041644235503991676 0 -0.010769856081815601 -0.0036611790078510112 0 -0.010262958728961219 -0.0038205546462851559 0 -0.010599553606566253 -0.0041644235503991676 0 -0.01048515863354974 -0.0034180314011712713 0 -0.010769856081815601 -0.0036611790078510112 0 -0.010262958728961219 -0.0038205546462851559 0 -0.010027600792808105 -0.0032561007576226175 0 -0.010262958728961219 -0.0038205546462851559 0 -0.0097442357406860875 -0.0040643191224493469 0 -0.0098896755455917459 -0.0029966955088602558 0 -0.0096215949723584739 -0.0038245243619376952 0 -0.0093623785362297127 -0.0030953163270068347 0 -0.0099542458586060218 -0.003125636447270748 0 -0.0096824501419871638 -0.0039427341718205897 0 -0.010027600792808105 -0.0032561007576226175 0 -0.01048515863354974 -0.0034180314011712713 0 -0.010262958728961219 -0.0038205546462851559 0 -0.012143070896494182 -0.0028253956609755604 0 -0.011448898784328341 -0.0038895956341554417 0 -0.012756139510665504 -0.0034346671144846871 0 -0.012195329540179991 -0.0027716363552784981 0 -0.011263174953137754 -0.0042075689162325031 0 -0.012195329540179991 -0.0027716363552784981 0 -0.011566953955793508 -0.0030305638714069913 0 -0.011606049672842265 -0.0035908787433172017 0 -0.01122344945144208 -0.0027814164398176802 0 -0.011566953955793508 -0.0030305638714069913 0 -0.011172736492916224 -0.0033076371949484714 0 -0.01122344945144208 -0.0027814164398176802 0 -0.010934515678907642 -0.0030054066185557795 0 -0.011172736492916224 -0.0033076371949484714 0 -0.01078812326252682 -0.0032853360593345518 0 -0.010934515678907642 -0.0030054066185557795 0 -0.011172736492916224 -0.0033076371949484714 0 -0.01078812326252682 -0.0032853360593345518 0 -0.010769856081815601 -0.0036611790078510112 0 -0.011172736492916224 -0.0033076371949484714 0 -0.011566953955793508 -0.0030305638714069913 0 -0.011172736492916224 -0.0033076371949484714 0 -0.011606049672842265 -0.0035908787433172017 0 -0.011448898784328341 -0.0038895956341554417 0 -0.010795358580973967 -0.0050040736721951922 0 -0.01156330492669011 -0.0049301654621350093 0 -0.011263174953137754 -0.0042075689162325031 0 -0.010508531706086918 -0.0056140634187392792 0 -0.011025535199956082 -0.0039711985465312643 0 -0.011606049672842265 -0.0035908787433172017 0 -0.011032015655303113 -0.0044286750113927556 0 -0.011143432114709754 -0.0036329595925307144 0 -0.011025535199956082 -0.0039711985465312643 0 -0.011606049672842265 -0.0035908787433172017 0 -0.011172736492916224 -0.0033076371949484714 0 -0.011143432114709754 -0.0036329595925307144 0 -0.011606049672842265 -0.0035908787433172017 0 -0.010769856081815601 -0.0036611790078510112 0 -0.011172736492916224 -0.0033076371949484714 0 -0.011143432114709754 -0.0036329595925307144 0 -0.010769856081815601 -0.0036611790078510112 0 -0.011143432114709754 -0.0036329595925307144 0 -0.011025535199956082 -0.0039711985465312643 0 -0.012756139510665504 -0.0034346671144846871 0 -0.01156330492669011 -0.0049301654621350093 0 -0.011263174953137754 -0.0042075689162325031 0 -0.010806271556263057 -0.0055733172315858863 0 -0.010828117208495577 -0.0059630458365885677 0 -0.010502547669539638 -0.0060804880260347388 0 -0.011212497463029096 -0.0059629940734951051 0 -0.010806271556263057 -0.0055733172315858863 0 -0.010828117208495577 -0.0059630458365885677 0 -0.011212497463029096 -0.0059629940734951051 0 -0.010828117208495577 -0.0059630458365885677 0 -0.011010771220050864 -0.0061777873530613333 0 -0.010828117208495577 -0.0059630458365885677 0 -0.011010771220050864 -0.0061777873530613333 0 -0.010676839955984754 -0.0061832087578599145 0 -0.011010771220050864 -0.0061777873530613333 0 -0.010676839955984754 -0.0061832087578599145 0 -0.010668552135594346 -0.006343961403612171 0 -0.011062117191037042 -0.0064109305235896148 0 -0.011010771220050864 -0.0061777873530613333 0 -0.010668552135594346 -0.006343961403612171 0 -0.010502547669539638 -0.0060804880260347388 0 -0.010508531706086918 -0.0056140634187392792 0 -0.010300954733785233 -0.0064657744026122886 0 -0.010828117208495577 -0.0059630458365885677 0 -0.010676839955984754 -0.0061832087578599145 0 -0.010502547669539638 -0.0060804880260347388 0 -0.010502547669539638 -0.0060804880260347388 0 -0.010300954733785233 -0.0064657744026122886 0 -0.010449338812755031 -0.0063923615273875009 0 -0.010676839955984754 -0.0061832087578599145 0 -0.010502547669539638 -0.0060804880260347388 0 -0.010449338812755031 -0.0063923615273875009 0 -0.010676839955984754 -0.0061832087578599145 0 -0.010668552135594346 -0.006343961403612171 0 -0.010449338812755031 -0.0063923615273875009 0 -0.01156330492669011 -0.0049301654621350093 0 -0.010502547669539638 -0.0060804880260347388 0 -0.010508531706086918 -0.0056140634187392792 0 -0.011183832776681411 -0.0052400144174215195 0 -0.010536106456258887 -0.0060422928869248403 0 -0.011025535199956082 -0.0039711985465312643 0 -0.011032015655303113 -0.0044286750113927556 0 -0.010599553606566253 -0.0041644235503991676 0 -0.010262958728961219 -0.0038205546462851559 0 -0.010599553606566253 -0.0041644235503991676 0 -0.010168249624135031 -0.0045125374193376597 0 -0.010599553606566253 -0.0041644235503991676 0 -0.010573979058168932 -0.0045863162163450686 0 -0.010168249624135031 -0.0045125374193376597 0 -0.011032015655303113 -0.0044286750113927556 0 -0.010599553606566253 -0.0041644235503991676 0 -0.010573979058168932 -0.0045863162163450686 0 -0.010262958728961219 -0.0038205546462851559 0 -0.0097442357406860875 -0.0040643191224493469 0 -0.010168249624135031 -0.0045125374193376597 0 -0.0097442357406860875 -0.0040643191224493469 0 -0.010168249624135031 -0.0045125374193376597 0 -0.0094357006383776025 -0.0048423041535246101 0 -0.010168249624135031 -0.0045125374193376597 0 -0.0099851428636503481 -0.0050092868311330477 0 -0.0094357006383776025 -0.0048423041535246101 0 -0.010168249624135031 -0.0045125374193376597 0 -0.0099851428636503481 -0.0050092868311330477 0 -0.010495617584892643 -0.0052363526127291336 0 -0.0099851428636503481 -0.0050092868311330477 0 -0.0095965592713327334 -0.0052355734478732726 0 -0.0094357006383776025 -0.0048423041535246101 0 -0.010795358580973967 -0.0050040736721951922 0 -0.010348443522869788 -0.0058581438671320837 0 -0.010573979058168932 -0.0045863162163450686 0 -0.010168249624135031 -0.0045125374193376597 0 -0.010495617584892643 -0.0052363526127291336 0 -0.011032015655303113 -0.0044286750113927556 0 -0.010573979058168932 -0.0045863162163450686 0 -0.010495617584892643 -0.0052363526127291336 0 -0.010300954733785233 -0.0064657744026122886 0 -0.010382827624767501 -0.0064386227274577882 0 -0.010449338812755031 -0.0063923615273875009 0 -0.010348443522869788 -0.0058581438671320837 0 -0.010714005568900568 -0.0061526008888143713 0 -0.0099851428636503481 -0.0050092868311330477 0 -0.010495617584892643 -0.0052363526127291336 0 -0.0098447997754636009 -0.0054318019770130928 0 -0.010495617584892643 -0.0052363526127291336 0 -0.0098447997754636009 -0.0054318019770130928 0 -0.0099705388202669699 -0.0060958290302552199 0 -0.0098447997754636009 -0.0054318019770130928 0 -0.0095136036056612822 -0.0055277391797202971 0 -0.0095965592713327334 -0.0052355734478732726 0 -0.0099851428636503481 -0.0050092868311330477 0 -0.0098447997754636009 -0.0054318019770130928 0 -0.0095965592713327334 -0.0052355734478732726 0 -0.0098447997754636009 -0.0054318019770130928 0 -0.0095854598556885766 -0.0058171338213244186 0 -0.0095136036056612822 -0.0055277391797202971 0 -0.0099705388202669699 -0.0060958290302552199 0 -0.0092941775129897798 -0.0063089927456329783 0 -0.0095854598556885766 -0.0058171338213244186 0 -0.0098447997754636009 -0.0054318019770130928 0 -0.0099705388202669699 -0.0060958290302552199 0 -0.0095854598556885766 -0.0058171338213244186 0 -0.010300954733785233 -0.0064657744026122886 0 -0.01063341138840254 -0.0063520258601941233 0 -0.010382827624767501 -0.0064386227274577882 0 -0.010571246567995546 -0.0059969611545160322 0 -0.01063341138840254 -0.0063520258601941233 0 -0.010382827624767501 -0.0064386227274577882 0 -0.010264780828770416 -0.0061853043488861829 0 -0.010382827624767501 -0.0064386227274577882 0 -0.010330707819628894 -0.0065497401040493066 0 -0.011113863154720936 -0.0067312418962925261 0 -0.011062117191037042 -0.0064109305235896148 0 -0.010330707819628894 -0.0065497401040493066 0 -0.01000478329891729 -0.0061697329014299036 0 -0.0096971070609427525 -0.0065340624071007318 0 -0.010330707819628894 -0.0065497401040493066 0 -0.010375212928753872 -0.0066122028343572007 0 -0.010370477722315039 -0.0065730222053333783 0 -0.011062117191037042 -0.0064109305235896148 0 -0.010330707819628894 -0.0065497401040493066 0 -0.010668552135594346 -0.006343961403612171 0 -0.010330707819628894 -0.0065497401040493066 0 -0.010668552135594346 -0.006343961403612171 0 -0.010449338812755031 -0.0063923615273875009 0 -0.010382827624767501 -0.0064386227274577882 0 -0.010330707819628894 -0.0065497401040493066 0 -0.010449338812755031 -0.0063923615273875009 0 -0.007674436730266734 -0.0051814704607920517 0 -0.007675384255107864 -0.0058868830924638151 0 -0.0078351987013736048 -0.0056275702819122532 0 -0.0081306879882992403 -0.0055164355131869106 0 -0.007674436730266734 -0.0051814704607920517 0 -0.0083972846881261234 -0.0051315952696898495 0 -0.0081306879882992403 -0.0055164355131869106 0 -0.007674436730266734 -0.0051814704607920517 0 -0.0078351987013736048 -0.0056275702819122532 0 -0.007674436730266734 -0.0051814704607920517 0 -0.0073323598696539401 -0.0061650846622506939 0 -0.0070120942195967236 -0.0054095123559193227 0 -0.007674436730266734 -0.0051814704607920517 0 -0.0071918095959138083 -0.0047324437775399589 0 -0.0070120942195967236 -0.0054095123559193227 0 -0.0054456090605948283 -0.0059526849160491209 0 -0.007290345362227767 -0.0057066546564517118 0 -0.007674436730266734 -0.0051814704607920517 0 -0.007675384255107864 -0.0058868830924638151 0 -0.00734967455799556 -0.0061589787748618941 0 -0.0071321261027485691 -0.0062549357774453846 0 -0.0072131991913334222 -0.0060410552719677105 0 -0.0065458565035976576 -0.0060496451763927279 0 -0.00808995584661798 -0.0052116883737444537 0 -0.0054456090605948283 -0.0059526849160491209 0 -0.007675384255107864 -0.0058868830924638151 0 -0.00734967455799556 -0.0061589787748618941 0 -0.0075842598362540091 -0.0061651212820906442 0 -0.0078189201000081129 -0.006154576337328274 0 -0.0079177716796991187 -0.0058976244314119337 0 -0.0080706113612473568 -0.0060893086301750587 0 -0.007675384255107864 -0.0058868830924638151 0 -0.0075842598362540091 -0.0061651212820906442 0 -0.0078189201000081129 -0.006154576337328274 0 -0.007675384255107864 -0.0058868830924638151 0 -0.0078189201000081129 -0.006154576337328274 0 -0.0079177716796991187 -0.0058976244314119337 0 -0.007675384255107864 -0.0058868830924638151 0 -0.0079177716796991187 -0.0058976244314119337 0 -0.0078351987013736048 -0.0056275702819122532 0 -0.0081306879882992403 -0.0055164355131869106 0 -0.0079177716796991187 -0.0058976244314119337 0 -0.0078351987013736048 -0.0056275702819122532 0 -0.0081306879882992403 -0.0055164355131869106 0 -0.0079177716796991187 -0.0058976244314119337 0 -0.0081957294965076116 -0.0058894656357894419 0 -0.0081306879882992403 -0.0055164355131869106 0 -0.0081957294965076116 -0.0058894656357894419 0 -0.0084547973282582522 -0.0058209649120589532 0 -0.0081957294965076116 -0.0058894656357894419 0 -0.0080706113612473568 -0.0060893086301750587 0 -0.008395670348705862 -0.006101588473863862 0 -0.0081325286433215106 -0.0063318491828005946 0 -0.0078189201000081129 -0.006154576337328274 0 -0.0080706113612473568 -0.0060893086301750587 0 -0.0081325286433215106 -0.0063318491828005946 0 -0.0080706113612473568 -0.0060893086301750587 0 -0.008395670348705862 -0.006101588473863862 0 -0.0079177716796991187 -0.0058976244314119337 0 -0.0081957294965076116 -0.0058894656357894419 0 -0.0080706113612473568 -0.0060893086301750587 0 -0.0086193098257180793 -0.0063850321802532027 0 -0.008395670348705862 -0.006101588473863862 0 -0.0086989240791700943 -0.0060750313317599709 0 -0.008395670348705862 -0.006101588473863862 0 -0.0086989240791700943 -0.0060750313317599709 0 -0.0084547973282582522 -0.0058209649120589532 0 -0.0086989240791700943 -0.0060750313317599709 0 -0.0087847719426375481 -0.005795276618301785 0 -0.0091621274718853684 -0.0062347694961756737 0 -0.0086193098257180793 -0.0063850321802532027 0 -0.0086989240791700943 -0.0060750313317599709 0 -0.0091621274718853684 -0.0062347694961756737 0 -0.0086989240791700943 -0.0060750313317599709 0 -0.0087847719426375481 -0.005795276618301785 0 -0.0084547973282582522 -0.0058209649120589532 0 -0.0087847719426375481 -0.005795276618301785 0 -0.0084547973282582522 -0.0058209649120589532 0 -0.0085152279267886287 -0.0055266882209530736 0 -0.0081957294965076116 -0.0058894656357894419 0 -0.008395670348705862 -0.006101588473863862 0 -0.0084547973282582522 -0.0058209649120589532 0 -0.0087847719426375481 -0.005795276618301785 0 -0.0091621274718853684 -0.0062347694961756737 0 -0.0090495494997519261 -0.0056126856819199563 0 -0.0092941775129897798 -0.0063089927456329783 0 -0.0093781734326690378 -0.0057700399194063343 0 -0.0091298789881677275 -0.0055761665716691942 0 -0.0093066123119603106 -0.0064659233952996369 0 -0.0091126250100064619 -0.0055669812627306249 0 -0.0091621274718853684 -0.0062347694961756737 0 -0.0091298789881677275 -0.0055761665716691942 0 -0.0090495494997519261 -0.0056126856819199563 0 -0.0092941775129897798 -0.0063089927456329783 0 -0.0093781734326690378 -0.0057700399194063343 0 -0.0095854598556885766 -0.0058171338213244186 0 -0.0090796787051244405 -0.0055634302270227195 0 -0.009379807323404819 -0.0047766799214550622 0 -0.0090495494997519261 -0.0056126856819199563 0 -0.0088995000179952939 -0.0050623716095561126 0 -0.0093456859668629329 -0.0046750846885095388 0 -0.0091298789881677275 -0.0055761665716691942 0 -0.0090495494997519261 -0.0056126856819199563 0 -0.0094357006383776025 -0.0048423041535246101 0 -0.0091298789881677275 -0.0055761665716691942 0 -0.0095965592713327334 -0.0052355734478732726 0 -0.0094357006383776025 -0.0048423041535246101 0 -0.0093781734326690378 -0.0057700399194063343 0 -0.0095136036056612822 -0.0055277391797202971 0 -0.0091298789881677275 -0.0055761665716691942 0 -0.0095136036056612822 -0.0055277391797202971 0 -0.0091298789881677275 -0.0055761665716691942 0 -0.0095965592713327334 -0.0052355734478732726 0 -0.0093781734326690378 -0.0057700399194063343 0 -0.0095854598556885766 -0.0058171338213244186 0 -0.0095136036056612822 -0.0055277391797202971 0 -0.0081306879882992403 -0.0055164355131869106 0 -0.0085152279267886287 -0.0055266882209530736 0 -0.0083972846881261234 -0.0051315952696898495 0 -0.0085152279267886287 -0.0055266882209530736 0 -0.0087593675268529212 -0.0053951606027854574 0 -0.0083972846881261234 -0.0051315952696898495 0 -0.0081306879882992403 -0.0055164355131869106 0 -0.0084547973282582522 -0.0058209649120589532 0 -0.0085152279267886287 -0.0055266882209530736 0 -0.0087847719426375481 -0.005795276618301785 0 -0.0090495494997519261 -0.0056126856819199563 0 -0.0087593675268529212 -0.0053951606027854574 0 -0.0087847719426375481 -0.005795276618301785 0 -0.0085152279267886287 -0.0055266882209530736 0 -0.0087593675268529212 -0.0053951606027854574 0 -0.0090495494997519261 -0.0056126856819199563 0 -0.0087593675268529212 -0.0053951606027854574 0 -0.0088995000179952939 -0.0050623716095561126 0 -0.0087593675268529212 -0.0053951606027854574 0 -0.0088995000179952939 -0.0050623716095561126 0 -0.0083972846881261234 -0.0051315952696898495 0 -0.0088995000179952939 -0.0050623716095561126 0 -0.0086279117697566649 -0.0046359886824700967 0 -0.0093456859668629329 -0.0046750846885095388 0 -0.0088995000179952939 -0.0050623716095561126 0 -0.0083972846881261234 -0.0051315952696898495 0 -0.0086279117697566649 -0.0046359886824700967 0 -0.0083972846881261234 -0.0051315952696898495 0 -0.0086279117697566649 -0.0046359886824700967 0 -0.0080731886881925639 -0.0044085252419891275 0 -0.0096824501419871638 -0.0039427341718205897 0 -0.009379807323404819 -0.0047766799214550622 0 -0.0096215949723584739 -0.0038245243619376952 0 -0.0093456859668629329 -0.0046750846885095388 0 -0.0087279539980456202 -0.0038489278886901109 0 -0.0086279117697566649 -0.0046359886824700967 0 -0.0087279539980456202 -0.0038489278886901109 0 -0.0080731886881925639 -0.0044085252419891275 0 -0.0086279117697566649 -0.0046359886824700967 0 -0.0093456859668629329 -0.0046750846885095388 0 -0.0087279539980456202 -0.0038489278886901109 0 -0.0087279539980456202 -0.0038489278886901109 0 -0.0080731886881925639 -0.0044085252419891275 0 -0.0081461566603219151 -0.0035293089654344243 0 -0.007674436730266734 -0.0051814704607920517 0 -0.0083972846881261234 -0.0051315952696898495 0 -0.0080731886881925639 -0.0044085252419891275 0 -0.007674436730266734 -0.0051814704607920517 0 -0.0080731886881925639 -0.0044085252419891275 0 -0.0071918095959138083 -0.0047324437775399589 0 -0.0080731886881925639 -0.0044085252419891275 0 -0.0071918095959138083 -0.0047324437775399589 0 -0.0070213612761995227 -0.00391460498572423 0 -0.0080731886881925639 -0.0044085252419891275 0 -0.0081461566603219151 -0.0035293089654344243 0 -0.0070213612761995227 -0.00391460498572423 0 -0.0081461566603219151 -0.0035293089654344243 0 -0.0076181210842937441 -0.0029800040894175984 0 -0.0070213612761995227 -0.00391460498572423 0 -0.0081651959562046589 -0.0011313105942798349 0 -0.0075521212789273406 -0.001938926933134429 0 -0.0076181210842937441 -0.0029800040894175984 0 -0.0085004428022786623 -0.002821361286634396 0 -0.0081980724033328175 -0.0020771234371347752 0 -0.0081461566603219151 -0.0035293089654344243 0 -0.0076181210842937441 -0.0029800040894175984 0 -0.0085004428022786623 -0.002821361286634396 0 -0.0086808590079675216 0.00069524223199561705 0 -0.0086012362543894608 0.0011987713512141708 0 -0.0079580314758895196 0.00065049073019107448 0 -0.0096215949723584739 -0.0038245243619376952 0 -0.0087279539980456202 -0.0038489278886901109 0 -0.0093623785362297127 -0.0030953163270068347 0 -0.0087727170723508659 -0.0038083824718453227 0 -0.0093930739489065367 -0.0031040972769677449 0 -0.0087279539980456202 -0.0038489278886901109 0 -0.0081461566603219151 -0.0035293089654344243 0 -0.0087872424821484399 -0.0032191164510797492 0 -0.0087279539980456202 -0.0038489278886901109 0 -0.0087872424821484399 -0.0032191164510797492 0 -0.0094424290303508109 -0.003103435263855106 0 -0.0081461566603219151 -0.0035293089654344243 0 -0.0087872424821484399 -0.0032191164510797492 0 -0.0085004428022786623 -0.002821361286634396 0 -0.0087872424821484399 -0.0032191164510797492 0 -0.0085004428022786623 -0.002821361286634396 0 -0.0091225270700741271 -0.002795591589243137 0 -0.0087872424821484399 -0.0032191164510797492 0 -0.0091225270700741271 -0.002795591589243137 0 -0.0094424290303508109 -0.003103435263855106 0 -0.0091225270700741271 -0.002795591589243137 0 -0.0094424290303508109 -0.003103435263855106 0 -0.0095756914820700062 -0.0025645768372672315 0 -0.009723347377130773 -0.0019651055076705731 0 -0.0097613496467394006 -0.0022948910888008827 0 -0.0091823933623934751 -0.002269843266171156 0 -0.0097613496467394006 -0.0022948910888008827 0 -0.0095756914820700062 -0.0025645768372672315 0 -0.0091823933623934751 -0.002269843266171156 0 -0.0091225270700741271 -0.002795591589243137 0 -0.0095756914820700062 -0.0025645768372672315 0 -0.0091823933623934751 -0.002269843266171156 0 -0.0085004428022786623 -0.002821361286634396 0 -0.0091823933623934751 -0.002269843266171156 0 -0.0081980724033328175 -0.0020771234371347752 0 -0.0085004428022786623 -0.002821361286634396 0 -0.0091225270700741271 -0.002795591589243137 0 -0.0091823933623934751 -0.002269843266171156 0 -0.009309906409512644 -0.0016272705275605305 0 -0.0081980724033328175 -0.0020771234371347752 0 -0.0087482576819163192 -0.0011809050300258649 0 -0.0091823933623934751 -0.002269843266171156 0 -0.009309906409512644 -0.0016272705275605305 0 -0.0081980724033328175 -0.0020771234371347752 0 -0.009723347377130773 -0.0019651055076705731 0 -0.0091823933623934751 -0.002269843266171156 0 -0.009309906409512644 -0.0016272705275605305 0 -0.009723347377130773 -0.0019651055076705731 0 -0.009309906409512644 -0.0016272705275605305 0 -0.0098287431267738996 -0.0015215112595385561 0 -0.0086808590079675216 0.00069524223199561705 0 -0.0086012362543894608 0.0011987713512141708 0 -0.0092334474992419903 0.001336124961953733 0 -0.0081651959562046589 -0.0011313105942798349 0 -0.0087109243943687339 -0.00036996122925882891 0 -0.0087109243943687339 -0.00036996122925882891 0 -0.0092421772996444211 0.00033736399717528682 0 -0.0092334474992419903 0.001336124961953733 0 -0.0092353471053909196 0.0016879559238111048 0 -0.0087077874361488634 0.0016994538835813 0 -0.0092334474992419903 0.001336124961953733 0 -0.0092353471053909196 0.0016879559238111048 0 -0.0096999035983073387 0.001847538460584897 0 -0.0086012362543894608 0.0011987713512141708 0 -0.0092334474992419903 0.001336124961953733 0 -0.0087077874361488634 0.0016994538835813 0 -0.011511283551397345 0.0020349766487399328 0 -0.010929035347218291 0.0020934298368909449 0 -0.011315610924112342 0.0017445888668598103 0 -0.011557532236630391 0.0024022668242496977 0 -0.011511283551397345 0.0020349766487399328 0 -0.011970498392377574 0.0021879654170663117 0 -0.010120126345839217 0.0020383259368846746 0 -0.010168860106976018 0.0019693953997762044 0 -0.011557532236630391 0.0024022668242496977 0 -0.011511283551397345 0.0020349766487399328 0 -0.010929035347218291 0.0020934298368909449 0 -0.0092353471053909196 0.0016879559238111048 0 -0.0094735230458376559 0.0019367866724400726 0 -0.0096999035983073387 0.001847538460584897 0 -0.0092353471053909196 0.0016879559238111048 0 -0.0087077874361488634 0.0016994538835813 0 -0.0094735230458376559 0.0019367866724400726 0 -0.010929035347218291 0.0020934298368909449 0 -0.01094000213542104 0.0014902511380704526 0 -0.0099694472742118973 0.001583963286145055 0 -0.010929035347218291 0.0020934298368909449 0 -0.01094000213542104 0.0014902511380704526 0 -0.011315610924112342 0.0017445888668598103 0 -0.01094000213542104 0.0014902511380704526 0 -0.011315610924112342 0.0017445888668598103 0 -0.011537074966922819 0.0013241518981900945 0 -0.011511283551397345 0.0020349766487399328 0 -0.011315610924112342 0.0017445888668598103 0 -0.011725832126426191 0.0017261497020185921 0 -0.011315610924112342 0.0017445888668598103 0 -0.011537074966922819 0.0013241518981900945 0 -0.011725832126426191 0.0017261497020185921 0 -0.011537074966922819 0.0013241518981900945 0 -0.011215831601760741 0.001024194805835643 0 -0.011750777807386962 0.00079114015438046053 0 -0.01094000213542104 0.0014902511380704526 0 -0.011215831601760741 0.001024194805835643 0 -0.010410477191154387 0.0012494060438633494 0 -0.01094000213542104 0.0014902511380704526 0 -0.011537074966922819 0.0013241518981900945 0 -0.011215831601760741 0.001024194805835643 0 -0.011224131544500488 0.0010190092243691693 0 -0.010484920422912122 0.00070631106331219202 0 -0.011215831601760741 0.001024194805835643 0 -0.010935573767453336 0.0008081933160342293 0 -0.0112808115419894 0.00048414403294494738 0 -0.011215831601760741 0.001024194805835643 0 -0.0112808115419894 0.00048414403294494738 0 -0.011750777807386962 0.00079114015438046053 0 -0.0097289437509077096 4.2494049483751674e-05 0 -0.01002384345519132 0.00056632932450819437 0 -0.010207493022369639 0.00065664539618824191 0 -0.0093199564924652777 0.00047242815538776998 0 -0.0092999933403532901 0.00029910670652286462 0 -0.010484920422912122 0.00070631106331219202 0 -0.010407357222408077 0.00059019270823799962 0 -0.010207493022369639 0.00065664539618824191 0 -0.0098764113919741024 0.0015071018888888057 0 -0.0093199564924652777 0.00047242815538776998 0 -0.01094000213542104 0.0014902511380704526 0 -0.010410477191154387 0.0012494060438633494 0 -0.0099694472742118973 0.001583963286145055 0 -0.010207493022369639 0.00065664539618824191 0 -0.010410477191154387 0.0012494060438633494 0 -0.0098764113919741024 0.0015071018888888057 0 -0.011215831601760741 0.001024194805835643 0 -0.010207493022369639 0.00065664539618824191 0 -0.010410477191154387 0.0012494060438633494 0 -0.010410477191154387 0.0012494060438633494 0 -0.0098764113919741024 0.0015071018888888057 0 -0.0099694472742118973 0.001583963286145055 0 -0.0097203940041553985 5.2490813282724573e-05 0 -0.0092787312414073092 -0.00023497772319188334 0 -0.0096255815859230195 -0.00065840859751051337 0 -0.0097289437509077096 4.2494049483751674e-05 0 -0.0096406578323790584 -0.00059431747970381283 0 -0.0097203940041553985 5.2490813282724573e-05 0 -0.0092787312414073092 -0.00023497772319188334 0 -0.0098100476069269329 0.00076607708676014225 0 -0.0094949987899504758 0.0006342751903418174 0 -0.01002384345519132 0.00056632932450819437 0 -0.0092787312414073092 -0.00023497772319188334 0 -0.0096255815859230195 -0.00065840859751051337 0 -0.0094466646093991097 -0.0011444874017904718 0 -0.0092787312414073092 -0.00023497772319188334 0 -0.0087482576819163192 -0.0011809050300258649 0 -0.0094466646093991097 -0.0011444874017904718 0 -0.0098764113919741024 0.0015071018888888057 0 -0.0099694472742118973 0.001583963286145055 0 -0.0096999035983073387 0.001847538460584897 0 -0.010168860106976018 0.0019693953997762044 0 -0.009938313024198538 0.0016026259848509964 0 -0.0094735230458376559 0.0019367866724400726 0 -0.0099694472742118973 0.001583963286145055 0 -0.0096999035983073387 0.001847538460584897 0 -0.0094949987899504758 0.0006342751903418174 0 -0.0092421772996444211 0.00033736399717528682 0 -0.009309906409512644 -0.0016272705275605305 0 -0.0087482576819163192 -0.0011809050300258649 0 -0.0094466646093991097 -0.0011444874017904718 0 -0.0096255815859230195 -0.00065840859751051337 0 -0.0094466646093991097 -0.0011444874017904718 0 -0.0099657933639953969 -0.0010311557985167258 0 -0.009309906409512644 -0.0016272705275605305 0 -0.0094466646093991097 -0.0011444874017904718 0 -0.0098287431267738996 -0.0015215112595385561 0 -0.0098287431267738996 -0.0015215112595385561 0 -0.0099657933639953969 -0.0010311557985167258 0 -0.010349437819091105 -0.0013683746448398858 0 -0.0094466646093991097 -0.0011444874017904718 0 -0.0098287431267738996 -0.0015215112595385561 0 -0.0099657933639953969 -0.0010311557985167258 0 -0.0099657933639953969 -0.0010311557985167258 0 -0.010349437819091105 -0.0013683746448398858 0 -0.010471705159334195 -0.00090080041082685918 0 -0.010823156525455277 -0.0016989303948079233 0 -0.010349437819091105 -0.0013683746448398858 0 -0.010902465422085197 -0.0011823569300469629 0 -0.010349437819091105 -0.0013683746448398858 0 -0.010902465422085197 -0.0011823569300469629 0 -0.010471705159334195 -0.00090080041082685918 0 -0.010471705159334195 -0.00090080041082685918 0 -0.010960885546565461 -0.00055271294506204101 0 -0.010388270547308027 -0.00023998175368861993 0 -0.010902465422085197 -0.0011823569300469629 0 -0.010471705159334195 -0.00090080041082685918 0 -0.010960885546565461 -0.00055271294506204101 0 -0.0097444762822355303 5.6473259078048187e-06 0 -0.0096255815859230195 -0.00065840859751051337 0 -0.010086066418781616 -0.0005876021367926807 0 -0.010471705159334195 -0.00090080041082685918 0 -0.010086066418781616 -0.0005876021367926807 0 -0.010388270547308027 -0.00023998175368861993 0 -0.0096255815859230195 -0.00065840859751051337 0 -0.0099657933639953969 -0.0010311557985167258 0 -0.010086066418781616 -0.0005876021367926807 0 -0.0099657933639953969 -0.0010311557985167258 0 -0.010471705159334195 -0.00090080041082685918 0 -0.010086066418781616 -0.0005876021367926807 0 -0.012046606277434551 -0.0015089002617712924 0 -0.012013630449999455 -0.0009695029789254159 0 -0.012501201851014603 -0.0010559941382236237 0 -0.011401299147943038 -0.0016504649112669995 0 -0.012046606277434551 -0.0015089002617712924 0 -0.011490146254675879 -0.0010746281064875748 0 -0.012046606277434551 -0.0015089002617712924 0 -0.011490146254675879 -0.0010746281064875748 0 -0.012013630449999455 -0.0009695029789254159 0 -0.011401299147943038 -0.0016504649112669995 0 -0.010823156525455277 -0.0016989303948079233 0 -0.010902465422085197 -0.0011823569300469629 0 -0.011401299147943038 -0.0016504649112669995 0 -0.010902465422085197 -0.0011823569300469629 0 -0.011490146254675879 -0.0010746281064875748 0 -0.010902465422085197 -0.0011823569300469629 0 -0.010960885546565461 -0.00055271294506204101 0 -0.011490146254675879 -0.0010746281064875748 0 -0.010960885546565461 -0.00055271294506204101 0 -0.011490146254675879 -0.0010746281064875748 0 -0.011579882413193746 -0.00049330153127974743 0 -0.010960885546565461 -0.00055271294506204101 0 -0.011579882413193746 -0.00049330153127974743 0 -0.011168018010487724 -9.264983375370399e-05 0 -0.011490146254675879 -0.0010746281064875748 0 -0.011579882413193746 -0.00049330153127974743 0 -0.012013630449999455 -0.0009695029789254159 0 -0.011579882413193746 -0.00049330153127974743 0 -0.012117964898866291 -0.00038928653887459124 0 -0.012013630449999455 -0.0009695029789254159 0 -0.012117964898866291 -0.00038928653887459124 0 -0.012013630449999455 -0.0009695029789254159 0 -0.012558006760016014 -0.00060180655029260411 0 -0.012117964898866291 -0.00038928653887459124 0 -0.011844347146113232 6.7256784512993001e-05 0 -0.012590476674694016 4.1438178684617746e-05 0 -0.011579882413193746 -0.00049330153127974743 0 -0.012117964898866291 -0.00038928653887459124 0 -0.011844347146113232 6.7256784512993001e-05 0 -0.011579882413193746 -0.00049330153127974743 0 -0.011844347146113232 6.7256784512993001e-05 0 -0.011168018010487724 -9.264983375370399e-05 0 -0.011844347146113232 6.7256784512993001e-05 0 -0.011168018010487724 -9.264983375370399e-05 0 -0.011413338061919071 0.00033259972159547423 0 -0.011168018010487724 -9.264983375370399e-05 0 -0.011413338061919071 0.00033259972159547423 0 -0.011015825797803174 0.00033238089907929827 0 -0.011413338061919071 0.00033259972159547423 0 -0.011152959271704803 0.00073530152272893072 0 -0.011015825797803174 0.00033238089907929827 0 -0.011152959271704803 0.00073530152272893072 0 -0.011797965254991985 0.00066747932352273151 0 -0.011617314458140298 0.0010785742538094399 0 -0.011413338061919071 0.00033259972159547423 0 -0.011152959271704803 0.00073530152272893072 0 -0.011797965254991985 0.00066747932352273151 0 -0.011844347146113232 6.7256784512993001e-05 0 -0.011413338061919071 0.00033259972159547423 0 -0.011797965254991985 0.00066747932352273151 0 -0.011844347146113232 6.7256784512993001e-05 0 -0.012297091341072049 0.00059428882437668139 0 -0.012590476674694016 4.1438178684617746e-05 0 -0.011844347146113232 6.7256784512993001e-05 0 -0.011797965254991985 0.00066747932352273151 0 -0.012297091341072049 0.00059428882437668139 0 -0.011797965254991985 0.00066747932352273151 0 -0.012297091341072049 0.00059428882437668139 0 -0.012182729394343457 0.0011187448072695382 0 -0.0097444762822355303 5.6473259078048187e-06 0 -0.010086066418781616 -0.0005876021367926807 0 -0.010388270547308027 -0.00023998175368861993 0 -0.0097444762822355303 5.6473259078048187e-06 0 -0.010388270547308027 -0.00023998175368861993 0 -0.010198507020649297 0.00029645724454059494 0 -0.010960885546565461 -0.00055271294506204101 0 -0.010388270547308027 -0.00023998175368861993 0 -0.010749862676154541 4.86053840511826e-05 0 -0.010960885546565461 -0.00055271294506204101 0 -0.011168018010487724 -9.264983375370399e-05 0 -0.010749862676154541 4.86053840511826e-05 0 -0.011168018010487724 -9.264983375370399e-05 0 -0.010749862676154541 4.86053840511826e-05 0 -0.011015825797803174 0.00033238089907929827 0 -0.010388270547308027 -0.00023998175368861993 0 -0.010749862676154541 4.86053840511826e-05 0 -0.010198507020649297 0.00029645724454059494 0 -0.010749862676154541 4.86053840511826e-05 0 -0.010663782926301496 0.00049980102686298083 0 -0.010198507020649297 0.00029645724454059494 0 -0.011152959271704803 0.00073530152272893072 0 -0.010663782926301496 0.00049980102686298083 0 -0.011015825797803174 0.00033238089907929827 0 -0.010749862676154541 4.86053840511826e-05 0 -0.010663782926301496 0.00049980102686298083 0 -0.011015825797803174 0.00033238089907929827 0 -0.011152959271704803 0.00073530152272893072 0 -0.010663782926301496 0.00049980102686298083 0 -0.010586486519899846 0.00082428801580352066 0 -0.010663782926301496 0.00049980102686298083 0 -0.010586486519899846 0.00082428801580352066 0 -0.010267499947467097 0.00066284118429396275 0 -0.0097444762822355303 5.6473259078048187e-06 0 -0.010198507020649297 0.00029645724454059494 0 -0.0098412430735824782 0.00070812744337022673 0 -0.010586486519899846 0.00082428801580352066 0 -0.010267499947467097 0.00066284118429396275 0 -0.0099547816338662228 0.00092664267196371675 0 -0.010663782926301496 0.00049980102686298083 0 -0.010267499947467097 0.00066284118429396275 0 -0.010198507020649297 0.00029645724454059494 0 -0.010267499947467097 0.00066284118429396275 0 -0.010198507020649297 0.00029645724454059494 0 -0.0098412430735824782 0.00070812744337022673 0 -0.010267499947467097 0.00066284118429396275 0 -0.0098412430735824782 0.00070812744337022673 0 -0.0099547816338662228 0.00092664267196371675 0 -0.01002384345519132 0.00056632932450819437 0 -0.01059507549977776 0.00081883984915166817 0 -0.010223766759184275 0.00057782708882596465 0 -0.010240569306816511 0.00070552103985701729 0 -0.010306856952303257 0.0007319213080199229 0 -0.01002384345519132 0.00056632932450819437 0 -0.010407357222408077 0.00059019270823799962 0 -0.010806861676113258 0.0011220719230318999 0 -0.011415362474388711 0.0013739541585953995 0 -0.011031734874444603 0.0015462406982568895 0 -0.011982879963783853 0.00023783184610911008 0 -0.011987752087855706 0.00093718429673553022 0 -0.012378898206627647 0.00094653003578659028 0 -0.011877328599766777 0.00019673636676499891 0 -0.011982879963783853 0.00023783184610911008 0 -0.011987752087855706 0.00093718429673553022 0 -0.01059507549977776 0.00081883984915166817 0 -0.011137176635611265 0.0013456944808768031 0 -0.010407357222408077 0.00059019270823799962 0 -0.011322001179621939 0.00059289655858244092 0 -0.01059507549977776 0.00081883984915166817 0 -0.011682014872874208 0.0012074141807730809 0 -0.010407357222408077 0.00059019270823799962 0 -0.01059507549977776 0.00081883984915166817 0 -0.010586486519899846 0.00082428801580352066 0 -0.0099547816338662228 0.00092664267196371675 0 -0.010908324968451535 0.0012945184468559662 0 -0.011152959271704803 0.00073530152272893072 0 -0.010586486519899846 0.00082428801580352066 0 -0.010908324968451535 0.0012945184468559662 0 -0.011415362474388711 0.0013739541585953995 0 -0.011322871859116531 0.0016476622092716072 0 -0.011031734874444603 0.0015462406982568895 0 -0.011682014872874208 0.0012074141807730809 0 -0.013065846672950706 0.0018493417243528947 0 -0.011322871859116531 0.0016476622092716072 0 -0.011031734874444603 0.0015462406982568895 0 -0.011246793930915327 0.0019687906482386396 0 -0.011415362474388711 0.0013739541585953995 0 -0.011322871859116531 0.0016476622092716072 0 -0.011596121681572412 0.0017060494778400181 0 -0.011322871859116531 0.0016476622092716072 0 -0.011596121681572412 0.0017060494778400181 0 -0.011246793930915327 0.0019687906482386396 0 -0.011987752087855706 0.00093718429673553022 0 -0.012378898206627647 0.00094653003578659028 0 -0.012095158407477312 0.0016795334151461809 0 -0.012378898206627647 0.00094653003578659028 0 -0.012095158407477312 0.0016795334151461809 0 -0.012767003372157632 0.0016578321797776137 0 -0.011322001179621939 0.00059289655858244092 0 -0.014411179746027224 0.00086612054179166498 0 -0.012182729394343457 0.0011187448072695382 0 -0.012337941538234434 0.001611131194382076 0 -0.012679221090821924 0.0013375198649988353 0 -0.012297091341072049 0.00059428882437668139 0 -0.012182729394343457 0.0011187448072695382 0 -0.012584422399309451 0.00095425034977627903 0 -0.011797965254991985 0.00066747932352273151 0 -0.012182729394343457 0.0011187448072695382 0 -0.011617314458140298 0.0010785742538094399 0 -0.012182729394343457 0.0011187448072695382 0 -0.011617314458140298 0.0010785742538094399 0 -0.011988250448886248 0.0015977053728748105 0 -0.011152959271704803 0.00073530152272893072 0 -0.010908324968451535 0.0012945184468559662 0 -0.011617314458140298 0.0010785742538094399 0 -0.011137176635611265 0.0013456944808768031 0 -0.011936758168390887 0.001586375916130311 0 -0.010908324968451535 0.0012945184468559662 0 -0.011617314458140298 0.0010785742538094399 0 -0.011988250448886248 0.0015977053728748105 0 -0.011415362474388711 0.0013739541585953995 0 -0.011596121681572412 0.0017060494778400181 0 -0.011988250448886248 0.0015977053728748105 0 -0.011596121681572412 0.0017060494778400181 0 -0.012015125874070151 0.0019667708589192865 0 -0.011246793930915327 0.0019687906482386396 0 -0.011596121681572412 0.0017060494778400181 0 -0.011988250448886248 0.0015977053728748105 0 -0.012015125874070151 0.0019667708589192865 0 -0.012182729394343457 0.0011187448072695382 0 -0.011988250448886248 0.0015977053728748105 0 -0.012337941538234434 0.001611131194382076 0 -0.011988250448886248 0.0015977053728748105 0 -0.012337941538234434 0.001611131194382076 0 -0.012015125874070151 0.0019667708589192865 0 -0.01242708269099748 0.0019257281295617372 0 -0.012337941538234434 0.001611131194382076 0 -0.012015125874070151 0.0019667708589192865 0 -0.012323057731907205 0.0021764153909230267 0 -0.011942387562000997 0.0023062009146133686 0 -0.012492715618986776 0.0024861976612211277 0 -0.012323057731907205 0.0021764153909230267 0 -0.012492715618986776 0.0024861976612211277 0 -0.012706480462785373 0.0021881337337389872 0 -0.01242708269099748 0.0019257281295617372 0 -0.012323057731907205 0.0021764153909230267 0 -0.012015125874070151 0.0019667708589192865 0 -0.01242708269099748 0.0019257281295617372 0 -0.012323057731907205 0.0021764153909230267 0 -0.012706480462785373 0.0021881337337389872 0 -0.012323057731907205 0.0021764153909230267 0 -0.012015125874070151 0.0019667708589192865 0 -0.011942387562000997 0.0023062009146133686 0 -0.012015125874070151 0.0019667708589192865 0 -0.011942387562000997 0.0023062009146133686 0 -0.011316296410509762 0.0020220929012571701 0 -0.011942387562000997 0.0023062009146133686 0 -0.011316296410509762 0.0020220929012571701 0 -0.01157834933339346 0.002545650258871786 0 -0.01121863773823401 0.0020162504640548573 0 -0.013065846672950706 0.0018493417243528947 0 -0.011942387562000997 0.0023062009146133686 0 -0.012077118107719871 0.0027013847820537553 0 -0.01157834933339346 0.002545650258871786 0 -0.017234291094138907 0.00089235713833313833 0 -0.017240518669960174 0.00086289580535565502 0 -0.017148967338512261 0.00082894755055653115 0 -0.014483630731397776 0.0017142143129753097 0 -0.014630178814218594 0.0019274783332415273 0 -0.012077118107719871 0.0027013847820537553 0 -0.01157834933339346 0.002545650258871786 0 -0.011893413835862014 0.0031230132793932546 0 -0.011942387562000997 0.0023062009146133686 0 -0.012077118107719871 0.0027013847820537553 0 -0.012492715618986776 0.0024861976612211277 0 -0.012077118107719871 0.0027013847820537553 0 -0.012412913493398153 0.0028215527515874183 0 -0.012219000461754403 0.0030552305794721013 0 -0.012077118107719871 0.0027013847820537553 0 -0.012412913493398153 0.0028215527515874183 0 -0.012492715618986776 0.0024861976612211277 0 -0.01722714871627451 0.00082574141983020376 0 -0.017221788644248743 0.00083966621719900312 0 -0.01726494401779578 0.00088148018058017388 0 -0.01722714871627451 0.00082574141983020376 0 -0.017195226304560104 0.00064890906892259173 0 -0.017083122464689932 0.00078854583232383917 0 -0.016687863507677682 0.00092625208425313932 0 -0.014411179746027224 0.00086612054179166498 0 -0.01722714871627451 0.00082574141983020376 0 -0.017209963997884558 0.00083008232246527518 0 -0.017221788644248743 0.00083966621719900312 0 -0.014411179746027224 0.00086612054179166498 0 -0.013065846672950706 0.0018493417243528947 0 -0.013065846672950706 0.0018493417243528947 0 -0.014483630731397776 0.0017142143129753097 0 -0.017221788644248743 0.00083966621719900312 0 -0.01726494401779578 0.00088148018058017388 0 -0.017234291094138907 0.00089235713833313833 0 -0.01726494401779578 0.00088148018058017388 0 -0.017234291094138907 0.00089235713833313833 0 -0.017240518669960174 0.00086289580535565502 0 -0.01726494401779578 0.00088148018058017388 0 -0.017317540694847613 0.00092861902872620522 0 -0.017240518669960174 0.00086289580535565502 0 -0.01722714871627451 0.00082574141983020376 0 -0.01726494401779578 0.00088148018058017388 0 -0.017317540694847613 0.00092861902872620522 0 -0.01722714871627451 0.00082574141983020376 0 -0.017089565705337612 0.00089931806923576141 0 -0.017317540694847613 0.00092861902872620522 0 -0.017089565705337612 0.00089931806923576141 0 -0.017083122464689932 0.00078854583232383917 0 -0.016932702018619961 0.00083496230537427672 0 -0.01722714871627451 0.00082574141983020376 0 -0.017089565705337612 0.00089931806923576141 0 -0.017083122464689932 0.00078854583232383917 0 -0.014411179746027224 0.00086612054179166498 0 -0.013814848566327831 0.00028874596999843062 0 -0.017195226304560104 0.00064890906892259173 0 -0.017083122464689932 0.00078854583232383917 0 -0.016846995778643455 0.00062787595986986064 0 -0.017083122464689932 0.00078854583232383917 0 -0.016846995778643455 0.00062787595986986064 0 -0.016932702018619961 0.00083496230537427672 0 -0.016846995778643455 0.00062787595986986064 0 -0.016932702018619961 0.00083496230537427672 0 -0.016738322082207404 0.0008721064718507838 0 -0.017089565705337612 0.00089931806923576141 0 -0.016932702018619961 0.00083496230537427672 0 -0.016892017045556783 0.00098857644147060369 0 -0.016932702018619961 0.00083496230537427672 0 -0.016738322082207404 0.0008721064718507838 0 -0.016892017045556783 0.00098857644147060369 0 -0.016738322082207404 0.0008721064718507838 0 -0.016506954324015631 0.00096382651366187864 0 -0.016480218468075215 0.00061633641266950413 0 -0.016506954324015631 0.00096382651366187864 0 -0.016480218468075215 0.00061633641266950413 0 -0.016316392527066292 0.00079809905686623679 0 -0.016846995778643455 0.00062787595986986064 0 -0.016738322082207404 0.0008721064718507838 0 -0.016480218468075215 0.00061633641266950413 0 -0.013814848566327831 0.00028874596999843062 0 -0.014065949862138322 0.00032984888531548259 0 -0.011023789716346398 8.6487423701923848e-05 0 -0.01155344743724627 3.7525892194476728e-06 0 -0.0112808115419894 0.00048414403294494738 0 -0.01155344743724627 3.7525892194476728e-06 0 -0.0112808115419894 0.00048414403294494738 0 -0.011788697273192797 0.00032781628025222662 0 -0.0112808115419894 0.00048414403294494738 0 -0.011750777807386962 0.00079114015438046053 0 -0.011788697273192797 0.00032781628025222662 0 -0.010935573767453336 0.0008081933160342293 0 -0.0112808115419894 0.00048414403294494738 0 -0.010882390469320982 0.00049032839358122387 0 -0.010611044305986035 0.00063748191573693449 0 -0.010597466568521003 0.00038396382622198831 0 -0.010882390469320982 0.00049032839358122387 0 -0.010935573767453336 0.0008081933160342293 0 -0.010611044305986035 0.00063748191573693449 0 -0.010882390469320982 0.00049032839358122387 0 -0.010597466568521003 0.00038396382622198831 0 -0.011023789716346398 8.6487423701923848e-05 0 -0.010882390469320982 0.00049032839358122387 0 -0.010597466568521003 0.00038396382622198831 0 -0.010593367342177726 0.00013420972093463246 0 -0.011023789716346398 8.6487423701923848e-05 0 -0.011023789716346398 8.6487423701923848e-05 0 -0.0112808115419894 0.00048414403294494738 0 -0.010882390469320982 0.00049032839358122387 0 -0.018892895912333226 -0.00099761659443091443 0 -0.018173272508361309 -0.00073858536273469562 0 -0.018278091497924392 -0.0014340826820478604 0 -0.018173272508361309 -0.00073858536273469562 0 -0.017511398976312004 -0.0011195864363787327 0 -0.01758457562196248 5.0005511328484226e-05 0 -0.017511398976312004 -0.0011195864363787327 0 -0.016840000981166021 -0.00084038277343925728 0 -0.01758457562196248 5.0005511328484226e-05 0 -0.019159812974285505 -0.001240459023355232 0 -0.01909811312713116 -0.00078215146000147162 0 -0.017511398976312004 -0.0011195864363787327 0 -0.017654905822508317 -0.0018253927590123485 0 -0.016909363291981172 -0.001571528637314181 0 -0.017511398976312004 -0.0011195864363787327 0 -0.018278091497924392 -0.0014340826820478604 0 -0.017654905822508317 -0.0018253927590123485 0 -0.018173272508361309 -0.00073858536273469562 0 -0.017511398976312004 -0.0011195864363787327 0 -0.018278091497924392 -0.0014340826820478604 0 -0.018278091497924392 -0.0014340826820478604 0 -0.01829619948381906 -0.0019433585194764526 0 -0.017654905822508317 -0.0018253927590123485 0 -0.01829619948381906 -0.0019433585194764526 0 -0.018000157272171434 -0.0022561880319753838 0 -0.017654905822508317 -0.0018253927590123485 0 -0.018000157272171434 -0.0022561880319753838 0 -0.017476389778689368 -0.0023311174893212916 0 -0.017654905822508317 -0.0018253927590123485 0 -0.01845082329692125 -0.0024773595963600878 0 -0.01829619948381906 -0.0019433585194764526 0 -0.018000157272171434 -0.0022561880319753838 0 -0.017970278017322507 -0.0027079106292932265 0 -0.018000157272171434 -0.0022561880319753838 0 -0.017476389778689368 -0.0023311174893212916 0 -0.01845082329692125 -0.0024773595963600878 0 -0.017970278017322507 -0.0027079106292932265 0 -0.018000157272171434 -0.0022561880319753838 0 -0.01845082329692125 -0.0024773595963600878 0 -0.018416522721273393 -0.0027174789941265074 0 -0.017970278017322507 -0.0027079106292932265 0 -0.017342216217006778 -0.0027398017734495887 0 -0.017476389778689368 -0.0023311174893212916 0 -0.016635366367194218 -0.0023773291732781449 0 -0.017476389778689368 -0.0023311174893212916 0 -0.017004431935901548 -0.00202533193557168 0 -0.016635366367194218 -0.0023773291732781449 0 -0.017342216217006778 -0.0027398017734495887 0 -0.017970278017322507 -0.0027079106292932265 0 -0.017476389778689368 -0.0023311174893212916 0 -0.017654905822508317 -0.0018253927590123485 0 -0.016909363291981172 -0.001571528637314181 0 -0.017004431935901548 -0.00202533193557168 0 -0.017476389778689368 -0.0023311174893212916 0 -0.017654905822508317 -0.0018253927590123485 0 -0.017004431935901548 -0.00202533193557168 0 -0.016909363291981172 -0.001571528637314181 0 -0.017004431935901548 -0.00202533193557168 0 -0.01654415082892944 -0.0020410941601603223 0 -0.017004431935901548 -0.00202533193557168 0 -0.016635366367194218 -0.0023773291732781449 0 -0.01654415082892944 -0.0020410941601603223 0 -0.015783580349926937 -0.0024515854288188832 0 -0.016635366367194218 -0.0023773291732781449 0 -0.015880199687352593 -0.0012637903337478686 0 -0.016651784249373761 -0.002359626907545806 0 -0.016066281089236221 -0.0014691236665330158 0 -0.015032077126967757 -0.0021096847553816528 0 -0.015880199687352593 -0.0012637903337478686 0 -0.014822515352379847 -0.0012046396407529956 0 -0.015783580349926937 -0.0024515854288188832 0 -0.015032077126967757 -0.0021096847553816528 0 -0.015880199687352593 -0.0012637903337478686 0 -0.016909363291981172 -0.001571528637314181 0 -0.01654415082892944 -0.0020410941601603223 0 -0.016224978760156494 -0.0015902132979972344 0 -0.015880199687352593 -0.0012637903337478686 0 -0.015223553763144557 -0.00034320354830201082 0 -0.014822515352379847 -0.0012046396407529956 0 -0.016066281089236221 -0.0014691236665330158 0 -0.017514062165906525 -0.0014578825498074337 0 -0.017514062165906525 -0.0014578825498074337 0 -0.019159812974285505 -0.001240459023355232 0 -0.020923437024736924 -0.0018580011159766167 0 -0.020950609386957142 -0.0016917038756335378 0 -0.020699975555909633 -0.0016505804329131095 0 -0.020923437024736924 -0.0018580011159766167 0 -0.020950609386957142 -0.0016917038756335378 0 -0.021074534481691862 -0.001655353860928742 0 -0.016909363291981172 -0.001571528637314181 0 -0.016224978760156494 -0.0015902132979972344 0 -0.016840000981166021 -0.00084038277343925728 0 -0.017511398976312004 -0.0011195864363787327 0 -0.016909363291981172 -0.001571528637314181 0 -0.016840000981166021 -0.00084038277343925728 0 -0.021074534481691862 -0.001655353860928742 0 -0.021023997123783611 -0.0016481556844133959 0 -0.021066360291947941 -0.0016326620549379236 0 -0.021390942730174264 -0.002151255005121356 0 -0.01925551639383203 -0.0005390082744683196 0 -0.020950609386957142 -0.0016917038756335378 0 -0.021074534481691862 -0.001655353860928742 0 -0.021023997123783611 -0.0016481556844133959 0 -0.020950609386957142 -0.0016917038756335378 0 -0.021023997123783611 -0.0016481556844133959 0 -0.021028731050190239 -0.0016287720253955406 0 -0.01642571542071455 -0.0007285717193534271 0 -0.01925551639383203 -0.0005390082744683196 0 -0.014755623908076472 -0.00014518026369153699 0 -0.014268664924758506 0.00053182736426493963 0 -0.01487923588738717 0.00080040783131959362 0 -0.020950609386957142 -0.0016917038756335378 0 -0.020699975555909633 -0.0016505804329131095 0 -0.0207373256200559 -0.0012621453138580898 0 -0.01456701180948484 0.00020949235374385407 0 -0.014179735548534205 0.00072743957168528979 0 -0.013995034139864476 0.00027278740481793831 0 -0.01642571542071455 -0.0007285717193534271 0 -0.014070981350149623 0.00087388195983122651 0 -0.014179735548534205 0.00072743957168528979 0 -0.013769949044777517 0.00063472786528253158 0 -0.013995034139864476 0.00027278740481793831 0 -0.013769949044777517 0.00063472786528253158 0 -0.013995034139864476 0.00027278740481793831 0 -0.013494705385051854 0.00015309974640704974 0 -0.01456701180948484 0.00020949235374385407 0 -0.013995034139864476 0.00027278740481793831 0 -0.013909708071388667 -0.00027535336072452094 0 -0.013995034139864476 0.00027278740481793831 0 -0.013909708071388667 -0.00027535336072452094 0 -0.013494705385051854 0.00015309974640704974 0 -0.013909708071388667 -0.00027535336072452094 0 -0.013541622023605364 -0.00038812518948050942 0 -0.013494705385051854 0.00015309974640704974 0 -0.017514062165906525 -0.0014578825498074337 0 -0.01642571542071455 -0.0007285717193534271 0 -0.01642571542071455 -0.0007285717193534271 0 -0.015109379164250192 -0.00079039903280963674 0 -0.01633458061270401 -0.0011480439310042724 0 -0.015908353313321952 -0.00054176345616613558 0 -0.015789259152491079 -0.0012297376862202582 0 -0.01456701180948484 0.00020949235374385407 0 -0.013909708071388667 -0.00027535336072452094 0 -0.014456982116000029 -0.00053113692963820721 0 -0.015223553763144557 -0.00034320354830201082 0 -0.014822515352379847 -0.0012046396407529956 0 -0.014035825917446345 -0.001727503330335831 0 -0.014456982116000029 -0.00053113692963820721 0 -0.01435076039611486 -0.0012939785980446124 0 -0.014190787630505304 -0.0010073346998524715 0 -0.01633458061270401 -0.0011480439310042724 0 -0.015789259152491079 -0.0012297376862202582 0 -0.015666437321932312 -0.0019190981879513424 0 -0.017514062165906525 -0.0014578825498074337 0 -0.014494843095895991 -0.0016487552083099244 0 -0.015109379164250192 -0.00079039903280963674 0 -0.014494843095895991 -0.0016487552083099244 0 -0.014456982116000029 -0.00053113692963820721 0 -0.014190787630505304 -0.0010073346998524715 0 -0.014125759288481804 -0.00070825457726290042 0 -0.015032077126967757 -0.0021096847553816528 0 -0.014822515352379847 -0.0012046396407529956 0 -0.014568721817919246 -0.0017932149813550539 0 -0.014822515352379847 -0.0012046396407529956 0 -0.014035825917446345 -0.001727503330335831 0 -0.014568721817919246 -0.0017932149813550539 0 -0.0142446555232075 -0.0026661957068377395 0 -0.014035825917446345 -0.001727503330335831 0 -0.014451933266888317 -0.0020583362471318744 0 -0.01435076039611486 -0.0012939785980446124 0 -0.014214209471403009 -0.0012338384703145897 0 -0.014190787630505304 -0.0010073346998524715 0 -0.015032077126967757 -0.0021096847553816528 0 -0.014451933266888317 -0.0020583362471318744 0 -0.014568721817919246 -0.0017932149813550539 0 -0.014035825917446345 -0.001727503330335831 0 -0.014451933266888317 -0.0020583362471318744 0 -0.014568721817919246 -0.0017932149813550539 0 -0.013841638657657744 -0.0015122931703454947 0 -0.013763045766388045 -0.0012006328307272401 0 -0.013448824585159612 -0.0013682505733442966 0 -0.01435076039611486 -0.0012939785980446124 0 -0.013841638657657744 -0.0015122931703454947 0 -0.01405577795738476 -0.0012736217577516069 0 -0.01435076039611486 -0.0012939785980446124 0 -0.01405577795738476 -0.0012736217577516069 0 -0.014214209471403009 -0.0012338384703145897 0 -0.01405577795738476 -0.0012736217577516069 0 -0.014214209471403009 -0.0012338384703145897 0 -0.014190787630505304 -0.0010073346998524715 0 -0.01405577795738476 -0.0012736217577516069 0 -0.014190787630505304 -0.0010073346998524715 0 -0.013935533060241048 -0.0010089044515082092 0 -0.01405577795738476 -0.0012736217577516069 0 -0.013763045766388045 -0.0012006328307272401 0 -0.013935533060241048 -0.0010089044515082092 0 -0.013763045766388045 -0.0012006328307272401 0 -0.013935533060241048 -0.0010089044515082092 0 -0.013533086295827721 -0.00084772671012879771 0 -0.013841638657657744 -0.0015122931703454947 0 -0.01405577795738476 -0.0012736217577516069 0 -0.013763045766388045 -0.0012006328307272401 0 -0.013935533060241048 -0.0010089044515082092 0 -0.013809155283828336 -0.0006443199181176975 0 -0.013533086295827721 -0.00084772671012879771 0 -0.013935533060241048 -0.0010089044515082092 0 -0.014125759288481804 -0.00070825457726290042 0 -0.013809155283828336 -0.0006443199181176975 0 -0.014190787630505304 -0.0010073346998524715 0 -0.013935533060241048 -0.0010089044515082092 0 -0.014125759288481804 -0.00070825457726290042 0 -0.013909708071388667 -0.00027535336072452094 0 -0.014125759288481804 -0.00070825457726290042 0 -0.013809155283828336 -0.0006443199181176975 0 -0.013909708071388667 -0.00027535336072452094 0 -0.014456982116000029 -0.00053113692963820721 0 -0.014125759288481804 -0.00070825457726290042 0 -0.013809155283828336 -0.0006443199181176975 0 -0.013533086295827721 -0.00084772671012879771 0 -0.013541622023605364 -0.00038812518948050942 0 -0.013909708071388667 -0.00027535336072452094 0 -0.013809155283828336 -0.0006443199181176975 0 -0.013541622023605364 -0.00038812518948050942 0 -0.013533086295827721 -0.00084772671012879771 0 -0.013112379593146829 -0.00033711180520855545 0 -0.013541622023605364 -0.00038812518948050942 0 -0.01300104280156764 -0.00094498044413989142 0 -0.013533086295827721 -0.00084772671012879771 0 -0.013112379593146829 -0.00033711180520855545 0 -0.013763045766388045 -0.0012006328307272401 0 -0.013533086295827721 -0.00084772671012879771 0 -0.013448824585159612 -0.0013682505733442966 0 -0.01300104280156764 -0.00094498044413989142 0 -0.013533086295827721 -0.00084772671012879771 0 -0.013448824585159612 -0.0013682505733442966 0 -0.01300104280156764 -0.00094498044413989142 0 -0.013448824585159612 -0.0013682505733442966 0 -0.012857472467489722 -0.0014977732157895954 0 -0.012046606277434551 -0.0015089002617712924 0 -0.012857472467489722 -0.0014977732157895954 0 -0.012501201851014603 -0.0010559941382236237 0 -0.01300104280156764 -0.00094498044413989142 0 -0.012857472467489722 -0.0014977732157895954 0 -0.012501201851014603 -0.0010559941382236237 0 -0.012013630449999455 -0.0009695029789254159 0 -0.012501201851014603 -0.0010559941382236237 0 -0.012558006760016014 -0.00060180655029260411 0 -0.01300104280156764 -0.00094498044413989142 0 -0.012501201851014603 -0.0010559941382236237 0 -0.012558006760016014 -0.00060180655029260411 0 -0.01300104280156764 -0.00094498044413989142 0 -0.012558006760016014 -0.00060180655029260411 0 -0.013112379593146829 -0.00033711180520855545 0 -0.012558006760016014 -0.00060180655029260411 0 -0.012590476674694016 4.1438178684617746e-05 0 -0.013112379593146829 -0.00033711180520855545 0 -0.012590476674694016 4.1438178684617746e-05 0 -0.013112379593146829 -0.00033711180520855545 0 -0.013052538471116832 0.00030005348922667214 0 -0.012117964898866291 -0.00038928653887459124 0 -0.012558006760016014 -0.00060180655029260411 0 -0.012590476674694016 4.1438178684617746e-05 0 -0.013112379593146829 -0.00033711180520855545 0 -0.013494705385051854 0.00015309974640704974 0 -0.013052538471116832 0.00030005348922667214 0 -0.013112379593146829 -0.00033711180520855545 0 -0.013541622023605364 -0.00038812518948050942 0 -0.013494705385051854 0.00015309974640704974 0 -0.013494705385051854 0.00015309974640704974 0 -0.013052538471116832 0.00030005348922667214 0 -0.013338182064353953 0.00077892396654857842 0 -0.013769949044777517 0.00063472786528253158 0 -0.013494705385051854 0.00015309974640704974 0 -0.013338182064353953 0.00077892396654857842 0 -0.013052538471116832 0.00030005348922667214 0 -0.013338182064353953 0.00077892396654857842 0 -0.012784724046719631 0.00064343362343834869 0 -0.012297091341072049 0.00059428882437668139 0 -0.012590476674694016 4.1438178684617746e-05 0 -0.012784724046719631 0.00064343362343834869 0 -0.012590476674694016 4.1438178684617746e-05 0 -0.013052538471116832 0.00030005348922667214 0 -0.012784724046719631 0.00064343362343834869 0 -0.012297091341072049 0.00059428882437668139 0 -0.012784724046719631 0.00064343362343834869 0 -0.012584422399309451 0.00095425034977627903 0 -0.012679221090821924 0.0013375198649988353 0 -0.012971270877350661 0.0010620896020822744 0 -0.013253815100377151 0.0013938967999588771 0 -0.012679221090821924 0.0013375198649988353 0 -0.012584422399309451 0.00095425034977627903 0 -0.012971270877350661 0.0010620896020822744 0 -0.012182729394343457 0.0011187448072695382 0 -0.012679221090821924 0.0013375198649988353 0 -0.012584422399309451 0.00095425034977627903 0 -0.012784724046719631 0.00064343362343834869 0 -0.012584422399309451 0.00095425034977627903 0 -0.012971270877350661 0.0010620896020822744 0 -0.013338182064353953 0.00077892396654857842 0 -0.013253815100377151 0.0013938967999588771 0 -0.013834987360619133 0.0011985105105666867 0 -0.013338182064353953 0.00077892396654857842 0 -0.012784724046719631 0.00064343362343834869 0 -0.012971270877350661 0.0010620896020822744 0 -0.013338182064353953 0.00077892396654857842 0 -0.012971270877350661 0.0010620896020822744 0 -0.013253815100377151 0.0013938967999588771 0 -0.013253815100377151 0.0013938967999588771 0 -0.013342332872359128 0.0018101422598483293 0 -0.01280935313844426 0.0017451911229676102 0 -0.013253815100377151 0.0013938967999588771 0 -0.013342332872359128 0.0018101422598483293 0 -0.013852024675910133 0.0016526289227914433 0 -0.013342332872359128 0.0018101422598483293 0 -0.013702531995019317 0.0020484092428462168 0 -0.013852024675910133 0.0016526289227914433 0 -0.013342332872359128 0.0018101422598483293 0 -0.01280935313844426 0.0017451911229676102 0 -0.013030625353510062 0.0020261968140114742 0 -0.012679221090821924 0.0013375198649988353 0 -0.013253815100377151 0.0013938967999588771 0 -0.01280935313844426 0.0017451911229676102 0 -0.012337941538234434 0.001611131194382076 0 -0.012679221090821924 0.0013375198649988353 0 -0.01280935313844426 0.0017451911229676102 0 -0.01242708269099748 0.0019257281295617372 0 -0.012337941538234434 0.001611131194382076 0 -0.01280935313844426 0.0017451911229676102 0 -0.01242708269099748 0.0019257281295617372 0 -0.01280935313844426 0.0017451911229676102 0 -0.012706480462785373 0.0021881337337389872 0 -0.012706480462785373 0.0021881337337389872 0 -0.013030625353510062 0.0020261968140114742 0 -0.01324688088215477 0.0023147940712286278 0 -0.01280935313844426 0.0017451911229676102 0 -0.012706480462785373 0.0021881337337389872 0 -0.013030625353510062 0.0020261968140114742 0 -0.012706480462785373 0.0021881337337389872 0 -0.012773682719367919 0.0026550485889543364 0 -0.01324688088215477 0.0023147940712286278 0 -0.012412913493398153 0.0028215527515874183 0 -0.012492715618986776 0.0024861976612211277 0 -0.012773682719367919 0.0026550485889543364 0 -0.012412913493398153 0.0028215527515874183 0 -0.012773682719367919 0.0026550485889543364 0 -0.012624240541834766 0.0031712388660061347 0 -0.012492715618986776 0.0024861976612211277 0 -0.012706480462785373 0.0021881337337389872 0 -0.012773682719367919 0.0026550485889543364 0 -0.012773682719367919 0.0026550485889543364 0 -0.013206405080706092 0.0029014770686606175 0 -0.012624240541834766 0.0031712388660061347 0 -0.012773682719367919 0.0026550485889543364 0 -0.013206405080706092 0.0029014770686606175 0 -0.01324688088215477 0.0023147940712286278 0 -0.013206405080706092 0.0029014770686606175 0 -0.01324688088215477 0.0023147940712286278 0 -0.013840157648143525 0.0025993883820275196 0 -0.018943546430485115 0.00091104888923735229 0 -0.019342712882038707 0.00071501966448161394 0 -0.019229006982439126 0.00096646196929528851 0 -0.015903405748061473 0.0019758878058782669 0 -0.017789773295517841 0.0014784156160609126 0 -0.01324688088215477 0.0023147940712286278 0 -0.013702531995019317 0.0020484092428462168 0 -0.013840157648143525 0.0025993883820275196 0 -0.013342332872359128 0.0018101422598483293 0 -0.013030625353510062 0.0020261968140114742 0 -0.01324688088215477 0.0023147940712286278 0 -0.013342332872359128 0.0018101422598483293 0 -0.01324688088215477 0.0023147940712286278 0 -0.013702531995019317 0.0020484092428462168 0 -0.017789773295517841 0.0014784156160609126 0 -0.020133099689650911 0.00034429059084169103 0 -0.017789773295517841 0.0014784156160609126 0 -0.016375873258888674 0.0013649989859101355 0 -0.013702531995019317 0.0020484092428462168 0 -0.013840157648143525 0.0025993883820275196 0 -0.014297930449065526 0.0018048205575119495 0 -0.019328891298810411 0.00078516224163202011 0 -0.019577163358024893 0.0010202651249821126 0 -0.019229006982439126 0.00096646196929528851 0 -0.019328891298810411 0.00078516224163202011 0 -0.019604148654118914 0.00085792078270472013 0 -0.019577163358024893 0.0010202651249821126 0 -0.017789773295517841 0.0014784156160609126 0 -0.019186493748081176 0.00056122042313518159 0 -0.019604148654118914 0.00085792078270472013 0 -0.019876192114882126 0.0010218420251196956 0 -0.019577163358024893 0.0010202651249821126 0 -0.019604148654118914 0.00085792078270472013 0 -0.019631929441552603 0.00060320668391319345 0 -0.019876192114882126 0.0010218420251196956 0 -0.019328891298810411 0.00078516224163202011 0 -0.019604148654118914 0.00085792078270472013 0 -0.019631929441552603 0.00060320668391319345 0 -0.019066136372195425 0.00092675336001555415 0 -0.019631929441552603 0.00060320668391319345 0 -0.019399224747152922 0.00028231792349567807 0 -0.019631929441552603 0.00060320668391319345 0 -0.019399224747152922 0.00028231792349567807 0 -0.019809851337561961 0.0004432263714312889 0 -0.01925551639383203 -0.0005390082744683196 0 -0.020578216718466998 -0.00068667161204051769 0 -0.019399224747152922 0.00028231792349567807 0 -0.019678531597165986 -0.00032695779521297404 0 -0.019809851337561961 0.0004432263714312889 0 -0.013702531995019317 0.0020484092428462168 0 -0.014297930449065526 0.0018048205575119495 0 -0.013852024675910133 0.0016526289227914433 0 -0.013253815100377151 0.0013938967999588771 0 -0.013852024675910133 0.0016526289227914433 0 -0.013834987360619133 0.0011985105105666867 0 -0.014297930449065526 0.0018048205575119495 0 -0.013852024675910133 0.0016526289227914433 0 -0.014264046652131235 0.0011788808587151927 0 -0.013852024675910133 0.0016526289227914433 0 -0.014264046652131235 0.0011788808587151927 0 -0.013834987360619133 0.0011985105105666867 0 -0.013769949044777517 0.00063472786528253158 0 -0.013338182064353953 0.00077892396654857842 0 -0.013834987360619133 0.0011985105105666867 0 -0.014179735548534205 0.00072743957168528979 0 -0.013769949044777517 0.00063472786528253158 0 -0.013834987360619133 0.0011985105105666867 0 -0.014070981350149623 0.00087388195983122651 0 -0.013935253975857976 0.001051127464582123 0 -0.014268664924758506 0.00053182736426493963 0 -0.014264046652131235 0.0011788808587151927 0 -0.013834987360619133 0.0011985105105666867 0 -0.014297930449065526 0.0018048205575119495 0 -0.014264046652131235 0.0011788808587151927 0 -0.01487923588738717 0.00080040783131959362 0 -0.014268664924758506 0.00053182736426493963 0 -0.014264046652131235 0.0011788808587151927 0 -0.01487923588738717 0.00080040783131959362 0 -0.016375873258888674 0.0013649989859101355 0 -0.01925551639383203 -0.0005390082744683196 0 -0.021028731050190239 -0.0016287720253955406 0 -0.021066360291947941 -0.0016326620549379236 0 -0.021103570202141257 -0.0016312299762779368 0 -0.021023997123783611 -0.0016481556844133959 0 -0.021028731050190239 -0.0016287720253955406 0 -0.021066360291947941 -0.0016326620549379236 0 -0.021074534481691862 -0.001655353860928742 0 -0.021066360291947941 -0.0016326620549379236 0 -0.021111611401178305 -0.0016240753217870863 0 -0.021066360291947941 -0.0016326620549379236 0 -0.021103570202141257 -0.0016312299762779368 0 -0.021111611401178305 -0.0016240753217870863 0 -0.021103570202141257 -0.0016312299762779368 0 -0.021128745736159388 -0.001603236950182427 0 -0.021111611401178305 -0.0016240753217870863 0 -0.021028731050190239 -0.0016287720253955406 0 -0.021103570202141257 -0.0016312299762779368 0 -0.021056843730924146 -0.0016695369436979389 0 -0.021103570202141257 -0.0016312299762779368 0 -0.021056843730924146 -0.0016695369436979389 0 -0.021206573971573311 -0.0015425283642803418 0 -0.019631929441552603 0.00060320668391319345 0 -0.019809851337561961 0.0004432263714312889 0 -0.019876192114882126 0.0010218420251196956 0 -0.021056843730924146 -0.0016695369436979389 0 -0.021206573971573311 -0.0015425283642803418 0 -0.021146227266130364 -0.00081598802181690724 0 -0.021206573971573311 -0.0015425283642803418 0 -0.021146227266130364 -0.00081598802181690724 0 -0.021933745064309878 -0.0010757629156869729 0 -0.020578216718466998 -0.00068667161204051769 0 -0.020534333894814998 9.8199986226107046e-05 0 -0.021131305410552977 -0.0015288624980256038 0 -0.021941708626015952 -0.0018729775374837169 0 -0.021206573971573311 -0.0015425283642803418 0 -0.021933745064309878 -0.0010757629156869729 0 -0.022268963580950946 -0.0018660783711882591 0 -0.021103570202141257 -0.0016312299762779368 0 -0.021206573971573311 -0.0015425283642803418 0 -0.021128745736159388 -0.001603236950182427 0 -0.021941708626015952 -0.0018729775374837169 0 -0.021245592558000268 -0.00068023854665112422 0 -0.021933745064309878 -0.0010757629156869729 0 -0.023092548271413386 -0.0010053248421355637 0 -0.022501270802399727 -0.00047522441749946989 0 -0.021933745064309878 -0.0010757629156869729 0 -0.022268963580950946 -0.0018660783711882591 0 -0.023092548271413386 -0.0010053248421355637 0 -0.022268963580950946 -0.0018660783711882591 0 -0.023092548271413386 -0.0010053248421355637 0 -0.023323548677756288 -0.0020744201660029787 0 -0.018687535777260168 -3.4981666293611121e-05 0 -0.018451626495926278 0.0010879498542759568 0 -0.01758457562196248 5.0005511328484226e-05 0 -0.021245592558000268 -0.00068023854665112422 0 -0.01909811312713116 -0.00078215146000147162 0 -0.021128745736159388 -0.001603236950182427 0 -0.021136407548569561 -0.0015987323738075015 0 -0.021111611401178305 -0.0016240753217870863 0 -0.018687535777260168 -3.4981666293611121e-05 0 -0.018173272508361309 -0.00073858536273469562 0 -0.01758457562196248 5.0005511328484226e-05 0 -0.0236539761043526 0.00068904894950068754 0 -0.022603872613656196 0.0011632460075095407 0 -0.022284387932177949 0.00035388367523220976 0 -0.024904997790502051 0.00011696362560512643 0 -0.024917570897045174 6.8385081364802648e-05 0 -0.024953775347580261 9.4640065218760719e-05 0 -0.024917570897045174 6.8385081364802648e-05 0 -0.024953775347580261 9.4640065218760719e-05 0 -0.024966091125533465 5.7977324980583755e-05 0 -0.024953775347580261 9.4640065218760719e-05 0 -0.024980597625083242 8.0379341622820809e-05 0 -0.024966091125533465 5.7977324980583755e-05 0 -0.024262314379931666 0.00039608565932271514 0 -0.023858349611082297 0.00061694367328743059 0 -0.0236539761043526 0.00068904894950068754 0 -0.023193113215723486 -0.00012555611127318834 0 -0.022284387932177949 0.00035388367523220976 0 -0.023092548271413386 -0.0010053248421355637 0 -0.023193113215723486 -0.00012555611127318834 0 -0.022501270802399727 -0.00047522441749946989 0 -0.024124537089731838 -0.00036049984254263496 0 -0.023092548271413386 -0.0010053248421355637 0 -0.023193113215723486 -0.00012555611127318834 0 -0.022501270802399727 -0.00047522441749946989 0 -0.022284387932177949 0.00035388367523220976 0 -0.021847816177909644 -0.00032802759914132189 0 -0.023193113215723486 -0.00012555611127318834 0 -0.022501270802399727 -0.00047522441749946989 0 -0.022284387932177949 0.00035388367523220976 0 -0.022284387932177949 0.00035388367523220976 0 -0.021847816177909644 -0.00032802759914132189 0 -0.021363319662053709 0.00040798834813027984 0 -0.021933745064309878 -0.0010757629156869729 0 -0.022501270802399727 -0.00047522441749946989 0 -0.021847816177909644 -0.00032802759914132189 0 -0.021146227266130364 -0.00081598802181690724 0 -0.021933745064309878 -0.0010757629156869729 0 -0.021847816177909644 -0.00032802759914132189 0 -0.019876192114882126 0.0010218420251196956 0 -0.019830707026721406 0.0013725963461017228 0 -0.019729130975060821 0.0012330145318856646 0 -0.020534333894814998 9.8199986226107046e-05 0 -0.020284379224694969 0.00098839897164006542 0 -0.021146227266130364 -0.00081598802181690724 0 -0.021847816177909644 -0.00032802759914132189 0 -0.021363319662053709 0.00040798834813027984 0 -0.020284379224694969 0.00098839897164006542 0 -0.022892799462464364 0.00083586337893865503 0 -0.019830707026721406 0.0013725963461017228 0 -0.019786332711678463 0.0013673278867454646 0 -0.019757421041597712 0.0013103225745383592 0 -0.022284387932177949 0.00035388367523220976 0 -0.021363319662053709 0.00040798834813027984 0 -0.021582688904733183 0.0016108687900565865 0 -0.022603872613656196 0.0011632460075095407 0 -0.022284387932177949 0.00035388367523220976 0 -0.021582688904733183 0.0016108687900565865 0 -0.023858349611082297 0.00061694367328743059 0 -0.022892799462464364 0.00083586337893865503 0 -0.019757421041597712 0.0013103225745383592 0 -0.019786664223013374 0.0013182759300446459 0 -0.019865314496402386 0.0012332653518673127 0 -0.019786332711678463 0.0013673278867454646 0 -0.019757421041597712 0.0013103225745383592 0 -0.019786664223013374 0.0013182759300446459 0 -0.019786664223013374 0.0013182759300446459 0 -0.019847859748398901 0.0012653030815978118 0 -0.019800337866856477 0.0013484827562160518 0 -0.019786664223013374 0.0013182759300446459 0 -0.019847859748398901 0.0012653030815978118 0 -0.019807320118902245 0.0011920262331983752 0 -0.019374978687171234 0.0016949240476514518 0 -0.02176875018442841 0.0007375754527768455 0 -0.019847859748398901 0.0012653030815978118 0 -0.019915248870040449 0.0013253450826486509 0 -0.0200188589561676 0.0011888488125213561 0 -0.019847859748398901 0.0012653030815978118 0 -0.019915248870040449 0.0013253450826486509 0 -0.019800337866856477 0.0013484827562160518 0 -0.019846311450191674 0.001379146006380453 0 -0.019800337866856477 0.0013484827562160518 0 -0.019706004772525432 0.0014211417375685912 0 -0.019915248870040449 0.0013253450826486509 0 -0.019846311450191674 0.001379146006380453 0 -0.019970618715655395 0.0013786603801643417 0 -0.019915248870040449 0.0013253450826486509 0 -0.019846311450191674 0.001379146006380453 0 -0.019800337866856477 0.0013484827562160518 0 -0.019830707026721406 0.0013725963461017228 0 -0.019786332711678463 0.0013673278867454646 0 -0.019706004772525432 0.0014211417375685912 0 -0.019786332711678463 0.0013673278867454646 0 -0.019786664223013374 0.0013182759300446459 0 -0.019800337866856477 0.0013484827562160518 0 -0.019786332711678463 0.0013673278867454646 0 -0.019800337866856477 0.0013484827562160518 0 -0.019706004772525432 0.0014211417375685912 0 -0.019830707026721406 0.0013725963461017228 0 -0.019706004772525432 0.0014211417375685912 0 -0.019729130975060821 0.0012330145318856646 0 -0.019706004772525432 0.0014211417375685912 0 -0.019729130975060821 0.0012330145318856646 0 -0.019425660924258834 0.0012287216724482578 0 -0.019876192114882126 0.0010218420251196956 0 -0.019729130975060821 0.0012330145318856646 0 -0.019577163358024893 0.0010202651249821126 0 -0.019729130975060821 0.0012330145318856646 0 -0.019577163358024893 0.0010202651249821126 0 -0.019425660924258834 0.0012287216724482578 0 -0.019577163358024893 0.0010202651249821126 0 -0.019425660924258834 0.0012287216724482578 0 -0.019229006982439126 0.00096646196929528851 0 -0.019425660924258834 0.0012287216724482578 0 -0.019047026285069373 0.0012330170061231891 0 -0.019229006982439126 0.00096646196929528851 0 -0.019706004772525432 0.0014211417375685912 0 -0.019425660924258834 0.0012287216724482578 0 -0.019198969198152074 0.0015361136607174482 0 -0.019846311450191674 0.001379146006380453 0 -0.019706004772525432 0.0014211417375685912 0 -0.01992782878944804 0.0014602228039987727 0 -0.019683596978891049 0.0014423445774079493 0 -0.019570654353079912 0.0014890814787842325 0 -0.019425660924258834 0.0012287216724482578 0 -0.019198969198152074 0.0015361136607174482 0 -0.019047026285069373 0.0012330170061231891 0 -0.019198969198152074 0.0015361136607174482 0 -0.019047026285069373 0.0012330170061231891 0 -0.018684518060012138 0.0015707450540628366 0 -0.019570654353079912 0.0014890814787842325 0 -0.01931228356516513 0.00151629520880747 0 -0.01992782878944804 0.0014602228039987727 0 -0.020058359679148319 0.0014556876045419818 0 -0.019970618715655395 0.0013786603801643417 0 -0.018943546430485115 0.00091104888923735229 0 -0.019047026285069373 0.0012330170061231891 0 -0.019229006982439126 0.00096646196929528851 0 -0.015903405748061473 0.0019758878058782669 0 -0.0154661242851726 0.0022551792108962271 0 -0.018943546430485115 0.00091104888923735229 0 -0.019047026285069373 0.0012330170061231891 0 -0.018503021088311481 0.0011243203033607409 0 -0.019047026285069373 0.0012330170061231891 0 -0.018503021088311481 0.0011243203033607409 0 -0.018684518060012138 0.0015707450540628366 0 -0.018503021088311481 0.0011243203033607409 0 -0.018684518060012138 0.0015707450540628366 0 -0.018416780914725182 0.0014125905599280163 0 -0.020058359679148319 0.0014556876045419818 0 -0.020055898334271453 0.0013620547406774576 0 -0.020141613051011507 0.0013740768580619404 0 -0.020055898334271453 0.0013620547406774576 0 -0.020102624928427536 0.001288858862115976 0 -0.020141613051011507 0.0013740768580619404 0 -0.020058359679148319 0.0014556876045419818 0 -0.020055898334271453 0.0013620547406774576 0 -0.019970618715655395 0.0013786603801643417 0 -0.019915248870040449 0.0013253450826486509 0 -0.019970618715655395 0.0013786603801643417 0 -0.020000644488982013 0.0013065895285933693 0 -0.019846311450191674 0.001379146006380453 0 -0.01992782878944804 0.0014602228039987727 0 -0.019970618715655395 0.0013786603801643417 0 -0.020055898334271453 0.0013620547406774576 0 -0.019970618715655395 0.0013786603801643417 0 -0.020000644488982013 0.0013065895285933693 0 -0.020114064062544311 0.0013249969446794585 0 -0.020210440757468098 0.0011370784659187315 0 -0.0200188589561676 0.0011888488125213561 0 -0.020004174174886747 0.00131582476817026 0 -0.019840083234431673 0.0013398028603400212 0 -0.019915248870040449 0.0013253450826486509 0 -0.020114064062544311 0.0013249969446794585 0 -0.0200188589561676 0.0011888488125213561 0 -0.020055898334271453 0.0013620547406774576 0 -0.020000644488982013 0.0013065895285933693 0 -0.020102624928427536 0.001288858862115976 0 -0.019840083234431673 0.0013398028603400212 0 -0.021478495388004292 0.00082206443955262613 0 -0.020114064062544311 0.0013249969446794585 0 -0.020302847537380084 0.0012996606428616329 0 -0.020210440757468098 0.0011370784659187315 0 -0.021478495388004292 0.00082206443955262613 0 -0.021529617585093228 0.00068353688680353002 0 -0.022875946053608286 0.00029389373443319356 0 -0.022661970278679892 -0.00011767106248913422 0 -0.023401888612326019 0.00010942945059285327 0 -0.02308856206360773 0.00070501311062968228 0 -0.022875946053608286 0.00029389373443319356 0 -0.023401888612326019 0.00010942945059285327 0 -0.021529617585093228 0.00068353688680353002 0 -0.022892342162055827 0.00017700943990046065 0 -0.0200188589561676 0.0011888488125213561 0 -0.020133146347796404 0.00098186158000179756 0 -0.019939881173209089 0.0010829054215748017 0 -0.020210440757468098 0.0011370784659187315 0 -0.0200188589561676 0.0011888488125213561 0 -0.020133146347796404 0.00098186158000179756 0 -0.022892342162055827 0.00017700943990046065 0 -0.020999338513124268 0.0010160841382301743 0 -0.023422688682132438 0.00034377071383728277 0 -0.023077920600338302 -0.0003259714667875512 0 -0.022580685305776046 0.00030210183597891455 0 -0.022892342162055827 0.00017700943990046065 0 -0.024497536724764752 6.3554090181456546e-06 0 -0.022661970278679892 -0.00011767106248913422 0 -0.023401888612326019 0.00010942945059285327 0 -0.023398457588634812 -0.00044020901913018382 0 -0.022892342162055827 0.00017700943990046065 0 -0.024373216984074332 -0.00029464750641206244 0 -0.024955548336754552 3.1020425220116318e-05 0 -0.024982073866986212 7.9697941332795905e-06 0 -0.024990451962262891 1.2636413651097244e-05 0 -0.024982073866986212 7.9697941332795905e-06 0 -0.024999930842927204 -6.0876649789452859e-09 0 -0.025000007590339567 6.2913543183431423e-10 0 -0.025000470652630908 -2.545621180344244e-07 0 -0.024497536724764752 6.3554090181456546e-06 0 -0.024982073866986212 7.9697941332795905e-06 0 -0.024999930842927204 -6.0876649789452859e-09 0 -0.024953458618532348 1.0123265943544545e-05 0 -0.02499999749315715 8.2164196644650059e-10 0 -0.024996092546576022 3.1469198541122546e-07 0 -0.024999994645428281 -5.5839793849447533e-10 0 -0.024955548336754552 3.1020425220116318e-05 0 -0.024982073866986212 7.9697941332795905e-06 0 -0.024953458618532348 1.0123265943544545e-05 0 -0.024497536724764752 6.3554090181456546e-06 0 -0.023954908667926395 4.608193787013293e-05 0 -0.025012620356802295 2.7889514268861447e-05 0 -0.024994857743585192 1.9348178773895605e-05 0 -0.024992088763929707 5.7910475673919781e-05 0 -0.024497536724764752 6.3554090181456546e-06 0 -0.025000346476448741 2.3065036173179684e-07 0 -0.025012620356802295 2.7889514268861447e-05 0 -0.024994857743585192 1.9348178773895605e-05 0 -0.025000018440241353 1.5461400407393311e-08 0 -0.024994857743585192 1.9348178773895605e-05 0 -0.025000018440241353 1.5461400407393311e-08 0 -0.024999972627444838 1.9340320277490926e-09 0 -0.024994857743585192 1.9348178773895605e-05 0 -0.024977714130342145 2.9883054499185873e-05 0 -0.024999972627444838 1.9340320277490926e-09 0 -0.024994857743585192 1.9348178773895605e-05 0 -0.024977714130342145 2.9883054499185873e-05 0 -0.024992088763929707 5.7910475673919781e-05 0 -0.024992088763929707 5.7910475673919781e-05 0 -0.024957833707562532 0.00010186437768957651 0 -0.024954381908160586 6.4363507495002558e-05 0 -0.024977714130342145 2.9883054499185873e-05 0 -0.024992088763929707 5.7910475673919781e-05 0 -0.024954381908160586 6.4363507495002558e-05 0 -0.023422688682132438 0.00034377071383728277 0 -0.022580685305776046 0.00030210183597891455 0 -0.022753879692356 0.00064043290071884155 0 -0.020999338513124268 0.0010160841382301743 0 -0.02176875018442841 0.0007375754527768455 0 -0.019847859748398901 0.0012653030815978118 0 -0.019939881173209089 0.0010829054215748017 0 -0.019807320118902245 0.0011920262331983752 0 -0.022580685305776046 0.00030210183597891455 0 -0.022753879692356 0.00064043290071884155 0 -0.022080584921631629 0.0009385480186936536 0 -0.019847859748398901 0.0012653030815978118 0 -0.0200188589561676 0.0011888488125213561 0 -0.019939881173209089 0.0010829054215748017 0 -0.023954908667926395 4.608193787013293e-05 0 -0.02176875018442841 0.0007375754527768455 0 -0.024901132831855195 0.0001293755054802872 0 -0.024923256871469023 7.1318531336108735e-05 0 -0.024954381908160586 6.4363507495002558e-05 0 -0.024901132831855195 0.0001293755054802872 0 -0.024957833707562532 0.00010186437768957651 0 -0.024954381908160586 6.4363507495002558e-05 0 -0.022892799462464364 0.00083586337893865503 0 -0.02176875018442841 0.0007375754527768455 0 -0.024980597625083242 8.0379341622820809e-05 0 -0.024990905203875403 4.5301126315658602e-05 0 -0.024966091125533465 5.7977324980583755e-05 0 -0.022892799462464364 0.00083586337893865503 0 -0.025112043720891448 -4.7718831812930485e-05 0 -0.025112043720891448 -4.7718831812930485e-05 0 -0.024967335293223984 4.2013715438462941e-05 0 -0.024990905203875403 4.5301126315658602e-05 0 -0.024997178934843878 1.8276562739835591e-05 0 -0.024980147177083332 3.344525428541895e-05 0 -0.024923256871469023 7.1318531336108735e-05 0 -0.024954381908160586 6.4363507495002558e-05 0 -0.024957976989019651 2.3591894495179334e-05 0 -0.024977714130342145 2.9883054499185873e-05 0 -0.024954381908160586 6.4363507495002558e-05 0 -0.024957976989019651 2.3591894495179334e-05 0 -0.024977714130342145 2.9883054499185873e-05 0 -0.024999972627444838 1.9340320277490926e-09 0 -0.024957976989019651 2.3591894495179334e-05 0 -0.024999972627444838 1.9340320277490926e-09 0 -0.024999936888178691 1.5704423465509587e-08 0 -0.024957976989019651 2.3591894495179334e-05 0 -0.025000009020114042 5.1173776261211875e-09 0 -0.024997178934843878 1.8276562739835591e-05 0 -0.024985592554762348 1.4936559527679854e-05 0 -0.024999991162205068 -9.4881320904303221e-09 0 -0.024967335293223984 4.2013715438462941e-05 0 -0.024997178934843878 1.8276562739835591e-05 0 -0.024985592554762348 1.4936559527679854e-05 0 -0.024980147177083332 3.344525428541895e-05 0 -0.025000009020114042 5.1173776261211875e-09 0 -0.024985592554762348 1.4936559527679854e-05 0 -0.024999971316176015 7.7989807423378712e-09 0 -0.024973189170658029 1.7362431837316127e-05 0 -0.024985592554762348 1.4936559527679854e-05 0 -0.024999971316176015 7.7989807423378712e-09 0 -0.024973189170658029 1.7362431837316127e-05 0 -0.024985592554762348 1.4936559527679854e-05 0 -0.024960390568692273 3.5424719331327256e-05 0 -0.024990905203875403 4.5301126315658602e-05 0 -0.024980147177083332 3.344525428541895e-05 0 -0.024966091125533465 5.7977324980583755e-05 0 -0.024960390568692273 3.5424719331327256e-05 0 -0.024980147177083332 3.344525428541895e-05 0 -0.024966091125533465 5.7977324980583755e-05 0 -0.024985592554762348 1.4936559527679854e-05 0 -0.024960390568692273 3.5424719331327256e-05 0 -0.024980147177083332 3.344525428541895e-05 0 -0.024917570897045174 6.8385081364802648e-05 0 -0.024960390568692273 3.5424719331327256e-05 0 -0.024966091125533465 5.7977324980583755e-05 0 -0.024545109466249822 0.00022860309383368008 0 -0.024097858741163426 0.00024813425759264882 0 -0.024102491924773508 0.00068687191243616127 0 -0.024097858741163426 0.00024813425759264882 0 -0.024102491924773508 0.00068687191243616127 0 -0.023583201074927989 0.00030231904974178518 0 -0.024097858741163426 0.00024813425759264882 0 -0.02364673539569161 -0.00016397547579521292 0 -0.024169097429508915 -0.00016386828941599671 0 -0.024545109466249822 0.00022860309383368008 0 -0.024684926827835026 -0.00010750299556196823 0 -0.024169097429508915 -0.00016386828941599671 0 -0.024545109466249822 0.00022860309383368008 0 -0.024097858741163426 0.00024813425759264882 0 -0.024169097429508915 -0.00016386828941599671 0 -0.024545109466249822 0.00022860309383368008 0 -0.02476261042126307 4.9026880647590724e-06 0 -0.024757010665927399 0.00015007375557908964 0 -0.024545109466249822 0.00022860309383368008 0 -0.02476261042126307 4.9026880647590724e-06 0 -0.024684926827835026 -0.00010750299556196823 0 -0.024811541267958773 6.6446804468240132e-05 0 -0.024807538976826107 1.5205635834092571e-06 0 -0.024825427773804257 5.1178885678627759e-05 0 -0.02476261042126307 4.9026880647590724e-06 0 -0.024757010665927399 0.00015007375557908964 0 -0.024811541267958773 6.6446804468240132e-05 0 -0.02476261042126307 4.9026880647590724e-06 0 -0.024811541267958773 6.6446804468240132e-05 0 -0.024807538976826107 1.5205635834092571e-06 0 -0.024757010665927399 0.00015007375557908964 0 -0.024811541267958773 6.6446804468240132e-05 0 -0.024821203970826437 0.00013693808616394173 0 -0.024811541267958773 6.6446804468240132e-05 0 -0.024821203970826437 0.00013693808616394173 0 -0.024828671358933758 0.00010305915833229144 0 -0.024826595900911599 0.00020784650580678543 0 -0.024932907659053097 0.00035333795199540531 0 -0.024704478431447671 0.00031695479647846824 0 -0.024821203970826437 0.00013693808616394173 0 -0.024822861956198799 0.00015328120304708594 0 -0.024828671358933758 0.00010305915833229144 0 -0.024821203970826437 0.00013693808616394173 0 -0.024822861956198799 0.00015328120304708594 0 -0.024826595900911599 0.00020784650580678543 0 -0.024757010665927399 0.00015007375557908964 0 -0.024826595900911599 0.00020784650580678543 0 -0.024704478431447671 0.00031695479647846824 0 -0.024757010665927399 0.00015007375557908964 0 -0.024821203970826437 0.00013693808616394173 0 -0.024826595900911599 0.00020784650580678543 0 -0.024640322053231509 0.00049003599145088785 0 -0.023678078747552435 0.000215164072678202 0 -0.024822861956198799 0.00015328120304708594 0 -0.024826595900911599 0.00020784650580678543 0 -0.024824077179717442 0.00011724373825213365 0 -0.023678078747552435 0.000215164072678202 0 -0.023808359836988098 0.00017036233250389255 0 -0.024822861956198799 0.00015328120304708594 0 -0.024824077179717442 0.00011724373825213365 0 -0.024817605145793675 0.0001180248664820403 0 -0.024822861956198799 0.00015328120304708594 0 -0.024817605145793675 0.0001180248664820403 0 -0.024813810079326867 0.00011773735663423858 0 -0.024545109466249822 0.00022860309383368008 0 -0.024757010665927399 0.00015007375557908964 0 -0.024704478431447671 0.00031695479647846824 0 -0.024545109466249822 0.00022860309383368008 0 -0.024704478431447671 0.00031695479647846824 0 -0.024635947962570081 0.00056492066514735029 0 -0.016738322082207404 0.0008721064718507838 0 -0.016506954324015631 0.00096382651366187864 0 -0.01670969512576537 0.0012579355010716208 0 -0.016738322082207404 0.0008721064718507838 0 -0.01670969512576537 0.0012579355010716208 0 -0.016892017045556783 0.00098857644147060369 0 -0.020494405620351857 0.00081258944443735113 0 -0.021135312214631559 0.00062883092380512651 0 -0.02144365774319296 0.00082930653973985646 0 -0.024932907659053097 0.00035333795199540531 0 -0.024704478431447671 0.00031695479647846824 0 -0.024635947962570081 0.00056492066514735029 0 -0.019941268370351088 0.00081845902549441702 0 -0.019443917470093795 0.00060351355121749013 0 -0.021167923601995393 0.00050042405504859108 0 -0.020494405620351857 0.00081258944443735113 0 -0.021135312214631559 0.00062883092380512651 0 -0.023678078747552435 0.000215164072678202 0 -0.019941268370351088 0.00081845902549441702 0 -0.021167923601995393 0.00050042405504859108 0 -0.021135312214631559 0.00062883092380512651 0 -0.02139771845263631 0.00075453239089133377 0 -0.016506954324015631 0.00096382651366187864 0 -0.01670969512576537 0.0012579355010716208 0 -0.016343527854365728 0.0012585931203628032 0 -0.01670969512576537 0.0012579355010716208 0 -0.016892017045556783 0.00098857644147060369 0 -0.016994966579641006 0.001116506255141478 0 -0.019941268370351088 0.00081845902549441702 0 -0.021303618665116427 0.00059934618722548268 0 -0.01860963566869964 0.00054287783568737801 0 -0.017766297161667371 0.00054753339568397333 0 -0.017883823825239453 0.00084487890642440415 0 -0.019941268370351088 0.00081845902549441702 0 -0.016938739061311419 0.0010732377959386937 0 -0.024545109466249822 0.00022860309383368008 0 -0.024635947962570081 0.00056492066514735029 0 -0.024102491924773508 0.00068687191243616127 0 -0.017766297161667371 0.00054753339568397333 0 -0.017883823825239453 0.00084487890642440415 0 -0.017543079144902832 0.00076222327245450126 0 -0.017089565705337612 0.00089931806923576141 0 -0.016994966579641006 0.001116506255141478 0 -0.017317540694847613 0.00092861902872620522 0 -0.016938739061311419 0.0010732377959386937 0 -0.017541255657152564 0.00087890325426365993 0 -0.017883823825239453 0.00084487890642440415 0 -0.017543079144902832 0.00076222327245450126 0 -0.017317540694847613 0.00092861902872620522 0 -0.017089565705337612 0.00089931806923576141 0 -0.016892017045556783 0.00098857644147060369 0 -0.016994966579641006 0.001116506255141478 0 -0.017543079144902832 0.00076222327245450126 0 -0.017317540694847613 0.00092861902872620522 0 -0.017289226016436662 0.00065504634841487687 0 -0.017317540694847613 0.00092861902872620522 0 -0.017240518669960174 0.00086289580535565502 0 -0.017289226016436662 0.00065504634841487687 0 -0.017240518669960174 0.00086289580535565502 0 -0.017289226016436662 0.00065504634841487687 0 -0.017148967338512261 0.00082894755055653115 0 -0.017766297161667371 0.00054753339568397333 0 -0.017543079144902832 0.00076222327245450126 0 -0.017289226016436662 0.00065504634841487687 0 -0.021303618665116427 0.00059934618722548268 0 -0.020307207964167979 0.00061196877173479939 0 -0.024102491924773508 0.00068687191243616127 0 -0.023338202717932761 0.00076619280978394103 0 -0.023583201074927989 0.00030231904974178518 0 -0.0154661242851726 0.0022551792108962271 0 -0.01549427551796388 0.0013597804432625776 0 -0.012624240541834766 0.0031712388660061347 0 -0.012219000461754403 0.0030552305794721013 0 -0.012087384615318504 0.0034493002780867726 0 -0.012412913493398153 0.0028215527515874183 0 -0.012624240541834766 0.0031712388660061347 0 -0.012219000461754403 0.0030552305794721013 0 -0.014630178814218594 0.0019274783332415273 0 -0.01549427551796388 0.0013597804432625776 0 -0.012219000461754403 0.0030552305794721013 0 -0.011893413835862014 0.0031230132793932546 0 -0.012087384615318504 0.0034493002780867726 0 -0.012077118107719871 0.0027013847820537553 0 -0.012219000461754403 0.0030552305794721013 0 -0.011893413835862014 0.0031230132793932546 0 -0.020307207964167979 0.00061196877173479939 0 -0.019444755145273281 0.0014196786238698435 0 -0.023338202717932761 0.00076619280978394103 0 -0.022459484950785601 0.00078628893676445486 0 -0.02264475973396932 0.00043419006426492578 0 -0.017289226016436662 0.00065504634841487687 0 -0.017148967338512261 0.00082894755055653115 0 -0.017116396389444139 0.00073993290650180093 0 -0.017289226016436662 0.00065504634841487687 0 -0.017116396389444139 0.00073993290650180093 0 -0.017100004927534759 0.00069666282198811984 0 -0.018503021088311481 0.0011243203033607409 0 -0.018031168324740356 0.0013769452965730555 0 -0.018416780914725182 0.0014125905599280163 0 -0.018684518060012138 0.0015707450540628366 0 -0.018142444953781416 0.001573251134779421 0 -0.018416780914725182 0.0014125905599280163 0 -0.01931228356516513 0.00151629520880747 0 -0.019444755145273281 0.0014196786238698435 0 -0.020058359679148319 0.0014556876045419818 0 -0.020178445078421033 0.0014553223729051191 0 -0.020141613051011507 0.0013740768580619404 0 -0.018031168324740356 0.0013769452965730555 0 -0.018142444953781416 0.001573251134779421 0 -0.018416780914725182 0.0014125905599280163 0 -0.01549427551796388 0.0013597804432625776 0 -0.019444755145273281 0.0014196786238698435 0 -0.02224600923018151 0.00037965643376592235 0 -0.02264475973396932 0.00043419006426492578 0 -0.022550050511438751 -0.00011692388958095265 0 -0.019444755145273281 0.0014196786238698435 0 -0.02116921668091009 0.00093127904672597012 0 -0.022459484950785601 0.00078628893676445486 0 -0.02224600923018151 0.00037965643376592235 0 -0.02264475973396932 0.00043419006426492578 0 -0.02264475973396932 0.00043419006426492578 0 -0.022550050511438751 -0.00011692388958095265 0 -0.023039070019528225 0.00034635133306632816 0 -0.023338202717932761 0.00076619280978394103 0 -0.02264475973396932 0.00043419006426492578 0 -0.023039070019528225 0.00034635133306632816 0 -0.023212703181885331 0.00023315123957462418 0 -0.023761655867208659 0.00012173932770312257 0 -0.022550050511438751 -0.00011692388958095265 0 -0.023039070019528225 0.00034635133306632816 0 -0.023073999321070619 -0.00019618495627986906 0 -0.023566545000495057 0.00063252219615643663 0 -0.024039437818651366 0.00055901129920274146 0 -0.023769081663319466 0.00029517973249988064 0 -0.02202413822171952 -3.3615966135127131e-05 0 -0.02224600923018151 0.00037965643376592235 0 -0.022550050511438751 -0.00011692388958095265 0 -0.021478495388004292 0.00082206443955262613 0 -0.023212703181885331 0.00023315123957462418 0 -0.02308856206360773 0.00070501311062968228 0 -0.023566545000495057 0.00063252219615643663 0 -0.023401888612326019 0.00010942945059285327 0 -0.021478495388004292 0.00082206443955262613 0 -0.02116921668091009 0.00093127904672597012 0 -0.023338202717932761 0.00076619280978394103 0 -0.023583201074927989 0.00030231904974178518 0 -0.023039070019528225 0.00034635133306632816 0 -0.023761655867208659 0.00012173932770312257 0 -0.024347971189388709 -0.00015145319827583503 0 -0.023028073654461897 0.00021453079824661171 0 -0.023761655867208659 0.00012173932770312257 0 -0.023583201074927989 0.00030231904974178518 0 -0.023039070019528225 0.00034635133306632816 0 -0.023102400512653342 -0.00011599297706591309 0 -0.023583201074927989 0.00030231904974178518 0 -0.023102400512653342 -0.00011599297706591309 0 -0.02364673539569161 -0.00016397547579521292 0 -0.024097858741163426 0.00024813425759264882 0 -0.023583201074927989 0.00030231904974178518 0 -0.02364673539569161 -0.00016397547579521292 0 -0.024943169664296348 -0.00010612149393529433 0 -0.024935582235963729 -5.4271264811366577e-05 0 -0.024885202774763939 -0.0001249972977287226 0 -0.024943169664296348 -0.00010612149393529433 0 -0.024982660975273355 -4.9563481299253781e-05 0 -0.024935582235963729 -5.4271264811366577e-05 0 -0.024976862082082867 -0.00010591315561217557 0 -0.024943169664296348 -0.00010612149393529433 0 -0.024982660975273355 -4.9563481299253781e-05 0 -0.023761655867208659 0.00012173932770312257 0 -0.024597356557903183 -9.0235825345912375e-05 0 -0.024982660975273355 -4.9563481299253781e-05 0 -0.024935582235963729 -5.4271264811366577e-05 0 -0.024953475568868653 -1.507949277653152e-05 0 -0.024935582235963729 -5.4271264811366577e-05 0 -0.024953475568868653 -1.507949277653152e-05 0 -0.024920118209351836 -1.5535384354024569e-05 0 -0.023566545000495057 0.00063252219615643663 0 -0.023401888612326019 0.00010942945059285327 0 -0.023769081663319466 0.00029517973249988064 0 -0.024039437818651366 0.00055901129920274146 0 -0.024084386598433809 -9.9376826161263999e-05 0 -0.023769081663319466 0.00029517973249988064 0 -0.024084386598433809 -9.9376826161263999e-05 0 -0.023401888612326019 0.00010942945059285327 0 -0.023769081663319466 0.00029517973249988064 0 -0.024084386598433809 -9.9376826161263999e-05 0 -0.023401888612326019 0.00010942945059285327 0 -0.023398457588634812 -0.00044020901913018382 0 -0.024982073866986212 7.9697941332795905e-06 0 -0.024990451962262891 1.2636413651097244e-05 0 -0.025000007590339567 6.2913543183431423e-10 0 -0.024373216984074332 -0.00029464750641206244 0 -0.024662198889455315 -0.0002206953408827061 0 -0.024084386598433809 -9.9376826161263999e-05 0 -0.023398457588634812 -0.00044020901913018382 0 -0.024129680911487799 -0.00075571514105950469 0 -0.024990451962262891 1.2636413651097244e-05 0 -0.025000007590339567 6.2913543183431423e-10 0 -0.024999700182096157 3.2466478067700651e-06 0 -0.025000007590339567 6.2913543183431423e-10 0 -0.024999700182096157 3.2466478067700651e-06 0 -0.024999997797684696 2.2914506055038945e-09 0 -0.024953475568868653 -1.507949277653152e-05 0 -0.024976439554660692 -5.9939166360769082e-06 0 -0.024954427444414801 -1.2657805407296945e-07 0 -0.024953475568868653 -1.507949277653152e-05 0 -0.024954427444414801 -1.2657805407296945e-07 0 -0.024954586362148583 1.10252914666325e-06 0 -0.024982660975273355 -4.9563481299253781e-05 0 -0.024953475568868653 -1.507949277653152e-05 0 -0.024976439554660692 -5.9939166360769082e-06 0 -0.024597356557903183 -9.0235825345912375e-05 0 -0.024662198889455315 -0.0002206953408827061 0 -0.024662198889455315 -0.0002206953408827061 0 -0.024999973532684294 1.6173218393010349e-07 0 -0.024998254989973521 -1.9352130236139321e-06 0 -0.02499999776676198 -2.2753185853192199e-09 0 -0.024999618233273128 -3.9425935976674649e-07 0 -0.024662198889455315 -0.0002206953408827061 0 -0.025021550718970626 6.6555550136895736e-07 0 -0.02499999776676198 -2.2753185853192199e-09 0 -0.02499999924676052 -1.0490403638791194e-10 0 -0.024999618233273128 -3.9425935976674649e-07 0 -0.02499999924676052 -1.0490403638791194e-10 0 -0.024999618233273128 -3.9425935976674649e-07 0 -0.025000000207024024 8.2235258399425389e-11 0 -0.024954427444414801 -1.2657805407296945e-07 0 -0.024954586362148583 1.10252914666325e-06 0 -0.024999809100330669 4.0809728163641991e-09 0 -0.024954586362148583 1.10252914666325e-06 0 -0.024999809100330669 4.0809728163641991e-09 0 -0.024931303325555019 1.8115939532204966e-06 0 -0.025021550718970626 6.6555550136895736e-07 0 -0.024999946227115846 1.4596639624657256e-08 0 -0.024999809100330669 4.0809728163641991e-09 0 -0.024931303325555019 1.8115939532204966e-06 0 -0.02499989675406393 -9.0662926624875682e-09 0 -0.024931303325555019 1.8115939532204966e-06 0 -0.024920118209351836 -1.5535384354024569e-05 0 -0.024847704755795487 -2.4939132430464503e-05 0 -0.024931303325555019 1.8115939532204966e-06 0 -0.024847704755795487 -2.4939132430464503e-05 0 -0.024900567664831591 2.0708249454188052e-06 0 -0.024954586362148583 1.10252914666325e-06 0 -0.024931303325555019 1.8115939532204966e-06 0 -0.024920118209351836 -1.5535384354024569e-05 0 -0.024953475568868653 -1.507949277653152e-05 0 -0.024954586362148583 1.10252914666325e-06 0 -0.024920118209351836 -1.5535384354024569e-05 0 -0.024935582235963729 -5.4271264811366577e-05 0 -0.024920118209351836 -1.5535384354024569e-05 0 -0.024869911144775814 -5.2053481960085114e-05 0 -0.024869911144775814 -5.2053481960085114e-05 0 -0.024847704755795487 -2.4939132430464503e-05 0 -0.024684926827835026 -0.00010750299556196823 0 -0.024920118209351836 -1.5535384354024569e-05 0 -0.024869911144775814 -5.2053481960085114e-05 0 -0.024847704755795487 -2.4939132430464503e-05 0 -0.024665708257744244 -0.00012138885344133336 0 -0.024507171072714658 -0.00013547603174284274 0 -0.024869911144775814 -5.2053481960085114e-05 0 -0.024684926827835026 -0.00010750299556196823 0 -0.024885202774763939 -0.0001249972977287226 0 -0.024935582235963729 -5.4271264811366577e-05 0 -0.024869911144775814 -5.2053481960085114e-05 0 -0.024885202774763939 -0.0001249972977287226 0 -0.024347971189388709 -0.00015145319827583503 0 -0.024507171072714658 -0.00013547603174284274 0 -0.024807538976826107 1.5205635834092571e-06 0 -0.024804814687441463 -4.622446641900781e-05 0 -0.024814778926382702 -9.1701155166441224e-06 0 -0.02476261042126307 4.9026880647590724e-06 0 -0.024807538976826107 1.5205635834092571e-06 0 -0.024804814687441463 -4.622446641900781e-05 0 -0.02476261042126307 4.9026880647590724e-06 0 -0.024684926827835026 -0.00010750299556196823 0 -0.024804814687441463 -4.622446641900781e-05 0 -0.024847704755795487 -2.4939132430464503e-05 0 -0.024804814687441463 -4.622446641900781e-05 0 -0.024900567664831591 2.0708249454188052e-06 0 -0.024847704755795487 -2.4939132430464503e-05 0 -0.024684926827835026 -0.00010750299556196823 0 -0.024804814687441463 -4.622446641900781e-05 0 -0.024804814687441463 -4.622446641900781e-05 0 -0.024811081429560077 -1.2580504948826121e-05 0 -0.024814778926382702 -9.1701155166441224e-06 0 -0.024804814687441463 -4.622446641900781e-05 0 -0.024900567664831591 2.0708249454188052e-06 0 -0.024811081429560077 -1.2580504948826121e-05 0 -0.024900158738725909 1.6145507922570948e-06 0 -0.024902341627009255 -8.6306132715133477e-07 0 -0.024900567664831591 2.0708249454188052e-06 0 -0.024973105717144835 -6.1560406835615196e-06 0 -0.024995339926423728 1.2485720811093439e-05 0 -0.024931303325555019 1.8115939532204966e-06 0 -0.024900567664831591 2.0708249454188052e-06 0 -0.02499989675406393 -9.0662926624875682e-09 0 -0.024900567664831591 2.0708249454188052e-06 0 -0.02499989675406393 -9.0662926624875682e-09 0 -0.024973105717144835 -6.1560406835615196e-06 0 -0.02499989675406393 -9.0662926624875682e-09 0 -0.024973105717144835 -6.1560406835615196e-06 0 -0.024999990670456943 -1.430914466475556e-08 0 -0.024973105717144835 -6.1560406835615196e-06 0 -0.024999990670456943 -1.430914466475556e-08 0 -0.024995339926423728 1.2485720811093439e-05 0 -0.024999990670456943 -1.430914466475556e-08 0 -0.024996382739141645 3.6766553608420627e-06 0 -0.024995339926423728 1.2485720811093439e-05 0 -0.024996382739141645 3.6766553608420627e-06 0 -0.024989765628745986 3.8620449189982734e-06 0 -0.024991327438101285 5.4372058492444373e-06 0 -0.024999990670456943 -1.430914466475556e-08 0 -0.024996382739141645 3.6766553608420627e-06 0 -0.024999965427831953 1.8240324882324324e-08 0 -0.024902341627009255 -8.6306132715133477e-07 0 -0.024912904631622473 -3.0905228504206154e-06 0 -0.024989765628745986 3.8620449189982734e-06 0 -0.024995339926423728 1.2485720811093439e-05 0 -0.024985585117867731 -7.7771202836349355e-06 0 -0.024996382739141645 3.6766553608420627e-06 0 -0.024989765628745986 3.8620449189982734e-06 0 -0.024995339926423728 1.2485720811093439e-05 0 -0.024991327438101285 5.4372058492444373e-06 0 -0.02499581585606335 5.2370016883545978e-06 0 -0.025000004997181642 -3.1348854304242177e-09 0 -0.024999965427831953 1.8240324882324324e-08 0 -0.024991327438101285 5.4372058492444373e-06 0 -0.025000004997181642 -3.1348854304242177e-09 0 -0.024982211898392226 2.9982934380532435e-06 0 -0.024980701601210121 4.0307129643172776e-06 0 -0.024996382739141645 3.6766553608420627e-06 0 -0.024999965427831953 1.8240324882324324e-08 0 -0.024991327438101285 5.4372058492444373e-06 0 -0.024989765628745986 3.8620449189982734e-06 0 -0.024991327438101285 5.4372058492444373e-06 0 -0.024963699596503755 1.9617481528099388e-06 0 -0.024989765628745986 3.8620449189982734e-06 0 -0.024963699596503755 1.9617481528099388e-06 0 -0.024985585117867731 -7.7771202836349355e-06 0 -0.024991327438101285 5.4372058492444373e-06 0 -0.024963699596503755 1.9617481528099388e-06 0 -0.024939811693376484 -1.5385865285118857e-06 0 -0.024963699596503755 1.9617481528099388e-06 0 -0.024939811693376484 -1.5385865285118857e-06 0 -0.024916704125215305 7.3172539011050844e-06 0 -0.024939811693376484 -1.5385865285118857e-06 0 -0.024916704125215305 7.3172539011050844e-06 0 -0.024973541128166969 -1.9923977032555274e-06 0 -0.024916704125215305 7.3172539011050844e-06 0 -0.024871828482532977 4.5208275767444841e-05 0 -0.024973541128166969 -1.9923977032555274e-06 0 -0.024870191038407635 4.9973644031776372e-05 0 -0.024904931669667507 2.5915857719173333e-05 0 -0.024871828482532977 4.5208275767444841e-05 0 -0.024831180406922504 5.1929312353233268e-05 0 -0.024822330416850381 7.92976904417916e-05 0 -0.024916704125215305 7.3172539011050844e-06 0 -0.024852881574461215 2.5750558258560208e-05 0 -0.024840658248706775 -2.582236851081319e-06 0 -0.024916704125215305 7.3172539011050844e-06 0 -0.024852881574461215 2.5750558258560208e-05 0 -0.024871828482532977 4.5208275767444841e-05 0 -0.024919285256615849 5.2265551369602287e-06 0 -0.024912904631622473 -3.0905228504206154e-06 0 -0.024963699596503755 1.9617481528099388e-06 0 -0.024916704125215305 7.3172539011050844e-06 0 -0.024985585117867731 -7.7771202836349355e-06 0 -0.024852881574461215 2.5750558258560208e-05 0 -0.024871828482532977 4.5208275767444841e-05 0 -0.024844353860082966 4.3886070078513094e-05 0 -0.024851552442843317 5.0516112109140671e-05 0 -0.024871828482532977 4.5208275767444841e-05 0 -0.024844353860082966 4.3886070078513094e-05 0 -0.024851552442843317 5.0516112109140671e-05 0 -0.024871828482532977 4.5208275767444841e-05 0 -0.024842466878354567 4.9813757826235466e-05 0 -0.024871828482532977 4.5208275767444841e-05 0 -0.024842466878354567 4.9813757826235466e-05 0 -0.024831180406922504 5.1929312353233268e-05 0 -0.024811081429560077 -1.2580504948826121e-05 0 -0.024814778926382702 -9.1701155166441224e-06 0 -0.024829491071641802 1.2895518981993117e-05 0 -0.024811081429560077 -1.2580504948826121e-05 0 -0.024840658248706775 -2.582236851081319e-06 0 -0.024829491071641802 1.2895518981993117e-05 0 -0.024852881574461215 2.5750558258560208e-05 0 -0.024840658248706775 -2.582236851081319e-06 0 -0.024829491071641802 1.2895518981993117e-05 0 -0.024829491071641802 1.2895518981993117e-05 0 -0.024844353860082966 4.3886070078513094e-05 0 -0.024833277655631539 4.6248733731879143e-05 0 -0.024852881574461215 2.5750558258560208e-05 0 -0.024829491071641802 1.2895518981993117e-05 0 -0.024844353860082966 4.3886070078513094e-05 0 -0.024833277655631539 4.6248733731879143e-05 0 -0.024823942584783765 1.9675033075076963e-05 0 -0.024825427773804257 5.1178885678627759e-05 0 -0.024814778926382702 -9.1701155166441224e-06 0 -0.024829491071641802 1.2895518981993117e-05 0 -0.024823942584783765 1.9675033075076963e-05 0 -0.024829491071641802 1.2895518981993117e-05 0 -0.024833277655631539 4.6248733731879143e-05 0 -0.024823942584783765 1.9675033075076963e-05 0 -0.024807538976826107 1.5205635834092571e-06 0 -0.024814778926382702 -9.1701155166441224e-06 0 -0.024823942584783765 1.9675033075076963e-05 0 -0.024807538976826107 1.5205635834092571e-06 0 -0.024823942584783765 1.9675033075076963e-05 0 -0.024825427773804257 5.1178885678627759e-05 0 -0.024811541267958773 6.6446804468240132e-05 0 -0.024825427773804257 5.1178885678627759e-05 0 -0.024828671358933758 0.00010305915833229144 0 -0.024833277655631539 4.6248733731879143e-05 0 -0.024825427773804257 5.1178885678627759e-05 0 -0.024831664053040641 7.52805458261214e-05 0 -0.024831664053040641 7.52805458261214e-05 0 -0.024828671358933758 0.00010305915833229144 0 -0.024822004279275979 8.7780477475004091e-05 0 -0.024825427773804257 5.1178885678627759e-05 0 -0.024831664053040641 7.52805458261214e-05 0 -0.024828671358933758 0.00010305915833229144 0 -0.024822861956198799 0.00015328120304708594 0 -0.024828671358933758 0.00010305915833229144 0 -0.024818593119864975 0.00011207128945412891 0 -0.024828671358933758 0.00010305915833229144 0 -0.024818593119864975 0.00011207128945412891 0 -0.024822004279275979 8.7780477475004091e-05 0 -0.024818593119864975 0.00011207128945412891 0 -0.024810765992253164 9.9795469909865186e-05 0 -0.024822004279275979 8.7780477475004091e-05 0 -0.024810765992253164 9.9795469909865186e-05 0 -0.024813810079326867 0.00011773735663423858 0 -0.024808902467218071 0.00010677567143600168 0 -0.024822861956198799 0.00015328120304708594 0 -0.024818593119864975 0.00011207128945412891 0 -0.024813810079326867 0.00011773735663423858 0 -0.024817605145793675 0.0001180248664820403 0 -0.024813810079326867 0.00011773735663423858 0 -0.024808902467218071 0.00010677567143600168 0 -0.024818593119864975 0.00011207128945412891 0 -0.024810765992253164 9.9795469909865186e-05 0 -0.024813810079326867 0.00011773735663423858 0 -0.024822004279275979 8.7780477475004091e-05 0 -0.024824778327609029 6.9363572832928762e-05 0 -0.024810959870031925 7.4012265453783597e-05 0 -0.024822004279275979 8.7780477475004091e-05 0 -0.024834243756382424 6.8253644468559829e-05 0 -0.024824778327609029 6.9363572832928762e-05 0 -0.024810765992253164 9.9795469909865186e-05 0 -0.024822004279275979 8.7780477475004091e-05 0 -0.024810959870031925 7.4012265453783597e-05 0 -0.024844353860082966 4.3886070078513094e-05 0 -0.024834243756382424 6.8253644468559829e-05 0 -0.024839204374594324 6.0592419483271902e-05 0 -0.024844353860082966 4.3886070078513094e-05 0 -0.024833277655631539 4.6248733731879143e-05 0 -0.024834243756382424 6.8253644468559829e-05 0 -0.024831664053040641 7.52805458261214e-05 0 -0.024822004279275979 8.7780477475004091e-05 0 -0.024834243756382424 6.8253644468559829e-05 0 -0.024833277655631539 4.6248733731879143e-05 0 -0.024831664053040641 7.52805458261214e-05 0 -0.024834243756382424 6.8253644468559829e-05 0 -0.024851552442843317 5.0516112109140671e-05 0 -0.024844353860082966 4.3886070078513094e-05 0 -0.024839204374594324 6.0592419483271902e-05 0 -0.024839204374594324 6.0592419483271902e-05 0 -0.024842466878354567 4.9813757826235466e-05 0 -0.024823702318315908 5.5579436022133991e-05 0 -0.024851552442843317 5.0516112109140671e-05 0 -0.024839204374594324 6.0592419483271902e-05 0 -0.024842466878354567 4.9813757826235466e-05 0 -0.024834243756382424 6.8253644468559829e-05 0 -0.024839204374594324 6.0592419483271902e-05 0 -0.024824778327609029 6.9363572832928762e-05 0 -0.024842466878354567 4.9813757826235466e-05 0 -0.024823702318315908 5.5579436022133991e-05 0 -0.024817918250502197 4.8041127680843738e-05 0 -0.024842466878354567 4.9813757826235466e-05 0 -0.024817918250502197 4.8041127680843738e-05 0 -0.024831180406922504 5.1929312353233268e-05 0 -0.024823702318315908 5.5579436022133991e-05 0 -0.024824778327609029 6.9363572832928762e-05 0 -0.024802510542297859 4.8788977000849439e-05 0 -0.024823702318315908 5.5579436022133991e-05 0 -0.024802510542297859 4.8788977000849439e-05 0 -0.024803001137589951 4.5897905600443056e-05 0 -0.024839204374594324 6.0592419483271902e-05 0 -0.024823702318315908 5.5579436022133991e-05 0 -0.024824778327609029 6.9363572832928762e-05 0 -0.021590766349205755 0.00039927328372238923 0 -0.020796467538548458 0.00039326784379859956 0 -0.021198597056788664 0.00015812542313040277 0 -0.024824778327609029 6.9363572832928762e-05 0 -0.024810959870031925 7.4012265453783597e-05 0 -0.024802510542297859 4.8788977000849439e-05 0 -0.023589270269829637 0.0002135483626984847 0 -0.02268951016039673 0.00022057692806759676 0 -0.021590766349205755 0.00039927328372238923 0 -0.021198597056788664 0.00015812542313040277 0 -0.021645734515354276 7.4362898350857358e-05 0 -0.020796467538548458 0.00039326784379859956 0 -0.020913589816533358 -0.00031361451730954783 0 -0.021198597056788664 0.00015812542313040277 0 -0.020796467538548458 0.00039326784379859956 0 -0.020913589816533358 -0.00031361451730954783 0 -0.02035862314107206 -0.00010655923415336401 0 -0.017741929942923118 0.0003956771883998737 0 -0.018591544477208347 0.00081889430362580594 0 -0.018453663647478035 -1.6882908738004065e-05 0 -0.020913589816533358 -0.00031361451730954783 0 -0.021198597056788664 0.00015812542313040277 0 -0.021645734515354276 7.4362898350857358e-05 0 -0.019433095391552618 6.2587933256073931e-05 0 -0.019956312883450348 0.0004296521811975879 0 -0.018591544477208347 0.00081889430362580594 0 -0.019020743316965509 0.00060916391558578039 0 -0.019471366002764071 0.0012541252689682535 0 -0.018591544477208347 0.00081889430362580594 0 -0.019020743316965509 0.00060916391558578039 0 -0.018453663647478035 -1.6882908738004065e-05 0 -0.016129807522083917 0.0010647839171366402 0 -0.016304207761819432 0.0010088379399671387 0 -0.016142974966367237 0.00093097902891054059 0 -0.016129807522083917 0.0010647839171366402 0 -0.016304207761819432 0.0010088379399671387 0 -0.016343527854365728 0.0012585931203628032 0 -0.016506954324015631 0.00096382651366187864 0 -0.016304207761819432 0.0010088379399671387 0 -0.016343527854365728 0.0012585931203628032 0 -0.017413724800964914 0.0008040209129558508 0 -0.019443917470093795 0.00060351355121749013 0 -0.019020743316965509 0.00060916391558578039 0 -0.019471366002764071 0.0012541252689682535 0 -0.019597832507134341 0.0012571497056356349 0 -0.02171928410272933 0.00060647894595986115 0 -0.019443917470093795 0.00060351355121749013 0 -0.021135312214631559 0.00062883092380512651 0 -0.02144365774319296 0.00082930653973985646 0 -0.02137260398459867 0.00074674924224488518 0 -0.024817605145793675 0.0001180248664820403 0 -0.024804383125453851 0.00010024778497387943 0 -0.024808902467218071 0.00010677567143600168 0 -0.024819396492149298 0.00011677426668828942 0 -0.024817605145793675 0.0001180248664820403 0 -0.024804383125453851 0.00010024778497387943 0 -0.024800112736756818 9.8002932570040587e-05 0 -0.024804383125453851 0.00010024778497387943 0 -0.024808902467218071 0.00010677567143600168 0 -0.021218235887105828 0.00069507300369997104 0 -0.021470420172911987 0.00084302064710570983 0 -0.02171928410272933 0.00060647894595986115 0 -0.021470420172911987 0.00084302064710570983 0 -0.020741802077258443 0.00032822293590515392 0 -0.020873048333736002 0.00033555198286635006 0 -0.020966512400642942 0.00044992118406744964 0 -0.019443917470093795 0.00060351355121749013 0 -0.021470420172911987 0.00084302064710570983 0 -0.023678078747552435 0.000215164072678202 0 -0.021470420172911987 0.00084302064710570983 0 -0.024810765992253164 9.9795469909865186e-05 0 -0.024800112736756818 9.8002932570040587e-05 0 -0.024808902467218071 0.00010677567143600168 0 -0.024810765992253164 9.9795469909865186e-05 0 -0.024810959870031925 7.4012265453783597e-05 0 -0.024800112736756818 9.8002932570040587e-05 0 -0.019956312883450348 0.0004296521811975879 0 -0.02171928410272933 0.00060647894595986115 0 -0.023589270269829637 0.0002135483626984847 0 -0.02171928410272933 0.00060647894595986115 0 -0.021590766349205755 0.00039927328372238923 0 -0.021645734515354276 7.4362898350857358e-05 0 -0.022316493654304811 0.00042557989986665682 0 -0.024751944804996508 2.3105149916624281e-05 0 -0.024779300027870745 3.2137293188917826e-05 0 -0.024773160836781591 3.2194810677678433e-05 0 -0.021335543706754299 8.7099130517116782e-05 0 -0.024005347473204958 0.00031913964009966448 0 -0.024755207943800102 2.3766590675699066e-05 0 -0.024768050830392633 2.3215305768308646e-05 0 -0.024773160836781591 3.2194810677678433e-05 0 -0.024768050830392633 2.3215305768308646e-05 0 -0.024775536645692008 1.9438503311396208e-05 0 -0.024750280025236066 1.3683190684816511e-05 0 -0.021335543706754299 8.7099130517116782e-05 0 -0.020757280129137735 -0.00017327597428368311 0 -0.017128825701235868 -0.0002636584207388679 0 -0.017011020782415096 -0.00034346383147041608 0 -0.016926801639104618 -0.00030657331078418493 0 -0.024755207943800102 2.3766590675699066e-05 0 -0.024768050830392633 2.3215305768308646e-05 0 -0.024750280025236066 1.3683190684816511e-05 0 -0.017011020782415096 -0.00034346383147041608 0 -0.017056435210415576 -0.00040582751587374513 0 -0.016939439907555857 -0.0004063370075927739 0 -0.017011020782415096 -0.00034346383147041608 0 -0.016926801639104618 -0.00030657331078418493 0 -0.016939439907555857 -0.0004063370075927739 0 -0.017128825701235868 -0.0002636584207388679 0 -0.017011020782415096 -0.00034346383147041608 0 -0.017056435210415576 -0.00040582751587374513 0 -0.019088162208087865 0.00036570131595756178 0 -0.01950696810114887 -0.00020754522039849755 0 -0.018893185402922674 -0.00042694522786590499 0 -0.021335543706754299 8.7099130517116782e-05 0 -0.017806254804411868 -0.00052342504871068186 0 -0.019088162208087865 0.00036570131595756178 0 -0.01950696810114887 -0.00020754522039849755 0 -0.019953868101591336 0.00038373222445281329 0 -0.01950696810114887 -0.00020754522039849755 0 -0.019966634480535334 -0.00027814706891810285 0 -0.019953868101591336 0.00038373222445281329 0 -0.01950696810114887 -0.00020754522039849755 0 -0.019966634480535334 -0.00027814706891810285 0 -0.019767648086791642 -0.00061065693296826753 0 -0.019966634480535334 -0.00027814706891810285 0 -0.02035862314107206 -0.00010655923415336401 0 -0.019953868101591336 0.00038373222445281329 0 -0.019966634480535334 -0.00027814706891810285 0 -0.02035862314107206 -0.00010655923415336401 0 -0.020134146035144636 -0.00071673373765720571 0 -0.024802510542297859 4.8788977000849439e-05 0 -0.024779300027870745 3.2137293188917826e-05 0 -0.024803001137589951 4.5897905600443056e-05 0 -0.024779300027870745 3.2137293188917826e-05 0 -0.024787703261187892 3.9280922288284945e-05 0 -0.024803001137589951 4.5897905600443056e-05 0 -0.02268951016039673 0.00022057692806759676 0 -0.022504902709254596 0.00021968341544851267 0 -0.020796467538548458 0.00039326784379859956 0 -0.02035862314107206 -0.00010655923415336401 0 -0.019953868101591336 0.00038373222445281329 0 -0.024779300027870745 3.2137293188917826e-05 0 -0.024787703261187892 3.9280922288284945e-05 0 -0.024773160836781591 3.2194810677678433e-05 0 -0.021335543706754299 8.7099130517116782e-05 0 -0.022504902709254596 0.00021968341544851267 0 -0.024787703261187892 3.9280922288284945e-05 0 -0.024801362446237617 4.4121206353168873e-05 0 -0.024795245929335213 3.85299215230745e-05 0 -0.024787703261187892 3.9280922288284945e-05 0 -0.024803001137589951 4.5897905600443056e-05 0 -0.024801362446237617 4.4121206353168873e-05 0 -0.024803001137589951 4.5897905600443056e-05 0 -0.024817918250502197 4.8041127680843738e-05 0 -0.024801362446237617 4.4121206353168873e-05 0 -0.024823702318315908 5.5579436022133991e-05 0 -0.024803001137589951 4.5897905600443056e-05 0 -0.024817918250502197 4.8041127680843738e-05 0 -0.024817918250502197 4.8041127680843738e-05 0 -0.024801362446237617 4.4121206353168873e-05 0 -0.024810943147152348 4.7458057945073875e-05 0 -0.024801362446237617 4.4121206353168873e-05 0 -0.024805120818684693 4.5705526279813556e-05 0 -0.024795245929335213 3.85299215230745e-05 0 -0.024801362446237617 4.4121206353168873e-05 0 -0.024810943147152348 4.7458057945073875e-05 0 -0.024805120818684693 4.5705526279813556e-05 0 -0.024805120818684693 4.5705526279813556e-05 0 -0.024821621465432542 4.0091166595427123e-05 0 -0.024795245929335213 3.85299215230745e-05 0 -0.024821621465432542 4.0091166595427123e-05 0 -0.024795245929335213 3.85299215230745e-05 0 -0.024809277795426753 3.4610647901268161e-05 0 -0.024787703261187892 3.9280922288284945e-05 0 -0.024795245929335213 3.85299215230745e-05 0 -0.024773160836781591 3.2194810677678433e-05 0 -0.024795245929335213 3.85299215230745e-05 0 -0.024773160836781591 3.2194810677678433e-05 0 -0.02478768061861631 2.8283786643673215e-05 0 -0.024768050830392633 2.3215305768308646e-05 0 -0.02478768061861631 2.8283786643673215e-05 0 -0.024775536645692008 1.9438503311396208e-05 0 -0.024768050830392633 2.3215305768308646e-05 0 -0.024773160836781591 3.2194810677678433e-05 0 -0.02478768061861631 2.8283786643673215e-05 0 -0.02478768061861631 2.8283786643673215e-05 0 -0.024775536645692008 1.9438503311396208e-05 0 -0.024798165872673261 2.3489096181473672e-05 0 -0.02478768061861631 2.8283786643673215e-05 0 -0.024809277795426753 3.4610647901268161e-05 0 -0.024798165872673261 2.3489096181473672e-05 0 -0.024795245929335213 3.85299215230745e-05 0 -0.02478768061861631 2.8283786643673215e-05 0 -0.024809277795426753 3.4610647901268161e-05 0 -0.024821621465432542 4.0091166595427123e-05 0 -0.024809277795426753 3.4610647901268161e-05 0 -0.024830117613654352 4.107685403598131e-05 0 -0.024809277795426753 3.4610647901268161e-05 0 -0.024830117613654352 4.107685403598131e-05 0 -0.024798165872673261 2.3489096181473672e-05 0 -0.024830117613654352 4.107685403598131e-05 0 -0.024849453411505122 4.3213881564870604e-05 0 -0.024936729285835599 4.3596498292385009e-05 0 -0.024821621465432542 4.0091166595427123e-05 0 -0.024830117613654352 4.107685403598131e-05 0 -0.024849453411505122 4.3213881564870604e-05 0 -0.024826920179575562 4.3989894607283586e-05 0 -0.024815886086925004 4.771532350460822e-05 0 -0.024805120818684693 4.5705526279813556e-05 0 -0.024821621465432542 4.0091166595427123e-05 0 -0.024802730131225675 5.2788030402051485e-05 0 -0.024821621465432542 4.0091166595427123e-05 0 -0.024849453411505122 4.3213881564870604e-05 0 -0.024849354064098498 4.3028872000260562e-05 0 -0.024849453411505122 4.3213881564870604e-05 0 -0.024857747792439485 3.5405424972201273e-05 0 -0.024886573715684493 3.2629245527447009e-05 0 -0.024857747792439485 3.5405424972201273e-05 0 -0.024886573715684493 3.2629245527447009e-05 0 -0.024882757371485764 2.1301947553862798e-05 0 -0.024849453411505122 4.3213881564870604e-05 0 -0.024857747792439485 3.5405424972201273e-05 0 -0.024849354064098498 4.3028872000260562e-05 0 -0.024849453411505122 4.3213881564870604e-05 0 -0.024886573715684493 3.2629245527447009e-05 0 -0.024936729285835599 4.3596498292385009e-05 0 -0.024886573715684493 3.2629245527447009e-05 0 -0.024934263424986277 1.4750557666190459e-05 0 -0.024936729285835599 4.3596498292385009e-05 0 -0.024810943147152348 4.7458057945073875e-05 0 -0.024831180406922504 5.1929312353233268e-05 0 -0.024802730131225675 5.2788030402051485e-05 0 -0.024817918250502197 4.8041127680843738e-05 0 -0.024810943147152348 4.7458057945073875e-05 0 -0.024831180406922504 5.1929312353233268e-05 0 -0.024810943147152348 4.7458057945073875e-05 0 -0.024805120818684693 4.5705526279813556e-05 0 -0.024802730131225675 5.2788030402051485e-05 0 -0.024857747792439485 3.5405424972201273e-05 0 -0.02483281826042676 3.1222420591341127e-05 0 -0.02485053873787103 1.7541962402222403e-05 0 -0.024857747792439485 3.5405424972201273e-05 0 -0.024849354064098498 4.3028872000260562e-05 0 -0.02483281826042676 3.1222420591341127e-05 0 -0.024815886086925004 4.771532350460822e-05 0 -0.024904931669667507 2.5915857719173333e-05 0 -0.024831180406922504 5.1929312353233268e-05 0 -0.024802730131225675 5.2788030402051485e-05 0 -0.024822330416850381 7.92976904417916e-05 0 -0.02499581585606335 5.2370016883545978e-06 0 -0.024997983444253049 5.4659051441089899e-06 0 -0.024998944794194816 2.8547025629415518e-06 0 -0.024997983444253049 5.4659051441089899e-06 0 -0.024998944794194816 2.8547025629415518e-06 0 -0.024999873082391901 2.6617441203879578e-06 0 -0.024980701601210121 4.0307129643172776e-06 0 -0.024904931669667507 2.5915857719173333e-05 0 -0.024998944794194816 2.8547025629415518e-06 0 -0.024999873082391901 2.6617441203879578e-06 0 -0.024999893958262596 1.1851867125266709e-06 0 -0.024904931669667507 2.5915857719173333e-05 0 -0.024928118766812061 8.5483313915320934e-06 0 -0.024999893958262596 1.1851867125266709e-06 0 -0.025000004997181642 -3.1348854304242177e-09 0 -0.024999998773995984 2.8161142725773197e-09 0 -0.024998944794194816 2.8547025629415518e-06 0 -0.024999893958262596 1.1851867125266709e-06 0 -0.025000004997181642 -3.1348854304242177e-09 0 -0.02499581585606335 5.2370016883545978e-06 0 -0.024998944794194816 2.8547025629415518e-06 0 -0.025000004997181642 -3.1348854304242177e-09 0 -0.024934263424986277 1.4750557666190459e-05 0 -0.024882757371485764 2.1301947553862798e-05 0 -0.024898564515885954 -4.6987547111880349e-06 0 -0.024886573715684493 3.2629245527447009e-05 0 -0.024934263424986277 1.4750557666190459e-05 0 -0.024882757371485764 2.1301947553862798e-05 0 -0.024857747792439485 3.5405424972201273e-05 0 -0.02485053873787103 1.7541962402222403e-05 0 -0.024882757371485764 2.1301947553862798e-05 0 -0.024928118766812061 8.5483313915320934e-06 0 -0.024948644617104741 1.9487328655716449e-06 0 -0.02485053873787103 1.7541962402222403e-05 0 -0.024882757371485764 2.1301947553862798e-05 0 -0.024898564515885954 -4.6987547111880349e-06 0 -0.024999873082391901 2.6617441203879578e-06 0 -0.024999893958262596 1.1851867125266709e-06 0 -0.02500012333614883 5.6810656013574824e-07 0 -0.024999893958262596 1.1851867125266709e-06 0 -0.024999998773995984 2.8161142725773197e-09 0 -0.02500012333614883 5.6810656013574824e-07 0 -0.024948644617104741 1.9487328655716449e-06 0 -0.024999975063172839 -8.6727398655665756e-10 0 -0.024934263424986277 1.4750557666190459e-05 0 -0.024898564515885954 -4.6987547111880349e-06 0 -0.024999823259011379 -6.4892821419949535e-08 0 -0.024999998773995984 2.8161142725773197e-09 0 -0.02500012333614883 5.6810656013574824e-07 0 -0.025000000984249107 -9.9967247826156725e-10 0 -0.024934263424986277 1.4750557666190459e-05 0 -0.024999823259011379 -6.4892821419949535e-08 0 -0.024973572748984953 7.2575346119167546e-06 0 -0.024999823259011379 -6.4892821419949535e-08 0 -0.024973572748984953 7.2575346119167546e-06 0 -0.02500001918451919 1.6747451650932107e-08 0 -0.024934263424986277 1.4750557666190459e-05 0 -0.024973572748984953 7.2575346119167546e-06 0 -0.024936729285835599 4.3596498292385009e-05 0 -0.024932868300769181 6.2287282220591469e-06 0 -0.024878736504671442 2.6095290974609147e-05 0 -0.024973572748984953 7.2575346119167546e-06 0 -0.024996496905890592 1.138114748097491e-05 0 -0.024936729285835599 4.3596498292385009e-05 0 -0.024973572748984953 7.2575346119167546e-06 0 -0.024996496905890592 1.138114748097491e-05 0 -0.02500001918451919 1.6747451650932107e-08 0 -0.024871984088222495 -8.8021758927621098e-06 0 -0.024999814314191134 -4.5021351386144036e-08 0 -0.024926734045629725 -1.3836202120842519e-06 0 -0.024932868300769181 6.2287282220591469e-06 0 -0.024999967330730059 8.1198074725370519e-09 0 -0.024996496905890592 1.138114748097491e-05 0 -0.02500001918451919 1.6747451650932107e-08 0 -0.024999997357675149 -6.2271791654738999e-09 0 -0.024999814314191134 -4.5021351386144036e-08 0 -0.024959092241137185 -3.5509960802767188e-07 0 -0.024926734045629725 -1.3836202120842519e-06 0 -0.024999814314191134 -4.5021351386144036e-08 0 -0.024959092241137185 -3.5509960802767188e-07 0 -0.024999982637247828 9.3322836073429996e-09 0 -0.024916593515521279 1.8149292378232146e-06 0 -0.024926734045629725 -1.3836202120842519e-06 0 -0.024872643174838727 8.438540693855853e-06 0 -0.024959092241137185 -3.5509960802767188e-07 0 -0.024916593515521279 1.8149292378232146e-06 0 -0.024945762718036921 2.6628494088422242e-06 0 -0.024959092241137185 -3.5509960802767188e-07 0 -0.024916593515521279 1.8149292378232146e-06 0 -0.024926734045629725 -1.3836202120842519e-06 0 -0.024871984088222495 -8.8021758927621098e-06 0 -0.024926734045629725 -1.3836202120842519e-06 0 -0.024872643174838727 8.438540693855853e-06 0 -0.024872643174838727 8.438540693855853e-06 0 -0.024875765586428965 2.7296067265272629e-06 0 -0.024841901038274179 5.2096019350662625e-06 0 -0.024916593515521279 1.8149292378232146e-06 0 -0.024872643174838727 8.438540693855853e-06 0 -0.024875765586428965 2.7296067265272629e-06 0 -0.024841901038274179 5.2096019350662625e-06 0 -0.02484411710582192 -7.309614809226905e-06 0 -0.024813914616308313 -9.6353050141702592e-06 0 -0.024875765586428965 2.7296067265272629e-06 0 -0.024841901038274179 5.2096019350662625e-06 0 -0.02484411710582192 -7.309614809226905e-06 0 -0.024841901038274179 5.2096019350662625e-06 0 -0.024830220920212191 1.7610091161025634e-05 0 -0.024814383602970651 1.0232438064328958e-05 0 -0.024872643174838727 8.438540693855853e-06 0 -0.024841901038274179 5.2096019350662625e-06 0 -0.024830220920212191 1.7610091161025634e-05 0 -0.024830220920212191 1.7610091161025634e-05 0 -0.024803533104247214 1.7265972788513071e-05 0 -0.024814383602970651 1.0232438064328958e-05 0 -0.024830220920212191 1.7610091161025634e-05 0 -0.024812089336863744 2.5502693044113794e-05 0 -0.024803533104247214 1.7265972788513071e-05 0 -0.024830220920212191 1.7610091161025634e-05 0 -0.024812089336863744 2.5502693044113794e-05 0 -0.02481816618825421 1.5219633482655742e-05 0 -0.024838960436541178 3.86334676624888e-05 0 -0.024878736504671442 2.6095290974609147e-05 0 -0.024830117613654352 4.107685403598131e-05 0 -0.024812089336863744 2.5502693044113794e-05 0 -0.02481816618825421 1.5219633482655742e-05 0 -0.024872643174838727 8.438540693855853e-06 0 -0.024830220920212191 1.7610091161025634e-05 0 -0.02481816618825421 1.5219633482655742e-05 0 -0.024871984088222495 -8.8021758927621098e-06 0 -0.024872643174838727 8.438540693855853e-06 0 -0.02481816618825421 1.5219633482655742e-05 0 -0.025159171266505968 -3.9091330749823358e-05 0 -0.024999797652430208 -6.5126469214837179e-08 0 -0.024986236442506308 -1.9634086363331403e-06 0 -0.024999994961817117 -8.4504279306042437e-10 0 -0.025000001982369562 2.0723008819632309e-10 0 -0.024986236442506308 -1.9634086363331403e-06 0 -0.024999994961817117 -8.4504279306042437e-10 0 -0.024990744519570108 -6.8922553502864569e-07 0 -0.024877170898101181 -1.2414341376703756e-05 0 -0.024999811818820633 5.0589598994484935e-08 0 -0.024947196132694541 -9.3534666062804777e-06 0 -0.024924095572396908 -5.5207496552410026e-06 0 -0.024999968103307957 -4.8083016066955375e-09 0 -0.024999811818820633 5.0589598994484935e-08 0 -0.024947196132694541 -9.3534666062804777e-06 0 -0.025000054024390813 -2.9148235606990242e-08 0 -0.024901016737821597 4.0938084210776285e-06 0 -0.024999879327002001 8.2506709511470984e-09 0 -0.024945762718036921 2.6628494088422242e-06 0 -0.024959092241137185 -3.5509960802767188e-07 0 -0.024999982637247828 9.3322836073429996e-09 0 -0.024945762718036921 2.6628494088422242e-06 0 -0.024999879327002001 8.2506709511470984e-09 0 -0.024999982637247828 9.3322836073429996e-09 0 -0.024945762718036921 2.6628494088422242e-06 0 -0.024916593515521279 1.8149292378232146e-06 0 -0.024945762718036921 2.6628494088422242e-06 0 -0.024888524486207778 3.6737362442049729e-08 0 -0.024901016737821597 4.0938084210776285e-06 0 -0.024945762718036921 2.6628494088422242e-06 0 -0.024888524486207778 3.6737362442049729e-08 0 -0.024875765586428965 2.7296067265272629e-06 0 -0.024888524486207778 3.6737362442049729e-08 0 -0.02484411710582192 -7.309614809226905e-06 0 -0.024916593515521279 1.8149292378232146e-06 0 -0.024875765586428965 2.7296067265272629e-06 0 -0.024888524486207778 3.6737362442049729e-08 0 -0.02484411710582192 -7.309614809226905e-06 0 -0.024801801387010179 -2.6876095392810555e-05 0 -0.024813914616308313 -9.6353050141702592e-06 0 -0.02484411710582192 -7.309614809226905e-06 0 -0.024825563345137226 -1.2185307181084064e-05 0 -0.024801801387010179 -2.6876095392810555e-05 0 -0.024825563345137226 -1.2185307181084064e-05 0 -0.024782526946338087 -5.8811066461776285e-05 0 -0.024801801387010179 -2.6876095392810555e-05 0 -0.024888524486207778 3.6737362442049729e-08 0 -0.02484411710582192 -7.309614809226905e-06 0 -0.024825563345137226 -1.2185307181084064e-05 0 -0.024924095572396908 -5.5207496552410026e-06 0 -0.024848856854322251 -2.8492095298998237e-05 0 -0.024901016737821597 4.0938084210776285e-06 0 -0.024888524486207778 3.6737362442049729e-08 0 -0.024825563345137226 -1.2185307181084064e-05 0 -0.024877170898101181 -1.2414341376703756e-05 0 -0.024947196132694541 -9.3534666062804777e-06 0 -0.024872329427515365 -4.7043737102797415e-05 0 -0.024877170898101181 -1.2414341376703756e-05 0 -0.024872329427515365 -4.7043737102797415e-05 0 -0.024822728061344418 -5.2809702121367498e-05 0 -0.024848856854322251 -2.8492095298998237e-05 0 -0.024795070131382491 -5.5715697229554688e-05 0 -0.024872329427515365 -4.7043737102797415e-05 0 -0.024822728061344418 -5.2809702121367498e-05 0 -0.024782526946338087 -5.8811066461776285e-05 0 -0.024822728061344418 -5.2809702121367498e-05 0 -0.024778554960241967 -6.9685782781705782e-05 0 -0.024794935364745842 -4.7511602334840411e-05 0 -0.025159171266505968 -3.9091330749823358e-05 0 -0.023286268080212526 0.00034696995339572514 0 -0.024877170898101181 -1.2414341376703756e-05 0 -0.024822728061344418 -5.2809702121367498e-05 0 -0.024794935364745842 -4.7511602334840411e-05 0 -0.021533317697186753 0.0016178229625297457 0 -0.021638647910451753 0.0015210076508009394 0 -0.02168370651169442 0.0016079958121226119 0 -0.024778554960241967 -6.9685782781705782e-05 0 -0.024752706721617179 -8.4659252382825891e-05 0 -0.024805753098560947 -0.00017851553367031846 0 -0.023166771169612653 0.00070552411781273484 0 -0.023287508067045784 0.00077607662063752965 0 -0.021590680673174076 0.0014144204396070166 0 -0.021533317697186753 0.0016178229625297457 0 -0.021638647910451753 0.0015210076508009394 0 -0.024822728061344418 -5.2809702121367498e-05 0 -0.024778554960241967 -6.9685782781705782e-05 0 -0.024782526946338087 -5.8811066461776285e-05 0 -0.023166771169612653 0.00070552411781273484 0 -0.023286268080212526 0.00034696995339572514 0 -0.024778554960241967 -6.9685782781705782e-05 0 -0.024782526946338087 -5.8811066461776285e-05 0 -0.024752706721617179 -8.4659252382825891e-05 0 -0.024782526946338087 -5.8811066461776285e-05 0 -0.024752706721617179 -8.4659252382825891e-05 0 -0.024760661780912883 -3.9744341856670438e-05 0 -0.024752706721617179 -8.4659252382825891e-05 0 -0.024691267831662138 -5.129917091572365e-05 0 -0.024805753098560947 -0.00017851553367031846 0 -0.024752706721617179 -8.4659252382825891e-05 0 -0.024683901677104516 -2.3364475130497431e-05 0 -0.024691267831662138 -5.129917091572365e-05 0 -0.024721354905048495 -3.335354317523815e-05 0 -0.024708052641242886 -2.017334189118489e-05 0 -0.024683901677104516 -2.3364475130497431e-05 0 -0.024752706721617179 -8.4659252382825891e-05 0 -0.024721354905048495 -3.335354317523815e-05 0 -0.024683901677104516 -2.3364475130497431e-05 0 -0.024721354905048495 -3.335354317523815e-05 0 -0.02474628426720921 -2.2289124331808811e-05 0 -0.024708052641242886 -2.017334189118489e-05 0 -0.024721354905048495 -3.335354317523815e-05 0 -0.024760661780912883 -3.9744341856670438e-05 0 -0.02474628426720921 -2.2289124331808811e-05 0 -0.024752706721617179 -8.4659252382825891e-05 0 -0.024721354905048495 -3.335354317523815e-05 0 -0.024760661780912883 -3.9744341856670438e-05 0 -0.024782526946338087 -5.8811066461776285e-05 0 -0.024760661780912883 -3.9744341856670438e-05 0 -0.024801801387010179 -2.6876095392810555e-05 0 -0.024760661780912883 -3.9744341856670438e-05 0 -0.024801801387010179 -2.6876095392810555e-05 0 -0.02478320003388387 -1.7342762647992089e-05 0 -0.024801801387010179 -2.6876095392810555e-05 0 -0.024813914616308313 -9.6353050141702592e-06 0 -0.02478320003388387 -1.7342762647992089e-05 0 -0.024760661780912883 -3.9744341856670438e-05 0 -0.02478320003388387 -1.7342762647992089e-05 0 -0.02474628426720921 -2.2289124331808811e-05 0 -0.02478320003388387 -1.7342762647992089e-05 0 -0.02474628426720921 -2.2289124331808811e-05 0 -0.024769002063784674 -1.3458229794387211e-05 0 -0.02474628426720921 -2.2289124331808811e-05 0 -0.024730301375814674 -2.2696423164440701e-05 0 -0.024708052641242886 -2.017334189118489e-05 0 -0.02474628426720921 -2.2289124331808811e-05 0 -0.024745804678147222 -2.05880447639187e-05 0 -0.024730301375814674 -2.2696423164440701e-05 0 -0.02474628426720921 -2.2289124331808811e-05 0 -0.024745804678147222 -2.05880447639187e-05 0 -0.024769002063784674 -1.3458229794387211e-05 0 -0.024745804678147222 -2.05880447639187e-05 0 -0.024769002063784674 -1.3458229794387211e-05 0 -0.024754460414022114 -1.8578483940920016e-05 0 -0.024728214155301517 -3.4408474336418186e-05 0 -0.024698112966519588 -6.0321053126126857e-05 0 -0.02474567600893594 -2.7077711926977628e-05 0 -0.02312065912217939 -0.00021181500249382024 0 -0.020913508052618587 -0.00034775080840837526 0 -0.021619674136947507 -0.00044629481561508059 0 -0.016945099966266797 -0.00070165703425101528 0 -0.017301809800748365 -0.00043732360722641671 0 -0.024743326632064931 -2.4502687854748909e-05 0 -0.024728214155301517 -3.4408474336418186e-05 0 -0.024746593516541966 -2.3945882949449593e-05 0 -0.0247337453567044 -2.6292668406113432e-05 0 -0.024743326632064931 -2.4502687854748909e-05 0 -0.024728214155301517 -3.4408474336418186e-05 0 -0.024745804678147222 -2.05880447639187e-05 0 -0.024743326632064931 -2.4502687854748909e-05 0 -0.024754460414022114 -1.8578483940920016e-05 0 -0.024745804678147222 -2.05880447639187e-05 0 -0.0247337453567044 -2.6292668406113432e-05 0 -0.024730301375814674 -2.2696423164440701e-05 0 -0.024745804678147222 -2.05880447639187e-05 0 -0.0247337453567044 -2.6292668406113432e-05 0 -0.024743326632064931 -2.4502687854748909e-05 0 -0.024730301375814674 -2.2696423164440701e-05 0 -0.024719959011426169 -3.0778058739095682e-05 0 -0.024708052641242886 -2.017334189118489e-05 0 -0.0247337453567044 -2.6292668406113432e-05 0 -0.024719959011426169 -3.0778058739095682e-05 0 -0.024728214155301517 -3.4408474336418186e-05 0 -0.0247337453567044 -2.6292668406113432e-05 0 -0.024730301375814674 -2.2696423164440701e-05 0 -0.024719959011426169 -3.0778058739095682e-05 0 -0.024719959011426169 -3.0778058739095682e-05 0 -0.024713170080076237 -3.8471462696324104e-05 0 -0.024728214155301517 -3.4408474336418186e-05 0 -0.024713170080076237 -3.8471462696324104e-05 0 -0.024728214155301517 -3.4408474336418186e-05 0 -0.024698112966519588 -6.0321053126126857e-05 0 -0.024719959011426169 -3.0778058739095682e-05 0 -0.024713170080076237 -3.8471462696324104e-05 0 -0.024700492594740119 -2.3830069645618036e-05 0 -0.017260836408306238 -0.0004731930080373798 0 -0.017241220692553298 -0.00047191684900281322 0 -0.017276792809349781 -0.0005022513326258161 0 -0.019398657273114947 -0.00022630262794821922 0 -0.017488014826126237 -0.000407783392272825 0 -0.017260836408306238 -0.0004731930080373798 0 -0.017276792809349781 -0.0005022513326258161 0 -0.017301809800748365 -0.00043732360722641671 0 -0.017241220692553298 -0.00047191684900281322 0 -0.017251287155018075 -0.00047445140750545215 0 -0.017276792809349781 -0.0005022513326258161 0 -0.017276792809349781 -0.0005022513326258161 0 -0.017288033611269588 -0.00053176116678336908 0 -0.017301809800748365 -0.00043732360722641671 0 -0.021723114278072587 0.00020900226021876542 0 -0.021619674136947507 -0.00044629481561508059 0 -0.017301809800748365 -0.00043732360722641671 0 -0.017207819534781559 -0.00044653107912535634 0 -0.017130953968768486 -0.00044602742733561757 0 -0.017145463849975378 -0.00039546757453662621 0 -0.017241220692553298 -0.00047191684900281322 0 -0.017207819534781559 -0.00044653107912535634 0 -0.017130953968768486 -0.00044602742733561757 0 -0.017207819534781559 -0.00044653107912535634 0 -0.017239140381039103 -0.00042716995870223536 0 -0.017145463849975378 -0.00039546757453662621 0 -0.017241220692553298 -0.00047191684900281322 0 -0.017207819534781559 -0.00044653107912535634 0 -0.017251287155018075 -0.00047445140750545215 0 -0.017207819534781559 -0.00044653107912535634 0 -0.017239140381039103 -0.00042716995870223536 0 -0.017251287155018075 -0.00047445140750545215 0 -0.017239140381039103 -0.00042716995870223536 0 -0.017278593546654175 -0.00047412392278135899 0 -0.017315288785658765 -0.00040707398564070348 0 -0.017239140381039103 -0.00042716995870223536 0 -0.017251287155018075 -0.00047445140750545215 0 -0.017278593546654175 -0.00047412392278135899 0 -0.017278593546654175 -0.00047412392278135899 0 -0.017276792809349781 -0.0005022513326258161 0 -0.017288033611269588 -0.00053176116678336908 0 -0.017251287155018075 -0.00047445140750545215 0 -0.017278593546654175 -0.00047412392278135899 0 -0.017276792809349781 -0.0005022513326258161 0 -0.017288033611269588 -0.00053176116678336908 0 -0.017468655554786765 -0.00043352639458377841 0 -0.017690436255018233 -0.00052222675236012926 0 -0.021723114278072587 0.00020900226021876542 0 -0.021619674136947507 -0.00044629481561508059 0 -0.024564211762860493 0.00020469132390230722 0 -0.019398657273114947 -0.00022630262794821922 0 -0.021316161885618332 0.00050278800210826397 0 -0.017278593546654175 -0.00047412392278135899 0 -0.017468655554786765 -0.00043352639458377841 0 -0.017315288785658765 -0.00040707398564070348 0 -0.017278593546654175 -0.00047412392278135899 0 -0.017288033611269588 -0.00053176116678336908 0 -0.017468655554786765 -0.00043352639458377841 0 -0.024674222922162318 -8.1583966246902854e-06 0 -0.024676946519207765 -5.9336338114177568e-06 0 -0.024621815073128273 6.633326822905056e-05 0 -0.024674222922162318 -8.1583966246902854e-06 0 -0.024698112966519588 -6.0321053126126857e-05 0 -0.024621815073128273 6.633326822905056e-05 0 -0.02312065912217939 -0.00021181500249382024 0 -0.024485408811367543 0.0001155698528695962 0 -0.024713170080076237 -3.8471462696324104e-05 0 -0.024698112966519588 -6.0321053126126857e-05 0 -0.024700492594740119 -2.3830069645618036e-05 0 -0.024674222922162318 -8.1583966246902854e-06 0 -0.024700492594740119 -2.3830069645618036e-05 0 -0.024676946519207765 -5.9336338114177568e-06 0 -0.024674222922162318 -8.1583966246902854e-06 0 -0.024698112966519588 -6.0321053126126857e-05 0 -0.024700492594740119 -2.3830069645618036e-05 0 -0.024700492594740119 -2.3830069645618036e-05 0 -0.024708052641242886 -2.017334189118489e-05 0 -0.024676946519207765 -5.9336338114177568e-06 0 -0.024719959011426169 -3.0778058739095682e-05 0 -0.024700492594740119 -2.3830069645618036e-05 0 -0.024708052641242886 -2.017334189118489e-05 0 -0.024683901677104516 -2.3364475130497431e-05 0 -0.024676946519207765 -5.9336338114177568e-06 0 -0.024621815073128273 6.633326822905056e-05 0 -0.024708052641242886 -2.017334189118489e-05 0 -0.024683901677104516 -2.3364475130497431e-05 0 -0.024676946519207765 -5.9336338114177568e-06 0 -0.024698112966519588 -6.0321053126126857e-05 0 -0.024564211762860493 0.00020469132390230722 0 -0.024621815073128273 6.633326822905056e-05 0 -0.021316161885618332 0.00050278800210826397 0 -0.023287508067045784 0.00077607662063752965 0 -0.024564211762860493 0.00020469132390230722 0 -0.024485732378213936 0.00051644146554698797 0 -0.024805753098560947 -0.00017851553367031846 0 -0.024683901677104516 -2.3364475130497431e-05 0 -0.024691267831662138 -5.129917091572365e-05 0 -0.024621815073128273 6.633326822905056e-05 0 -0.024691267831662138 -5.129917091572365e-05 0 -0.02465143723836177 1.6784307241389151e-05 0 -0.024621815073128273 6.633326822905056e-05 0 -0.024691267831662138 -5.129917091572365e-05 0 -0.02465143723836177 1.6784307241389151e-05 0 -0.024805753098560947 -0.00017851553367031846 0 -0.02465143723836177 1.6784307241389151e-05 0 -0.024564211762860493 0.00020469132390230722 0 -0.024805753098560947 -0.00017851553367031846 0 -0.02465143723836177 1.6784307241389151e-05 0 -0.024564211762860493 0.00020469132390230722 0 -0.024621815073128273 6.633326822905056e-05 0 -0.021723114278072587 0.00020900226021876542 0 -0.024564211762860493 0.00020469132390230722 0 -0.024485732378213936 0.00051644146554698797 0 -0.021316161885618332 0.00050278800210826397 0 -0.02169626156029765 0.0018231145836842273 0 -0.021379688740450813 0.0014990983325364918 0 -0.021598094383329734 0.001666397222227846 0 -0.021668170298161253 0.0016154498694800996 0 -0.021476432041050396 0.0017853560725852766 0 -0.021612349455914302 0.001713943280855863 0 -0.021662710434418791 0.0018214639540422106 0 -0.021379688740450813 0.0014990983325364918 0 -0.021598094383329734 0.001666397222227846 0 -0.021406357759207892 0.0017280442173660886 0 -0.021476432041050396 0.0017853560725852766 0 -0.021612349455914302 0.001713943280855863 0 -0.021533317697186753 0.0016178229625297457 0 -0.021612349455914302 0.001713943280855863 0 -0.021533317697186753 0.0016178229625297457 0 -0.02168370651169442 0.0016079958121226119 0 -0.024775177763793201 9.8988181145405911e-06 0 -0.024803533104247214 1.7265972788513071e-05 0 -0.024791124664429218 5.9984666006368013e-06 0 -0.024775177763793201 9.8988181145405911e-06 0 -0.024791124664429218 5.9984666006368013e-06 0 -0.024770601494372522 -7.5271782718300196e-08 0 -0.024775177763793201 9.8988181145405911e-06 0 -0.024775536645692008 1.9438503311396208e-05 0 -0.024798165872673261 2.3489096181473672e-05 0 -0.024830117613654352 4.107685403598131e-05 0 -0.024812089336863744 2.5502693044113794e-05 0 -0.024798165872673261 2.3489096181473672e-05 0 -0.024812089336863744 2.5502693044113794e-05 0 -0.024798165872673261 2.3489096181473672e-05 0 -0.024803533104247214 1.7265972788513071e-05 0 -0.024775177763793201 9.8988181145405911e-06 0 -0.024798165872673261 2.3489096181473672e-05 0 -0.024803533104247214 1.7265972788513071e-05 0 -0.024803533104247214 1.7265972788513071e-05 0 -0.024814383602970651 1.0232438064328958e-05 0 -0.024791124664429218 5.9984666006368013e-06 0 -0.024841901038274179 5.2096019350662625e-06 0 -0.024814383602970651 1.0232438064328958e-05 0 -0.024803461586944568 -1.9896572266953584e-06 0 -0.024814383602970651 1.0232438064328958e-05 0 -0.024803461586944568 -1.9896572266953584e-06 0 -0.024791124664429218 5.9984666006368013e-06 0 -0.02478320003388387 -1.7342762647992089e-05 0 -0.024803461586944568 -1.9896572266953584e-06 0 -0.024769002063784674 -1.3458229794387211e-05 0 -0.024841901038274179 5.2096019350662625e-06 0 -0.024813914616308313 -9.6353050141702592e-06 0 -0.024803461586944568 -1.9896572266953584e-06 0 -0.024813914616308313 -9.6353050141702592e-06 0 -0.02478320003388387 -1.7342762647992089e-05 0 -0.024803461586944568 -1.9896572266953584e-06 0 -0.024803461586944568 -1.9896572266953584e-06 0 -0.024769002063784674 -1.3458229794387211e-05 0 -0.024778680026141409 -4.9737406495666209e-06 0 -0.024769002063784674 -1.3458229794387211e-05 0 -0.024778680026141409 -4.9737406495666209e-06 0 -0.024758664088426002 -1.6533866168605098e-05 0 -0.024778680026141409 -4.9737406495666209e-06 0 -0.024759070033121108 -1.1706978295593067e-05 0 -0.024758664088426002 -1.6533866168605098e-05 0 -0.024769002063784674 -1.3458229794387211e-05 0 -0.024754460414022114 -1.8578483940920016e-05 0 -0.024758664088426002 -1.6533866168605098e-05 0 -0.024803461586944568 -1.9896572266953584e-06 0 -0.024791124664429218 5.9984666006368013e-06 0 -0.024778680026141409 -4.9737406495666209e-06 0 -0.024791124664429218 5.9984666006368013e-06 0 -0.024778680026141409 -4.9737406495666209e-06 0 -0.024770601494372522 -7.5271782718300196e-08 0 -0.024778680026141409 -4.9737406495666209e-06 0 -0.024770601494372522 -7.5271782718300196e-08 0 -0.024759070033121108 -1.1706978295593067e-05 0 -0.024759070033121108 -1.1706978295593067e-05 0 -0.02474567600893594 -2.7077711926977628e-05 0 -0.024747971735931858 -2.0748751356821232e-06 0 -0.020913508052618587 -0.00034775080840837526 0 -0.020803658653229442 -0.00021746442868323036 0 -0.024770601494372522 -7.5271782718300196e-08 0 -0.024759070033121108 -1.1706978295593067e-05 0 -0.024747971735931858 -2.0748751356821232e-06 0 -0.024743326632064931 -2.4502687854748909e-05 0 -0.024746593516541966 -2.3945882949449593e-05 0 -0.024758664088426002 -1.6533866168605098e-05 0 -0.024743326632064931 -2.4502687854748909e-05 0 -0.024754460414022114 -1.8578483940920016e-05 0 -0.024758664088426002 -1.6533866168605098e-05 0 -0.024746593516541966 -2.3945882949449593e-05 0 -0.024758664088426002 -1.6533866168605098e-05 0 -0.024753125271040649 -1.9690973600924151e-05 0 -0.024759070033121108 -1.1706978295593067e-05 0 -0.024758664088426002 -1.6533866168605098e-05 0 -0.024753125271040649 -1.9690973600924151e-05 0 -0.024759070033121108 -1.1706978295593067e-05 0 -0.024753125271040649 -1.9690973600924151e-05 0 -0.02474567600893594 -2.7077711926977628e-05 0 -0.024728214155301517 -3.4408474336418186e-05 0 -0.024746593516541966 -2.3945882949449593e-05 0 -0.02474567600893594 -2.7077711926977628e-05 0 -0.024746593516541966 -2.3945882949449593e-05 0 -0.024753125271040649 -1.9690973600924151e-05 0 -0.02474567600893594 -2.7077711926977628e-05 0 -0.016945099966266797 -0.00070165703425101528 0 -0.017301809800748365 -0.00043732360722641671 0 -0.017127925812580051 -0.00049120590112886292 0 -0.017260836408306238 -0.0004731930080373798 0 -0.017241220692553298 -0.00047191684900281322 0 -0.017188418730620093 -0.00047419187344015679 0 -0.017241220692553298 -0.00047191684900281322 0 -0.017188418730620093 -0.00047419187344015679 0 -0.017130953968768486 -0.00044602742733561757 0 -0.017260836408306238 -0.0004731930080373798 0 -0.017301809800748365 -0.00043732360722641671 0 -0.017188418730620093 -0.00047419187344015679 0 -0.017127925812580051 -0.00049120590112886292 0 -0.017188418730620093 -0.00047419187344015679 0 -0.01702195137436794 -0.00050292524592596003 0 -0.017301809800748365 -0.00043732360722641671 0 -0.017127925812580051 -0.00049120590112886292 0 -0.017188418730620093 -0.00047419187344015679 0 -0.017188418730620093 -0.00047419187344015679 0 -0.01702195137436794 -0.00050292524592596003 0 -0.017130953968768486 -0.00044602742733561757 0 -0.016921769813280748 -0.00047760298865769216 0 -0.01702195137436794 -0.00050292524592596003 0 -0.017130953968768486 -0.00044602742733561757 0 -0.016945099966266797 -0.00070165703425101528 0 -0.016921769813280748 -0.00047760298865769216 0 -0.01702195137436794 -0.00050292524592596003 0 -0.016945099966266797 -0.00070165703425101528 0 -0.017127925812580051 -0.00049120590112886292 0 -0.01702195137436794 -0.00050292524592596003 0 -0.016921769813280748 -0.00047760298865769216 0 -0.016987111151520237 -0.00041059654004421079 0 -0.017130953968768486 -0.00044602742733561757 0 -0.016987111151520237 -0.00041059654004421079 0 -0.017130953968768486 -0.00044602742733561757 0 -0.017145463849975378 -0.00039546757453662621 0 -0.016945099966266797 -0.00070165703425101528 0 -0.016921769813280748 -0.00047760298865769216 0 -0.016822828925256366 -0.000418814831503247 0 -0.016921769813280748 -0.00047760298865769216 0 -0.016822828925256366 -0.000418814831503247 0 -0.016826777945187801 -0.00041153449454071856 0 -0.016921769813280748 -0.00047760298865769216 0 -0.016987111151520237 -0.00041059654004421079 0 -0.016826777945187801 -0.00041153449454071856 0 -0.016822828925256366 -0.000418814831503247 0 -0.016926801639104618 -0.00030657331078418493 0 -0.016802064821362084 -0.00039285133122609619 0 -0.016822828925256366 -0.000418814831503247 0 -0.016802064821362084 -0.00039285133122609619 0 -0.016826777945187801 -0.00041153449454071856 0 -0.024775177763793201 9.8988181145405911e-06 0 -0.024770601494372522 -7.5271782718300196e-08 0 -0.024747971735931858 -2.0748751356821232e-06 0 -0.024775177763793201 9.8988181145405911e-06 0 -0.024747971735931858 -2.0748751356821232e-06 0 -0.024750280025236066 1.3683190684816511e-05 0 -0.020803658653229442 -0.00021746442868323036 0 -0.020757280129137735 -0.00017327597428368311 0 -0.024775177763793201 9.8988181145405911e-06 0 -0.024775536645692008 1.9438503311396208e-05 0 -0.024750280025236066 1.3683190684816511e-05 0 -0.016926801639104618 -0.00030657331078418493 0 -0.016802064821362084 -0.00039285133122609619 0 -0.016939439907555857 -0.0004063370075927739 0 -0.016844692184455026 -0.00049257643142948339 0 -0.016802064821362084 -0.00039285133122609619 0 -0.016939439907555857 -0.0004063370075927739 0 -0.015778190159601954 -0.00042508253171585642 0 -0.015651239721422443 1.5790082406191145e-06 0 -0.015471883435192109 -0.0002675155981678048 0 -0.015778190159601954 -0.00042508253171585642 0 -0.01662767653044522 -0.00036377025361632799 0 -0.016080651381580303 6.6753939339189388e-05 0 -0.016176210709730878 -0.0004280112312420238 0 -0.016665751558454817 -0.00039190394466482773 0 -0.016844692184455026 -0.00049257643142948339 0 -0.016802064821362084 -0.00039285133122609619 0 -0.01662767653044522 -0.00036377025361632799 0 -0.016826777945187801 -0.00041153449454071856 0 -0.016916054600245818 -0.00036559444974892583 0 -0.01662767653044522 -0.00036377025361632799 0 -0.016802064821362084 -0.00039285133122609619 0 -0.016826777945187801 -0.00041153449454071856 0 -0.01662767653044522 -0.00036377025361632799 0 -0.016916054600245818 -0.00036559444974892583 0 -0.017028284014836564 -0.00024269009308454351 0 -0.017145463849975378 -0.00039546757453662621 0 -0.016987111151520237 -0.00041059654004421079 0 -0.016916054600245818 -0.00036559444974892583 0 -0.017145463849975378 -0.00039546757453662621 0 -0.016987111151520237 -0.00041059654004421079 0 -0.016826777945187801 -0.00041153449454071856 0 -0.016916054600245818 -0.00036559444974892583 0 -0.016916054600245818 -0.00036559444974892583 0 -0.017028284014836564 -0.00024269009308454351 0 -0.01662767653044522 -0.00036377025361632799 0 -0.017028284014836564 -0.00024269009308454351 0 -0.01662767653044522 -0.00036377025361632799 0 -0.01682181531795772 -9.3295280394287833e-05 0 -0.01662767653044522 -0.00036377025361632799 0 -0.01654433790060169 0.00013878013887474986 0 -0.016080651381580303 6.6753939339189388e-05 0 -0.01662767653044522 -0.00036377025361632799 0 -0.01654433790060169 0.00013878013887474986 0 -0.01682181531795772 -9.3295280394287833e-05 0 -0.017028284014836564 -0.00024269009308454351 0 -0.01682181531795772 -9.3295280394287833e-05 0 -0.017070550656511412 0.00013442170822514421 0 -0.01654433790060169 0.00013878013887474986 0 -0.01682181531795772 -9.3295280394287833e-05 0 -0.017070550656511412 0.00013442170822514421 0 -0.01654433790060169 0.00013878013887474986 0 -0.016526237152456439 0.00044609834680117081 0 -0.017070550656511412 0.00013442170822514421 0 -0.016844525796122209 0.00062369904901847214 0 -0.016956773630943705 0.00031940593499192311 0 -0.016622964255549114 0.00072661515418485944 0 -0.017000687472394447 0.00023565965144350845 0 -0.016652490724911973 0.00070347470641789146 0 -0.016526237152456439 0.00044609834680117081 0 -0.017070550656511412 0.00013442170822514421 0 -0.016622964255549114 0.00072661515418485944 0 -0.01654433790060169 0.00013878013887474986 0 -0.016526237152456439 0.00044609834680117081 0 -0.016083133788937293 0.00048605253296792489 0 -0.016526237152456439 0.00044609834680117081 0 -0.016083133788937293 0.00048605253296792489 0 -0.016268455620094529 0.00075798666551994361 0 -0.016083133788937293 0.00048605253296792489 0 -0.01562796603867142 0.00034942805466528422 0 -0.016080651381580303 6.6753939339189388e-05 0 -0.016083133788937293 0.00048605253296792489 0 -0.01562796603867142 0.00034942805466528422 0 -0.015686302351413314 0.00068534415285925407 0 -0.015522256407405319 0.0005692671812550505 0 -0.01562796603867142 0.00034942805466528422 0 -0.015438468508290216 0.00045227637311744476 0 -0.015522256407405319 0.0005692671812550505 0 -0.01562796603867142 0.00034942805466528422 0 -0.015686302351413314 0.00068534415285925407 0 -0.01562796603867142 0.00034942805466528422 0 -0.015377947603484494 0.00016460381945762804 0 -0.015432224841833014 0.00035110345780338609 0 -0.01562796603867142 0.00034942805466528422 0 -0.015432224841833014 0.00035110345780338609 0 -0.015438468508290216 0.00045227637311744476 0 -0.015778190159601954 -0.00042508253171585642 0 -0.015651239721422443 1.5790082406191145e-06 0 -0.016080651381580303 6.6753939339189388e-05 0 -0.01562796603867142 0.00034942805466528422 0 -0.015651239721422443 1.5790082406191145e-06 0 -0.016080651381580303 6.6753939339189388e-05 0 -0.01562796603867142 0.00034942805466528422 0 -0.015651239721422443 1.5790082406191145e-06 0 -0.015377947603484494 0.00016460381945762804 0 -0.01654433790060169 0.00013878013887474986 0 -0.016083133788937293 0.00048605253296792489 0 -0.016080651381580303 6.6753939339189388e-05 0 -0.021779607194178895 0.0015785412854669449 0 -0.021731689786995495 0.0013970954416437221 0 -0.021693135348555579 0.0015111892030871597 0 -0.021779607194178895 0.0015785412854669449 0 -0.021693135348555579 0.0015111892030871597 0 -0.021676488991944583 0.001626817556985649 0 -0.021779607194178895 0.0015785412854669449 0 -0.021598094383329734 0.001666397222227846 0 -0.021676488991944583 0.001626817556985649 0 -0.021596452288367953 0.0017224273213334738 0 -0.021609514437052141 0.0016618040008836933 0 -0.021442224159572983 0.0019137963766403801 0 -0.021598094383329734 0.001666397222227846 0 -0.021406357759207892 0.0017280442173660886 0 -0.021316161885618332 0.00050278800210826397 0 -0.019136056134125702 0.0009055459017371666 0 -0.021442224159572983 0.0019137963766403801 0 -0.021406357759207892 0.0017280442173660886 0 -0.021198307523190667 0.0018118547660527478 0 -0.017468655554786765 -0.00043352639458377841 0 -0.017690436255018233 -0.00052222675236012926 0 -0.017541169966732641 -0.00013253561364241122 0 -0.021379688740450813 0.0014990983325364918 0 -0.021406357759207892 0.0017280442173660886 0 -0.021198307523190667 0.0018118547660527478 0 -0.021198307523190667 0.0018118547660527478 0 -0.021228196927975711 0.0020055006012724601 0 -0.021006298362859083 0.0021002995487698945 0 -0.021442224159572983 0.0019137963766403801 0 -0.021198307523190667 0.0018118547660527478 0 -0.021228196927975711 0.0020055006012724601 0 -0.019136056134125702 0.0009055459017371666 0 -0.019350875283570147 0.001155568184538802 0 -0.017541169966732641 -0.00013253561364241122 0 -0.017230318959082665 -5.7518377701682682e-05 0 -0.017398623352178871 0.00024675415257798526 0 -0.017456229277265693 -0.00042240132887858554 0 -0.017262279579771191 -0.00014352342881850813 0 -0.017468655554786765 -0.00043352639458377841 0 -0.017315288785658765 -0.00040707398564070348 0 -0.017285391049635279 -0.00022405220232715875 0 -0.017468655554786765 -0.00043352639458377841 0 -0.017541169966732641 -0.00013253561364241122 0 -0.017230318959082665 -5.7518377701682682e-05 0 -0.017028284014836564 -0.00024269009308454351 0 -0.017218826961998477 -0.00033930442199990086 0 -0.017145463849975378 -0.00039546757453662621 0 -0.017315288785658765 -0.00040707398564070348 0 -0.017218826961998477 -0.00033930442199990086 0 -0.017285391049635279 -0.00022405220232715875 0 -0.017239140381039103 -0.00042716995870223536 0 -0.017315288785658765 -0.00040707398564070348 0 -0.017218826961998477 -0.00033930442199990086 0 -0.017239140381039103 -0.00042716995870223536 0 -0.017218826961998477 -0.00033930442199990086 0 -0.017145463849975378 -0.00039546757453662621 0 -0.017028284014836564 -0.00024269009308454351 0 -0.017285391049635279 -0.00022405220232715875 0 -0.017070550656511412 0.00013442170822514421 0 -0.017028284014836564 -0.00024269009308454351 0 -0.017218826961998477 -0.00033930442199990086 0 -0.017285391049635279 -0.00022405220232715875 0 -0.017262279579771191 -0.00014352342881850813 0 -0.017000687472394447 0.00023565965144350845 0 -0.016956773630943705 0.00031940593499192311 0 -0.017063178255048335 0.00051335013868357383 0 -0.017398623352178871 0.00024675415257798526 0 -0.017230318959082665 -5.7518377701682682e-05 0 -0.016956773630943705 0.00031940593499192311 0 -0.017398623352178871 0.00024675415257798526 0 -0.016844525796122209 0.00062369904901847214 0 -0.017063178255048335 0.00051335013868357383 0 -0.017248702160616015 0.00066633759594762363 0 -0.01659720903404625 0.00053039130995634039 0 -0.017993038832168191 0.0014060643814058492 0 -0.016844525796122209 0.00062369904901847214 0 -0.016956773630943705 0.00031940593499192311 0 -0.017063178255048335 0.00051335013868357383 0 -0.017063178255048335 0.00051335013868357383 0 -0.017248702160616015 0.00066633759594762363 0 -0.017398623352178871 0.00024675415257798526 0 -0.017993038832168191 0.0014060643814058492 0 -0.019350875283570147 0.001155568184538802 0 -0.020995585287762318 0.0022942475833590856 0 -0.021224067174423555 0.0024690415828421768 0 -0.020889549222351304 0.0024502414760629739 0 -0.02080938466261386 0.0024408977548115419 0 -0.020995585287762318 0.0022942475833590856 0 -0.021006298362859083 0.0021002995487698945 0 -0.02080938466261386 0.0024408977548115419 0 -0.020995585287762318 0.0022942475833590856 0 -0.020874817709816203 0.0024477996186649444 0 -0.020407066539831098 0.0018716283125272133 0 -0.018141749114478189 0.001661941792114779 0 -0.020995585287762318 0.0022942475833590856 0 -0.021006298362859083 0.0021002995487698945 0 -0.021167374778551531 0.0021476121411620973 0 -0.021442224159572983 0.0019137963766403801 0 -0.021228196927975711 0.0020055006012724601 0 -0.021324903954116552 0.0021718086560367344 0 -0.021228196927975711 0.0020055006012724601 0 -0.021006298362859083 0.0021002995487698945 0 -0.021167374778551531 0.0021476121411620973 0 -0.021228196927975711 0.0020055006012724601 0 -0.021167374778551531 0.0021476121411620973 0 -0.021324903954116552 0.0021718086560367344 0 -0.021167374778551531 0.0021476121411620973 0 -0.021178856468184973 0.0022697279526139457 0 -0.021324903954116552 0.0021718086560367344 0 -0.021178856468184973 0.0022697279526139457 0 -0.021324903954116552 0.0021718086560367344 0 -0.021224067174423555 0.0024690415828421768 0 -0.021791397429571629 0.0018067914181849412 0 -0.018586777076571848 0.0009408591618326026 0 -0.020995585287762318 0.0022942475833590856 0 -0.021178856468184973 0.0022697279526139457 0 -0.021224067174423555 0.0024690415828421768 0 -0.020995585287762318 0.0022942475833590856 0 -0.021167374778551531 0.0021476121411620973 0 -0.021178856468184973 0.0022697279526139457 0 -0.021776191652173343 0.0012323160781447218 0 -0.021873602566128972 0.0013035171263269742 0 -0.021898820842890878 0.0010331668897742105 0 -0.021746749954305686 0.0011147206422014253 0 -0.021776191652173343 0.0012323160781447218 0 -0.021898820842890878 0.0010331668897742105 0 -0.021697476555610145 0.0011075865399065782 0 -0.021785511613328992 0.0010145619474708067 0 -0.021586062881912477 0.0010927592938365903 0 -0.021746749954305686 0.0011147206422014253 0 -0.021776254282707411 0.0010244972468188567 0 -0.021898820842890878 0.0010331668897742105 0 -0.021746749954305686 0.0011147206422014253 0 -0.021697476555610145 0.0011075865399065782 0 -0.021785511613328992 0.0010145619474708067 0 -0.02028920958210902 0.00039708030044506082 0 -0.018700929496686322 3.6636888272644045e-05 0 -0.021746749954305686 0.0011147206422014253 0 -0.021697476555610145 0.0011075865399065782 0 -0.021672525459204624 0.0012101246752760331 0 -0.021746749954305686 0.0011147206422014253 0 -0.021776191652173343 0.0012323160781447218 0 -0.021672525459204624 0.0012101246752760331 0 -0.021776191652173343 0.0012323160781447218 0 -0.021677099707842453 0.0013124579552550219 0 -0.021672525459204624 0.0012101246752760331 0 -0.021776191652173343 0.0012323160781447218 0 -0.021731689786995495 0.0013970954416437221 0 -0.021677099707842453 0.0013124579552550219 0 -0.021779607194178895 0.0015785412854669449 0 -0.021873602566128972 0.0013035171263269742 0 -0.021731689786995495 0.0013970954416437221 0 -0.021596452288367953 0.0017224273213334738 0 -0.021791397429571629 0.0018067914181849412 0 -0.021776191652173343 0.0012323160781447218 0 -0.021873602566128972 0.0013035171263269742 0 -0.021731689786995495 0.0013970954416437221 0 -0.016337660186909003 -0.00071128043189303458 0 -0.015266493181063647 -7.6438033378838514e-05 0 -0.016953427961676051 -2.99888795988917e-05 0 -0.015266493181063647 -7.6438033378838514e-05 0 -0.015257132508581147 0.00085622638702886682 0 -0.016953427961676051 -2.99888795988917e-05 0 -0.018700929496686322 3.6636888272644045e-05 0 -0.015295078732931514 0.0002146261089670945 0 -0.016337660186909003 -0.00071128043189303458 0 -0.016030784283926576 -0.001616426544267971 0 -0.015266493181063647 -7.6438033378838514e-05 0 -0.018700929496686322 3.6636888272644045e-05 0 -0.018586777076571848 0.0009408591618326026 0 -0.018586777076571848 0.0009408591618326026 0 -0.018141749114478189 0.001661941792114779 0 -0.015979154785544139 0.00018581499176773496 0 -0.015954286661892251 -0.00034393789936980318 0 -0.015678007529130067 0.00063976898789549987 0 -0.01563229487043296 0.00057034713836513816 0 -0.015412876999308333 0.00079706792007554065 0 -0.015472071482787944 0.0010689176309308557 0 -0.016449402128110129 -0.00030973892583981464 0 -0.015979154785544139 0.00018581499176773496 0 -0.015902051973104535 0.00071375165708548595 0 -0.018586777076571848 0.0009408591618326026 0 -0.015330477970135238 0.00077016039724502885 0 -0.01563229487043296 0.00057034713836513816 0 -0.015412876999308333 0.00079706792007554065 0 -0.015135661121212663 0.00053685580595925033 0 -0.016449402128110129 -0.00030973892583981464 0 -0.015979154785544139 0.00018581499176773496 0 -0.015954286661892251 -0.00034393789936980318 0 -0.015412876999308333 0.00079706792007554065 0 -0.015472071482787944 0.0010689176309308557 0 -0.015336459426235061 0.00096043399574711227 0 -0.015472071482787944 0.0010689176309308557 0 -0.015267821253048808 0.0010569172904739627 0 -0.015336459426235061 0.00096043399574711227 0 -0.015979154785544139 0.00018581499176773496 0 -0.015902051973104535 0.00071375165708548595 0 -0.015678007529130067 0.00063976898789549987 0 -0.015472071482787944 0.0010689176309308557 0 -0.015267821253048808 0.0010569172904739627 0 -0.015212214720178531 0.0012311933217350878 0 -0.015267821253048808 0.0010569172904739627 0 -0.015091992049884193 0.001139334111750505 0 -0.015212214720178531 0.0012311933217350878 0 -0.015091992049884193 0.001139334111750505 0 -0.015192861021433759 0.00091795449220691608 0 -0.014847976454381047 0.0010128042372818387 0 -0.015412876999308333 0.00079706792007554065 0 -0.015192861021433759 0.00091795449220691608 0 -0.015336459426235061 0.00096043399574711227 0 -0.015267821253048808 0.0010569172904739627 0 -0.015091992049884193 0.001139334111750505 0 -0.015192861021433759 0.00091795449220691608 0 -0.015267821253048808 0.0010569172904739627 0 -0.015192861021433759 0.00091795449220691608 0 -0.015336459426235061 0.00096043399574711227 0 -0.015412876999308333 0.00079706792007554065 0 -0.015192861021433759 0.00091795449220691608 0 -0.015135661121212663 0.00053685580595925033 0 -0.015192861021433759 0.00091795449220691608 0 -0.015135661121212663 0.00053685580595925033 0 -0.014847976454381047 0.0010128042372818387 0 -0.017993038832168191 0.0014060643814058492 0 -0.018141749114478189 0.001661941792114779 0 -0.017308471376790379 0.00065057847976780867 0 -0.017140931904007062 0.0011454866090133539 0 -0.016867805839359745 0.00091783092253310851 0 -0.016844525796122209 0.00062369904901847214 0 -0.017308471376790379 0.00065057847976780867 0 -0.016867805839359745 0.00091783092253310851 0 -0.017993038832168191 0.0014060643814058492 0 -0.015802866659016413 0.0011599785337770721 0 -0.018141749114478189 0.001661941792114779 0 -0.015802866659016413 0.0011599785337770721 0 -0.017147404698786953 0.0011261429969426147 0 -0.017248686328339854 0.0011339368032482146 0 -0.016924859889896188 0.0016579006097111929 0 -0.015802866659016413 0.0011599785337770721 0 -0.015796465757908978 0.0015516717919675622 0 -0.015091992049884193 0.001139334111750505 0 -0.014847976454381047 0.0010128042372818387 0 -0.014965314003718377 0.0013197488605489716 0 -0.014847976454381047 0.0010128042372818387 0 -0.014821445248585795 0.0014564344048812524 0 -0.014657707010680282 0.0015719077408369981 0 -0.014878528479832563 0.0010916120883626521 0 -0.014641907434953453 0.0014474247656914645 0 -0.014657707010680282 0.0015719077408369981 0 -0.014847976454381047 0.0010128042372818387 0 -0.014965314003718377 0.0013197488605489716 0 -0.014821445248585795 0.0014564344048812524 0 -0.015802866659016413 0.0011599785337770721 0 -0.014420559131072121 0.0015534771462585972 0 -0.014965314003718377 0.0013197488605489716 0 -0.014821445248585795 0.0014564344048812524 0 -0.014963309408754765 0.0015051776647258045 0 -0.014821445248585795 0.0014564344048812524 0 -0.014963309408754765 0.0015051776647258045 0 -0.014909994874348263 0.0016120534406262436 0 -0.014821445248585795 0.0014564344048812524 0 -0.014799159175095973 0.001663247361450183 0 -0.014657707010680282 0.0015719077408369981 0 -0.014799159175095973 0.001663247361450183 0 -0.014682402713675756 0.0017614636379635245 0 -0.014657707010680282 0.0015719077408369981 0 -0.014799159175095973 0.001663247361450183 0 -0.014682402713675756 0.0017614636379635245 0 -0.014813264856251004 0.0018022413128064366 0 -0.014799159175095973 0.001663247361450183 0 -0.014813264856251004 0.0018022413128064366 0 -0.014918464797607766 0.0017318734580658306 0 -0.014813264856251004 0.0018022413128064366 0 -0.014918464797607766 0.0017318734580658306 0 -0.014898821208682377 0.0018633746119114487 0 -0.014821445248585795 0.0014564344048812524 0 -0.014799159175095973 0.001663247361450183 0 -0.014909994874348263 0.0016120534406262436 0 -0.014799159175095973 0.001663247361450183 0 -0.014918464797607766 0.0017318734580658306 0 -0.014909994874348263 0.0016120534406262436 0 -0.01497216394785102 0.0015409029980748665 0 -0.01460962858337184 0.0021769540819959561 0 -0.015042140555925133 0.0016348080288669069 0 -0.015055739845806628 0.0017980836955671375 0 -0.015144665628244612 0.0016902929187340239 0 -0.015055739845806628 0.0017980836955671375 0 -0.015295237765043926 0.0016375323747096927 0 -0.014926759945342531 0.0020046580119724841 0 -0.014963309408754765 0.0015051776647258045 0 -0.014909994874348263 0.0016120534406262436 0 -0.015042140555925133 0.0016348080288669069 0 -0.014544944417231013 0.0014666427333460681 0 -0.014509618144692999 0.0021042457097089936 0 -0.014277775276091691 0.0024324794439483399 0 -0.015042140555925133 0.0016348080288669069 0 -0.015149395917373102 0.0016108674816605415 0 -0.015126667693086101 0.0015479611897532644 0 -0.015042140555925133 0.0016348080288669069 0 -0.015126667693086101 0.0015479611897532644 0 -0.015062833647802532 0.0015071181064277119 0 -0.014918464797607766 0.0017318734580658306 0 -0.014909994874348263 0.0016120534406262436 0 -0.015042140555925133 0.0016348080288669069 0 -0.014918464797607766 0.0017318734580658306 0 -0.015042140555925133 0.0016348080288669069 0 -0.015055739845806628 0.0017980836955671375 0 -0.014918464797607766 0.0017318734580658306 0 -0.015055739845806628 0.0017980836955671375 0 -0.014898821208682377 0.0018633746119114487 0 -0.015055739845806628 0.0017980836955671375 0 -0.015144665628244612 0.0016902929187340239 0 -0.015295237765043926 0.0016375323747096927 0 -0.015042140555925133 0.0016348080288669069 0 -0.015144665628244612 0.0016902929187340239 0 -0.015149395917373102 0.0016108674816605415 0 -0.015144665628244612 0.0016902929187340239 0 -0.015149395917373102 0.0016108674816605415 0 -0.015210018761775889 0.0016168741292691253 0 -0.015149395917373102 0.0016108674816605415 0 -0.015199068046201714 0.0015555457408346557 0 -0.015210018761775889 0.0016168741292691253 0 -0.015149395917373102 0.0016108674816605415 0 -0.015199068046201714 0.0015555457408346557 0 -0.015126667693086101 0.0015479611897532644 0 -0.015144665628244612 0.0016902929187340239 0 -0.015210018761775889 0.0016168741292691253 0 -0.015295237765043926 0.0016375323747096927 0 -0.015199068046201714 0.0015555457408346557 0 -0.015210018761775889 0.0016168741292691253 0 -0.015253259227308325 0.0015656621951975385 0 -0.015210018761775889 0.0016168741292691253 0 -0.015253259227308325 0.0015656621951975385 0 -0.015295237765043926 0.0016375323747096927 0 -0.015253259227308325 0.0015656621951975385 0 -0.015330429142229469 0.0015333295478043006 0 -0.015295237765043926 0.0016375323747096927 0 -0.015253259227308325 0.0015656621951975385 0 -0.015249910802302518 0.0014943530534267625 0 -0.015330429142229469 0.0015333295478043006 0 -0.015249910802302518 0.0014943530534267625 0 -0.015272898455468914 0.0013540658731672974 0 -0.015330429142229469 0.0015333295478043006 0 -0.015199068046201714 0.0015555457408346557 0 -0.015253259227308325 0.0015656621951975385 0 -0.015249910802302518 0.0014943530534267625 0 -0.015249910802302518 0.0014943530534267625 0 -0.015166245413917343 0.001461996413255857 0 -0.015272898455468914 0.0013540658731672974 0 -0.015166245413917343 0.001461996413255857 0 -0.015272898455468914 0.0013540658731672974 0 -0.015156652046129968 0.0013502391494202711 0 -0.015199068046201714 0.0015555457408346557 0 -0.015249910802302518 0.0014943530534267625 0 -0.015166245413917343 0.001461996413255857 0 -0.015199068046201714 0.0015555457408346557 0 -0.015166245413917343 0.001461996413255857 0 -0.015126667693086101 0.0015479611897532644 0 -0.014965314003718377 0.0013197488605489716 0 -0.014963309408754765 0.0015051776647258045 0 -0.015069102734436984 0.0014121632219501409 0 -0.015166245413917343 0.001461996413255857 0 -0.015126667693086101 0.0015479611897532644 0 -0.015062833647802532 0.0015071181064277119 0 -0.014963309408754765 0.0015051776647258045 0 -0.015062833647802532 0.0015071181064277119 0 -0.015069102734436984 0.0014121632219501409 0 -0.014963309408754765 0.0015051776647258045 0 -0.015042140555925133 0.0016348080288669069 0 -0.015062833647802532 0.0015071181064277119 0 -0.015166245413917343 0.001461996413255857 0 -0.015069102734436984 0.0014121632219501409 0 -0.015156652046129968 0.0013502391494202711 0 -0.015166245413917343 0.001461996413255857 0 -0.015062833647802532 0.0015071181064277119 0 -0.015069102734436984 0.0014121632219501409 0 -0.015091992049884193 0.001139334111750505 0 -0.014965314003718377 0.0013197488605489716 0 -0.015098725643790457 0.001290731829901794 0 -0.015069102734436984 0.0014121632219501409 0 -0.015098725643790457 0.001290731829901794 0 -0.015156652046129968 0.0013502391494202711 0 -0.014965314003718377 0.0013197488605489716 0 -0.015069102734436984 0.0014121632219501409 0 -0.015098725643790457 0.001290731829901794 0 -0.015091992049884193 0.001139334111750505 0 -0.015098725643790457 0.001290731829901794 0 -0.015212214720178531 0.0012311933217350878 0 -0.015472071482787944 0.0010689176309308557 0 -0.015212214720178531 0.0012311933217350878 0 -0.015272898455468914 0.0013540658731672974 0 -0.015098725643790457 0.001290731829901794 0 -0.015212214720178531 0.0012311933217350878 0 -0.015156652046129968 0.0013502391494202711 0 -0.015212214720178531 0.0012311933217350878 0 -0.015272898455468914 0.0013540658731672974 0 -0.015156652046129968 0.0013502391494202711 0 -0.015295078732931514 0.0002146261089670945 0 -0.01497216394785102 0.0015409029980748665 0 -0.015330477970135238 0.00077016039724502885 0 -0.015397604334002979 0.001519493618232285 0 -0.015266493181063647 -7.6438033378838514e-05 0 -0.015257132508581147 0.00085622638702886682 0 -0.014544944417231013 0.0014666427333460681 0 -0.015902051973104535 0.00071375165708548595 0 -0.015330429142229469 0.0015333295478043006 0 -0.015295237765043926 0.0016375323747096927 0 -0.015902051973104535 0.00071375165708548595 0 -0.015678007529130067 0.00063976898789549987 0 -0.015330429142229469 0.0015333295478043006 0 -0.015472071482787944 0.0010689176309308557 0 -0.015272898455468914 0.0013540658731672974 0 -0.015330429142229469 0.0015333295478043006 0 -0.015257132508581147 0.00085622638702886682 0 -0.014972334010577012 0.0013591164126137371 0 -0.015237582830475556 0.0015661903264251554 0 -0.015257132508581147 0.00085622638702886682 0 -0.014544944417231013 0.0014666427333460681 0 -0.014972334010577012 0.0013591164126137371 0 -0.015237582830475556 0.0015661903264251554 0 -0.015990321227622346 0.0013749444286339963 0 -0.01509573239758798 0.0025649457316732601 0 -0.014805257177365175 0.0018112447730255581 0 -0.015237582830475556 0.0015661903264251554 0 -0.01509573239758798 0.0025649457316732601 0 -0.014544944417231013 0.0014666427333460681 0 -0.014972334010577012 0.0013591164126137371 0 -0.014856930952196722 0.0015444776538932118 0 -0.014972334010577012 0.0013591164126137371 0 -0.014856930952196722 0.0015444776538932118 0 -0.015237582830475556 0.0015661903264251554 0 -0.014856930952196722 0.0015444776538932118 0 -0.014805257177365175 0.0018112447730255581 0 -0.015237582830475556 0.0015661903264251554 0 -0.014544944417231013 0.0014666427333460681 0 -0.014856930952196722 0.0015444776538932118 0 -0.014805257177365175 0.0018112447730255581 0 -0.014544944417231013 0.0014666427333460681 0 -0.014805257177365175 0.0018112447730255581 0 -0.014509618144692999 0.0021042457097089936 0 -0.015257132508581147 0.00085622638702886682 0 -0.015237582830475556 0.0015661903264251554 0 -0.015990321227622346 0.0013749444286339963 0 -0.020625696875940867 0.00072052987488290985 0 -0.020845550235312871 0.00088989728216772978 0 -0.02068032558891637 0.0010121893537025231 0 -0.018470112956461667 0.00097190861234713551 0 -0.016736288431714607 0.0019621256031588478 0 -0.020625696875940867 0.00072052987488290985 0 -0.02068032558891637 0.0010121893537025231 0 -0.020334229563914851 0.0010710743283148241 0 -0.015257132508581147 0.00085622638702886682 0 -0.015990321227622346 0.0013749444286339963 0 -0.016953427961676051 -2.99888795988917e-05 0 -0.018470112956461667 0.00097190861234713551 0 -0.018850025060279069 0.00025806247764449886 0 -0.015775504728699895 0.0010577914697612501 0 -0.016173742411474776 0.0011063570575597216 0 -0.015855197866058549 0.0013320124694094265 0 -0.015775504728699895 0.0010577914697612501 0 -0.015855197866058549 0.0013320124694094265 0 -0.01555987602270432 0.0013598827058152047 0 -0.015775504728699895 0.0010577914697612501 0 -0.015958719484615604 0.00080550735877791505 0 -0.016173742411474776 0.0011063570575597216 0 -0.015728751452417259 0.0010607606028343792 0 -0.015189192623067994 0.0011996464986972918 0 -0.015775504728699895 0.0010577914697612501 0 -0.015443491146837749 0.00093426327896003374 0 -0.015280592611953529 0.0012619237651314982 0 -0.015775504728699895 0.0010577914697612501 0 -0.01555987602270432 0.0013598827058152047 0 -0.015099127429513911 0.0011271654678773569 0 -0.015775504728699895 0.0010577914697612501 0 -0.015443491146837749 0.00093426327896003374 0 -0.015686302351413314 0.00068534415285925407 0 -0.015443491146837749 0.00093426327896003374 0 -0.015449347079208338 0.00074729096157860478 0 -0.015686302351413314 0.00068534415285925407 0 -0.015522256407405319 0.0005692671812550505 0 -0.015449347079208338 0.00074729096157860478 0 -0.015686302351413314 0.00068534415285925407 0 -0.015522256407405319 0.0005692671812550505 0 -0.015449347079208338 0.00074729096157860478 0 -0.015369706740892686 0.00057395392210638602 0 -0.015775504728699895 0.0010577914697612501 0 -0.015686302351413314 0.00068534415285925407 0 -0.015958719484615604 0.00080550735877791505 0 -0.016083133788937293 0.00048605253296792489 0 -0.015686302351413314 0.00068534415285925407 0 -0.015958719484615604 0.00080550735877791505 0 -0.016083133788937293 0.00048605253296792489 0 -0.015958719484615604 0.00080550735877791505 0 -0.016268455620094529 0.00075798666551994361 0 -0.016526237152456439 0.00044609834680117081 0 -0.016268455620094529 0.00075798666551994361 0 -0.016622964255549114 0.00072661515418485944 0 -0.016268455620094529 0.00075798666551994361 0 -0.01652253325673049 0.00096887032337567513 0 -0.016622964255549114 0.00072661515418485944 0 -0.016268455620094529 0.00075798666551994361 0 -0.01652253325673049 0.00096887032337567513 0 -0.016173742411474776 0.0011063570575597216 0 -0.015958719484615604 0.00080550735877791505 0 -0.016268455620094529 0.00075798666551994361 0 -0.016173742411474776 0.0011063570575597216 0 -0.016844525796122209 0.00062369904901847214 0 -0.016622964255549114 0.00072661515418485944 0 -0.016867805839359745 0.00091783092253310851 0 -0.01652253325673049 0.00096887032337567513 0 -0.016622964255549114 0.00072661515418485944 0 -0.016867805839359745 0.00091783092253310851 0 -0.017140931904007062 0.0011454866090133539 0 -0.016867805839359745 0.00091783092253310851 0 -0.01666490088321558 0.0012566102854898143 0 -0.017140931904007062 0.0011454866090133539 0 -0.01666490088321558 0.0012566102854898143 0 -0.016872401499290493 0.0016553903368217288 0 -0.01652253325673049 0.00096887032337567513 0 -0.016867805839359745 0.00091783092253310851 0 -0.01666490088321558 0.0012566102854898143 0 -0.016128821425009668 0.0011093109653517856 0 -0.016248833299371997 0.0015632850439862257 0 -0.01666490088321558 0.0012566102854898143 0 -0.016173742411474776 0.0011063570575597216 0 -0.016399070801863942 0.0016509388550173655 0 -0.01652253325673049 0.00096887032337567513 0 -0.01666490088321558 0.0012566102854898143 0 -0.016173742411474776 0.0011063570575597216 0 -0.016173742411474776 0.0011063570575597216 0 -0.015960848637930413 0.0014288448733935698 0 -0.015855197866058549 0.0013320124694094265 0 -0.016399070801863942 0.0016509388550173655 0 -0.016872401499290493 0.0016553903368217288 0 -0.016578916300824208 0.0021651551496376961 0 -0.01666490088321558 0.0012566102854898143 0 -0.016399070801863942 0.0016509388550173655 0 -0.016872401499290493 0.0016553903368217288 0 -0.014641907434953453 0.0014474247656914645 0 -0.014657707010680282 0.0015719077408369981 0 -0.014481478971283317 0.0017946783167095946 0 -0.015796465757908978 0.0015516717919675622 0 -0.015290500072512652 0.001800930420541967 0 -0.016248833299371997 0.0015632850439862257 0 -0.015290500072512652 0.001800930420541967 0 -0.014682402713675756 0.0017614636379635245 0 -0.014481478971283317 0.0017946783167095946 0 -0.014681573131459827 0.0019332119692179017 0 -0.014682402713675756 0.0017614636379635245 0 -0.014657707010680282 0.0015719077408369981 0 -0.014481478971283317 0.0017946783167095946 0 -0.015960848637930413 0.0014288448733935698 0 -0.015809651118380272 0.0015428973670249104 0 -0.015702199355178137 0.0015627633073850592 0 -0.015960848637930413 0.0014288448733935698 0 -0.015719934832140611 0.0016000552623952615 0 -0.015702199355178137 0.0015627633073850592 0 -0.015960848637930413 0.0014288448733935698 0 -0.015719934832140611 0.0016000552623952615 0 -0.015855197866058549 0.0013320124694094265 0 -0.015719934832140611 0.0016000552623952615 0 -0.015855197866058549 0.0013320124694094265 0 -0.01555987602270432 0.0013598827058152047 0 -0.01555987602270432 0.0013598827058152047 0 -0.015302400266334963 0.0016905826158295607 0 -0.015099127429513911 0.0011271654678773569 0 -0.015719934832140611 0.0016000552623952615 0 -0.01555987602270432 0.0013598827058152047 0 -0.015302400266334963 0.0016905826158295607 0 -0.015719934832140611 0.0016000552623952615 0 -0.015302400266334963 0.0016905826158295607 0 -0.015459147716990777 0.0023079837160610642 0 -0.015302400266334963 0.0016905826158295607 0 -0.014932184857609084 0.0017212247910637244 0 -0.014998882447802429 0.0021543232504342667 0 -0.014932184857609084 0.0017212247910637244 0 -0.014600535189224809 0.0020482688091377141 0 -0.014998882447802429 0.0021543232504342667 0 -0.01463058515912144 0.0015792572593398666 0 -0.014251476120702085 0.0017225879260826505 0 -0.014600535189224809 0.0020482688091377141 0 -0.014932184857609084 0.0017212247910637244 0 -0.01463058515912144 0.0015792572593398666 0 -0.014600535189224809 0.0020482688091377141 0 -0.014251476120702085 0.0017225879260826505 0 -0.014196196998137438 0.0021399943591554932 0 -0.014600535189224809 0.0020482688091377141 0 -0.01463058515912144 0.0015792572593398666 0 -0.014375178296032956 0.0013187840538397327 0 -0.015099127429513911 0.0011271654678773569 0 -0.014503165478186798 0.0014073306628759963 0 -0.015189192623067994 0.0011996464986972918 0 -0.01463058515912144 0.0015792572593398666 0 -0.014375178296032956 0.0013187840538397327 0 -0.014251476120702085 0.0017225879260826505 0 -0.015302400266334963 0.0016905826158295607 0 -0.014932184857609084 0.0017212247910637244 0 -0.015099127429513911 0.0011271654678773569 0 -0.014932184857609084 0.0017212247910637244 0 -0.01463058515912144 0.0015792572593398666 0 -0.015099127429513911 0.0011271654678773569 0 -0.015443491146837749 0.00093426327896003374 0 -0.015280592611953529 0.0012619237651314982 0 -0.014880642346066883 0.00084413351992152408 0 -0.014877132651004002 0.00085681203247134677 0 -0.01431166047782341 0.0011914572663262839 0 -0.014631562998309823 0.001491086175175866 0 -0.014880642346066883 0.00084413351992152408 0 -0.014331834962714727 0.0011547677098467195 0 -0.014631562998309823 0.001491086175175866 0 -0.015280592611953529 0.0012619237651314982 0 -0.014880642346066883 0.00084413351992152408 0 -0.014864350717476625 0.00087145343330196918 0 -0.015286095033857456 0.00043792133378697703 0 -0.014943721228980009 0.00035494817326779161 0 -0.014864350717476625 0.00087145343330196918 0 -0.01434445070717911 0.00066214050828212502 0 -0.014606813256300775 0.00044336275418915816 0 -0.014864350717476625 0.00087145343330196918 0 -0.014943721228980009 0.00035494817326779161 0 -0.014606813256300775 0.00044336275418915816 0 -0.014864350717476625 0.00087145343330196918 0 -0.015369706740892686 0.00057395392210638602 0 -0.015286095033857456 0.00043792133378697703 0 -0.015443491146837749 0.00093426327896003374 0 -0.015449347079208338 0.00074729096157860478 0 -0.014880642346066883 0.00084413351992152408 0 -0.014877132651004002 0.00085681203247134677 0 -0.015329197429378487 0.00058838524492559345 0 -0.015449347079208338 0.00074729096157860478 0 -0.014880642346066883 0.00084413351992152408 0 -0.015369706740892686 0.00057395392210638602 0 -0.013923021953111028 0.00063959156457450836 0 -0.01434445070717911 0.00066214050828212502 0 -0.01402040815667731 0.00093638392582162037 0 -0.013923021953111028 0.00063959156457450836 0 -0.01402040815667731 0.00093638392582162037 0 -0.013734246547031427 0.00091229719906829587 0 -0.013620737750746499 0.00067360203535655984 0 -0.013923021953111028 0.00063959156457450836 0 -0.013734246547031427 0.00091229719906829587 0 -0.013620737750746499 0.00067360203535655984 0 -0.013734246547031427 0.00091229719906829587 0 -0.013523689381705331 0.00088537511122121495 0 -0.013620737750746499 0.00067360203535655984 0 -0.013923021953111028 0.00063959156457450836 0 -0.013631567117880427 0.00030908368830684661 0 -0.013923021953111028 0.00063959156457450836 0 -0.01434445070717911 0.00066214050828212502 0 -0.013942524077523605 0.00019115641420993065 0 -0.014864350717476625 0.00087145343330196918 0 -0.01434445070717911 0.00066214050828212502 0 -0.014296696595365491 0.0012290460440254134 0 -0.01434445070717911 0.00066214050828212502 0 -0.014296696595365491 0.0012290460440254134 0 -0.01402040815667731 0.00093638392582162037 0 -0.014296696595365491 0.0012290460440254134 0 -0.013804346636306909 0.0012284112215304719 0 -0.013667510842428097 0.0015811573796644326 0 -0.014296696595365491 0.0012290460440254134 0 -0.01402040815667731 0.00093638392582162037 0 -0.013804346636306909 0.0012284112215304719 0 -0.01402040815667731 0.00093638392582162037 0 -0.013734246547031427 0.00091229719906829587 0 -0.013804346636306909 0.0012284112215304719 0 -0.013734246547031427 0.00091229719906829587 0 -0.013804346636306909 0.0012284112215304719 0 -0.013579260486118155 0.0010915034742496365 0 -0.013734246547031427 0.00091229719906829587 0 -0.013579260486118155 0.0010915034742496365 0 -0.013523689381705331 0.00088537511122121495 0 -0.013804346636306909 0.0012284112215304719 0 -0.013586463348478619 0.0013038412505921126 0 -0.013579260486118155 0.0010915034742496365 0 -0.013804346636306909 0.0012284112215304719 0 -0.013586463348478619 0.0013038412505921126 0 -0.013667510842428097 0.0015811573796644326 0 -0.014331834962714727 0.0011547677098467195 0 -0.013724450424940466 0.0015054830094576469 0 -0.013885500846081207 0.0017289278228432169 0 -0.013586463348478619 0.0013038412505921126 0 -0.013667510842428097 0.0015811573796644326 0 -0.013455790716945798 0.0014253117655283105 0 -0.01431166047782341 0.0011914572663262839 0 -0.01368544457579771 0.0015425650942715538 0 -0.014631562998309823 0.001491086175175866 0 -0.014331834962714727 0.0011547677098467195 0 -0.013885500846081207 0.0017289278228432169 0 -0.014375178296032956 0.0013187840538397327 0 -0.013660660788112115 0.0015915153439802871 0 -0.014251476120702085 0.0017225879260826505 0 -0.014503165478186798 0.0014073306628759963 0 -0.013769962087180331 0.0016612560054530422 0 -0.013660660788112115 0.0015915153439802871 0 -0.014251476120702085 0.0017225879260826505 0 -0.01391051571572146 0.0018749557572747665 0 -0.014251476120702085 0.0017225879260826505 0 -0.01391051571572146 0.0018749557572747665 0 -0.014196196998137438 0.0021399943591554932 0 -0.013660660788112115 0.0015915153439802871 0 -0.013580207072853156 0.0018536432900700989 0 -0.01371002433702 0.0018417567321041199 0 -0.013660660788112115 0.0015915153439802871 0 -0.013446009617011999 0.0018604567699224584 0 -0.013317458836525256 0.0018611992201770918 0 -0.013660660788112115 0.0015915153439802871 0 -0.013580207072853156 0.0018536432900700989 0 -0.013446009617011999 0.0018604567699224584 0 -0.013660660788112115 0.0015915153439802871 0 -0.01391051571572146 0.0018749557572747665 0 -0.01371002433702 0.0018417567321041199 0 -0.013580207072853156 0.0018536432900700989 0 -0.01371002433702 0.0018417567321041199 0 -0.01368948929653345 0.0020397498706840609 0 -0.01391051571572146 0.0018749557572747665 0 -0.01371002433702 0.0018417567321041199 0 -0.01368948929653345 0.0020397498706840609 0 -0.013580207072853156 0.0018536432900700989 0 -0.01368948929653345 0.0020397498706840609 0 -0.013435571633792496 0.0020019638004837997 0 -0.013580207072853156 0.0018536432900700989 0 -0.013446009617011999 0.0018604567699224584 0 -0.013435571633792496 0.0020019638004837997 0 -0.013435571633792496 0.0020019638004837997 0 -0.013278271512102235 0.0019779408411270474 0 -0.013295182557254891 0.0021503851365043715 0 -0.013769962087180331 0.0016612560054530422 0 -0.013099705417236946 0.001895498197231054 0 -0.013885500846081207 0.0017289278228432169 0 -0.013062025391177217 0.0018541465072473445 0 -0.013044969547821004 0.0019155310355088888 0 -0.013660660788112115 0.0015915153439802871 0 -0.013317458836525256 0.0018611992201770918 0 -0.013044969547821004 0.0019155310355088888 0 -0.013278271512102235 0.0019779408411270474 0 -0.013317458836525256 0.0018611992201770918 0 -0.013158437876098014 0.0019542059666065067 0 -0.013446009617011999 0.0018604567699224584 0 -0.013435571633792496 0.0020019638004837997 0 -0.013278271512102235 0.0019779408411270474 0 -0.013446009617011999 0.0018604567699224584 0 -0.013278271512102235 0.0019779408411270474 0 -0.013317458836525256 0.0018611992201770918 0 -0.013317458836525256 0.0018611992201770918 0 -0.013044969547821004 0.0019155310355088888 0 -0.013158437876098014 0.0019542059666065067 0 -0.013076419340569594 0.0019749916160743198 0 -0.013109113508763547 0.002045605054247706 0 -0.013000776603436006 0.0019918726916879916 0 -0.013044969547821004 0.0019155310355088888 0 -0.013076419340569594 0.0019749916160743198 0 -0.013000776603436006 0.0019918726916879916 0 -0.013044969547821004 0.0019155310355088888 0 -0.013076419340569594 0.0019749916160743198 0 -0.013158437876098014 0.0019542059666065067 0 -0.013076419340569594 0.0019749916160743198 0 -0.013158437876098014 0.0019542059666065067 0 -0.013109113508763547 0.002045605054247706 0 -0.013278271512102235 0.0019779408411270474 0 -0.013158437876098014 0.0019542059666065067 0 -0.013109113508763547 0.002045605054247706 0 -0.013278271512102235 0.0019779408411270474 0 -0.013109113508763547 0.002045605054247706 0 -0.013295182557254891 0.0021503851365043715 0 -0.012895220354242769 0.0020231320899232103 0 -0.01273659378416646 0.0022031121383064354 0 -0.012978571789252203 0.002140849452031743 0 -0.013109113508763547 0.002045605054247706 0 -0.013000776603436006 0.0019918726916879916 0 -0.012978571789252203 0.002140849452031743 0 -0.012895220354242769 0.0020231320899232103 0 -0.013000776603436006 0.0019918726916879916 0 -0.012978571789252203 0.002140849452031743 0 -0.012895220354242769 0.0020231320899232103 0 -0.012785949385557899 0.0019706234382844017 0 -0.0128557196871279 0.0018528375403779735 0 -0.012895220354242769 0.0020231320899232103 0 -0.013000776603436006 0.0019918726916879916 0 -0.012972458723874513 0.0018997218681979667 0 -0.013044969547821004 0.0019155310355088888 0 -0.013000776603436006 0.0019918726916879916 0 -0.012972458723874513 0.0018997218681979667 0 -0.012785949385557899 0.0019706234382844017 0 -0.012652230819440603 0.0018065760798042097 0 -0.01273659378416646 0.0022031121383064354 0 -0.012895220354242769 0.0020231320899232103 0 -0.012785949385557899 0.0019706234382844017 0 -0.01273659378416646 0.0022031121383064354 0 -0.012652230819440603 0.0018065760798042097 0 -0.0128557196871279 0.0018528375403779735 0 -0.01289947226076269 0.0016092396847323443 0 -0.012785949385557899 0.0019706234382844017 0 -0.012652230819440603 0.0018065760798042097 0 -0.0128557196871279 0.0018528375403779735 0 -0.0128557196871279 0.0018528375403779735 0 -0.012981221897843915 0.0017573934751280767 0 -0.01289947226076269 0.0016092396847323443 0 -0.013062025391177217 0.0018541465072473445 0 -0.012972458723874513 0.0018997218681979667 0 -0.012981221897843915 0.0017573934751280767 0 -0.013062025391177217 0.0018541465072473445 0 -0.013044969547821004 0.0019155310355088888 0 -0.012972458723874513 0.0018997218681979667 0 -0.012895220354242769 0.0020231320899232103 0 -0.012972458723874513 0.0018997218681979667 0 -0.0128557196871279 0.0018528375403779735 0 -0.012972458723874513 0.0018997218681979667 0 -0.0128557196871279 0.0018528375403779735 0 -0.012981221897843915 0.0017573934751280767 0 -0.013062025391177217 0.0018541465072473445 0 -0.012981221897843915 0.0017573934751280767 0 -0.013125065507423359 0.0017093036876723604 0 -0.012981221897843915 0.0017573934751280767 0 -0.01289947226076269 0.0016092396847323443 0 -0.013103419261767578 0.0016586748407700848 0 -0.012981221897843915 0.0017573934751280767 0 -0.013103419261767578 0.0016586748407700848 0 -0.013125065507423359 0.0017093036876723604 0 -0.012591493562365243 0.0018927877665123379 0 -0.01294558348823867 0.0011889995432004051 0 -0.012536015467283914 0.001964264253607656 0 -0.012594892956489049 0.0013348734037249886 0 -0.012888766072034727 0.0012473500266678937 0 -0.012652230819440603 0.0018065760798042097 0 -0.01289947226076269 0.0016092396847323443 0 -0.013014280069271543 0.0011281614055536737 0 -0.01289947226076269 0.0016092396847323443 0 -0.013040186958238479 0.0013869811918980749 0 -0.013014280069271543 0.0011281614055536737 0 -0.01289947226076269 0.0016092396847323443 0 -0.013091476809354182 0.0015190847089690171 0 -0.013103419261767578 0.0016586748407700848 0 -0.01289947226076269 0.0016092396847323443 0 -0.013040186958238479 0.0013869811918980749 0 -0.013091476809354182 0.0015190847089690171 0 -0.013040186958238479 0.0013869811918980749 0 -0.01314972810155148 0.0013837333821618339 0 -0.013090222111657208 0.0012739720425733209 0 -0.013667510842428097 0.0015811573796644326 0 -0.013062025391177217 0.0018541465072473445 0 -0.013334500673137243 0.0015723853596366344 0 -0.013040186958238479 0.0013869811918980749 0 -0.01314972810155148 0.0013837333821618339 0 -0.013091476809354182 0.0015190847089690171 0 -0.013724450424940466 0.0015054830094576469 0 -0.013885500846081207 0.0017289278228432169 0 -0.013062025391177217 0.0018541465072473445 0 -0.01368544457579771 0.0015425650942715538 0 -0.013119545182433455 0.0018440874945074733 0 -0.01314972810155148 0.0013837333821618339 0 -0.013091476809354182 0.0015190847089690171 0 -0.013203856177353326 0.001486912279207413 0 -0.013091476809354182 0.0015190847089690171 0 -0.013203856177353326 0.001486912279207413 0 -0.013189015156884271 0.00155826526998506 0 -0.013203856177353326 0.001486912279207413 0 -0.013292408234273519 0.0013634963638486073 0 -0.013334500673137243 0.0015723853596366344 0 -0.013203856177353326 0.001486912279207413 0 -0.013334500673137243 0.0015723853596366344 0 -0.013189015156884271 0.00155826526998506 0 -0.01314972810155148 0.0013837333821618339 0 -0.013203856177353326 0.001486912279207413 0 -0.013292408234273519 0.0013634963638486073 0 -0.013292408234273519 0.0013634963638486073 0 -0.013455790716945798 0.0014253117655283105 0 -0.013334500673137243 0.0015723853596366344 0 -0.013667510842428097 0.0015811573796644326 0 -0.013455790716945798 0.0014253117655283105 0 -0.013334500673137243 0.0015723853596366344 0 -0.013062025391177217 0.0018541465072473445 0 -0.013334500673137243 0.0015723853596366344 0 -0.013125065507423359 0.0017093036876723604 0 -0.013091476809354182 0.0015190847089690171 0 -0.013103419261767578 0.0016586748407700848 0 -0.013189015156884271 0.00155826526998506 0 -0.013334500673137243 0.0015723853596366344 0 -0.013103419261767578 0.0016586748407700848 0 -0.013125065507423359 0.0017093036876723604 0 -0.013334500673137243 0.0015723853596366344 0 -0.013103419261767578 0.0016586748407700848 0 -0.013189015156884271 0.00155826526998506 0 -0.011511283551397345 0.0020349766487399328 0 -0.011970498392377574 0.0021879654170663117 0 -0.011725832126426191 0.0017261497020185921 0 -0.011970498392377574 0.0021879654170663117 0 -0.012114034691846541 0.0017587487664428175 0 -0.011725832126426191 0.0017261497020185921 0 -0.012536015467283914 0.001964264253607656 0 -0.011970498392377574 0.0021879654170663117 0 -0.012258287510066419 0.0025573215240930957 0 -0.012536015467283914 0.001964264253607656 0 -0.011970498392377574 0.0021879654170663117 0 -0.012114034691846541 0.0017587487664428175 0 -0.012536015467283914 0.001964264253607656 0 -0.012400766294566552 0.001520185595673508 0 -0.012594892956489049 0.0013348734037249886 0 -0.012536015467283914 0.001964264253607656 0 -0.012400766294566552 0.001520185595673508 0 -0.012114034691846541 0.0017587487664428175 0 -0.012400766294566552 0.001520185595673508 0 -0.012114034691846541 0.0017587487664428175 0 -0.011968426167418921 0.0013080536101611889 0 -0.012114034691846541 0.0017587487664428175 0 -0.011725832126426191 0.0017261497020185921 0 -0.011968426167418921 0.0013080536101611889 0 -0.011537074966922819 0.0013241518981900945 0 -0.011968426167418921 0.0013080536101611889 0 -0.011750777807386962 0.00079114015438046053 0 -0.011537074966922819 0.0013241518981900945 0 -0.011725832126426191 0.0017261497020185921 0 -0.011968426167418921 0.0013080536101611889 0 -0.01239588004021149 0.0014749248361580539 0 -0.012370950305634664 0.00095353121603549936 0 -0.012400766294566552 0.001520185595673508 0 -0.012419972067754231 0.00091281557396574004 0 -0.012594892956489049 0.0013348734037249886 0 -0.012400766294566552 0.001520185595673508 0 -0.011968426167418921 0.0013080536101611889 0 -0.012289546337350112 0.00091634126584790216 0 -0.012289546337350112 0.00091634126584790216 0 -0.011750777807386962 0.00079114015438046053 0 -0.012204490405623073 0.00041532437289523917 0 -0.011968426167418921 0.0013080536101611889 0 -0.012289546337350112 0.00091634126584790216 0 -0.011750777807386962 0.00079114015438046053 0 -0.013271736533545015 0.00096895548063779787 0 -0.013084570896509209 0.0010359007448949632 0 -0.013294787861070459 0.00078397825730465421 0 -0.013264054920363552 0.0010974262964617014 0 -0.013271736533545015 0.00096895548063779787 0 -0.013406344552371831 0.0010213626336771065 0 -0.013264054920363552 0.0010974262964617014 0 -0.013137883462309548 0.0011496525850528995 0 -0.013084570896509209 0.0010359007448949632 0 -0.013264054920363552 0.0010974262964617014 0 -0.013271736533545015 0.00096895548063779787 0 -0.013084570896509209 0.0010359007448949632 0 -0.013406344552371831 0.0010213626336771065 0 -0.013523689381705331 0.00088537511122121495 0 -0.013372615793789263 0.00088484193046778185 0 -0.013271736533545015 0.00096895548063779787 0 -0.013406344552371831 0.0010213626336771065 0 -0.013372615793789263 0.00088484193046778185 0 -0.013579260486118155 0.0010915034742496365 0 -0.013406344552371831 0.0010213626336771065 0 -0.013523689381705331 0.00088537511122121495 0 -0.013579260486118155 0.0010915034742496365 0 -0.013406344552371831 0.0010213626336771065 0 -0.013430475256165997 0.0011962031293489531 0 -0.013264054920363552 0.0010974262964617014 0 -0.013406344552371831 0.0010213626336771065 0 -0.013430475256165997 0.0011962031293489531 0 -0.013586463348478619 0.0013038412505921126 0 -0.013455790716945798 0.0014253117655283105 0 -0.013430475256165997 0.0011962031293489531 0 -0.013292408234273519 0.0013634963638486073 0 -0.013455790716945798 0.0014253117655283105 0 -0.013430475256165997 0.0011962031293489531 0 -0.013586463348478619 0.0013038412505921126 0 -0.013579260486118155 0.0010915034742496365 0 -0.013430475256165997 0.0011962031293489531 0 -0.013292408234273519 0.0013634963638486073 0 -0.013430475256165997 0.0011962031293489531 0 -0.013272584670958145 0.0012136568852914521 0 -0.013292408234273519 0.0013634963638486073 0 -0.013272584670958145 0.0012136568852914521 0 -0.01318329890246803 0.0012709845343417809 0 -0.013264054920363552 0.0010974262964617014 0 -0.013272584670958145 0.0012136568852914521 0 -0.013137883462309548 0.0011496525850528995 0 -0.013264054920363552 0.0010974262964617014 0 -0.013430475256165997 0.0011962031293489531 0 -0.013272584670958145 0.0012136568852914521 0 -0.013137883462309548 0.0011496525850528995 0 -0.01318329890246803 0.0012709845343417809 0 -0.013090222111657208 0.0012739720425733209 0 -0.013272584670958145 0.0012136568852914521 0 -0.013137883462309548 0.0011496525850528995 0 -0.01318329890246803 0.0012709845343417809 0 -0.01314972810155148 0.0013837333821618339 0 -0.01318329890246803 0.0012709845343417809 0 -0.013090222111657208 0.0012739720425733209 0 -0.01314972810155148 0.0013837333821618339 0 -0.013292408234273519 0.0013634963638486073 0 -0.01318329890246803 0.0012709845343417809 0 -0.012419972067754231 0.00091281557396574004 0 -0.012594892956489049 0.0013348734037249886 0 -0.012712538367743758 0.0010699467359172776 0 -0.013040186958238479 0.0013869811918980749 0 -0.013090222111657208 0.0012739720425733209 0 -0.013014280069271543 0.0011281614055536737 0 -0.013137883462309548 0.0011496525850528995 0 -0.013090222111657208 0.0012739720425733209 0 -0.013014280069271543 0.0011281614055536737 0 -0.012594892956489049 0.0013348734037249886 0 -0.012712538367743758 0.0010699467359172776 0 -0.012888766072034727 0.0012473500266678937 0 -0.012712538367743758 0.0010699467359172776 0 -0.012888766072034727 0.0012473500266678937 0 -0.012901064231975843 0.00088723041478664571 0 -0.013137883462309548 0.0011496525850528995 0 -0.013084570896509209 0.0010359007448949632 0 -0.013014280069271543 0.0011281614055536737 0 -0.012712538367743758 0.0010699467359172776 0 -0.012901064231975843 0.00088723041478664571 0 -0.01276959561473477 0.00084151106453314974 0 -0.012419972067754231 0.00091281557396574004 0 -0.012712538367743758 0.0010699467359172776 0 -0.01276959561473477 0.00084151106453314974 0 -0.012419972067754231 0.00091281557396574004 0 -0.01276959561473477 0.00084151106453314974 0 -0.012823559170871839 0.00053897731608775618 0 -0.01276959561473477 0.00084151106453314974 0 -0.012940071991015083 0.00070433272748291679 0 -0.012823559170871839 0.00053897731608775618 0 -0.012901064231975843 0.00088723041478664571 0 -0.01276959561473477 0.00084151106453314974 0 -0.012940071991015083 0.00070433272748291679 0 -0.013084570896509209 0.0010359007448949632 0 -0.013014280069271543 0.0011281614055536737 0 -0.01328323320125413 0.00047085147238599121 0 -0.013118162786221297 0.0009519050593289549 0 -0.013235690209643458 0.00053892440722325997 0 -0.01294558348823867 0.0011889995432004051 0 -0.013235690209643458 0.00053892440722325997 0 -0.012888766072034727 0.0012473500266678937 0 -0.012901064231975843 0.00088723041478664571 0 -0.013158056750546878 0.00064671061659050293 0 -0.013084570896509209 0.0010359007448949632 0 -0.013294787861070459 0.00078397825730465421 0 -0.013313108743693495 0.00040798852657780818 0 -0.012901064231975843 0.00088723041478664571 0 -0.013187595153687939 0.00057587663622936044 0 -0.013158056750546878 0.00064671061659050293 0 -0.012901064231975843 0.00088723041478664571 0 -0.012940071991015083 0.00070433272748291679 0 -0.013187595153687939 0.00057587663622936044 0 -0.013294787861070459 0.00078397825730465421 0 -0.013364605156667033 0.0006224334632570906 0 -0.013313108743693495 0.00040798852657780818 0 -0.013271736533545015 0.00096895548063779787 0 -0.013294787861070459 0.00078397825730465421 0 -0.013372615793789263 0.00088484193046778185 0 -0.013523689381705331 0.00088537511122121495 0 -0.013372615793789263 0.00088484193046778185 0 -0.013439145997207911 0.00073210364099398283 0 -0.013294787861070459 0.00078397825730465421 0 -0.013372615793789263 0.00088484193046778185 0 -0.013439145997207911 0.00073210364099398283 0 -0.013294787861070459 0.00078397825730465421 0 -0.013439145997207911 0.00073210364099398283 0 -0.013364605156667033 0.0006224334632570906 0 -0.013620737750746499 0.00067360203535655984 0 -0.013523689381705331 0.00088537511122121495 0 -0.013439145997207911 0.00073210364099398283 0 -0.013620737750746499 0.00067360203535655984 0 -0.013439145997207911 0.00073210364099398283 0 -0.013454556765332427 0.0005439079164692689 0 -0.013620737750746499 0.00067360203535655984 0 -0.013454556765332427 0.0005439079164692689 0 -0.013631567117880427 0.00030908368830684661 0 -0.013439145997207911 0.00073210364099398283 0 -0.013364605156667033 0.0006224334632570906 0 -0.013454556765332427 0.0005439079164692689 0 -0.013364605156667033 0.0006224334632570906 0 -0.013454556765332427 0.0005439079164692689 0 -0.013313108743693495 0.00040798852657780818 0 -0.013348194018405783 0.00031669750575190911 0 -0.013566471977807555 -0.00023951220986155272 0 -0.013631567117880427 0.00030908368830684661 0 -0.013348194018405783 0.00031669750575190911 0 -0.013313108743693495 0.00040798852657780818 0 -0.013631567117880427 0.00030908368830684661 0 -0.013248402468700668 0.00048293123300135842 0 -0.013915134434972085 -6.2871734404212548e-05 0 -0.013454556765332427 0.0005439079164692689 0 -0.013313108743693495 0.00040798852657780818 0 -0.013631567117880427 0.00030908368830684661 0 -0.013080327953444482 0.00036140425296711282 0 -0.013187595153687939 0.00057587663622936044 0 -0.013357819535425121 0.00015672448115802197 0 -0.013080327953444482 0.00036140425296711282 0 -0.013017220573990053 0.00054222584599523244 0 -0.013187595153687939 0.00057587663622936044 0 -0.012940071991015083 0.00070433272748291679 0 -0.013017220573990053 0.00054222584599523244 0 -0.013187595153687939 0.00057587663622936044 0 -0.013248402468700668 0.00048293123300135842 0 -0.013235690209643458 0.00053892440722325997 0 -0.013080327953444482 0.00036140425296711282 0 -0.013017220573990053 0.00054222584599523244 0 -0.012823559170871839 0.00053897731608775618 0 -0.012823559170871839 0.00053897731608775618 0 -0.012859559658511462 0.00015850976200598699 0 -0.012413819213348269 0.00034850947606309779 0 -0.012940071991015083 0.00070433272748291679 0 -0.013017220573990053 0.00054222584599523244 0 -0.012823559170871839 0.00053897731608775618 0 -0.013080327953444482 0.00036140425296711282 0 -0.012823559170871839 0.00053897731608775618 0 -0.012859559658511462 0.00015850976200598699 0 -0.013915134434972085 -6.2871734404212548e-05 0 -0.015329413663287746 -6.2795020517774963e-05 0 -0.012859559658511462 0.00015850976200598699 0 -0.013357819535425121 0.00015672448115802197 0 -0.013032358557414385 -0.00022514890041717121 0 -0.013080327953444482 0.00036140425296711282 0 -0.012859559658511462 0.00015850976200598699 0 -0.013357819535425121 0.00015672448115802197 0 -0.011750777807386962 0.00079114015438046053 0 -0.012204490405623073 0.00041532437289523917 0 -0.011788697273192797 0.00032781628025222662 0 -0.012419972067754231 0.00091281557396574004 0 -0.012823559170871839 0.00053897731608775618 0 -0.012413819213348269 0.00034850947606309779 0 -0.012370950305634664 0.00095353121603549936 0 -0.01214960618897732 0.00029297689399047889 0 -0.01214960618897732 0.00029297689399047889 0 -0.014036664641412226 0.00021885588771221437 0 -0.012859559658511462 0.00015850976200598699 0 -0.012413819213348269 0.00034850947606309779 0 -0.012393465432651407 -0.00020031687713492293 0 -0.012204490405623073 0.00041532437289523917 0 -0.011788697273192797 0.00032781628025222662 0 -0.012166456158049743 -4.7489985965856789e-05 0 -0.01155344743724627 3.7525892194476728e-06 0 -0.011788697273192797 0.00032781628025222662 0 -0.012166456158049743 -4.7489985965856789e-05 0 -0.014065949862138322 0.00032984888531548259 0 -0.014036664641412226 0.00021885588771221437 0 -0.016480218468075215 0.00061633641266950413 0 -0.016095975410537647 0.00061719809443359496 0 -0.016316392527066292 0.00079809905686623679 0 -0.017413724800964914 0.0008040209129558508 0 -0.017331462354056179 0.00047860108734092431 0 -0.014036664641412226 0.00021885588771221437 0 -0.016575442055911861 0.0010694846541810946 0 -0.016129807522083917 0.0010647839171366402 0 -0.016142974966367237 0.00093097902891054059 0 -0.015839825209359379 0.0007759815061623614 0 -0.0160893555141584 0.00043087014792751461 0 -0.016142974966367237 0.00093097902891054059 0 -0.015839825209359379 0.0007759815061623614 0 -0.016304207761819432 0.0010088379399671387 0 -0.016142974966367237 0.00093097902891054059 0 -0.016316392527066292 0.00079809905686623679 0 -0.016506954324015631 0.00096382651366187864 0 -0.016304207761819432 0.0010088379399671387 0 -0.016316392527066292 0.00079809905686623679 0 -0.016095975410537647 0.00061719809443359496 0 -0.016142974966367237 0.00093097902891054059 0 -0.016316392527066292 0.00079809905686623679 0 -0.015074970632321976 -9.9261311085839052e-05 0 -0.015049654016768284 -0.00013421481855529284 0 -0.015095564007861708 -0.00013709597638675655 0 -0.015329413663287746 -6.2795020517774963e-05 0 -0.015957231908223145 -0.00026782043396231307 0 -0.017899759672955252 -0.00063170204609492219 0 -0.01758199195955798 -0.00016449140574888597 0 -0.017120244383445619 -0.00060037890106984888 0 -0.0160893555141584 0.00043087014792751461 0 -0.015550192450836293 0.00044436055830360141 0 -0.015839825209359379 0.0007759815061623614 0 -0.012859559658511462 0.00015850976200598699 0 -0.012393465432651407 -0.00020031687713492293 0 -0.013032358557414385 -0.00022514890041717121 0 -0.014036664641412226 0.00021885588771221437 0 -0.015329413663287746 -6.2795020517774963e-05 0 -0.015329413663287746 -6.2795020517774963e-05 0 -0.017331462354056179 0.00047860108734092431 0 -0.017899759672955252 -0.00063170204609492219 0 -0.018453663647478035 -1.6882908738004065e-05 0 -0.01758199195955798 -0.00016449140574888597 0 -0.017741929942923118 0.0003956771883998737 0 -0.01758199195955798 -0.00016449140574888597 0 -0.016911634427152926 -2.1486486155691463e-05 0 -0.017741929942923118 0.0003956771883998737 0 -0.018453663647478035 -1.6882908738004065e-05 0 -0.01758199195955798 -0.00016449140574888597 0 -0.019433095391552618 6.2587933256073931e-05 0 -0.01809240245120413 -0.00032031267628217268 0 -0.020913589816533358 -0.00031361451730954783 0 -0.02035862314107206 -0.00010655923415336401 0 -0.020134146035144636 -0.00071673373765720571 0 -0.01758199195955798 -0.00016449140574888597 0 -0.016911634427152926 -2.1486486155691463e-05 0 -0.017120244383445619 -0.00060037890106984888 0 -0.015957231908223145 -0.00026782043396231307 0 -0.015397406173201319 -0.00039388720213065351 0 -0.016823640592480434 -0.00033718052606949013 0 -0.01687595685972109 -0.00034220896487099781 0 -0.016859995163101268 -0.00036040887932738401 0 -0.013981838138657041 -0.00044149418967730892 0 -0.014400572452063541 -0.0004622544617375063 0 -0.014236310528625656 -6.9184406839287106e-05 0 -0.01809240245120413 -0.00032031267628217268 0 -0.015957231908223145 -0.00026782043396231307 0 -0.01684966747006382 -0.00038296360345930867 0 -0.016823640592480434 -0.00033718052606949013 0 -0.016859995163101268 -0.00036040887932738401 0 -0.01687595685972109 -0.00034220896487099781 0 -0.016887367065592934 -0.00036343819779094139 0 -0.016922236605649364 -0.00035078085801174219 0 -0.015397406173201319 -0.00039388720213065351 0 -0.016812901592427126 -0.00053778769074983989 0 -0.014400572452063541 -0.0004622544617375063 0 -0.014837421599329667 -0.00048925895590112563 0 -0.014568768648138521 -0.00012602490599855845 0 -0.01687595685972109 -0.00034220896487099781 0 -0.016859995163101268 -0.00036040887932738401 0 -0.016887367065592934 -0.00036343819779094139 0 -0.019611139448807602 -0.0009831893651114209 0 -0.019767648086791642 -0.00061065693296826753 0 -0.019355203774555331 -0.00067471717873064619 0 -0.020134146035144636 -0.00071673373765720571 0 -0.019611139448807602 -0.0009831893651114209 0 -0.019767648086791642 -0.00061065693296826753 0 -0.01809240245120413 -0.00032031267628217268 0 -0.018392210147790342 -0.00055674254095699723 0 -0.01684966747006382 -0.00038296360345930867 0 -0.016859995163101268 -0.00036040887932738401 0 -0.016887367065592934 -0.00036343819779094139 0 -0.019966634480535334 -0.00027814706891810285 0 -0.020134146035144636 -0.00071673373765720571 0 -0.019767648086791642 -0.00061065693296826753 0 -0.01950696810114887 -0.00020754522039849755 0 -0.019767648086791642 -0.00061065693296826753 0 -0.019355203774555331 -0.00067471717873064619 0 -0.017806254804411868 -0.00052342504871068186 0 -0.016731851268922997 -0.00062081113744467454 0 -0.018893185402922674 -0.00042694522786590499 0 -0.019355203774555331 -0.00067471717873064619 0 -0.019073678045152549 -0.0012459009613063807 0 -0.01950696810114887 -0.00020754522039849755 0 -0.018893185402922674 -0.00042694522786590499 0 -0.019355203774555331 -0.00067471717873064619 0 -0.017056435210415576 -0.00040582751587374513 0 -0.016939439907555857 -0.0004063370075927739 0 -0.017009229057651294 -0.00052364983658746136 0 -0.015778190159601954 -0.00042508253171585642 0 -0.015164228547741519 -0.00039500199953592069 0 -0.015471883435192109 -0.0002675155981678048 0 -0.016176210709730878 -0.0004280112312420238 0 -0.016731851268922997 -0.00062081113744467454 0 -0.016844692184455026 -0.00049257643142948339 0 -0.016939439907555857 -0.0004063370075927739 0 -0.017009229057651294 -0.00052364983658746136 0 -0.015164228547741519 -0.00039500199953592069 0 -0.015195860551008047 -0.00025085557485239428 0 -0.015471883435192109 -0.0002675155981678048 0 -0.016731851268922997 -0.00062081113744467454 0 -0.015613973853030021 -0.00045551658631712012 0 -0.018893185402922674 -0.00042694522786590499 0 -0.018699035277160946 -0.0012322737657967161 0 -0.019073678045152549 -0.0012459009613063807 0 -0.019611139448807602 -0.0009831893651114209 0 -0.019355203774555331 -0.00067471717873064619 0 -0.019073678045152549 -0.0012459009613063807 0 -0.018392210147790342 -0.00055674254095699723 0 -0.016812901592427126 -0.00053778769074983989 0 -0.016731851268922997 -0.00062081113744467454 0 -0.016812901592427126 -0.00053778769074983989 0 -0.015126998988361701 -0.00035519083975311342 0 -0.014837421599329667 -0.00048925895590112563 0 -0.014855773487383851 -0.00010092437409428283 0 -0.015613973853030021 -0.00045551658631712012 0 -0.016812901592427126 -0.00053778769074983989 0 -0.01621591677251228 -0.00034566269540432305 0 -0.016160195909393587 -0.00061065390491090072 0 -0.016662439677587421 -0.00036153112291401659 0 -0.015126998988361701 -0.00035519083975311342 0 -0.014855773487383851 -0.00010092437409428283 0 -0.015019773137361192 8.4746602263867377e-05 0 -0.014837421599329667 -0.00048925895590112563 0 -0.014855773487383851 -0.00010092437409428283 0 -0.014568768648138521 -0.00012602490599855845 0 -0.014855773487383851 -0.00010092437409428283 0 -0.014877779903172392 0.00011685858701759289 0 -0.015019773137361192 8.4746602263867377e-05 0 -0.014855773487383851 -0.00010092437409428283 0 -0.014877779903172392 0.00011685858701759289 0 -0.014691722086656899 0.00012785865535026714 0 -0.014855773487383851 -0.00010092437409428283 0 -0.014691722086656899 0.00012785865535026714 0 -0.014568768648138521 -0.00012602490599855845 0 -0.015126998988361701 -0.00035519083975311342 0 -0.015019773137361192 8.4746602263867377e-05 0 -0.015286095033857456 0.00043792133378697703 0 -0.015651239721422443 1.5790082406191145e-06 0 -0.015183665063195744 -0.00022561158035330122 0 -0.015377947603484494 0.00016460381945762804 0 -0.015183665063195744 -0.00022561158035330122 0 -0.015377947603484494 0.00016460381945762804 0 -0.015286095033857456 0.00043792133378697703 0 -0.015500115221148275 -2.3628835992497523e-05 0 -0.015613973853030021 -0.00045551658631712012 0 -0.015613973853030021 -0.00045551658631712012 0 -0.015159262285693066 0.00046478810932346277 0 -0.015651239721422443 1.5790082406191145e-06 0 -0.015195860551008047 -0.00025085557485239428 0 -0.015471883435192109 -0.0002675155981678048 0 -0.015377947603484494 0.00016460381945762804 0 -0.015432224841833014 0.00035110345780338609 0 -0.015286095033857456 0.00043792133378697703 0 -0.015019773137361192 8.4746602263867377e-05 0 -0.015286095033857456 0.00043792133378697703 0 -0.014943721228980009 0.00035494817326779161 0 -0.015369706740892686 0.00057395392210638602 0 -0.015286095033857456 0.00043792133378697703 0 -0.015438468508290216 0.00045227637311744476 0 -0.015522256407405319 0.0005692671812550505 0 -0.015369706740892686 0.00057395392210638602 0 -0.015438468508290216 0.00045227637311744476 0 -0.015432224841833014 0.00035110345780338609 0 -0.015286095033857456 0.00043792133378697703 0 -0.015438468508290216 0.00045227637311744476 0 -0.014691722086656899 0.00012785865535026714 0 -0.014943721228980009 0.00035494817326779161 0 -0.014606813256300775 0.00044336275418915816 0 -0.014877779903172392 0.00011685858701759289 0 -0.014691722086656899 0.00012785865535026714 0 -0.014943721228980009 0.00035494817326779161 0 -0.014877779903172392 0.00011685858701759289 0 -0.015019773137361192 8.4746602263867377e-05 0 -0.014943721228980009 0.00035494817326779161 0 -0.01434445070717911 0.00066214050828212502 0 -0.014404149185862195 0.00023024008756233894 0 -0.014099707507929988 0.00032633909361192434 0 -0.014404149185862195 0.00023024008756233894 0 -0.014099707507929988 0.00032633909361192434 0 -0.014236310528625656 -6.9184406839287106e-05 0 -0.01434445070717911 0.00066214050828212502 0 -0.014606813256300775 0.00044336275418915816 0 -0.014404149185862195 0.00023024008756233894 0 -0.014691722086656899 0.00012785865535026714 0 -0.014606813256300775 0.00044336275418915816 0 -0.014404149185862195 0.00023024008756233894 0 -0.014321508947213601 0.00062641252798473278 0 -0.014002161626847023 0.00024337456745274734 0 -0.013566471977807555 -0.00023951220986155272 0 -0.013942524077523605 0.00019115641420993065 0 -0.013631567117880427 0.00030908368830684661 0 -0.013923021953111028 0.00063959156457450836 0 -0.013942524077523605 0.00019115641420993065 0 -0.013631567117880427 0.00030908368830684661 0 -0.013915134434972085 -6.2871734404212548e-05 0 -0.014002161626847023 0.00024337456745274734 0 -0.013915134434972085 -6.2871734404212548e-05 0 -0.015957231908223145 -0.00026782043396231307 0 -0.013816499927018286 -1.6513030530124611e-05 0 -0.014099707507929988 0.00032633909361192434 0 -0.014236310528625656 -6.9184406839287106e-05 0 -0.013816499927018286 -1.6513030530124611e-05 0 -0.013981838138657041 -0.00044149418967730892 0 -0.014236310528625656 -6.9184406839287106e-05 0 -0.014400572452063541 -0.0004622544617375063 0 -0.014568768648138521 -0.00012602490599855845 0 -0.014236310528625656 -6.9184406839287106e-05 0 -0.014691722086656899 0.00012785865535026714 0 -0.014404149185862195 0.00023024008756233894 0 -0.014568768648138521 -0.00012602490599855845 0 -0.014404149185862195 0.00023024008756233894 0 -0.014568768648138521 -0.00012602490599855845 0 -0.014236310528625656 -6.9184406839287106e-05 0 -0.021659803845058872 -0.0013553037512133686 0 -0.022592979030821438 -0.0012774046536067093 0 -0.021976113179317167 -0.00063585874210167481 0 -0.020908310360668179 -0.00088848943011170277 0 -0.021659803845058872 -0.0013553037512133686 0 -0.021976113179317167 -0.00063585874210167481 0 -0.020198577050048353 -4.0935014056107968e-07 0 -0.020009676968539974 -1.0635354662101584e-06 0 -0.022061297486092871 -0.00051591795947560873 0 -0.020362470548235971 -0.00040492337345046924 0 -0.02207189602988717 -0.00053576365705520633 0 -0.020362470548235971 -0.00040492337345046924 0 -0.020042360194444987 -0.00095209678914149264 0 -0.020908310360668179 -0.00088848943011170277 0 -0.021659803845058872 -0.0013553037512133686 0 -0.021088443734427375 -0.0021258722188216032 0 -0.020007530934861344 -7.5277137679719377e-08 0 -0.018948035594725372 -1.592069524463041e-08 0 -0.018463908172886543 1.0527321600609695e-06 0 -0.022068101656814252 -0.0019537392267487143 0 -0.021659803845058872 -0.0013553037512133686 0 -0.022592979030821438 -0.0012774046536067093 0 -0.022068101656814252 -0.0019537392267487143 0 -0.021659803845058872 -0.0013553037512133686 0 -0.021088443734427375 -0.0021258722188216032 0 -0.022723138470521983 -0.0018443445653858459 0 -0.023372471703973625 -0.0016091077931865399 0 -0.022592979030821438 -0.0012774046536067093 0 -0.022068101656814252 -0.0019537392267487143 0 -0.022723138470521983 -0.0018443445653858459 0 -0.022592979030821438 -0.0012774046536067093 0 -0.023372471703973625 -0.0016091077931865399 0 -0.022592979030821438 -0.0012774046536067093 0 -0.023114342497177035 -0.00045993820686979057 0 -0.023372471703973625 -0.0016091077931865399 0 -0.023114342497177035 -0.00045993820686979057 0 -0.023781124965627745 -0.00082497784609588385 0 -0.022592979030821438 -0.0012774046536067093 0 -0.023114342497177035 -0.00045993820686979057 0 -0.021976113179317167 -0.00063585874210167481 0 -0.023029177765057852 -0.00045462294836304479 0 -0.02207189602988717 -0.00053576365705520633 0 -0.023114342497177035 -0.00045993820686979057 0 -0.022845734837022 -6.9981380753819918e-05 0 -0.022061297486092871 -0.00051591795947560873 0 -0.023114342497177035 -0.00045993820686979057 0 -0.023553725859235739 -0.00027691032379929825 0 -0.023781124965627745 -0.00082497784609588385 0 -0.023114342497177035 -0.00045993820686979057 0 -0.023292833856152891 -5.6500895953876456e-05 0 -0.023553725859235739 -0.00027691032379929825 0 -0.023292833856152891 -5.6500895953876456e-05 0 -0.023460598969892676 3.1599839251672871e-05 0 -0.023605712202619356 0.00010971300935493187 0 -0.023292833856152891 -5.6500895953876456e-05 0 -0.023460598969892676 3.1599839251672871e-05 0 -0.023553725859235739 -0.00027691032379929825 0 -0.023114342497177035 -0.00045993820686979057 0 -0.023292833856152891 -5.6500895953876456e-05 0 -0.022845734837022 -6.9981380753819918e-05 0 -0.023292833856152891 -5.6500895953876456e-05 0 -0.022845734837022 -6.9981380753819918e-05 0 -0.023605712202619356 0.00010971300935493187 0 -0.022845734837022 -6.9981380753819918e-05 0 -0.021257412630742736 1.1502468619704819e-06 0 -0.022371256452303156 0.00032554997176935168 0 -0.022845734837022 -6.9981380753819918e-05 0 -0.022061297486092871 -0.00051591795947560873 0 -0.021257412630742736 1.1502468619704819e-06 0 -0.020198577050048353 -4.0935014056107968e-07 0 -0.022061297486092871 -0.00051591795947560873 0 -0.021257412630742736 1.1502468619704819e-06 0 -0.021259018443482526 7.9125811908919903e-09 0 -0.022682685227369128 0.00016793637229092035 0 -0.021263457452098705 -9.6793159628782236e-07 0 -0.02294986070322684 1.5711292135076959e-05 0 -0.02499705750391696 7.8094942682227984e-07 0 -0.02499705750391696 7.8094942682227984e-07 0 -0.023887937601049486 0.00018769349517580095 0 -0.024999692140068402 2.6806953268764849e-07 0 -0.02294986070322684 1.5711292135076959e-05 0 -0.02499705750391696 7.8094942682227984e-07 0 -0.023887937601049486 0.00018769349517580095 0 -0.022682685227369128 0.00016793637229092035 0 -0.023703634556214638 0.00023982430462386506 0 -0.022845734837022 -6.9981380753819918e-05 0 -0.022371256452303156 0.00032554997176935168 0 -0.023605712202619356 0.00010971300935493187 0 -0.023887937601049486 0.00018769349517580095 0 -0.024329986500756445 8.9814543504706035e-05 0 -0.024999692140068402 2.6806953268764849e-07 0 -0.023887937601049486 0.00018769349517580095 0 -0.02401146521208521 9.7177239943190582e-05 0 -0.024329986500756445 8.9814543504706035e-05 0 -0.022371256452303156 0.00032554997176935168 0 -0.023887937601049486 0.00018769349517580095 0 -0.023605712202619356 0.00010971300935493187 0 -0.023887937601049486 0.00018769349517580095 0 -0.023605712202619356 0.00010971300935493187 0 -0.02401146521208521 9.7177239943190582e-05 0 -0.024303755041761348 -0.00029273740279118783 0 -0.023605712202619356 0.00010971300935493187 0 -0.02401146521208521 9.7177239943190582e-05 0 -0.024041876560618635 -0.00020447134152737329 0 -0.023544719008658302 0.00012761313241035698 0 -0.024303755041761348 -0.00029273740279118783 0 -0.02401146521208521 9.7177239943190582e-05 0 -0.024329986500756445 8.9814543504706035e-05 0 -0.024999692140068402 2.6806953268764849e-07 0 -0.02481719196621749 0.00013196093168932961 0 -0.024998954844048786 4.4149487522547632e-09 0 -0.024303755041761348 -0.00029273740279118783 0 -0.024556370509533611 -0.00016435610393657148 0 -0.024329986500756445 8.9814543504706035e-05 0 -0.024556370509533611 -0.00016435610393657148 0 -0.024693950589533033 5.0968398608435292e-05 0 -0.024779161474726641 -0.00022781392634226995 0 -0.024556370509533611 -0.00016435610393657148 0 -0.024693950589533033 5.0968398608435292e-05 0 -0.024329986500756445 8.9814543504706035e-05 0 -0.024693950589533033 5.0968398608435292e-05 0 -0.024329986500756445 8.9814543504706035e-05 0 -0.024999692140068402 2.6806953268764849e-07 0 -0.024693950589533033 5.0968398608435292e-05 0 -0.024999692140068402 2.6806953268764849e-07 0 -0.024825904306123709 8.2582552918248895e-05 0 -0.024999692140068402 2.6806953268764849e-07 0 -0.024825904306123709 8.2582552918248895e-05 0 -0.02481719196621749 0.00013196093168932961 0 -0.024784981760424877 0.00012703529548882566 0 -0.024748540283996256 0.00023932533561726716 0 -0.02481719196621749 0.00013196093168932961 0 -0.024666662256030647 0.00053923884666334158 0 -0.024498009255295768 0.0005557014434424745 0 -0.024825904306123709 8.2582552918248895e-05 0 -0.02481719196621749 0.00013196093168932961 0 -0.024862827345054291 -2.0564565643189024e-05 0 -0.024693950589533033 5.0968398608435292e-05 0 -0.024825904306123709 8.2582552918248895e-05 0 -0.024862827345054291 -2.0564565643189024e-05 0 -0.024693950589533033 5.0968398608435292e-05 0 -0.024862827345054291 -2.0564565643189024e-05 0 -0.024779161474726641 -0.00022781392634226995 0 -0.024666662256030647 0.00053923884666334158 0 -0.024422432474464757 0.00082676426565746414 0 -0.024580002205057058 0.00088657337853717967 0 -0.024748540283996256 0.00023932533561726716 0 -0.02478412091129242 0.0002636033417214163 0 -0.024666662256030647 0.00053923884666334158 0 -0.024422432474464757 0.00082676426565746414 0 -0.024498009255295768 0.0005557014434424745 0 -0.024422432474464757 0.00082676426565746414 0 -0.024250256930435535 0.00098257523777278981 0 -0.024498009255295768 0.0005557014434424745 0 -0.024163610164904498 0.0012014288555496264 0 -0.024020317409550337 0.0014072837480251117 0 -0.024250256930435535 0.00098257523777278981 0 -0.024422432474464757 0.00082676426565746414 0 -0.024163610164904498 0.0012014288555496264 0 -0.024250256930435535 0.00098257523777278981 0 -0.024163610164904498 0.0012014288555496264 0 -0.02352306115132715 0.0018138673148073356 0 -0.024020317409550337 0.0014072837480251117 0 -0.02352306115132715 0.0018138673148073356 0 -0.024031019499176604 0.0015001168042399792 0 -0.024020317409550337 0.0014072837480251117 0 -0.022836114927306812 0.0014639517216077213 0 -0.023348686370595135 0.0022112544447350619 0 -0.020580183564312057 0.00378439684991007 0 -0.02352306115132715 0.0018138673148073356 0 -0.021232727929312047 0.0017770647896659484 0 -0.024163610164904498 0.0012014288555496264 0 -0.024767525149389489 0.0014042584587114189 0 -0.02352306115132715 0.0018138673148073356 0 -0.024163610164904498 0.0012014288555496264 0 -0.024580002205057058 0.00088657337853717967 0 -0.024767525149389489 0.0014042584587114189 0 -0.024422432474464757 0.00082676426565746414 0 -0.024163610164904498 0.0012014288555496264 0 -0.024580002205057058 0.00088657337853717967 0 -0.024779161474726641 -0.00022781392634226995 0 -0.024585983580592732 -0.00040994302096058045 0 -0.024666631341355324 -0.00045410788678787613 0 -0.024556370509533611 -0.00016435610393657148 0 -0.024779161474726641 -0.00022781392634226995 0 -0.024585983580592732 -0.00040994302096058045 0 -0.02478412091129242 0.0002636033417214163 0 -0.022836114927306812 0.0014639517216077213 0 -0.024041876560618635 -0.00020447134152737329 0 -0.023607548378935382 6.0124854748691689e-05 0 -0.023460598969892676 3.1599839251672871e-05 0 -0.024046028837219804 -0.00021406563805773657 0 -0.023553725859235739 -0.00027691032379929825 0 -0.024303755041761348 -0.00029273740279118783 0 -0.024556370509533611 -0.00016435610393657148 0 -0.024585983580592732 -0.00040994302096058045 0 -0.023607548378935382 6.0124854748691689e-05 0 -0.022343585712406761 -0.00020018816217833767 0 -0.024046028837219804 -0.00021406563805773657 0 -0.023553725859235739 -0.00027691032379929825 0 -0.023781124965627745 -0.00082497784609588385 0 -0.022836114927306812 0.0014639517216077213 0 -0.020450847974458411 0.00074806599198623948 0 -0.021837311736031484 0.0015908967828369117 0 -0.02228729080747268 0.0013192953980723963 0 -0.021085153049125376 0.00034483141360820561 0 -0.023607548378935382 6.0124854748691689e-05 0 -0.022836114927306812 0.0014639517216077213 0 -0.02228729080747268 0.0013192953980723963 0 -0.021085153049125376 0.00034483141360820561 0 -0.021570301370723168 -7.5527435613872038e-05 0 -0.020580183564312057 0.00378439684991007 0 -0.019338041323213675 0.0012480374468452175 0 -0.021232727929312047 0.0017770647896659484 0 -0.019338041323213675 0.0012480374468452175 0 -0.021042097874212625 0.00043003136496676963 0 -0.021232727929312047 0.0017770647896659484 0 -0.020318383144356106 -0.00092312227098494256 0 -0.021085153049125376 0.00034483141360820561 0 -0.021570301370723168 -7.5527435613872038e-05 0 -0.022136992420560782 -0.0011940763181650957 0 -0.022343585712406761 -0.00020018816217833767 0 -0.019428512708753794 5.5014075545047044e-05 0 -0.018564127649091169 -0.00084448019570035305 0 -0.019338041323213675 0.0012480374468452175 0 -0.019742094943391259 0.0001485560402747729 0 -0.018396894110398854 -0.00059909478066469738 0 -0.020318383144356106 -0.00092312227098494256 0 -0.021570301370723168 -7.5527435613872038e-05 0 -0.020842535044214815 -0.001499717458357598 0 -0.020450847974458411 0.00074806599198623948 0 -0.018564127649091169 -0.00084448019570035305 0 -0.019742094943391259 0.0001485560402747729 0 -0.019877570493491401 -0.00092987383934979898 0 -0.01772731245004034 -0.00060667333106229516 0 -0.019338041323213675 0.0012480374468452175 0 -0.019742094943391259 0.0001485560402747729 0 -0.021042097874212625 0.00043003136496676963 0 -0.021042097874212625 0.00043003136496676963 0 -0.021133528170319035 -0.0012106213097127182 0 -0.019877570493491401 -0.00092987383934979898 0 -0.019742094943391259 0.0001485560402747729 0 -0.021042097874212625 0.00043003136496676963 0 -0.019877570493491401 -0.00092987383934979898 0 -0.021042097874212625 0.00043003136496676963 0 -0.021133528170319035 -0.0012106213097127182 0 -0.022243154663365364 -0.00060995655426712063 0 -0.021042097874212625 0.00043003136496676963 0 -0.022591108650642726 0.00043553133917515629 0 -0.022243154663365364 -0.00060995655426712063 0 -0.022591108650642726 0.00043553133917515629 0 -0.023698610411406987 -0.00025052439110180981 0 -0.023469919703909058 0.00090879431233694406 0 -0.023698610411406987 -0.00025052439110180981 0 -0.023469919703909058 0.00090879431233694406 0 -0.024031019499176604 0.0015001168042399792 0 -0.023166721906837971 0.00031236440512320336 0 -0.024224228378963666 0.0016472826414810357 0 -0.022871873647444745 0.00023643375467423606 0 -0.023166721906837971 0.00031236440512320336 0 -0.022591108650642726 0.00043553133917515629 0 -0.023378412537885956 -0.0004465622271431248 0 -0.022243154663365364 -0.00060995655426712063 0 -0.022591108650642726 0.00043553133917515629 0 -0.023469919703909058 0.00090879431233694406 0 -0.02352306115132715 0.0018138673148073356 0 -0.023469919703909058 0.00090879431233694406 0 -0.02352306115132715 0.0018138673148073356 0 -0.024031019499176604 0.0015001168042399792 0 -0.022591108650642726 0.00043553133917515629 0 -0.02352306115132715 0.0018138673148073356 0 -0.021232727929312047 0.0017770647896659484 0 -0.021042097874212625 0.00043003136496676963 0 -0.022591108650642726 0.00043553133917515629 0 -0.021232727929312047 0.0017770647896659484 0 -0.02380842473150771 0.0015241927812657714 0 -0.023687964148745178 0.0014819530039432835 0 -0.02392297213585878 0.0014106631346158954 0 -0.023885087040254958 0.0015732577473952581 0 -0.02380842473150771 0.0015241927812657714 0 -0.02392297213585878 0.0014106631346158954 0 -0.023885087040254958 0.0015732577473952581 0 -0.02380842473150771 0.0015241927812657714 0 -0.023738435910694987 0.0016213023280182482 0 -0.023885087040254958 0.0015732577473952581 0 -0.024031019499176604 0.0015001168042399792 0 -0.02392297213585878 0.0014106631346158954 0 -0.023885087040254958 0.0015732577473952581 0 -0.024031019499176604 0.0015001168042399792 0 -0.023969403988966968 0.0016157512985347897 0 -0.023885087040254958 0.0015732577473952581 0 -0.023969403988966968 0.0016157512985347897 0 -0.023894088253868486 0.0016968373950019475 0 -0.024063023246345083 0.0016946359782126917 0 -0.023969403988966968 0.0016157512985347897 0 -0.023894088253868486 0.0016968373950019475 0 -0.024063023246345083 0.0016946359782126917 0 -0.024031019499176604 0.0015001168042399792 0 -0.023969403988966968 0.0016157512985347897 0 -0.023894088253868486 0.0016968373950019475 0 -0.023738435910694987 0.0016213023280182482 0 -0.023776412606552725 0.0017551288096679708 0 -0.023885087040254958 0.0015732577473952581 0 -0.023894088253868486 0.0016968373950019475 0 -0.023738435910694987 0.0016213023280182482 0 -0.023738435910694987 0.0016213023280182482 0 -0.023597641567370264 0.0016929914010324928 0 -0.023687964148745178 0.0014819530039432835 0 -0.022244964941716277 0.002010934125861672 0 -0.02209677593731061 0.001928463430373815 0 -0.023738435910694987 0.0016213023280182482 0 -0.023597641567370264 0.0016929914010324928 0 -0.023776412606552725 0.0017551288096679708 0 -0.022103464497022777 0.0022868308653091257 0 -0.021049926041499901 0.0018213811501257286 0 -0.022244964941716277 0.002010934125861672 0 -0.022103464497022777 0.0022868308653091257 0 -0.02060066830279645 0.0021926232888243862 0 -0.020814801583093376 0.0022841353012197966 0 -0.020648090725416894 0.0020638800907433817 0 -0.022244964941716277 0.002010934125861672 0 -0.021548312149930592 0.0023527851632824024 0 -0.023656607641361519 0.0024807582011784437 0 -0.02335764700090932 0.0023539704218251394 0 -0.023625452804444554 0.0021212989005467081 0 -0.022103464497022777 0.0022868308653091257 0 -0.023547780898514784 0.0018328711801794189 0 -0.02315817663989848 0.0027212969299659148 0 -0.02341095203651028 0.0018778675482491515 0 -0.022787539128597559 0.0019404880540541505 0 -0.02335764700090932 0.0023539704218251394 0 -0.023625452804444554 0.0021212989005467081 0 -0.023546697231025298 0.0018056665914684331 0 -0.023656607641361519 0.0024807582011784437 0 -0.023625452804444554 0.0021212989005467081 0 -0.023940752846353407 0.0018448146497623808 0 -0.022244964941716277 0.002010934125861672 0 -0.023965695457841947 0.0016173435165229759 0 -0.02380842473150771 0.0015241927812657714 0 -0.023738435910694987 0.0016213023280182482 0 -0.023687964148745178 0.0014819530039432835 0 -0.023625452804444554 0.0021212989005467081 0 -0.023546697231025298 0.0018056665914684331 0 -0.023940752846353407 0.0018448146497623808 0 -0.023546697231025298 0.0018056665914684331 0 -0.023940752846353407 0.0018448146497623808 0 -0.023734836447245333 0.0012620026041800533 0 -0.023965695457841947 0.0016173435165229759 0 -0.02400178637793704 0.0011996365722341414 0 -0.023940752846353407 0.0018448146497623808 0 -0.023734836447245333 0.0012620026041800533 0 -0.024226527383695153 0.0011731437465651059 0 -0.023547780898514784 0.0018328711801794189 0 -0.023694251308071453 0.001307689827658227 0 -0.02341095203651028 0.0018778675482491515 0 -0.023734836447245333 0.0012620026041800533 0 -0.02299995604317432 0.001466780671837996 0 -0.02341095203651028 0.0018778675482491515 0 -0.02299995604317432 0.001466780671837996 0 -0.022787539128597559 0.0019404880540541505 0 -0.023378371831121281 0.00098477123881852437 0 -0.023734836447245333 0.0012620026041800533 0 -0.02299995604317432 0.001466780671837996 0 -0.023378371831121281 0.00098477123881852437 0 -0.023734836447245333 0.0012620026041800533 0 -0.024026519925951142 0.00083983478390834831 0 -0.023734836447245333 0.0012620026041800533 0 -0.024026519925951142 0.00083983478390834831 0 -0.024226527383695153 0.0011731437465651059 0 -0.023800156050012535 0.0011925626409424479 0 -0.024057498321470621 0.0011776805052813183 0 -0.024298754492834997 0.00064865829508067537 0 -0.02400178637793704 0.0011996365722341414 0 -0.024266138298448928 0.00069729506989447314 0 -0.024026519925951142 0.00083983478390834831 0 -0.024226527383695153 0.0011731437465651059 0 -0.024298754492834997 0.00064865829508067537 0 -0.023800156050012535 0.0011925626409424479 0 -0.02392297213585878 0.0014106631346158954 0 -0.024057498321470621 0.0011776805052813183 0 -0.023687964148745178 0.0014819530039432835 0 -0.023800156050012535 0.0011925626409424479 0 -0.02392297213585878 0.0014106631346158954 0 -0.02392297213585878 0.0014106631346158954 0 -0.024020317409550337 0.0014072837480251117 0 -0.024057498321470621 0.0011776805052813183 0 -0.024031019499176604 0.0015001168042399792 0 -0.02392297213585878 0.0014106631346158954 0 -0.024020317409550337 0.0014072837480251117 0 -0.024020317409550337 0.0014072837480251117 0 -0.024057498321470621 0.0011776805052813183 0 -0.024250256930435535 0.00098257523777278981 0 -0.024057498321470621 0.0011776805052813183 0 -0.024250256930435535 0.00098257523777278981 0 -0.024298754492834997 0.00064865829508067537 0 -0.024250256930435535 0.00098257523777278981 0 -0.024498009255295768 0.0005557014434424745 0 -0.024298754492834997 0.00064865829508067537 0 -0.024026519925951142 0.00083983478390834831 0 -0.024298754492834997 0.00064865829508067537 0 -0.024284043219720303 0.00041157491417316057 0 -0.024298754492834997 0.00064865829508067537 0 -0.024561100349401156 0.0002249028512306728 0 -0.024284043219720303 0.00041157491417316057 0 -0.024498009255295768 0.0005557014434424745 0 -0.024298754492834997 0.00064865829508067537 0 -0.024561100349401156 0.0002249028512306728 0 -0.02481719196621749 0.00013196093168932961 0 -0.024498009255295768 0.0005557014434424745 0 -0.024561100349401156 0.0002249028512306728 0 -0.024561100349401156 0.0002249028512306728 0 -0.024998954844048786 4.4149487522547632e-09 0 -0.024402855314965586 4.8533267500177335e-07 0 -0.02481719196621749 0.00013196093168932961 0 -0.024561100349401156 0.0002249028512306728 0 -0.024998954844048786 4.4149487522547632e-09 0 -0.024998954844048786 4.4149487522547632e-09 0 -0.024402855314965586 4.8533267500177335e-07 0 -0.024775019259644596 7.0543944039941641e-06 0 -0.024998954844048786 4.4149487522547632e-09 0 -0.024775019259644596 7.0543944039941641e-06 0 -0.024999797109942271 5.4617366973693248e-08 0 -0.024402855314965586 4.8533267500177335e-07 0 -0.023416204723490163 0.00021731441479825241 0 -0.02328523748065757 -0.00054789854323230951 0 -0.024369598700403006 -4.2398200797521591e-05 0 -0.024074091502796425 -0.00023719333738938075 0 -0.024402855314965586 4.8533267500177335e-07 0 -0.023416204723490163 0.00021731441479825241 0 -0.023827506204678429 0.00060139593818910714 0 -0.024561100349401156 0.0002249028512306728 0 -0.024402855314965586 4.8533267500177335e-07 0 -0.024284043219720303 0.00041157491417316057 0 -0.024402855314965586 4.8533267500177335e-07 0 -0.024284043219720303 0.00041157491417316057 0 -0.023827506204678429 0.00060139593818910714 0 -0.024026519925951142 0.00083983478390834831 0 -0.024284043219720303 0.00041157491417316057 0 -0.023827506204678429 0.00060139593818910714 0 -0.023416204723490163 0.00021731441479825241 0 -0.023827506204678429 0.00060139593818910714 0 -0.02294289415679537 0.00069175512827397809 0 -0.023378371831121281 0.00098477123881852437 0 -0.024026519925951142 0.00083983478390834831 0 -0.023827506204678429 0.00060139593818910714 0 -0.023378371831121281 0.00098477123881852437 0 -0.023827506204678429 0.00060139593818910714 0 -0.02294289415679537 0.00069175512827397809 0 -0.02294289415679537 0.00069175512827397809 0 -0.022312059742120867 0.00063350106021057282 0 -0.022360569344932267 0.0010884444413702607 0 -0.02294289415679537 0.00069175512827397809 0 -0.022312059742120867 0.00063350106021057282 0 -0.0226734517463546 9.1610335815447294e-05 0 -0.022312059742120867 0.00063350106021057282 0 -0.0226734517463546 9.1610335815447294e-05 0 -0.021919424530129093 0.00019149371208816376 0 -0.0226734517463546 9.1610335815447294e-05 0 -0.022359108789131599 -0.00034938308040217037 0 -0.021919424530129093 0.00019149371208816376 0 -0.023416204723490163 0.00021731441479825241 0 -0.02294289415679537 0.00069175512827397809 0 -0.0226734517463546 9.1610335815447294e-05 0 -0.023416204723490163 0.00021731441479825241 0 -0.0226734517463546 9.1610335815447294e-05 0 -0.02328523748065757 -0.00054789854323230951 0 -0.024074091502796425 -0.00023719333738938075 0 -0.023610037797730136 -0.00047185095127747151 0 -0.02328523748065757 -0.00054789854323230951 0 -0.022702496751909197 -0.00040493443539049386 0 -0.022510851674675484 -0.0008032343645899832 0 -0.0226734517463546 9.1610335815447294e-05 0 -0.02328523748065757 -0.00054789854323230951 0 -0.022702496751909197 -0.00040493443539049386 0 -0.02498084493982863 -7.9452476757616503e-06 0 -0.024999797109942271 5.4617366973693248e-08 0 -0.02500005975394275 -3.6026246331650099e-08 0 -0.0226734517463546 9.1610335815447294e-05 0 -0.022702496751909197 -0.00040493443539049386 0 -0.022359108789131599 -0.00034938308040217037 0 -0.022359108789131599 -0.00034938308040217037 0 -0.022510851674675484 -0.0008032343645899832 0 -0.02203403318440347 -0.00077213677004725489 0 -0.022702496751909197 -0.00040493443539049386 0 -0.022359108789131599 -0.00034938308040217037 0 -0.022510851674675484 -0.0008032343645899832 0 -0.024775019259644596 7.0543944039941641e-06 0 -0.02498084493982863 -7.9452476757616503e-06 0 -0.024999797109942271 5.4617366973693248e-08 0 -0.024990744519570108 -6.8922553502864569e-07 0 -0.024986855163774004 -6.1137608344948782e-07 0 -0.024976590419239716 -2.4142825169880377e-06 0 -0.024999994961817117 -8.4504279306042437e-10 0 -0.024990744519570108 -6.8922553502864569e-07 0 -0.024999960693320108 5.877636406438891e-09 0 -0.02500021692454088 2.3638538919447383e-07 0 -0.024099937071494864 -8.5489319878322189e-05 0 -0.024990744519570108 -6.8922553502864569e-07 0 -0.024999960693320108 5.877636406438891e-09 0 -0.024986855163774004 -6.1137608344948782e-07 0 -0.022510851674675484 -0.0008032343645899832 0 -0.021906630968324667 -0.0010249458945411885 0 -0.02203403318440347 -0.00077213677004725489 0 -0.02498084493982863 -7.9452476757616503e-06 0 -0.02500005975394275 -3.6026246331650099e-08 0 -0.024998917985951316 -3.6878011710872975e-06 0 -0.023610037797730136 -0.00047185095127747151 0 -0.024099937071494864 -8.5489319878322189e-05 0 -0.0249999993559798 8.7303367879778706e-10 0 -0.024999994652593487 -3.1335840129457002e-10 0 -0.024998572246001698 9.8599463047765571e-08 0 -0.024998404061846165 -4.0820174027902899e-07 0 -0.024099937071494864 -8.5489319878322189e-05 0 -0.022028438150577256 -0.00072147324461744342 0 -0.021985950662040215 9.9003758741199739e-05 0 -0.021906630968324667 -0.0010249458945411885 0 -0.02203403318440347 -0.00077213677004725489 0 -0.021694040179851989 -0.00034667329229897 0 -0.02203403318440347 -0.00077213677004725489 0 -0.021694040179851989 -0.00034667329229897 0 -0.02205335774693452 1.8905520313003785e-05 0 -0.022359108789131599 -0.00034938308040217037 0 -0.02203403318440347 -0.00077213677004725489 0 -0.021919424530129093 0.00019149371208816376 0 -0.024099937071494864 -8.5489319878322189e-05 0 -0.023264262401079167 -0.00027397350013372046 0 -0.024986236442506308 -1.9634086363331403e-06 0 -0.024990744519570108 -6.8922553502864569e-07 0 -0.024976590419239716 -2.4142825169880377e-06 0 -0.024986236442506308 -1.9634086363331403e-06 0 -0.024976590419239716 -2.4142825169880377e-06 0 -0.024958677629065919 -1.5465360089828753e-06 0 -0.023264262401079167 -0.00027397350013372046 0 -0.023286268080212526 0.00034696995339572514 0 -0.021694040179851989 -0.00034667329229897 0 -0.02205335774693452 1.8905520313003785e-05 0 -0.02145793574671637 0.00034046635062211819 0 -0.02205335774693452 1.8905520313003785e-05 0 -0.02145793574671637 0.00034046635062211819 0 -0.022043666278483275 0.00082340836567251774 0 -0.022312059742120867 0.00063350106021057282 0 -0.021919424530129093 0.00019149371208816376 0 -0.021821586194007495 0.0011148582937239365 0 -0.021985950662040215 9.9003758741199739e-05 0 -0.021937441560320462 0.00097754660486723392 0 -0.02145793574671637 0.00034046635062211819 0 -0.021739269574528011 0.00098563294628746067 0 -0.022043666278483275 0.00082340836567251774 0 -0.021590680673174076 0.0014144204396070166 0 -0.021761151436225302 0.0014348691185187004 0 -0.021638647910451753 0.0015210076508009394 0 -0.021590680673174076 0.0014144204396070166 0 -0.021681778395008247 0.0011808124261374435 0 -0.021761151436225302 0.0014348691185187004 0 -0.023286268080212526 0.00034696995339572514 0 -0.021564876928434017 0.0012045642415701315 0 -0.021761151436225302 0.0014348691185187004 0 -0.021638647910451753 0.0015210076508009394 0 -0.02168370651169442 0.0016079958121226119 0 -0.021761151436225302 0.0014348691185187004 0 -0.02168370651169442 0.0016079958121226119 0 -0.021812844632257664 0.0016632288821602297 0 -0.021937441560320462 0.00097754660486723392 0 -0.021854305660859233 0.0017369883110764121 0 -0.021739269574528011 0.00098563294628746067 0 -0.022043666278483275 0.00082340836567251774 0 -0.022024968849245562 0.0016342430327822407 0 -0.021821586194007495 0.0011148582937239365 0 -0.022088813750049396 0.0015630357914788874 0 -0.021749763351244525 0.0018804302662903661 0 -0.021564876928434017 0.0012045642415701315 0 -0.021854305660859233 0.0017369883110764121 0 -0.021821586194007495 0.0011148582937239365 0 -0.022360569344932267 0.0010884444413702607 0 -0.022088813750049396 0.0015630357914788874 0 -0.022312059742120867 0.00063350106021057282 0 -0.021821586194007495 0.0011148582937239365 0 -0.022360569344932267 0.0010884444413702607 0 -0.023378371831121281 0.00098477123881852437 0 -0.022833825017336926 0.0010914870354771899 0 -0.02299995604317432 0.001466780671837996 0 -0.023378371831121281 0.00098477123881852437 0 -0.02294289415679537 0.00069175512827397809 0 -0.022833825017336926 0.0010914870354771899 0 -0.02294289415679537 0.00069175512827397809 0 -0.022360569344932267 0.0010884444413702607 0 -0.022833825017336926 0.0010914870354771899 0 -0.022360569344932267 0.0010884444413702607 0 -0.022833825017336926 0.0010914870354771899 0 -0.022483454739601658 0.0013820411114129183 0 -0.02299995604317432 0.001466780671837996 0 -0.022483454739601658 0.0013820411114129183 0 -0.022309374516215633 0.0017400775716572678 0 -0.022833825017336926 0.0010914870354771899 0 -0.02299995604317432 0.001466780671837996 0 -0.022483454739601658 0.0013820411114129183 0 -0.02299995604317432 0.001466780671837996 0 -0.022309374516215633 0.0017400775716572678 0 -0.022787539128597559 0.0019404880540541505 0 -0.022360569344932267 0.0010884444413702607 0 -0.022483454739601658 0.0013820411114129183 0 -0.022088813750049396 0.0015630357914788874 0 -0.022483454739601658 0.0013820411114129183 0 -0.022309374516215633 0.0017400775716572678 0 -0.022088813750049396 0.0015630357914788874 0 -0.022309374516215633 0.0017400775716572678 0 -0.022088813750049396 0.0015630357914788874 0 -0.021882156617380653 0.0019593834377884508 0 -0.022309374516215633 0.0017400775716572678 0 -0.021970681112355402 0.0020987304870238336 0 -0.021882156617380653 0.0019593834377884508 0 -0.021970681112355402 0.0020987304870238336 0 -0.021882156617380653 0.0019593834377884508 0 -0.021763531865767641 0.0019440421059026209 0 -0.02315817663989848 0.0027212969299659148 0 -0.021970681112355402 0.0020987304870238336 0 -0.022787539128597559 0.0019404880540541505 0 -0.022309374516215633 0.0017400775716572678 0 -0.021970681112355402 0.0020987304870238336 0 -0.022787539128597559 0.0019404880540541505 0 -0.021195713770966407 0.0020042567970485702 0 -0.021970681112355402 0.0020987304870238336 0 -0.021514183406080818 0.0018693828377035206 0 -0.021195713770966407 0.0020042567970485702 0 -0.021514183406080818 0.0018693828377035206 0 -0.021279673364512454 0.0016934287424580526 0 -0.022103464497022777 0.0022868308653091257 0 -0.022000254271277008 0.0021554667270347462 0 -0.021514183406080818 0.0018693828377035206 0 -0.021763531865767641 0.0019440421059026209 0 -0.021513153310654429 0.0017690846134470145 0 -0.021882156617380653 0.0019593834377884508 0 -0.021763531865767641 0.0019440421059026209 0 -0.021768945580427412 0.0018970946047253197 0 -0.021970681112355402 0.0020987304870238336 0 -0.021514183406080818 0.0018693828377035206 0 -0.021763531865767641 0.0019440421059026209 0 -0.021763531865767641 0.0019440421059026209 0 -0.021632473106826113 0.0018087912504422493 0 -0.021513153310654429 0.0017690846134470145 0 -0.021763531865767641 0.0019440421059026209 0 -0.021705490526885692 0.001851779041878083 0 -0.021632473106826113 0.0018087912504422493 0 -0.021763531865767641 0.0019440421059026209 0 -0.021705490526885692 0.001851779041878083 0 -0.021768945580427412 0.0018970946047253197 0 -0.021726054118177515 0.0018192082080382612 0 -0.021741655781894159 0.001839659714782998 0 -0.021662710434418791 0.0018214639540422106 0 -0.021705490526885692 0.001851779041878083 0 -0.021726054118177515 0.0018192082080382612 0 -0.021651274463509288 0.0017699065607983319 0 -0.021726054118177515 0.0018192082080382612 0 -0.021768945580427412 0.0018970946047253197 0 -0.021741655781894159 0.001839659714782998 0 -0.021705490526885692 0.001851779041878083 0 -0.021726054118177515 0.0018192082080382612 0 -0.021768945580427412 0.0018970946047253197 0 -0.021768945580427412 0.0018970946047253197 0 -0.021741655781894159 0.001839659714782998 0 -0.021752707573599712 0.0018466108566934872 0 -0.021692849320415725 0.0017774717680786036 0 -0.02169626156029765 0.0018231145836842273 0 -0.021668170298161253 0.0016154498694800996 0 -0.021678931771367614 0.0016910302620925333 0 -0.02169342672910856 0.0017358903877566561 0 -0.021741655781894159 0.001839659714782998 0 -0.021662710434418791 0.0018214639540422106 0 -0.021705156385686465 0.0017380635019702444 0 -0.021726054118177515 0.0018192082080382612 0 -0.021668170298161253 0.0016154498694800996 0 -0.02169342672910856 0.0017358903877566561 0 -0.021612349455914302 0.001713943280855863 0 -0.021662710434418791 0.0018214639540422106 0 -0.021705156385686465 0.0017380635019702444 0 -0.02168370651169442 0.0016079958121226119 0 -0.021705156385686465 0.0017380635019702444 0 -0.021812844632257664 0.0016632288821602297 0 -0.021612349455914302 0.001713943280855863 0 -0.02168370651169442 0.0016079958121226119 0 -0.021705156385686465 0.0017380635019702444 0 -0.021770668638734818 0.0019189373097859403 0 -0.021854305660859233 0.0017369883110764121 0 -0.021748963982939566 0.0018337380706609839 0 -0.021854305660859233 0.0017369883110764121 0 -0.021882156617380653 0.0019593834377884508 0 -0.021768945580427412 0.0018970946047253197 0 -0.021749763351244525 0.0018804302662903661 0 -0.022088813750049396 0.0015630357914788874 0 -0.021882156617380653 0.0019593834377884508 0 -0.021749763351244525 0.0018804302662903661 0 -0.021741655781894159 0.001839659714782998 0 -0.021705156385686465 0.0017380635019702444 0 -0.021812844632257664 0.0016632288821602297 0 -0.021592763193697472 0.0016129157935546596 0 -0.021510912777481302 0.001579984023514162 0 -0.021558381379801723 0.001549361336009256 0 -0.021592763193697472 0.0016129157935546596 0 -0.021558381379801723 0.001549361336009256 0 -0.021624523124790022 0.0015861809082345943 0 -0.021510912777481302 0.001579984023514162 0 -0.021581931227198661 0.001679914348094293 0 -0.021481530053310549 0.0016357435981378041 0 -0.021592763193697472 0.0016129157935546596 0 -0.021510912777481302 0.001579984023514162 0 -0.021581931227198661 0.001679914348094293 0 -0.021510912777481302 0.001579984023514162 0 -0.021496407296703914 0.0014988158761393942 0 -0.021558381379801723 0.001549361336009256 0 -0.021510912777481302 0.001579984023514162 0 -0.021496407296703914 0.0014988158761393942 0 -0.021409273494380304 0.0014603444471947568 0 -0.021496407296703914 0.0014988158761393942 0 -0.021563685776148176 0.0014876223359979101 0 -0.021497528437504815 0.0014386678406878878 0 -0.021558381379801723 0.001549361336009256 0 -0.021563685776148176 0.0014876223359979101 0 -0.021624523124790022 0.0015861809082345943 0 -0.021496407296703914 0.0014988158761393942 0 -0.021558381379801723 0.001549361336009256 0 -0.021563685776148176 0.0014876223359979101 0 -0.021563685776148176 0.0014876223359979101 0 -0.021636417828602636 0.0015179965566739758 0 -0.021622311015977735 0.0014174389641955162 0 -0.021563685776148176 0.0014876223359979101 0 -0.021636417828602636 0.0015179965566739758 0 -0.021624523124790022 0.0015861809082345943 0 -0.021636417828602636 0.0015179965566739758 0 -0.021693135348555579 0.0015111892030871597 0 -0.021676488991944583 0.001626817556985649 0 -0.021636417828602636 0.0015179965566739758 0 -0.021693135348555579 0.0015111892030871597 0 -0.021622311015977735 0.0014174389641955162 0 -0.021592763193697472 0.0016129157935546596 0 -0.021624523124790022 0.0015861809082345943 0 -0.021653698733042948 0.0016590841642054263 0 -0.021676488991944583 0.001626817556985649 0 -0.021624523124790022 0.0015861809082345943 0 -0.021653698733042948 0.0016590841642054263 0 -0.021636417828602636 0.0015179965566739758 0 -0.021676488991944583 0.001626817556985649 0 -0.021624523124790022 0.0015861809082345943 0 -0.021653698733042948 0.0016590841642054263 0 -0.021671493814718657 0.0016989530774492207 0 -0.02163295871509939 0.0016776256039999411 0 -0.021653698733042948 0.0016590841642054263 0 -0.021660695747475527 0.0016757901957175107 0 -0.021671493814718657 0.0016989530774492207 0 -0.021676488991944583 0.001626817556985649 0 -0.021653698733042948 0.0016590841642054263 0 -0.021660695747475527 0.0016757901957175107 0 -0.021598094383329734 0.001666397222227846 0 -0.021676488991944583 0.001626817556985649 0 -0.021660695747475527 0.0016757901957175107 0 -0.021598094383329734 0.001666397222227846 0 -0.021668170298161253 0.0016154498694800996 0 -0.021660695747475527 0.0016757901957175107 0 -0.021668170298161253 0.0016154498694800996 0 -0.021660695747475527 0.0016757901957175107 0 -0.021678931771367614 0.0016910302620925333 0 -0.021660695747475527 0.0016757901957175107 0 -0.021671493814718657 0.0016989530774492207 0 -0.021678931771367614 0.0016910302620925333 0 -0.021671493814718657 0.0016989530774492207 0 -0.021678931771367614 0.0016910302620925333 0 -0.02169342672910856 0.0017358903877566561 0 -0.021726054118177515 0.0018192082080382612 0 -0.02169342672910856 0.0017358903877566561 0 -0.021686537396240508 0.0017663201623195745 0 -0.021671493814718657 0.0016989530774492207 0 -0.02169342672910856 0.0017358903877566561 0 -0.021660336148205124 0.0017296222784206671 0 -0.02169342672910856 0.0017358903877566561 0 -0.021660336148205124 0.0017296222784206671 0 -0.021686537396240508 0.0017663201623195745 0 -0.021592763193697472 0.0016129157935546596 0 -0.021653698733042948 0.0016590841642054263 0 -0.02163295871509939 0.0016776256039999411 0 -0.021592763193697472 0.0016129157935546596 0 -0.02163295871509939 0.0016776256039999411 0 -0.021581931227198661 0.001679914348094293 0 -0.021660336148205124 0.0017296222784206671 0 -0.02163295871509939 0.0016776256039999411 0 -0.021581931227198661 0.001679914348094293 0 -0.021671493814718657 0.0016989530774492207 0 -0.021660336148205124 0.0017296222784206671 0 -0.02163295871509939 0.0016776256039999411 0 -0.021581931227198661 0.001679914348094293 0 -0.021651274463509288 0.0017699065607983319 0 -0.021544363077661634 0.0017172185237583992 0 -0.021660336148205124 0.0017296222784206671 0 -0.021581931227198661 0.001679914348094293 0 -0.021651274463509288 0.0017699065607983319 0 -0.021660336148205124 0.0017296222784206671 0 -0.021686537396240508 0.0017663201623195745 0 -0.021651274463509288 0.0017699065607983319 0 -0.021726054118177515 0.0018192082080382612 0 -0.021686537396240508 0.0017663201623195745 0 -0.021651274463509288 0.0017699065607983319 0 -0.021705490526885692 0.001851779041878083 0 -0.021651274463509288 0.0017699065607983319 0 -0.021632473106826113 0.0018087912504422493 0 -0.021651274463509288 0.0017699065607983319 0 -0.021632473106826113 0.0018087912504422493 0 -0.021544363077661634 0.0017172185237583992 0 -0.021632473106826113 0.0018087912504422493 0 -0.021513153310654429 0.0017690846134470145 0 -0.021544363077661634 0.0017172185237583992 0 -0.021513153310654429 0.0017690846134470145 0 -0.021544363077661634 0.0017172185237583992 0 -0.021355729315351214 0.0016398878263587983 0 -0.021581931227198661 0.001679914348094293 0 -0.021544363077661634 0.0017172185237583992 0 -0.021481530053310549 0.0016357435981378041 0 -0.021544363077661634 0.0017172185237583992 0 -0.021481530053310549 0.0016357435981378041 0 -0.021355729315351214 0.0016398878263587983 0 -0.021514183406080818 0.0018693828377035206 0 -0.021513153310654429 0.0017690846134470145 0 -0.021279673364512454 0.0016934287424580526 0 -0.021513153310654429 0.0017690846134470145 0 -0.021279673364512454 0.0016934287424580526 0 -0.021355729315351214 0.0016398878263587983 0 -0.021049926041499901 0.0018213811501257286 0 -0.021105531864304077 0.0015383829688637874 0 -0.021279673364512454 0.0016934287424580526 0 -0.021067535692362763 0.0015377473753595517 0 -0.021355729315351214 0.0016398878263587983 0 -0.021067535692362763 0.0015377473753595517 0 -0.021355729315351214 0.0016398878263587983 0 -0.021245289708908655 0.0015021264844319003 0 -0.021510912777481302 0.001579984023514162 0 -0.021481530053310549 0.0016357435981378041 0 -0.021387539099882072 0.0015508803024736402 0 -0.021481530053310549 0.0016357435981378041 0 -0.021355729315351214 0.0016398878263587983 0 -0.021387539099882072 0.0015508803024736402 0 -0.021355729315351214 0.0016398878263587983 0 -0.021245289708908655 0.0015021264844319003 0 -0.021387539099882072 0.0015508803024736402 0 -0.021245289708908655 0.0015021264844319003 0 -0.021387539099882072 0.0015508803024736402 0 -0.021287844530917841 0.001396914614780074 0 -0.021387539099882072 0.0015508803024736402 0 -0.021287844530917841 0.001396914614780074 0 -0.021409273494380304 0.0014603444471947568 0 -0.021510912777481302 0.001579984023514162 0 -0.021387539099882072 0.0015508803024736402 0 -0.021409273494380304 0.0014603444471947568 0 -0.021287844530917841 0.001396914614780074 0 -0.021339372606185725 0.0013234210336677081 0 -0.021409273494380304 0.0014603444471947568 0 -0.021245289708908655 0.0015021264844319003 0 -0.021287844530917841 0.001396914614780074 0 -0.021114530906821426 0.0013243988351072879 0 -0.021287844530917841 0.001396914614780074 0 -0.021224210236748319 0.0012283961772929729 0 -0.021114530906821426 0.0013243988351072879 0 -0.021224210236748319 0.0012283961772929729 0 -0.021114530906821426 0.0013243988351072879 0 -0.021083778950756228 0.0011671872069895259 0 -0.021287844530917841 0.001396914614780074 0 -0.021224210236748319 0.0012283961772929729 0 -0.021339372606185725 0.0013234210336677081 0 -0.021224210236748319 0.0012283961772929729 0 -0.021304200330088882 0.001205470456246668 0 -0.021339372606185725 0.0013234210336677081 0 -0.021067535692362763 0.0015377473753595517 0 -0.020901718707573336 0.0013438431841066496 0 -0.021114530906821426 0.0013243988351072879 0 -0.021067535692362763 0.0015377473753595517 0 -0.021245289708908655 0.0015021264844319003 0 -0.021114530906821426 0.0013243988351072879 0 -0.020901718707573336 0.0013438431841066496 0 -0.021114530906821426 0.0013243988351072879 0 -0.020902225586237798 0.0011778449017523034 0 -0.021114530906821426 0.0013243988351072879 0 -0.020902225586237798 0.0011778449017523034 0 -0.021083778950756228 0.0011671872069895259 0 -0.020901718707573336 0.0013438431841066496 0 -0.020902225586237798 0.0011778449017523034 0 -0.020722745695369797 0.00123810318123646 0 -0.020902225586237798 0.0011778449017523034 0 -0.020813753438883652 0.0010252997685242298 0 -0.020716699062095105 0.0010843007925799518 0 -0.020902225586237798 0.0011778449017523034 0 -0.020716699062095105 0.0010843007925799518 0 -0.020722745695369797 0.00123810318123646 0 -0.020902225586237798 0.0011778449017523034 0 -0.02095525763276973 0.0010291080025295214 0 -0.020813753438883652 0.0010252997685242298 0 -0.020902225586237798 0.0011778449017523034 0 -0.02095525763276973 0.0010291080025295214 0 -0.021083778950756228 0.0011671872069895259 0 -0.02095525763276973 0.0010291080025295214 0 -0.020813753438883652 0.0010252997685242298 0 -0.020851966436668271 0.00090554835105286109 0 -0.02095525763276973 0.0010291080025295214 0 -0.021004611923705407 0.00090840562500848164 0 -0.020851966436668271 0.00090554835105286109 0 -0.020813753438883652 0.0010252997685242298 0 -0.020851966436668271 0.00090554835105286109 0 -0.020674269802777145 0.00089245056276123695 0 -0.020813753438883652 0.0010252997685242298 0 -0.020674269802777145 0.00089245056276123695 0 -0.020716699062095105 0.0010843007925799518 0 -0.021224210236748319 0.0012283961772929729 0 -0.021212824884613176 0.0010845115442358159 0 -0.021304200330088882 0.001205470456246668 0 -0.021224210236748319 0.0012283961772929729 0 -0.021212824884613176 0.0010845115442358159 0 -0.021084511119620893 0.001045100126164906 0 -0.02095525763276973 0.0010291080025295214 0 -0.021083778950756228 0.0011671872069895259 0 -0.021084511119620893 0.001045100126164906 0 -0.021224210236748319 0.0012283961772929729 0 -0.021083778950756228 0.0011671872069895259 0 -0.021084511119620893 0.001045100126164906 0 -0.02095525763276973 0.0010291080025295214 0 -0.021084511119620893 0.001045100126164906 0 -0.021004611923705407 0.00090840562500848164 0 -0.021084511119620893 0.001045100126164906 0 -0.021120388407170516 0.00091813741839176673 0 -0.021004611923705407 0.00090840562500848164 0 -0.021212824884613176 0.0010845115442358159 0 -0.021084511119620893 0.001045100126164906 0 -0.021120388407170516 0.00091813741839176673 0 -0.021212824884613176 0.0010845115442358159 0 -0.021120388407170516 0.00091813741839176673 0 -0.021248466710448471 0.00099978251202450684 0 -0.021248466710448471 0.00099978251202450684 0 -0.021393892773269946 0.0010081643566014283 0 -0.021364548984507886 0.001148280610102716 0 -0.021248466710448471 0.00099978251202450684 0 -0.021393892773269946 0.0010081643566014283 0 -0.021158651752445523 0.00077205818781789974 0 -0.021212824884613176 0.0010845115442358159 0 -0.021248466710448471 0.00099978251202450684 0 -0.021364548984507886 0.001148280610102716 0 -0.021393892773269946 0.0010081643566014283 0 -0.021484609017855649 0.0011754124778950484 0 -0.021500325795935665 0.0010784664058821598 0 -0.021393892773269946 0.0010081643566014283 0 -0.021500325795935665 0.0010784664058821598 0 -0.021452924085038804 0.00094442516914327039 0 -0.021393892773269946 0.0010081643566014283 0 -0.021484609017855649 0.0011754124778950484 0 -0.021364548984507886 0.001148280610102716 0 -0.021484609017855649 0.0011754124778950484 0 -0.021364548984507886 0.001148280610102716 0 -0.021481983412751746 0.0012808879112272725 0 -0.021364548984507886 0.001148280610102716 0 -0.021386585640636731 0.0012671104109553736 0 -0.021481983412751746 0.0012808879112272725 0 -0.021212824884613176 0.0010845115442358159 0 -0.021364548984507886 0.001148280610102716 0 -0.021304200330088882 0.001205470456246668 0 -0.021364548984507886 0.001148280610102716 0 -0.021304200330088882 0.001205470456246668 0 -0.021386585640636731 0.0012671104109553736 0 -0.021386585640636731 0.0012671104109553736 0 -0.02151658525617782 0.0013840463188798606 0 -0.02142797404577752 0.0013912348552027106 0 -0.021339372606185725 0.0013234210336677081 0 -0.021386585640636731 0.0012671104109553736 0 -0.02142797404577752 0.0013912348552027106 0 -0.021304200330088882 0.001205470456246668 0 -0.021339372606185725 0.0013234210336677081 0 -0.021386585640636731 0.0012671104109553736 0 -0.021481983412751746 0.0012808879112272725 0 -0.02151658525617782 0.0013840463188798606 0 -0.021590187047594855 0.0012972760750221417 0 -0.021386585640636731 0.0012671104109553736 0 -0.021481983412751746 0.0012808879112272725 0 -0.02151658525617782 0.0013840463188798606 0 -0.02151658525617782 0.0013840463188798606 0 -0.021497528437504815 0.0014386678406878878 0 -0.02142797404577752 0.0013912348552027106 0 -0.021563685776148176 0.0014876223359979101 0 -0.02151658525617782 0.0013840463188798606 0 -0.021497528437504815 0.0014386678406878878 0 -0.021496407296703914 0.0014988158761393942 0 -0.021497528437504815 0.0014386678406878878 0 -0.02142797404577752 0.0013912348552027106 0 -0.021496407296703914 0.0014988158761393942 0 -0.021409273494380304 0.0014603444471947568 0 -0.02142797404577752 0.0013912348552027106 0 -0.021339372606185725 0.0013234210336677081 0 -0.021409273494380304 0.0014603444471947568 0 -0.02142797404577752 0.0013912348552027106 0 -0.021731689786995495 0.0013970954416437221 0 -0.021622311015977735 0.0014174389641955162 0 -0.021677099707842453 0.0013124579552550219 0 -0.021731689786995495 0.0013970954416437221 0 -0.021693135348555579 0.0015111892030871597 0 -0.021622311015977735 0.0014174389641955162 0 -0.02151658525617782 0.0013840463188798606 0 -0.021622311015977735 0.0014174389641955162 0 -0.021590187047594855 0.0012972760750221417 0 -0.021563685776148176 0.0014876223359979101 0 -0.02151658525617782 0.0013840463188798606 0 -0.021622311015977735 0.0014174389641955162 0 -0.021484609017855649 0.0011754124778950484 0 -0.021481983412751746 0.0012808879112272725 0 -0.021590187047594855 0.0012972760750221417 0 -0.021622311015977735 0.0014174389641955162 0 -0.021590187047594855 0.0012972760750221417 0 -0.021677099707842453 0.0013124579552550219 0 -0.021590187047594855 0.0012972760750221417 0 -0.021677099707842453 0.0013124579552550219 0 -0.021672525459204624 0.0012101246752760331 0 -0.021672525459204624 0.0012101246752760331 0 -0.021570248118654073 0.0011828541624891002 0 -0.021586062881912477 0.0010927592938365903 0 -0.021590187047594855 0.0012972760750221417 0 -0.021672525459204624 0.0012101246752760331 0 -0.021570248118654073 0.0011828541624891002 0 -0.021484609017855649 0.0011754124778950484 0 -0.021590187047594855 0.0012972760750221417 0 -0.021570248118654073 0.0011828541624891002 0 -0.021484609017855649 0.0011754124778950484 0 -0.021570248118654073 0.0011828541624891002 0 -0.021500325795935665 0.0010784664058821598 0 -0.021500325795935665 0.0010784664058821598 0 -0.021586062881912477 0.0010927592938365903 0 -0.021452924085038804 0.00094442516914327039 0 -0.021570248118654073 0.0011828541624891002 0 -0.021500325795935665 0.0010784664058821598 0 -0.021586062881912477 0.0010927592938365903 0 -0.021697476555610145 0.0011075865399065782 0 -0.021672525459204624 0.0012101246752760331 0 -0.021586062881912477 0.0010927592938365903 0 -0.020185522062899204 -0.00012576077433131959 0 -0.018850025060279069 0.00025806247764449886 0 -0.018700929496686322 3.6636888272644045e-05 0 -0.020185522062899204 -0.00012576077433131959 0 -0.021785511613328992 0.0010145619474708067 0 -0.021586062881912477 0.0010927592938365903 0 -0.021452924085038804 0.00094442516914327039 0 -0.016337660186909003 -0.00071128043189303458 0 -0.016030784283926576 -0.001616426544267971 0 -0.01788945044598822 -0.0014836478261319047 0 -0.021158651752445523 0.00077205818781789974 0 -0.021126741700300808 0.0007117645031440138 0 -0.021087114852434249 0.00069579421333095491 0 -0.021120388407170516 0.00091813741839176673 0 -0.021248466710448471 0.00099978251202450684 0 -0.021158651752445523 0.00077205818781789974 0 -0.021323724393809806 0.00043781923036878188 0 -0.020185522062899204 -0.00012576077433131959 0 -0.021393892773269946 0.0010081643566014283 0 -0.021158651752445523 0.00077205818781789974 0 -0.021522980654880283 0.00077849551068326838 0 -0.020636577181661366 0.00045806493310066585 0 -0.020185522062899204 -0.00012576077433131959 0 -0.021126741700300808 0.0007117645031440138 0 -0.021087114852434249 0.00069579421333095491 0 -0.021067536024536444 0.00062116316727185532 0 -0.021087114852434249 0.00069579421333095491 0 -0.021067536024536444 0.00062116316727185532 0 -0.020991392672790734 0.00062609107229883029 0 -0.021067536024536444 0.00062116316727185532 0 -0.021039353592378563 0.00056084847568244598 0 -0.020993503783485381 0.00052709658114821561 0 -0.021067536024536444 0.00062116316727185532 0 -0.020993503783485381 0.00052709658114821561 0 -0.020991392672790734 0.00062609107229883029 0 -0.016337660186909003 -0.00071128043189303458 0 -0.01788945044598822 -0.0014836478261319047 0 -0.016953427961676051 -2.99888795988917e-05 0 -0.021067536024536444 0.00062116316727185532 0 -0.021039353592378563 0.00056084847568244598 0 -0.020980475594474753 0.00051551539834561173 0 -0.021126741700300808 0.0007117645031440138 0 -0.021067536024536444 0.00062116316727185532 0 -0.020980475594474753 0.00051551539834561173 0 -0.021039353592378563 0.00056084847568244598 0 -0.020980475594474753 0.00051551539834561173 0 -0.021038291159461042 0.00056093344359302375 0 -0.020625696875940867 0.00072052987488290985 0 -0.021038291159461042 0.00056093344359302375 0 -0.020902610562635753 0.00074797873890547766 0 -0.020625696875940867 0.00072052987488290985 0 -0.020980475594474753 0.00051551539834561173 0 -0.021038291159461042 0.00056093344359302375 0 -0.021038291159461042 0.00056093344359302375 0 -0.020994687079163129 0.00041510064483784703 0 -0.021042273393963778 0.00023226147728649458 0 -0.021039353592378563 0.00056084847568244598 0 -0.021038291159461042 0.00056093344359302375 0 -0.020993503783485381 0.00052709658114821561 0 -0.021038291159461042 0.00056093344359302375 0 -0.020993503783485381 0.00052709658114821561 0 -0.020994687079163129 0.00041510064483784703 0 -0.020993503783485381 0.00052709658114821561 0 -0.020994687079163129 0.00041510064483784703 0 -0.020930296871683806 0.00041755001150209483 0 -0.020994687079163129 0.00041510064483784703 0 -0.020945586660131601 0.00033217584338330139 0 -0.020930296871683806 0.00041755001150209483 0 -0.021035597241860212 0.0005498006928537244 0 -0.021009662511142505 0.00053126814423127525 0 -0.021038291159461042 0.00056093344359302375 0 -0.021024408367625209 0.00086823738474531092 0 -0.02096391724881308 0.00081414252875533044 0 -0.020994687079163129 0.00041510064483784703 0 -0.020945586660131601 0.00033217584338330139 0 -0.021042273393963778 0.00023226147728649458 0 -0.020945586660131601 0.00033217584338330139 0 -0.020918364274900965 0.00023651745531634292 0 -0.021042273393963778 0.00023226147728649458 0 -0.020945586660131601 0.00033217584338330139 0 -0.020918364274900965 0.00023651745531634292 0 -0.020876538305145517 0.00031360798001703484 0 -0.020918364274900965 0.00023651745531634292 0 -0.021042273393963778 0.00023226147728649458 0 -0.020889084794623352 0.0001167137180913915 0 -0.021024408367625209 0.00086823738474531092 0 -0.021020444578975617 0.00086431600014188483 0 -0.02096391724881308 0.00081414252875533044 0 -0.021020444578975617 0.00086431600014188483 0 -0.020947763308771176 0.00090888072719509595 0 -0.02096391724881308 0.00081414252875533044 0 -0.020625696875940867 0.00072052987488290985 0 -0.020845550235312871 0.00088989728216772978 0 -0.020902610562635753 0.00074797873890547766 0 -0.021038291159461042 0.00056093344359302375 0 -0.020902610562635753 0.00074797873890547766 0 -0.02096391724881308 0.00081414252875533044 0 -0.020947763308771176 0.00090888072719509595 0 -0.020845550235312871 0.00088989728216772978 0 -0.02096391724881308 0.00081414252875533044 0 -0.020845550235312871 0.00088989728216772978 0 -0.020902610562635753 0.00074797873890547766 0 -0.02096391724881308 0.00081414252875533044 0 -0.020628274744455048 0.00026024905302638504 0 -0.020669149459323886 0.00018213843772119491 0 -0.020760172864190317 0.0002868684941684147 0 -0.020628274744455048 0.00026024905302638504 0 -0.020530634049526337 0.00011071659246882292 0 -0.020491910423442401 0.00025385179076000157 0 -0.020530634049526337 0.00011071659246882292 0 -0.020669149459323886 0.00018213843772119491 0 -0.020701763595468319 0.00010572209996902419 0 -0.020628274744455048 0.00026024905302638504 0 -0.020530634049526337 0.00011071659246882292 0 -0.020669149459323886 0.00018213843772119491 0 -0.020669149459323886 0.00018213843772119491 0 -0.020798142911376792 0.00018944776310300389 0 -0.020701763595468319 0.00010572209996902419 0 -0.020918364274900965 0.00023651745531634292 0 -0.020798142911376792 0.00018944776310300389 0 -0.020889084794623352 0.0001167137180913915 0 -0.020918364274900965 0.00023651745531634292 0 -0.020798142911376792 0.00018944776310300389 0 -0.020876538305145517 0.00031360798001703484 0 -0.020798142911376792 0.00018944776310300389 0 -0.020876538305145517 0.00031360798001703484 0 -0.020760172864190317 0.0002868684941684147 0 -0.020945586660131601 0.00033217584338330139 0 -0.020876538305145517 0.00031360798001703484 0 -0.020930296871683806 0.00041755001150209483 0 -0.020669149459323886 0.00018213843772119491 0 -0.020798142911376792 0.00018944776310300389 0 -0.020760172864190317 0.0002868684941684147 0 -0.020760172864190317 0.0002868684941684147 0 -0.020846870824444676 0.00042456271276435618 0 -0.0207364307154339 0.00037513264228854827 0 -0.020876538305145517 0.00031360798001703484 0 -0.020760172864190317 0.0002868684941684147 0 -0.020846870824444676 0.00042456271276435618 0 -0.020876538305145517 0.00031360798001703484 0 -0.020846870824444676 0.00042456271276435618 0 -0.020930296871683806 0.00041755001150209483 0 -0.020993503783485381 0.00052709658114821561 0 -0.020846870824444676 0.00042456271276435618 0 -0.020842989619070176 0.00052207564430162994 0 -0.020993503783485381 0.00052709658114821561 0 -0.020846870824444676 0.00042456271276435618 0 -0.020930296871683806 0.00041755001150209483 0 -0.020846870824444676 0.00042456271276435618 0 -0.0207364307154339 0.00037513264228854827 0 -0.020842989619070176 0.00052207564430162994 0 -0.0207364307154339 0.00037513264228854827 0 -0.020619859437771434 0.00039996248135258671 0 -0.020842989619070176 0.00052207564430162994 0 -0.020628274744455048 0.00026024905302638504 0 -0.020760172864190317 0.0002868684941684147 0 -0.0207364307154339 0.00037513264228854827 0 -0.020628274744455048 0.00026024905302638504 0 -0.0207364307154339 0.00037513264228854827 0 -0.020619859437771434 0.00039996248135258671 0 -0.020619859437771434 0.00039996248135258671 0 -0.020485750594727296 0.00034945523494322246 0 -0.020491910423442401 0.00025385179076000157 0 -0.020628274744455048 0.00026024905302638504 0 -0.020619859437771434 0.00039996248135258671 0 -0.020491910423442401 0.00025385179076000157 0 -0.020619859437771434 0.00039996248135258671 0 -0.020707058536378432 0.00054942120053116212 0 -0.020476685060708547 0.00046288209037718102 0 -0.020707058536378432 0.00054942120053116212 0 -0.020608014916458386 0.00066124725780032547 0 -0.020476685060708547 0.00046288209037718102 0 -0.020707058536378432 0.00054942120053116212 0 -0.020848859515993173 0.00066670494462641935 0 -0.020842989619070176 0.00052207564430162994 0 -0.020619859437771434 0.00039996248135258671 0 -0.020707058536378432 0.00054942120053116212 0 -0.020842989619070176 0.00052207564430162994 0 -0.020707058536378432 0.00054942120053116212 0 -0.020848859515993173 0.00066670494462641935 0 -0.020608014916458386 0.00066124725780032547 0 -0.020993503783485381 0.00052709658114821561 0 -0.020842989619070176 0.00052207564430162994 0 -0.020991392672790734 0.00062609107229883029 0 -0.020848859515993173 0.00066670494462641935 0 -0.020842989619070176 0.00052207564430162994 0 -0.020991392672790734 0.00062609107229883029 0 -0.020848859515993173 0.00066670494462641935 0 -0.020991392672790734 0.00062609107229883029 0 -0.021018919653991552 0.00074670841999962244 0 -0.021158651752445523 0.00077205818781789974 0 -0.021087114852434249 0.00069579421333095491 0 -0.021018919653991552 0.00074670841999962244 0 -0.021087114852434249 0.00069579421333095491 0 -0.020991392672790734 0.00062609107229883029 0 -0.021018919653991552 0.00074670841999962244 0 -0.020848859515993173 0.00066670494462641935 0 -0.021018919653991552 0.00074670841999962244 0 -0.020901223208718532 0.00079733894640536887 0 -0.021018919653991552 0.00074670841999962244 0 -0.020901223208718532 0.00079733894640536887 0 -0.021004611923705407 0.00090840562500848164 0 -0.021120388407170516 0.00091813741839176673 0 -0.021018919653991552 0.00074670841999962244 0 -0.021004611923705407 0.00090840562500848164 0 -0.021120388407170516 0.00091813741839176673 0 -0.021158651752445523 0.00077205818781789974 0 -0.021018919653991552 0.00074670841999962244 0 -0.020776004725503897 0.00077472136986178229 0 -0.020674269802777145 0.00089245056276123695 0 -0.020608014916458386 0.00066124725780032547 0 -0.020848859515993173 0.00066670494462641935 0 -0.020776004725503897 0.00077472136986178229 0 -0.020608014916458386 0.00066124725780032547 0 -0.020848859515993173 0.00066670494462641935 0 -0.020901223208718532 0.00079733894640536887 0 -0.020776004725503897 0.00077472136986178229 0 -0.020901223208718532 0.00079733894640536887 0 -0.021004611923705407 0.00090840562500848164 0 -0.020851966436668271 0.00090554835105286109 0 -0.020901223208718532 0.00079733894640536887 0 -0.020776004725503897 0.00077472136986178229 0 -0.020851966436668271 0.00090554835105286109 0 -0.020776004725503897 0.00077472136986178229 0 -0.020851966436668271 0.00090554835105286109 0 -0.020674269802777145 0.00089245056276123695 0 -0.020674269802777145 0.00089245056276123695 0 -0.020439676666507787 0.00075693953861126061 0 -0.020522821886217364 0.0010329094976605107 0 -0.020439676666507787 0.00075693953861126061 0 -0.020259894738620925 0.00084789426203702215 0 -0.020522821886217364 0.0010329094976605107 0 -0.020674269802777145 0.00089245056276123695 0 -0.020439676666507787 0.00075693953861126061 0 -0.020608014916458386 0.00066124725780032547 0 -0.020259894738620925 0.00084789426203702215 0 -0.020039981900151695 0.0007681961942371155 0 -0.020176426895038388 0.0010478811980032261 0 -0.020439676666507787 0.00075693953861126061 0 -0.020259894738620925 0.00084789426203702215 0 -0.020165886564690177 0.00064600070027630101 0 -0.020259894738620925 0.00084789426203702215 0 -0.020039981900151695 0.0007681961942371155 0 -0.020165886564690177 0.00064600070027630101 0 -0.020165886564690177 0.00064600070027630101 0 -0.020095114402067918 0.00048410831208447932 0 -0.019911547403233875 0.00058619854626502889 0 -0.020039981900151695 0.0007681961942371155 0 -0.020165886564690177 0.00064600070027630101 0 -0.019911547403233875 0.00058619854626502889 0 -0.020165886564690177 0.00064600070027630101 0 -0.020095114402067918 0.00048410831208447932 0 -0.020340210797975666 0.0005640410719102997 0 -0.020439676666507787 0.00075693953861126061 0 -0.020165886564690177 0.00064600070027630101 0 -0.020340210797975666 0.0005640410719102997 0 -0.020095114402067918 0.00048410831208447932 0 -0.020340210797975666 0.0005640410719102997 0 -0.020229661757633056 0.0003856167020691137 0 -0.020095114402067918 0.00048410831208447932 0 -0.019989669454163157 0.00031008001791617344 0 -0.019943783966144192 0.00044882693115858453 0 -0.020439676666507787 0.00075693953861126061 0 -0.020608014916458386 0.00066124725780032547 0 -0.020340210797975666 0.0005640410719102997 0 -0.020340210797975666 0.0005640410719102997 0 -0.020476685060708547 0.00046288209037718102 0 -0.020229661757633056 0.0003856167020691137 0 -0.020608014916458386 0.00066124725780032547 0 -0.020340210797975666 0.0005640410719102997 0 -0.020476685060708547 0.00046288209037718102 0 -0.020619859437771434 0.00039996248135258671 0 -0.020476685060708547 0.00046288209037718102 0 -0.020485750594727296 0.00034945523494322246 0 -0.020476685060708547 0.00046288209037718102 0 -0.020485750594727296 0.00034945523494322246 0 -0.020353502542420937 0.00028267644428971286 0 -0.020485750594727296 0.00034945523494322246 0 -0.020353502542420937 0.00028267644428971286 0 -0.020491910423442401 0.00025385179076000157 0 -0.020476685060708547 0.00046288209037718102 0 -0.020353502542420937 0.00028267644428971286 0 -0.020229661757633056 0.0003856167020691137 0 -0.020095114402067918 0.00048410831208447932 0 -0.020229661757633056 0.0003856167020691137 0 -0.019989669454163157 0.00031008001791617344 0 -0.020140404413649261 0.00022496557964699169 0 -0.019992363392369216 0.00016721034738400849 0 -0.019989669454163157 0.00031008001791617344 0 -0.020229661757633056 0.0003856167020691137 0 -0.020140404413649261 0.00022496557964699169 0 -0.019989669454163157 0.00031008001791617344 0 -0.020353502542420937 0.00028267644428971286 0 -0.020229661757633056 0.0003856167020691137 0 -0.020140404413649261 0.00022496557964699169 0 -0.020353502542420937 0.00028267644428971286 0 -0.020140404413649261 0.00022496557964699169 0 -0.020204250774910615 0.00010156333741127717 0 -0.020140404413649261 0.00022496557964699169 0 -0.020090862646588142 0.00011429907671373969 0 -0.020204250774910615 0.00010156333741127717 0 -0.020090862646588142 0.00011429907671373969 0 -0.019992363392369216 0.00016721034738400849 0 -0.020029308888470404 -2.6992945238194626e-05 0 -0.020140404413649261 0.00022496557964699169 0 -0.020090862646588142 0.00011429907671373969 0 -0.019992363392369216 0.00016721034738400849 0 -0.020090862646588142 0.00011429907671373969 0 -0.020204250774910615 0.00010156333741127717 0 -0.020029308888470404 -2.6992945238194626e-05 0 -0.020204250774910615 0.00010156333741127717 0 -0.020374040566460725 0.0001230538278908097 0 -0.020247063777956077 -2.7181401451460144e-05 0 -0.020530634049526337 0.00011071659246882292 0 -0.020374040566460725 0.0001230538278908097 0 -0.020400648459849315 1.8417511730035035e-05 0 -0.020374040566460725 0.0001230538278908097 0 -0.020400648459849315 1.8417511730035035e-05 0 -0.020247063777956077 -2.7181401451460144e-05 0 -0.020353502542420937 0.00028267644428971286 0 -0.020374040566460725 0.0001230538278908097 0 -0.020491910423442401 0.00025385179076000157 0 -0.020530634049526337 0.00011071659246882292 0 -0.020374040566460725 0.0001230538278908097 0 -0.020491910423442401 0.00025385179076000157 0 -0.020353502542420937 0.00028267644428971286 0 -0.020204250774910615 0.00010156333741127717 0 -0.020374040566460725 0.0001230538278908097 0 -0.0076979416744724352 -0.0035388189816079338 0 -0.0082228561212561672 -0.0032870677984186383 0 -0.0085851480214433739 -0.0037631772960828092 0 -0.0076979416744724352 -0.0035388189816079338 0 -0.0082228561212561672 -0.0032870677984186383 0 -0.0078888166915419486 -0.0030455363796574107 0 -0.0082228561212561672 -0.0032870677984186383 0 -0.0082077841468661816 -0.0026834733561738153 0 -0.0078888166915419486 -0.0030455363796574107 0 -0.0082077841468661816 -0.0026834733561738153 0 -0.0078888166915419486 -0.0030455363796574107 0 -0.0074350353735494938 -0.0026734891329043987 0 -0.0076979416744724352 -0.0035388189816079338 0 -0.0078888166915419486 -0.0030455363796574107 0 -0.0074350353735494938 -0.0026734891329043987 0 -0.020122787198561566 0.00012930941343477787 0 -0.015208724901825116 -0.00064552800535089023 0 -0.013141267666493851 -0.0016861558222185202 0 -0.015208724901825116 -0.00064552800535089023 0 -0.01931476387267245 0.0001567907023902646 0 -0.019295284601185188 0.00013961814051541261 0 -0.01906991496991748 0.00029035631875485446 0 -0.019992363392369216 0.00016721034738400849 0 -0.019824624501234383 0.00020538195348162729 0 -0.020029308888470404 -2.6992945238194626e-05 0 -0.0076979416744724352 -0.0035388189816079338 0 -0.0074350353735494938 -0.0026734891329043987 0 -0.0066424106626763596 -0.0024561863753642626 0 -0.019824624501234383 0.00020538195348162729 0 -0.019416619255683436 0.00048428015015810326 0 -0.01977460661832699 0.00042358378737267043 0 -0.019992363392369216 0.00016721034738400849 0 -0.019824624501234383 0.00020538195348162729 0 -0.019989669454163157 0.00031008001791617344 0 -0.019989669454163157 0.00031008001791617344 0 -0.019943783966144192 0.00044882693115858453 0 -0.01977460661832699 0.00042358378737267043 0 -0.019824624501234383 0.00020538195348162729 0 -0.019989669454163157 0.00031008001791617344 0 -0.01977460661832699 0.00042358378737267043 0 -0.019295284601185188 0.00013961814051541261 0 -0.019275873450825039 0.00026704096294144947 0 -0.019416619255683436 0.00048428015015810326 0 -0.020122787198561566 0.00012930941343477787 0 -0.019246913323637024 0.0005592595259303173 0 -0.0076979416744724352 -0.0035388189816079338 0 -0.0088231405448749717 -0.004760712470066375 0 -0.0085851480214433739 -0.0037631772960828092 0 -0.01931476387267245 0.0001567907023902646 0 -0.019275873450825039 0.00026704096294144947 0 -0.019102600820468794 0.00026796774931790273 0 -0.013141267666493851 -0.0016861558222185202 0 -0.013851258092477413 -0.0021447101207005205 0 -0.01931476387267245 0.0001567907023902646 0 -0.019295284601185188 0.00013961814051541261 0 -0.019275873450825039 0.00026704096294144947 0 -0.019275873450825039 0.00026704096294144947 0 -0.019416619255683436 0.00048428015015810326 0 -0.01914998796704713 0.00030398695904568831 0 -0.019416619255683436 0.00048428015015810326 0 -0.019679740389572618 0.00076431261475874766 0 -0.01914998796704713 0.00030398695904568831 0 -0.01935262496121927 0.00048852859185086206 0 -0.019727739203809432 0.00053571641756238462 0 -0.01914998796704713 0.00030398695904568831 0 -0.019699494522966484 0.00064654703003958565 0 -0.019197482566824332 0.0003269793503445854 0 -0.019416619255683436 0.00048428015015810326 0 -0.01977460661832699 0.00042358378737267043 0 -0.019700869379953495 0.00056218438087564826 0 -0.019416619255683436 0.00048428015015810326 0 -0.019700869379953495 0.00056218438087564826 0 -0.019679740389572618 0.00076431261475874766 0 -0.020095114402067918 0.00048410831208447932 0 -0.019943783966144192 0.00044882693115858453 0 -0.019911547403233875 0.00058619854626502889 0 -0.019943783966144192 0.00044882693115858453 0 -0.01977460661832699 0.00042358378737267043 0 -0.019911547403233875 0.00058619854626502889 0 -0.01977460661832699 0.00042358378737267043 0 -0.019700869379953495 0.00056218438087564826 0 -0.019911547403233875 0.00058619854626502889 0 -0.019700869379953495 0.00056218438087564826 0 -0.019911547403233875 0.00058619854626502889 0 -0.019679740389572618 0.00076431261475874766 0 -0.019699494522966484 0.00064654703003958565 0 -0.020229291045958758 0.00095327350713942912 0 -0.019727739203809432 0.00053571641756238462 0 -0.019908726823898503 0.00079679677189219925 0 -0.020276334046209373 0.00085739540176859729 0 -0.020039981900151695 0.0007681961942371155 0 -0.019679740389572618 0.00076431261475874766 0 -0.020176426895038388 0.0010478811980032261 0 -0.020039981900151695 0.0007681961942371155 0 -0.019911547403233875 0.00058619854626502889 0 -0.019679740389572618 0.00076431261475874766 0 -0.01969356283606892 0.00070271847564407053 0 -0.01970257785722997 0.001039842464433022 0 -0.019727739203809432 0.00053571641756238462 0 -0.019908726823898503 0.00079679677189219925 0 -0.019228184282720918 0.00076956354480963395 0 -0.01935262496121927 0.00048852859185086206 0 -0.019727739203809432 0.00053571641756238462 0 -0.019228184282720918 0.00076956354480963395 0 -0.019662193497682903 0.00094324941690772401 0 -0.019645358908880726 0.0012218820657074463 0 -0.019999664340072398 0.0010994827533935747 0 -0.019908726823898503 0.00079679677189219925 0 -0.019662193497682903 0.00094324941690772401 0 -0.019403321363852873 0.0006341387595445385 0 -0.019662193497682903 0.00094324941690772401 0 -0.019362287038833505 0.0009961685578167383 0 -0.019403321363852873 0.0006341387595445385 0 -0.019662193497682903 0.00094324941690772401 0 -0.019645358908880726 0.0012218820657074463 0 -0.019362287038833505 0.0009961685578167383 0 -0.019645358908880726 0.0012218820657074463 0 -0.019525279417669718 0.0015269380383174775 0 -0.020050000658021833 0.0015160903468665597 0 -0.019645358908880726 0.0012218820657074463 0 -0.019351411899807793 0.001298696525721227 0 -0.019362287038833505 0.0009961685578167383 0 -0.019645358908880726 0.0012218820657074463 0 -0.019525279417669718 0.0015269380383174775 0 -0.019351411899807793 0.001298696525721227 0 -0.019645358908880726 0.0012218820657074463 0 -0.019999664340072398 0.0010994827533935747 0 -0.020050000658021833 0.0015160903468665597 0 -0.019908726823898503 0.00079679677189219925 0 -0.019662193497682903 0.00094324941690772401 0 -0.019999664340072398 0.0010994827533935747 0 -0.019908726823898503 0.00079679677189219925 0 -0.019999664340072398 0.0010994827533935747 0 -0.020276334046209373 0.00085739540176859729 0 -0.019999664340072398 0.0010994827533935747 0 -0.020276334046209373 0.00085739540176859729 0 -0.020499396224103565 0.001191844185852244 0 -0.020259894738620925 0.00084789426203702215 0 -0.020176426895038388 0.0010478811980032261 0 -0.020522821886217364 0.0010329094976605107 0 -0.020276334046209373 0.00085739540176859729 0 -0.020722745695369797 0.00123810318123646 0 -0.020499396224103565 0.001191844185852244 0 -0.020176426895038388 0.0010478811980032261 0 -0.020522821886217364 0.0010329094976605107 0 -0.020722745695369797 0.00123810318123646 0 -0.020229291045958758 0.00095327350713942912 0 -0.020677920492371913 0.0012207753476724931 0 -0.020674269802777145 0.00089245056276123695 0 -0.020522821886217364 0.0010329094976605107 0 -0.020716699062095105 0.0010843007925799518 0 -0.020522821886217364 0.0010329094976605107 0 -0.020716699062095105 0.0010843007925799518 0 -0.020722745695369797 0.00123810318123646 0 -0.021067535692362763 0.0015377473753595517 0 -0.020901718707573336 0.0013438431841066496 0 -0.02062699601599206 0.0014199932154177499 0 -0.020722745695369797 0.00123810318123646 0 -0.020499396224103565 0.001191844185852244 0 -0.02062699601599206 0.0014199932154177499 0 -0.020901718707573336 0.0013438431841066496 0 -0.020722745695369797 0.00123810318123646 0 -0.02062699601599206 0.0014199932154177499 0 -0.019999664340072398 0.0010994827533935747 0 -0.020499396224103565 0.001191844185852244 0 -0.020050000658021833 0.0015160903468665597 0 -0.020592085742633524 0.0011326597740634685 0 -0.019849174104253551 0.0016727100653137282 0 -0.020499396224103565 0.001191844185852244 0 -0.02062699601599206 0.0014199932154177499 0 -0.020211100143841153 0.0015395550285409549 0 -0.02062699601599206 0.0014199932154177499 0 -0.020580603349386307 0.0016494788224611079 0 -0.020211100143841153 0.0015395550285409549 0 -0.020580603349386307 0.0016494788224611079 0 -0.020475828341710609 0.0018794331527550747 0 -0.020211100143841153 0.0015395550285409549 0 -0.020925339166555607 0.001922590382169677 0 -0.021067535692362763 0.0015377473753595517 0 -0.020697256836116711 0.0018549312921110552 0 -0.021067535692362763 0.0015377473753595517 0 -0.020580603349386307 0.0016494788224611079 0 -0.020697256836116711 0.0018549312921110552 0 -0.021067535692362763 0.0015377473753595517 0 -0.02062699601599206 0.0014199932154177499 0 -0.020580603349386307 0.0016494788224611079 0 -0.020814801583093376 0.0022841353012197966 0 -0.020925339166555607 0.001922590382169677 0 -0.020648090725416894 0.0020638800907433817 0 -0.020697256836116711 0.0018549312921110552 0 -0.020648090725416894 0.0020638800907433817 0 -0.020475828341710609 0.0018794331527550747 0 -0.020580603349386307 0.0016494788224611079 0 -0.020697256836116711 0.0018549312921110552 0 -0.020475828341710609 0.0018794331527550747 0 -0.020925339166555607 0.001922590382169677 0 -0.020697256836116711 0.0018549312921110552 0 -0.020648090725416894 0.0020638800907433817 0 -0.020475828341710609 0.0018794331527550747 0 -0.020231430838170548 0.0020112787518591154 0 -0.020211100143841153 0.0015395550285409549 0 -0.020599475968498978 0.0021859284189456409 0 -0.020475828341710609 0.0018794331527550747 0 -0.020231430838170548 0.0020112787518591154 0 -0.020599475968498978 0.0021859284189456409 0 -0.020648090725416894 0.0020638800907433817 0 -0.020475828341710609 0.0018794331527550747 0 -0.02209677593731061 0.001928463430373815 0 -0.021302414473364291 0.0014644063200386548 0 -0.023894088253868486 0.0016968373950019475 0 -0.023776412606552725 0.0017551288096679708 0 -0.02393395623033704 0.001810123450168361 0 -0.020231430838170548 0.0020112787518591154 0 -0.019894620774083438 0.0018554085001641774 0 -0.020211100143841153 0.0015395550285409549 0 -0.024063023246345083 0.0016946359782126917 0 -0.023894088253868486 0.0016968373950019475 0 -0.02393395623033704 0.001810123450168361 0 -0.023166721906837971 0.00031236440512320336 0 -0.021302414473364291 0.0014644063200386548 0 -0.019660381601074223 0.0018443305054462254 0 -0.019525279417669718 0.0015269380383174775 0 -0.019206069678252034 0.0016466603279224768 0 -0.019660381601074223 0.0018443305054462254 0 -0.019525279417669718 0.0015269380383174775 0 -0.020050000658021833 0.0015160903468665597 0 -0.021302414473364291 0.0014644063200386548 0 -0.019849174104253551 0.0016727100653137282 0 -0.020728327319276749 -0.00321319318279365 0 -0.022652380440450457 -0.0025364670791654317 0 -0.021133528170319035 -0.0012106213097127182 0 -0.019876150105673202 -0.0032350359351663509 0 -0.020730266196770687 -0.0009451304398814818 0 -0.021302414473364291 0.0014644063200386548 0 -0.020730266196770687 -0.0009451304398814818 0 -0.019525279417669718 0.0015269380383174775 0 -0.019206069678252034 0.0016466603279224768 0 -0.019351411899807793 0.001298696525721227 0 -0.021622132801968189 0.00052645095759465139 0 -0.021989867773619151 0.0001947693565148835 0 -0.021445117280501993 -4.6484020516457684e-05 0 -0.023378412537885956 -0.0004465622271431248 0 -0.022652380440450457 -0.0025364670791654317 0 -0.022243154663365364 -0.00060995655426712063 0 -0.023166721906837971 0.00031236440512320336 0 -0.020730266196770687 -0.0009451304398814818 0 -0.022652380440450457 -0.0025364670791654317 0 -0.021133528170319035 -0.0012106213097127182 0 -0.022243154663365364 -0.00060995655426712063 0 -0.021133528170319035 -0.0012106213097127182 0 -0.019877570493491401 -0.00092987383934979898 0 -0.019120618712378752 -0.001945343320581323 0 -0.019877570493491401 -0.00092987383934979898 0 -0.019120618712378752 -0.001945343320581323 0 -0.01772731245004034 -0.00060667333106229516 0 -0.019120618712378752 -0.001945343320581323 0 -0.01772731245004034 -0.00060667333106229516 0 -0.017869429368586529 -0.002327345861422807 0 -0.01772731245004034 -0.00060667333106229516 0 -0.017869429368586529 -0.002327345861422807 0 -0.016814613501911074 -0.002106045170601293 0 -0.018564127649091169 -0.00084448019570035305 0 -0.016843279594717264 -0.0020687212221922875 0 -0.019120618712378752 -0.001945343320581323 0 -0.017869429368586529 -0.002327345861422807 0 -0.018419480622318293 -0.0036054255185333762 0 -0.017869429368586529 -0.002327345861422807 0 -0.017183972798712224 -0.0031161410359668539 0 -0.016814613501911074 -0.002106045170601293 0 -0.017869429368586529 -0.002327345861422807 0 -0.017183972798712224 -0.0031161410359668539 0 -0.018419480622318293 -0.0036054255185333762 0 -0.019876150105673202 -0.0032350359351663509 0 -0.018652297955142928 -0.0035809535112377735 0 -0.020728327319276749 -0.00321319318279365 0 -0.021133528170319035 -0.0012106213097127182 0 -0.019120618712378752 -0.001945343320581323 0 -0.020728327319276749 -0.00321319318279365 0 -0.019120618712378752 -0.001945343320581323 0 -0.018419480622318293 -0.0036054255185333762 0 -0.019082916560136574 -0.0032173016706884897 0 -0.018419480622318293 -0.0036054255185333762 0 -0.018767251638360558 -0.0039651447301766087 0 -0.018419480622318293 -0.0036054255185333762 0 -0.018767251638360558 -0.0039651447301766087 0 -0.017794067279854883 -0.0046133219459302691 0 -0.018419480622318293 -0.0036054255185333762 0 -0.017375169039677816 -0.0039123626305940214 0 -0.017794067279854883 -0.0046133219459302691 0 -0.017183972798712224 -0.0031161410359668539 0 -0.017375169039677816 -0.0039123626305940214 0 -0.016449034802288796 -0.0037771663540492645 0 -0.017183972798712224 -0.0031161410359668539 0 -0.018419480622318293 -0.0036054255185333762 0 -0.017375169039677816 -0.0039123626305940214 0 -0.017375169039677816 -0.0039123626305940214 0 -0.017794067279854883 -0.0046133219459302691 0 -0.016251661747265226 -0.004678570837171961 0 -0.017794067279854883 -0.0046133219459302691 0 -0.018855832188800326 -0.0044959254631128081 0 -0.018954842931226002 -0.0050261063848164251 0 -0.018767251638360558 -0.0039651447301766087 0 -0.017794067279854883 -0.0046133219459302691 0 -0.018855832188800326 -0.0044959254631128081 0 -0.019011245403665191 0.0010932310361938384 0 -0.019143416776652999 0.00079622312032780575 0 -0.018807770620525407 0.00048186402324199018 0 -0.019347205646587842 -0.0014870608260157444 0 -0.017274968593477959 -0.0021952201634639398 0 -0.019546152997984165 -0.0040885524264758109 0 -0.018954842931226002 -0.0050261063848164251 0 -0.019148065681167739 -0.0055390430377973811 0 -0.018855832188800326 -0.0044959254631128081 0 -0.019546152997984165 -0.0040885524264758109 0 -0.018954842931226002 -0.0050261063848164251 0 -0.018767251638360558 -0.0039651447301766087 0 -0.018855832188800326 -0.0044959254631128081 0 -0.019546152997984165 -0.0040885524264758109 0 -0.019082916560136574 -0.0032173016706884897 0 -0.018767251638360558 -0.0039651447301766087 0 -0.019546152997984165 -0.0040885524264758109 0 -0.019082916560136574 -0.0032173016706884897 0 -0.019919561298085954 -0.0028395957837946697 0 -0.019546152997984165 -0.0040885524264758109 0 -0.020730266196770687 -0.0009451304398814818 0 -0.019347205646587842 -0.0014870608260157444 0 -0.019206069678252034 0.0016466603279224768 0 -0.019011245403665191 0.0010932310361938384 0 -0.019351411899807793 0.001298696525721227 0 -0.019011245403665191 0.0010932310361938384 0 -0.019351411899807793 0.001298696525721227 0 -0.019362287038833505 0.0009961685578167383 0 -0.019362287038833505 0.0009961685578167383 0 -0.019143416776652999 0.00079622312032780575 0 -0.019403321363852873 0.0006341387595445385 0 -0.019011245403665191 0.0010932310361938384 0 -0.019362287038833505 0.0009961685578167383 0 -0.019143416776652999 0.00079622312032780575 0 -0.019143416776652999 0.00079622312032780575 0 -0.019403321363852873 0.0006341387595445385 0 -0.018807770620525407 0.00048186402324199018 0 -0.01970257785722997 0.001039842464433022 0 -0.017274968593477959 -0.0021952201634639398 0 -0.019228184282720918 0.00076956354480963395 0 -0.019010911788034952 0.00055280800862406556 0 -0.018854253548971665 0.00055508146083731278 0 -0.019228184282720918 0.00076956354480963395 0 -0.018854253548971665 0.00055508146083731278 0 -0.018646141471248337 0.00063229894155590691 0 -0.01935262496121927 0.00048852859185086206 0 -0.019228184282720918 0.00076956354480963395 0 -0.019158484800438226 0.00052019289086877973 0 -0.019228184282720918 0.00076956354480963395 0 -0.019010911788034952 0.00055280800862406556 0 -0.019158484800438226 0.00052019289086877973 0 -0.018954842931226002 -0.0050261063848164251 0 -0.019148065681167739 -0.0055390430377973811 0 -0.018991638774035962 -0.0055792200344002571 0 -0.010148817344667153 -0.0058945733993350296 0 -0.010101687038365056 -0.0060540226825516255 0 -0.0099852768050127834 -0.0054384837281252051 0 -0.018854253548971665 0.00055508146083731278 0 -0.018646141471248337 0.00063229894155590691 0 -0.018631140191809316 0.00057417822928486145 0 -0.017274968593477959 -0.0021952201634639398 0 -0.015264184049029987 -0.0032266137155845826 0 -0.01478151878635116 -0.0039874348811513825 0 -0.015264184049029987 -0.0032266137155845826 0 -0.010148817344667153 -0.0058945733993350296 0 -0.010107509449586986 -0.0060485031897432283 0 -0.010237384389490012 -0.0061707643185705133 0 -0.015264184049029987 -0.0032266137155845826 0 -0.016101779510783686 -0.0040518439287284156 0 -0.015086644723994331 -0.0042034271903684702 0 -0.015323506203178839 -0.0033934433141356501 0 -0.016040273855707318 -0.004034238697344962 0 -0.017274968593477959 -0.0021952201634639398 0 -0.016101779510783686 -0.0040518439287284156 0 -0.015264184049029987 -0.0032266137155845826 0 -0.013851258092477413 -0.0021447101207005205 0 -0.018854253548971665 0.00055508146083731278 0 -0.018631140191809316 0.00057417822928486145 0 -0.019102600820468794 0.00026796774931790273 0 -0.010101687038365056 -0.0060540226825516255 0 -0.0096236167063887858 -0.00512975546973114 0 -0.0088231405448749717 -0.004760712470066375 0 -0.010101687038365056 -0.0060540226825516255 0 -0.0099852768050127834 -0.0054384837281252051 0 -0.0096236167063887858 -0.00512975546973114 0 -0.010336286138414219 -0.0055493308326316883 0 -0.0099852768050127834 -0.0054384837281252051 0 -0.010467212034675842 -0.005168078306838215 0 -0.010148817344667153 -0.0058945733993350296 0 -0.010336286138414219 -0.0055493308326316883 0 -0.0099852768050127834 -0.0054384837281252051 0 -0.0096873056012930468 -0.0047188024144554797 0 -0.0096236167063887858 -0.00512975546973114 0 -0.0093229211889008217 -0.0046872467842683316 0 -0.0096873056012930468 -0.0047188024144554797 0 -0.0096236167063887858 -0.00512975546973114 0 -0.0099752464213403256 -0.0050223565525894668 0 -0.0096873056012930468 -0.0047188024144554797 0 -0.0099752464213403256 -0.0050223565525894668 0 -0.010108142080905878 -0.0044240811915838129 0 -0.0099752464213403256 -0.0050223565525894668 0 -0.010108142080905878 -0.0044240811915838129 0 -0.010467212034675842 -0.005168078306838215 0 -0.0099852768050127834 -0.0054384837281252051 0 -0.0096236167063887858 -0.00512975546973114 0 -0.0099752464213403256 -0.0050223565525894668 0 -0.0099852768050127834 -0.0054384837281252051 0 -0.0099752464213403256 -0.0050223565525894668 0 -0.010467212034675842 -0.005168078306838215 0 -0.018854253548971665 0.00055508146083731278 0 -0.019059102429431426 0.00040874647453467152 0 -0.019102600820468794 0.00026796774931790273 0 -0.01935262496121927 0.00048852859185086206 0 -0.019156453437706739 0.00041142190088440264 0 -0.01914998796704713 0.00030398695904568831 0 -0.019156453437706739 0.00041142190088440264 0 -0.019059102429431426 0.00040874647453467152 0 -0.019118009509622638 0.00034633711838686487 0 -0.01935262496121927 0.00048852859185086206 0 -0.019158484800438226 0.00052019289086877973 0 -0.019156453437706739 0.00041142190088440264 0 -0.019158484800438226 0.00052019289086877973 0 -0.019156453437706739 0.00041142190088440264 0 -0.019059102429431426 0.00040874647453467152 0 -0.019010911788034952 0.00055280800862406556 0 -0.018854253548971665 0.00055508146083731278 0 -0.019059102429431426 0.00040874647453467152 0 -0.019010911788034952 0.00055280800862406556 0 -0.019158484800438226 0.00052019289086877973 0 -0.019059102429431426 0.00040874647453467152 0 -0.0096236167063887858 -0.00512975546973114 0 -0.0093229211889008217 -0.0046872467842683316 0 -0.0088231405448749717 -0.004760712470066375 0 -0.019275873450825039 0.00026704096294144947 0 -0.019102600820468794 0.00026796774931790273 0 -0.01914998796704713 0.00030398695904568831 0 -0.019102600820468794 0.00026796774931790273 0 -0.019118009509622638 0.00034633711838686487 0 -0.01914998796704713 0.00030398695904568831 0 -0.019059102429431426 0.00040874647453467152 0 -0.019102600820468794 0.00026796774931790273 0 -0.019118009509622638 0.00034633711838686487 0 -0.019156453437706739 0.00041142190088440264 0 -0.019118009509622638 0.00034633711838686487 0 -0.01914998796704713 0.00030398695904568831 0 -0.0088231405448749717 -0.004760712470066375 0 -0.0085851480214433739 -0.0037631772960828092 0 -0.008975799284334009 -0.0042010210297071396 0 -0.0085851480214433739 -0.0037631772960828092 0 -0.0091455337902941625 -0.0037499654550469273 0 -0.008975799284334009 -0.0042010210297071396 0 -0.0091455337902941625 -0.0037499654550469273 0 -0.008975799284334009 -0.0042010210297071396 0 -0.009413050104850754 -0.0043100522326594941 0 -0.0088231405448749717 -0.004760712470066375 0 -0.008975799284334009 -0.0042010210297071396 0 -0.0091007142661672317 -0.0045055185687683085 0 -0.0093229211889008217 -0.0046872467842683316 0 -0.0088231405448749717 -0.004760712470066375 0 -0.0091007142661672317 -0.0045055185687683085 0 -0.008975799284334009 -0.0042010210297071396 0 -0.0091007142661672317 -0.0045055185687683085 0 -0.009413050104850754 -0.0043100522326594941 0 -0.0093229211889008217 -0.0046872467842683316 0 -0.0091007142661672317 -0.0045055185687683085 0 -0.009413050104850754 -0.0043100522326594941 0 -0.0096873056012930468 -0.0047188024144554797 0 -0.0093229211889008217 -0.0046872467842683316 0 -0.009413050104850754 -0.0043100522326594941 0 -0.0096873056012930468 -0.0047188024144554797 0 -0.009413050104850754 -0.0043100522326594941 0 -0.010108142080905878 -0.0044240811915838129 0 -0.010108142080905878 -0.0044240811915838129 0 -0.0097432463835362033 -0.0035958116782444675 0 -0.010837674077303617 -0.0033280916880427578 0 -0.009413050104850754 -0.0043100522326594941 0 -0.010108142080905878 -0.0044240811915838129 0 -0.0097432463835362033 -0.0035958116782444675 0 -0.0091455337902941625 -0.0037499654550469273 0 -0.009413050104850754 -0.0043100522326594941 0 -0.0097432463835362033 -0.0035958116782444675 0 -0.0099649659862970641 -0.0027981517593998135 0 -0.0097432463835362033 -0.0035958116782444675 0 -0.010837674077303617 -0.0033280916880427578 0 -0.0099649659862970641 -0.0027981517593998135 0 -0.0097432463835362033 -0.0035958116782444675 0 -0.0090374595906539904 -0.0031030657590022438 0 -0.0082228561212561672 -0.0032870677984186383 0 -0.0082077841468661816 -0.0026834733561738153 0 -0.0090374595906539904 -0.0031030657590022438 0 -0.0082228561212561672 -0.0032870677984186383 0 -0.0085851480214433739 -0.0037631772960828092 0 -0.0090374595906539904 -0.0031030657590022438 0 -0.0091455337902941625 -0.0037499654550469273 0 -0.0097432463835362033 -0.0035958116782444675 0 -0.0090374595906539904 -0.0031030657590022438 0 -0.0085851480214433739 -0.0037631772960828092 0 -0.0091455337902941625 -0.0037499654550469273 0 -0.0090374595906539904 -0.0031030657590022438 0 -0.010837674077303617 -0.0033280916880427578 0 -0.012792792133725925 -0.0036299262716998756 0 -0.011175862159089269 -0.0023429348578642168 0 -0.0099649659862970641 -0.0027981517593998135 0 -0.010837674077303617 -0.0033280916880427578 0 -0.011175862159089269 -0.0023429348578642168 0 -0.010108142080905878 -0.0044240811915838129 0 -0.010837674077303617 -0.0033280916880427578 0 -0.011355541984055107 -0.0044598460312058079 0 -0.010108142080905878 -0.0044240811915838129 0 -0.011355541984055107 -0.0044598460312058079 0 -0.010467212034675842 -0.005168078306838215 0 -0.011355541984055107 -0.0044598460312058079 0 -0.012671811821864047 -0.0048885533683708966 0 -0.012792792133725925 -0.0036299262716998756 0 -0.010837674077303617 -0.0033280916880427578 0 -0.011355541984055107 -0.0044598460312058079 0 -0.012792792133725925 -0.0036299262716998756 0 -0.011355541984055107 -0.0044598460312058079 0 -0.01134920289840962 -0.0053163507021512877 0 -0.012671811821864047 -0.0048885533683708966 0 -0.01134920289840962 -0.0053163507021512877 0 -0.011993068615126433 -0.0060644536759145128 0 -0.012671811821864047 -0.0048885533683708966 0 -0.01134920289840962 -0.0053163507021512877 0 -0.010748649871530812 -0.005696405656504297 0 -0.011993068615126433 -0.0060644536759145128 0 -0.011355541984055107 -0.0044598460312058079 0 -0.010467212034675842 -0.005168078306838215 0 -0.01134920289840962 -0.0053163507021512877 0 -0.010467212034675842 -0.005168078306838215 0 -0.01134920289840962 -0.0053163507021512877 0 -0.010748649871530812 -0.005696405656504297 0 -0.010148817344667153 -0.0058945733993350296 0 -0.010336286138414219 -0.0055493308326316883 0 -0.010748649871530812 -0.005696405656504297 0 -0.010336286138414219 -0.0055493308326316883 0 -0.010467212034675842 -0.005168078306838215 0 -0.010748649871530812 -0.005696405656504297 0 -0.010237384389490012 -0.0061707643185705133 0 -0.010748649871530812 -0.005696405656504297 0 -0.011993068615126433 -0.0060644536759145128 0 -0.016101779510783686 -0.0040518439287284156 0 -0.014165066313665178 -0.0062200739107652761 0 -0.017794067279854883 -0.0046133219459302691 0 -0.018954842931226002 -0.0050261063848164251 0 -0.018991638774035962 -0.0055792200344002571 0 -0.0189275476899179 -0.0054210017239123094 0 -0.016101779510783686 -0.0040518439287284156 0 -0.017794067279854883 -0.0046133219459302691 0 -0.018849311210201291 -0.0056536603633349303 0 -0.017091779002659083 -0.0059498746614332007 0 -0.010148817344667153 -0.0058945733993350296 0 -0.010237384389490012 -0.0061707643185705133 0 -0.010748649871530812 -0.005696405656504297 0 -0.017794067279854883 -0.0046133219459302691 0 -0.017091779002659083 -0.0059498746614332007 0 -0.016251661747265226 -0.004678570837171961 0 -0.017091779002659083 -0.0059498746614332007 0 -0.014464613420559014 -0.0056805805982916048 0 -0.016251661747265226 -0.004678570837171961 0 -0.014464613420559014 -0.0056805805982916048 0 -0.014599331491422981 -0.0052395058038848426 0 -0.015007011181019894 -0.0047777144476708671 0 -0.014464613420559014 -0.0056805805982916048 0 -0.015007011181019894 -0.0047777144476708671 0 -0.016251661747265226 -0.004678570837171961 0 -0.014464613420559014 -0.0056805805982916048 0 -0.014109037180308769 -0.0046637946822806744 0 -0.014749591647243218 -0.0053164099723617209 0 -0.011993068615126433 -0.0060644536759145128 0 -0.014464613420559014 -0.0056805805982916048 0 -0.012671811821864047 -0.0048885533683708966 0 -0.014464613420559014 -0.0056805805982916048 0 -0.012671811821864047 -0.0048885533683708966 0 -0.014109037180308769 -0.0046637946822806744 0 -0.014165066313665178 -0.0062200739107652761 0 -0.01469283800981027 -0.005665285686181301 0 -0.014109037180308769 -0.0046637946822806744 0 -0.012792792133725925 -0.0036299262716998756 0 -0.014834489654045576 -0.0039299603096956959 0 -0.012792792133725925 -0.0036299262716998756 0 -0.014834489654045576 -0.0039299603096956959 0 -0.012981405479173994 -0.0025496926699932845 0 -0.012671811821864047 -0.0048885533683708966 0 -0.014109037180308769 -0.0046637946822806744 0 -0.012792792133725925 -0.0036299262716998756 0 -0.013895636390187699 -0.0019012382027665956 0 -0.013153035062989734 -0.0010182963754324509 0 -0.012754438202188254 2.1393704318818544e-08 0 -0.013011240588078744 1.6781445342631781e-05 0 -0.01201404550661365 0.00010749333376909028 0 -0.014109037180308769 -0.0046637946822806744 0 -0.014834489654045576 -0.0039299603096956959 0 -0.014749591647243218 -0.0053164099723617209 0 -0.013895636390187699 -0.0019012382027665956 0 -0.014509213442200927 -0.0025819866180497118 0 -0.012754438202188254 2.1393704318818544e-08 0 -0.013011240588078744 1.6781445342631781e-05 0 -0.014117526472133393 -4.8604332854837068e-08 0 -0.013011240588078744 1.6781445342631781e-05 0 -0.014117526472133393 -4.8604332854837068e-08 0 -0.014248396087604268 -1.971931765824255e-05 0 -0.014117526472133393 -4.8604332854837068e-08 0 -0.014248396087604268 -1.971931765824255e-05 0 -0.01548154646807874 2.6182519041334523e-07 0 -0.014464613420559014 -0.0056805805982916048 0 -0.014749591647243218 -0.0053164099723617209 0 -0.014599331491422981 -0.0052395058038848426 0 -0.014749591647243218 -0.0053164099723617209 0 -0.014599331491422981 -0.0052395058038848426 0 -0.014082202266759176 -0.0048120784463858632 0 -0.014509213442200927 -0.0025819866180497118 0 -0.014520388825665736 -0.0022345640639269285 0 -0.014599331491422981 -0.0052395058038848426 0 -0.014082202266759176 -0.0048120784463858632 0 -0.015007011181019894 -0.0047777144476708671 0 -0.014248396087604268 -1.971931765824255e-05 0 -0.01548154646807874 2.6182519041334523e-07 0 -0.015540858931112178 1.8796372407987045e-05 0 -0.01548154646807874 2.6182519041334523e-07 0 -0.015540858931112178 1.8796372407987045e-05 0 -0.016843182651263826 -7.5467377266907111e-07 0 -0.015540858931112178 1.8796372407987045e-05 0 -0.016517461313193205 -0.00019603359455295719 0 -0.016843182651263826 -7.5467377266907111e-07 0 -0.014520388825665736 -0.0022345640639269285 0 -0.01744297109384375 -0.0019682174685507806 0 -0.01744297109384375 -0.0019682174685507806 0 -0.016845658847721254 -8.7568427751936542e-07 0 -0.014082202266759176 -0.0048120784463858632 0 -0.014462221087886706 -0.0035179639876656344 0 -0.014962881044069273 -0.0040593271833505515 0 -0.014082202266759176 -0.0048120784463858632 0 -0.013744740946457211 -0.0033543314698527321 0 -0.014462221087886706 -0.0035179639876656344 0 -0.014462221087886706 -0.0035179639876656344 0 -0.014962881044069273 -0.0040593271833505515 0 -0.015110828966357607 -0.0032014097169328782 0 -0.014082202266759176 -0.0048120784463858632 0 -0.015007011181019894 -0.0047777144476708671 0 -0.014962881044069273 -0.0040593271833505515 0 -0.015007011181019894 -0.0047777144476708671 0 -0.015700482530728151 -0.0042059917688909163 0 -0.014962881044069273 -0.0040593271833505515 0 -0.015007011181019894 -0.0047777144476708671 0 -0.015700482530728151 -0.0042059917688909163 0 -0.016251661747265226 -0.004678570837171961 0 -0.015700482530728151 -0.0042059917688909163 0 -0.016251661747265226 -0.004678570837171961 0 -0.016449034802288796 -0.0037771663540492645 0 -0.017375169039677816 -0.0039123626305940214 0 -0.016251661747265226 -0.004678570837171961 0 -0.016449034802288796 -0.0037771663540492645 0 -0.015700482530728151 -0.0042059917688909163 0 -0.016449034802288796 -0.0037771663540492645 0 -0.015689431226465607 -0.003623731951119894 0 -0.016449034802288796 -0.0037771663540492645 0 -0.015689431226465607 -0.003623731951119894 0 -0.016132719943257646 -0.0028907185445313957 0 -0.017183972798712224 -0.0031161410359668539 0 -0.016449034802288796 -0.0037771663540492645 0 -0.016132719943257646 -0.0028907185445313957 0 -0.015700482530728151 -0.0042059917688909163 0 -0.014962881044069273 -0.0040593271833505515 0 -0.015689431226465607 -0.003623731951119894 0 -0.015689431226465607 -0.003623731951119894 0 -0.015110828966357607 -0.0032014097169328782 0 -0.016132719943257646 -0.0028907185445313957 0 -0.014962881044069273 -0.0040593271833505515 0 -0.015689431226465607 -0.003623731951119894 0 -0.015110828966357607 -0.0032014097169328782 0 -0.014632336689075699 -0.0033748496551461921 0 -0.01857769241740909 -0.0020452419687446133 0 -0.01857769241740909 -0.0020452419687446133 0 -0.018426007955586344 -0.0029553993812309232 0 -0.015110828966357607 -0.0032014097169328782 0 -0.015768505286479394 -0.002180936901802964 0 -0.014721177601701935 -0.0027598451766800637 0 -0.015110828966357607 -0.0032014097169328782 0 -0.016132719943257646 -0.0028907185445313957 0 -0.015861304140406093 -0.0017358452435860977 0 -0.017183972798712224 -0.0031161410359668539 0 -0.016132719943257646 -0.0028907185445313957 0 -0.016814613501911074 -0.002106045170601293 0 -0.016132719943257646 -0.0028907185445313957 0 -0.016814613501911074 -0.002106045170601293 0 -0.015861304140406093 -0.0017358452435860977 0 -0.022723138470521983 -0.0018443445653858459 0 -0.023372471703973625 -0.0016091077931865399 0 -0.022864766748015249 -0.0024923365500354867 0 -0.020318383144356106 -0.00092312227098494256 0 -0.020842535044214815 -0.001499717458357598 0 -0.019549023951624944 -0.002210059778219703 0 -0.022136992420560782 -0.0011940763181650957 0 -0.01857769241740909 -0.0020452419687446133 0 -0.017464704927899335 -0.00083221947094533225 0 -0.016814613501911074 -0.002106045170601293 0 -0.015861304140406093 -0.0017358452435860977 0 -0.018564127649091169 -0.00084448019570035305 0 -0.01857769241740909 -0.0020452419687446133 0 -0.022068101656814252 -0.0019537392267487143 0 -0.022723138470521983 -0.0018443445653858459 0 -0.022864766748015249 -0.0024923365500354867 0 -0.022068101656814252 -0.0019537392267487143 0 -0.022864766748015249 -0.0024923365500354867 0 -0.022052336452086114 -0.0029314944460852835 0 -0.022068101656814252 -0.0019537392267487143 0 -0.021611112993052586 -0.0025922807335833475 0 -0.022052336452086114 -0.0029314944460852835 0 -0.022068101656814252 -0.0019537392267487143 0 -0.021611112993052586 -0.0025922807335833475 0 -0.021088443734427375 -0.0021258722188216032 0 -0.018948035594725372 -1.592069524463041e-08 0 -0.018463908172886543 1.0527321600609695e-06 0 -0.017896390055240793 1.413866082633187e-07 0 -0.01744297109384375 -0.0019682174685507806 0 -0.020042360194444987 -0.00095209678914149264 0 -0.017293364952967818 -1.1434588399012938e-05 0 -0.016846024075009541 -2.3469924318631822e-07 0 -0.017896390055240793 1.413866082633187e-07 0 -0.021238435605945509 -0.0033544922392647583 0 -0.021611112993052586 -0.0025922807335833475 0 -0.021088443734427375 -0.0021258722188216032 0 -0.017293364952967818 -1.1434588399012938e-05 0 -0.018463908172886543 1.0527321600609695e-06 0 -0.017896390055240793 1.413866082633187e-07 0 -0.021238435605945509 -0.0033544922392647583 0 -0.021611112993052586 -0.0025922807335833475 0 -0.022052336452086114 -0.0029314944460852835 0 -0.01744297109384375 -0.0019682174685507806 0 -0.018426007955586344 -0.0029553993812309232 0 -0.013744740946457211 -0.0033543314698527321 0 -0.014462221087886706 -0.0035179639876656344 0 -0.014721177601701935 -0.0027598451766800637 0 -0.014462221087886706 -0.0035179639876656344 0 -0.015110828966357607 -0.0032014097169328782 0 -0.014721177601701935 -0.0027598451766800637 0 -0.007787110465632097 0.00041591659296914482 0 -0.0094304126975159486 0.00062809174744884501 0 -0.0078640255879590688 -0.00010792878231815224 0 -0.007478362742169932 8.5130196713543641e-05 0 -0.0076720331003165719 0.00017372427860366972 0 -0.010919073194912251 0.0014239824507866438 0 -0.011043773996974321 0.0010787459664281509 0 -0.010818150321687392 0.0010722673416705866 0 -0.007478362742169932 8.5130196713543641e-05 0 -0.0076720331003165719 0.00017372427860366972 0 -0.007925261676354968 9.6359689577566154e-05 0 -0.0076311640372795989 7.797045889172156e-07 0 -0.007478362742169932 8.5130196713543641e-05 0 -0.0066424079318213019 -7.8577831424161632e-07 0 -0.0076311640372795989 7.797045889172156e-07 0 -0.007478362742169932 8.5130196713543641e-05 0 -0.007925261676354968 9.6359689577566154e-05 0 -0.007787110465632097 0.00041591659296914482 0 -0.0066392887254292402 -6.4596694030202524e-07 0 -0.0078640255879590688 -0.00010792878231815224 0 -0.007478362742169932 8.5130196713543641e-05 0 -0.0066424079318213019 -7.8577831424161632e-07 0 -0.0056948443468978361 -0.0001676987353745423 0 -0.0066387178168568154 -4.3626017732152076e-07 0 -0.0058104465102038986 0.00024315018375883451 0 -0.007787110465632097 0.00041591659296914482 0 -0.0062073952388594636 0.00035893709650704604 0 -0.0056948443468978361 -0.0001676987353745423 0 -0.0057582089312092789 0.00037173695218556277 0 -0.0058104465102038986 0.00024315018375883451 0 -0.0072006500763005816 0.00072237642298493511 0 -0.0075829538827507977 0.000507031228400743 0 -0.0075783782770495007 0.001166975916177264 0 -0.0072006500763005816 0.00072237642298493511 0 -0.0075829538827507977 0.000507031228400743 0 -0.0069352243269162877 0.0003247141737005112 0 -0.0067314739569944689 0.00092804179763612815 0 -0.0072006500763005816 0.00072237642298493511 0 -0.0069352243269162877 0.0003247141737005112 0 -0.0075829538827507977 0.000507031228400743 0 -0.0075783782770495007 0.001166975916177264 0 -0.0083442892220316704 0.00071471334905198866 0 -0.0075829538827507977 0.000507031228400743 0 -0.0083442892220316704 0.00071471334905198866 0 -0.0081254743569717566 0.00035527765799498845 0 -0.0092399881484952935 0.0013418945060831135 0 -0.0090676979522315206 0.001042649546472163 0 -0.0075783782770495007 0.001166975916177264 0 -0.0092408138788056798 0.0010360092793351291 0 -0.0083442892220316704 0.00071471334905198866 0 -0.010419634506812681 0.0013604363626207394 0 -0.01035693755466433 0.00082438871624893691 0 -0.0092408138788056798 0.0010360092793351291 0 -0.010919073194912251 0.0014239824507866438 0 -0.010628305058352544 0.0012133448554607856 0 -0.010818150321687392 0.0010722673416705866 0 -0.007787110465632097 0.00041591659296914482 0 -0.0092399881484952935 0.0013418945060831135 0 -0.0067314739569944689 0.00092804179763612815 0 -0.0072006500763005816 0.00072237642298493511 0 -0.0075783782770495007 0.001166975916177264 0 -0.010919073194912251 0.0014239824507866438 0 -0.010419634506812681 0.0013604363626207394 0 -0.010628305058352544 0.0012133448554607856 0 -0.010419634506812681 0.0013604363626207394 0 -0.010628305058352544 0.0012133448554607856 0 -0.01035693755466433 0.00082438871624893691 0 -0.010641597736237759 0.00113218236702897 0 -0.010689915317358254 0.00086174494980128559 0 -0.010628305058352544 0.0012133448554607856 0 -0.010674710093790165 0.00088241765355063487 0 -0.010818150321687392 0.0010722673416705866 0 -0.010628305058352544 0.0012133448554607856 0 -0.010723683964319001 0.00066241247225362209 0 -0.01035693755466433 0.00082438871624893691 0 -0.010723683964319001 0.00066241247225362209 0 -0.01035693755466433 0.00082438871624893691 0 -0.010516473745745228 0.00048634050571357506 0 -0.01035693755466433 0.00082438871624893691 0 -0.010215462483897146 0.00044973253697166152 0 -0.0092408138788056798 0.0010360092793351291 0 -0.01035693755466433 0.00082438871624893691 0 -0.010215462483897146 0.00044973253697166152 0 -0.010516473745745228 0.00048634050571357506 0 -0.010215462483897146 0.00044973253697166152 0 -0.010516473745745228 0.00048634050571357506 0 -0.010561129208285551 0.0002823261046591982 0 -0.010723683964319001 0.00066241247225362209 0 -0.010516473745745228 0.00048634050571357506 0 -0.010757757576696655 0.0003439185879209273 0 -0.010689915317358254 0.00086174494980128559 0 -0.011636693103573145 0.00016967236056723262 0 -0.010674710093790165 0.00088241765355063487 0 -0.010728127918282298 0.00056440595628822875 0 -0.010888686337045504 0.0008663065018046283 0 -0.010516473745745228 0.00048634050571357506 0 -0.010757757576696655 0.0003439185879209273 0 -0.010561129208285551 0.0002823261046591982 0 -0.010728127918282298 0.00056440595628822875 0 -0.010888686337045504 0.0008663065018046283 0 -0.01117593662675977 0.00073819640872913733 0 -0.011573108520122216 -0.00078587857242271692 0 -0.010543958144591217 -0.001237489237854397 0 -0.010942063017132422 -0.00047085934047038248 0 -0.011636693103573145 0.00016967236056723262 0 -0.0098165813095727663 -6.7911327499432747e-06 0 -0.010888686337045504 0.0008663065018046283 0 -0.011043773996974321 0.0010787459664281509 0 -0.01117593662675977 0.00073819640872913733 0 -0.010674710093790165 0.00088241765355063487 0 -0.010888686337045504 0.0008663065018046283 0 -0.010818150321687392 0.0010722673416705866 0 -0.010888686337045504 0.0008663065018046283 0 -0.011043773996974321 0.0010787459664281509 0 -0.010818150321687392 0.0010722673416705866 0 -0.0094304126975159486 0.00062809174744884501 0 -0.0098165813095727663 -6.7911327499432747e-06 0 -0.0076311640372795989 7.797045889172156e-07 0 -0.007925261676354968 9.6359689577566154e-05 0 -0.0086208732679587865 -7.6314012731534563e-07 0 -0.0076720331003165719 0.00017372427860366972 0 -0.007925261676354968 9.6359689577566154e-05 0 -0.008025111339110793 -0.00022945560740525613 0 -0.007925261676354968 9.6359689577566154e-05 0 -0.0086208732679587865 -7.6314012731534563e-07 0 -0.008025111339110793 -0.00022945560740525613 0 -0.0086235738782329853 -3.3291115324781499e-09 0 -0.0088194130674273362 8.6774220079059525e-08 0 -0.010025650569693073 4.2304068101600066e-09 0 -0.0086217360418345771 -3.9303831324585793e-07 0 -0.0098165813095727663 -6.7911327499432747e-06 0 -0.0098165813095727663 -6.7911327499432747e-06 0 -0.010027038253496401 -7.088169047198085e-07 0 -0.010543958144591217 -0.001237489237854397 0 -0.010030282348233274 -1.3746988085131163e-06 0 -0.010942063017132422 -0.00047085934047038248 0 -0.010030282348233274 -1.3746988085131163e-06 0 -0.010942063017132422 -0.00047085934047038248 0 -0.011495913596006862 7.5257087026926411e-05 0 -0.011573108520122216 -0.00078587857242271692 0 -0.010942063017132422 -0.00047085934047038248 0 -0.011495913596006862 7.5257087026926411e-05 0 -0.010030282348233274 -1.3746988085131163e-06 0 -0.011495913596006862 7.5257087026926411e-05 0 -0.011390112876537508 7.5084893368894888e-07 0 -0.011495913596006862 7.5257087026926411e-05 0 -0.011390112876537508 7.5084893368894888e-07 0 -0.01201404550661365 0.00010749333376909028 0 -0.012757854140632411 -0.00024739560218443456 0 -0.013153035062989734 -0.0010182963754324509 0 -0.012754438202188254 2.1393704318818544e-08 0 -0.011390112876537508 7.5084893368894888e-07 0 -0.01201404550661365 0.00010749333376909028 0 -0.012981405479173994 -0.0025496926699932845 0 -0.01184185260773752 -0.0016642039167969265 0 -0.011175862159089269 -0.0023429348578642168 0 -0.012792792133725925 -0.0036299262716998756 0 -0.012981405479173994 -0.0025496926699932845 0 -0.011175862159089269 -0.0023429348578642168 0 -0.014281390794436074 -0.0021831103318401823 0 -0.012981405479173994 -0.0025496926699932845 0 -0.012996807077434114 -0.0015262128353916553 0 -0.014834489654045576 -0.0039299603096956959 0 -0.014281390794436074 -0.0021831103318401823 0 -0.012981405479173994 -0.0025496926699932845 0 -0.013768965677411255 -0.00058055435485376416 0 -0.014281390794436074 -0.0021831103318401823 0 -0.012996807077434114 -0.0015262128353916553 0 -0.012981405479173994 -0.0025496926699932845 0 -0.012996807077434114 -0.0015262128353916553 0 -0.01184185260773752 -0.0016642039167969265 0 -0.012996807077434114 -0.0015262128353916553 0 -0.01184185260773752 -0.0016642039167969265 0 -0.012261684766884971 -0.00057714935914033065 0 -0.01184185260773752 -0.0016642039167969265 0 -0.012261684766884971 -0.00057714935914033065 0 -0.011094799011851135 -0.00062306396535709264 0 -0.012261684766884971 -0.00057714935914033065 0 -0.010842329105060236 0.00026543015033587389 0 -0.011094799011851135 -0.00062306396535709264 0 -0.013768965677411255 -0.00058055435485376416 0 -0.012261684766884971 -0.00057714935914033065 0 -0.012292336407283307 0.00088570972450401151 0 -0.013768965677411255 -0.00058055435485376416 0 -0.012996807077434114 -0.0015262128353916553 0 -0.012261684766884971 -0.00057714935914033065 0 -0.011636693103573145 0.00016967236056723262 0 -0.012757854140632411 -0.00024739560218443456 0 -0.01337047559701531 0.0012982699575716497 0 -0.013768965677411255 -0.00058055435485376416 0 -0.012292336407283307 0.00088570972450401151 0 -0.011636693103573145 0.00016967236056723262 0 -0.011517673976211886 0.00058009655323180672 0 -0.012261684766884971 -0.00057714935914033065 0 -0.012292336407283307 0.00088570972450401151 0 -0.010842329105060236 0.00026543015033587389 0 -0.010215462483897146 0.00044973253697166152 0 -0.010561129208285551 0.0002823261046591982 0 -0.010842329105060236 0.00026543015033587389 0 -0.011517673976211886 0.00058009655323180672 0 -0.010887352169519538 0.00031698038972958922 0 -0.010842329105060236 0.00026543015033587389 0 -0.010345822618733418 -0.00013433015070827398 0 -0.0099598769889533683 0.00033758809646270121 0 -0.0096773783311171948 -0.00011347403057483271 0 -0.0094555473136066701 0.00032951235331679337 0 -0.0099598769889533683 0.00033758809646270121 0 -0.010345822618733418 -0.00013433015070827398 0 -0.0096773783311171948 -0.00011347403057483271 0 -0.0099598769889533683 0.00033758809646270121 0 -0.010345822618733418 -0.00013433015070827398 0 -0.010341207739571824 -0.00093618064656702073 0 -0.0096773783311171948 -0.00011347403057483271 0 -0.010345822618733418 -0.00013433015070827398 0 -0.011094799011851135 -0.00062306396535709264 0 -0.010341207739571824 -0.00093618064656702073 0 -0.010842329105060236 0.00026543015033587389 0 -0.010345822618733418 -0.00013433015070827398 0 -0.011094799011851135 -0.00062306396535709264 0 -0.01184185260773752 -0.0016642039167969265 0 -0.010341207739571824 -0.00093618064656702073 0 -0.011175862159089269 -0.0023429348578642168 0 -0.01184185260773752 -0.0016642039167969265 0 -0.011094799011851135 -0.00062306396535709264 0 -0.010341207739571824 -0.00093618064656702073 0 -0.010341207739571824 -0.00093618064656702073 0 -0.011175862159089269 -0.0023429348578642168 0 -0.0098933979871125496 -0.0017028257360132469 0 -0.0099649659862970641 -0.0027981517593998135 0 -0.011175862159089269 -0.0023429348578642168 0 -0.0098933979871125496 -0.0017028257360132469 0 -0.0082077841468661816 -0.0026834733561738153 0 -0.0090374595906539904 -0.0031030657590022438 0 -0.0089725909769773869 -0.0019923697872786706 0 -0.0082077841468661816 -0.0026834733561738153 0 -0.0089725909769773869 -0.0019923697872786706 0 -0.0081522761052772279 -0.0019304093808886751 0 -0.0099649659862970641 -0.0027981517593998135 0 -0.0090374595906539904 -0.0031030657590022438 0 -0.0089725909769773869 -0.0019923697872786706 0 -0.0099649659862970641 -0.0027981517593998135 0 -0.0089725909769773869 -0.0019923697872786706 0 -0.0098933979871125496 -0.0017028257360132469 0 -0.010341207739571824 -0.00093618064656702073 0 -0.0098933979871125496 -0.0017028257360132469 0 -0.009171274029989936 -0.00073902042088398018 0 -0.0089725909769773869 -0.0019923697872786706 0 -0.0098933979871125496 -0.0017028257360132469 0 -0.009171274029989936 -0.00073902042088398018 0 -0.0089725909769773869 -0.0019923697872786706 0 -0.009171274029989936 -0.00073902042088398018 0 -0.0081522761052772279 -0.0019304093808886751 0 -0.009171274029989936 -0.00073902042088398018 0 -0.0096773783311171948 -0.00011347403057483271 0 -0.0091476259702277518 -3.7375401664482328e-05 0 -0.010341207739571824 -0.00093618064656702073 0 -0.009171274029989936 -0.00073902042088398018 0 -0.0096773783311171948 -0.00011347403057483271 0 -0.0096773783311171948 -0.00011347403057483271 0 -0.0091476259702277518 -3.7375401664482328e-05 0 -0.0094555473136066701 0.00032951235331679337 0 -0.0091476259702277518 -3.7375401664482328e-05 0 -0.0094555473136066701 0.00032951235331679337 0 -0.0091408940159830414 0.00025872175354906376 0 -0.0092051795866559729 0.00055656672122741946 0 -0.0094555473136066701 0.00032951235331679337 0 -0.0091408940159830414 0.00025872175354906376 0 -0.0092051795866559729 0.00055656672122741946 0 -0.0094555473136066701 0.00032951235331679337 0 -0.0092434141848696874 0.00074957065356088333 0 -0.0094555473136066701 0.00032951235331679337 0 -0.0099598769889533683 0.00033758809646270121 0 -0.0095954792042262649 0.00061512484942916426 0 -0.010215462483897146 0.00044973253697166152 0 -0.0099598769889533683 0.00033758809646270121 0 -0.0095954792042262649 0.00061512484942916426 0 -0.010215462483897146 0.00044973253697166152 0 -0.010842329105060236 0.00026543015033587389 0 -0.0099598769889533683 0.00033758809646270121 0 -0.010215462483897146 0.00044973253697166152 0 -0.0095954792042262649 0.00061512484942916426 0 -0.0092408138788056798 0.0010360092793351291 0 -0.0092434141848696874 0.00074957065356088333 0 -0.0095954792042262649 0.00061512484942916426 0 -0.0092408138788056798 0.0010360092793351291 0 -0.0094555473136066701 0.00032951235331679337 0 -0.0092434141848696874 0.00074957065356088333 0 -0.0095954792042262649 0.00061512484942916426 0 -0.0092434141848696874 0.00074957065356088333 0 -0.0092408138788056798 0.0010360092793351291 0 -0.008822578536914729 0.00066920223379206278 0 -0.0092434141848696874 0.00074957065356088333 0 -0.008822578536914729 0.00066920223379206278 0 -0.0090521004066804068 0.00055029046702277401 0 -0.0092408138788056798 0.0010360092793351291 0 -0.0083442892220316704 0.00071471334905198866 0 -0.008822578536914729 0.00066920223379206278 0 -0.0083442892220316704 0.00071471334905198866 0 -0.008822578536914729 0.00066920223379206278 0 -0.0081254743569717566 0.00035527765799498845 0 -0.008822578536914729 0.00066920223379206278 0 -0.0090521004066804068 0.00055029046702277401 0 -0.0086076336837699816 0.0002453788937820895 0 -0.0090521004066804068 0.00055029046702277401 0 -0.0092502217837990355 0.00044943976488839111 0 -0.0089385493109821797 0.00015050793014029001 0 -0.0092051795866559729 0.00055656672122741946 0 -0.0090521004066804068 0.00055029046702277401 0 -0.0092502217837990355 0.00044943976488839111 0 -0.0092051795866559729 0.00055656672122741946 0 -0.0092434141848696874 0.00074957065356088333 0 -0.0090521004066804068 0.00055029046702277401 0 -0.0091497930869515499 -0.00020550815790349591 0 -0.0091944081174284448 -0.00019877796986877871 0 -0.009098933931047536 -0.00015903007082161582 0 -0.0091944081174284448 -0.00019877796986877871 0 -0.0091588603236222744 -0.00016016681041027908 0 -0.009098933931047536 -0.00015903007082161582 0 -0.0092051795866559729 0.00055656672122741946 0 -0.0092502217837990355 0.00044943976488839111 0 -0.0090933993737967074 0.00045485053286028224 0 -0.0091907780533148648 0.00010880337145812364 0 -0.0091008260085789841 0.00014368277371726098 0 -0.0091497930869515499 -0.00020550815790349591 0 -0.0091944081174284448 -0.00019877796986877871 0 -0.0091963252463984711 -0.00023740147335415528 0 -0.0093504613194429903 -9.838253652020662e-05 0 -0.0094140150459868441 -0.00019956027566798366 0 -0.0092885608305680826 -0.00024804779195001462 0 -0.0091944081174284448 -0.00019877796986877871 0 -0.0092346544791978794 -0.00019679812269667859 0 -0.0092885608305680826 -0.00024804779195001462 0 -0.0092796166169666783 -0.00015450157084271455 0 -0.0092838097846080336 -0.00024007365205593858 0 -0.0092346544791978794 -0.00019679812269667859 0 -0.0091981587859847041 -0.00017247259369520355 0 -0.0092130727398540037 -0.00016244678867689656 0 -0.0091944081174284448 -0.00019877796986877871 0 -0.0092346544791978794 -0.00019679812269667859 0 -0.0091981587859847041 -0.00017247259369520355 0 -0.0092796166169666783 -0.00015450157084271455 0 -0.009544580046299201 -0.00011007337977907321 0 -0.0091944081174284448 -0.00019877796986877871 0 -0.0091981587859847041 -0.00017247259369520355 0 -0.0091588603236222744 -0.00016016681041027908 0 -0.0091588603236222744 -0.00016016681041027908 0 -0.0091726039616342216 -0.00014607839198526917 0 -0.009112811194274097 -0.000110764509701524 0 -0.0091726039616342216 -0.00014607839198526917 0 -0.0092110022294289873 -0.00012764185572942236 0 -0.0092130727398540037 -0.00016244678867689656 0 -0.0091981587859847041 -0.00017247259369520355 0 -0.0091726039616342216 -0.00014607839198526917 0 -0.0092130727398540037 -0.00016244678867689656 0 -0.0091981587859847041 -0.00017247259369520355 0 -0.0091588603236222744 -0.00016016681041027908 0 -0.0091726039616342216 -0.00014607839198526917 0 -0.0091294668453780967 -0.00013070355744719742 0 -0.0091429944256889318 -0.00015512335233785427 0 -0.0091546332655672875 -0.00016615499133190698 0 -0.0091726039616342216 -0.00014607839198526917 0 -0.0091294668453780967 -0.00013070355744719742 0 -0.0092110022294289873 -0.00012764185572942236 0 -0.0087252724173429077 -2.0708606046409603e-05 0 -0.010257220705569657 -0.0004245984462709341 0 -0.0091726039616342216 -0.00014607839198526917 0 -0.0091294668453780967 -0.00013070355744719742 0 -0.009112811194274097 -0.000110764509701524 0 -0.0091294668453780967 -0.00013070355744719742 0 -0.009112811194274097 -0.000110764509701524 0 -0.0090537472574795178 -0.00011510296310250929 0 -0.009112811194274097 -0.000110764509701524 0 -0.0090063977690242204 -1.8172543920283154e-05 0 -0.0090537472574795178 -0.00011510296310250929 0 -0.0091588603236222744 -0.00016016681041027908 0 -0.009112811194274097 -0.000110764509701524 0 -0.009098933931047536 -0.00015903007082161582 0 -0.009112811194274097 -0.000110764509701524 0 -0.0090063977690242204 -1.8172543920283154e-05 0 -0.009098933931047536 -0.00015903007082161582 0 -0.0090173912710062622 1.1575349093105619e-06 0 -0.0091008260085789841 0.00014368277371726098 0 -0.0092051795866559729 0.00055656672122741946 0 -0.0090933993737967074 0.00045485053286028224 0 -0.0091408940159830414 0.00025872175354906376 0 -0.0091476259702277518 -3.7375401664482328e-05 0 -0.0090063977690242204 -1.8172543920283154e-05 0 -0.0091408940159830414 0.00025872175354906376 0 -0.0090063977690242204 -1.8172543920283154e-05 0 -0.0090933993737967074 0.00045485053286028224 0 -0.0091408940159830414 0.00025872175354906376 0 -0.0091476259702277518 -3.7375401664482328e-05 0 -0.0090063977690242204 -1.8172543920283154e-05 0 -0.0090096178107379118 -0.00018831735861453384 0 -0.0090063977690242204 -1.8172543920283154e-05 0 -0.0090096178107379118 -0.00018831735861453384 0 -0.0090537472574795178 -0.00011510296310250929 0 -0.0090096178107379118 -0.00018831735861453384 0 -0.0090356804523481927 -0.00021279494024308338 0 -0.0090537472574795178 -0.00011510296310250929 0 -0.0090096178107379118 -0.00018831735861453384 0 -0.0090327408488488411 -0.00036545214280732385 0 -0.0090356804523481927 -0.00021279494024308338 0 -0.009171274029989936 -0.00073902042088398018 0 -0.0091476259702277518 -3.7375401664482328e-05 0 -0.0090096178107379118 -0.00018831735861453384 0 -0.009171274029989936 -0.00073902042088398018 0 -0.0090096178107379118 -0.00018831735861453384 0 -0.0090327408488488411 -0.00036545214280732385 0 -0.009171274029989936 -0.00073902042088398018 0 -0.0075643773343399851 -0.0012549718376956749 0 -0.0081522761052772279 -0.0019304093808886751 0 -0.0093283225301399736 -0.00069882762948657946 0 -0.007910605379436296 -0.00084449253285284905 0 -0.0090327408488488411 -0.00036545214280732385 0 -0.0090477529560343793 -0.00020580968690465281 0 -0.0090356804523481927 -0.00021279494024308338 0 -0.007910605379436296 -0.00084449253285284905 0 -0.009431700790067268 -0.00095428246905395918 0 -0.0074350353735494938 -0.0026734891329043987 0 -0.0075643773343399851 -0.0012549718376956749 0 -0.0066424106626763596 -0.0024561863753642626 0 -0.0075643773343399851 -0.0012549718376956749 0 -0.0066424106626763596 -0.0024561863753642626 0 -0.006173830927642651 -0.0016140682635608973 0 -0.0082077841468661816 -0.0026834733561738153 0 -0.0074350353735494938 -0.0026734891329043987 0 -0.0081522761052772279 -0.0019304093808886751 0 -0.0074350353735494938 -0.0026734891329043987 0 -0.0075643773343399851 -0.0012549718376956749 0 -0.0081522761052772279 -0.0019304093808886751 0 -0.020399887319549458 -8.3534783561526471e-05 0 -0.020232311037893112 -0.00017627535106003151 0 -0.020571774733980169 -0.00013637606931241769 0 -0.020318047410214563 -7.1046706085806303e-05 0 -0.020247063777956077 -2.7181401451460144e-05 0 -0.020232311037893112 -0.00017627535106003151 0 -0.020399887319549458 -8.3534783561526471e-05 0 -0.020318047410214563 -7.1046706085806303e-05 0 -0.020232311037893112 -0.00017627535106003151 0 -0.020318047410214563 -7.1046706085806303e-05 0 -0.020400648459849315 1.8417511730035035e-05 0 -0.020247063777956077 -2.7181401451460144e-05 0 -0.020399887319549458 -8.3534783561526471e-05 0 -0.020318047410214563 -7.1046706085806303e-05 0 -0.020400648459849315 1.8417511730035035e-05 0 -0.020204250774910615 0.00010156333741127717 0 -0.020247063777956077 -2.7181401451460144e-05 0 -0.020029308888470404 -2.6992945238194626e-05 0 -0.014375330584754681 -0.00094050935320062117 0 -0.013685196351041488 0.00021659184243684682 0 -0.013207577202008736 0.00011491715004845173 0 -0.015208724901825116 -0.00064552800535089023 0 -0.016310618017878854 -0.00010138030115350336 0 -0.020247063777956077 -2.7181401451460144e-05 0 -0.020029308888470404 -2.6992945238194626e-05 0 -0.020232311037893112 -0.00017627535106003151 0 -0.015208724901825116 -0.00064552800535089023 0 -0.009431700790067268 -0.00095428246905395918 0 -0.0090477529560343793 -0.00020580968690465281 0 -0.0091544012504622442 -0.00017141724086930873 0 -0.0090768767531153854 -0.00019386789637896164 0 -0.009431700790067268 -0.00095428246905395918 0 -0.016310618017878854 -0.00010138030115350336 0 -0.0090477529560343793 -0.00020580968690465281 0 -0.0090356804523481927 -0.00021279494024308338 0 -0.0090768767531153854 -0.00019386789637896164 0 -0.009431700790067268 -0.00095428246905395918 0 -0.009049717848977918 4.9963117846398387e-05 0 -0.01927002153489903 -0.0002890673956959137 0 -0.019795462827445771 -0.00073908374208772132 0 -0.020571774733980169 -0.00013637606931241769 0 -0.0093914750877730352 -0.00038398243730666191 0 -0.0093093137383115452 -0.00039827673492246732 0 -0.0091544012504622442 -0.00017141724086930873 0 -0.0093093137383115452 -0.00039827673492246732 0 -0.0091581739722520275 -0.00026488348978661691 0 -0.0091544012504622442 -0.00017141724086930873 0 -0.016310618017878854 -0.00010138030115350336 0 -0.014411723754149517 -0.00038114713588382229 0 -0.0091581739722520275 -0.00026488348978661691 0 -0.0091544012504622442 -0.00017141724086930873 0 -0.0091529777864898763 -0.00016442250279515732 0 -0.0091544012504622442 -0.00017141724086930873 0 -0.0090768767531153854 -0.00019386789637896164 0 -0.0090855615569165726 -0.00017034878144163006 0 -0.0091544012504622442 -0.00017141724086930873 0 -0.0091399880821154602 -0.0001627142356631684 0 -0.0090855615569165726 -0.00017034878144163006 0 -0.0091399880821154602 -0.0001627142356631684 0 -0.0091529777864898763 -0.00016442250279515732 0 -0.0091504565353779446 -0.00015909186492668966 0 -0.0091544012504622442 -0.00017141724086930873 0 -0.0091399880821154602 -0.0001627142356631684 0 -0.0091529777864898763 -0.00016442250279515732 0 -0.0090356804523481927 -0.00021279494024308338 0 -0.0090855615569165726 -0.00017034878144163006 0 -0.0090537472574795178 -0.00011510296310250929 0 -0.0090356804523481927 -0.00021279494024308338 0 -0.0090768767531153854 -0.00019386789637896164 0 -0.0090855615569165726 -0.00017034878144163006 0 -0.0091294668453780967 -0.00013070355744719742 0 -0.0090537472574795178 -0.00011510296310250929 0 -0.0091211126010762832 -0.00015091672939169918 0 -0.0090855615569165726 -0.00017034878144163006 0 -0.0090537472574795178 -0.00011510296310250929 0 -0.0091211126010762832 -0.00015091672939169918 0 -0.0091399880821154602 -0.0001627142356631684 0 -0.0091211126010762832 -0.00015091672939169918 0 -0.0091504565353779446 -0.00015909186492668966 0 -0.0091399880821154602 -0.0001627142356631684 0 -0.0090855615569165726 -0.00017034878144163006 0 -0.0091211126010762832 -0.00015091672939169918 0 -0.0091294668453780967 -0.00013070355744719742 0 -0.0091211126010762832 -0.00015091672939169918 0 -0.0091429944256889318 -0.00015512335233785427 0 -0.0091211126010762832 -0.00015091672939169918 0 -0.0091429944256889318 -0.00015512335233785427 0 -0.0091504565353779446 -0.00015909186492668966 0 -0.0091429944256889318 -0.00015512335233785427 0 -0.0091644438353929662 -0.00016099809102391088 0 -0.0091504565353779446 -0.00015909186492668966 0 -0.01360109617449431 1.5189363368494029e-05 0 -0.01405880009364845 0.00020889860715268718 0 -0.013611791470049083 -0.0013390129512370135 0 -0.01360109617449431 1.5189363368494029e-05 0 -0.01405880009364845 0.00020889860715268718 0 -0.013839311864754457 0.0013419293678717326 0 -0.01405880009364845 0.00020889860715268718 0 -0.014335423360295649 0.00038230167866439902 0 -0.013611791470049083 -0.0013390129512370135 0 -0.0091644438353929662 -0.00016099809102391088 0 -0.0091504565353779446 -0.00015909186492668966 0 -0.0091768537259772024 -0.00015623558550400711 0 -0.01325723720987039 0.00089579174167625985 0 -0.013201078928270946 0.0011158524694117613 0 -0.013405895742215942 0.0015062515430331392 0 -0.013245489718169608 0.00090758995367598637 0 -0.012978462291718638 0.0012272786432295467 0 -0.012685383797126479 0.00050802874964879345 0 -0.013422237246582648 0.0010458080976285806 0 -0.015276846675732945 0.0012874164273111409 0 -0.013245489718169608 0.00090758995367598637 0 -0.012978462291718638 0.0012272786432295467 0 -0.013201078928270946 0.0011158524694117613 0 -0.013422237246582648 0.0010458080976285806 0 -0.013332127580075922 0.0010708066402319112 0 -0.014356268328996478 0.00030878682727367835 0 -0.014558439191434026 0.00041919058046127389 0 -0.012978462291718638 0.0012272786432295467 0 -0.013201078928270946 0.0011158524694117613 0 -0.013405895742215942 0.0015062515430331392 0 -0.014350115833097213 0.00038663543286227334 0 -0.014871638442004398 0.001650481100489445 0 -0.013839311864754457 0.0013419293678717326 0 -0.014558439191434026 0.00041919058046127389 0 -0.018237789921840313 0.00085630068115078351 0 -0.015859321219178036 -9.1957045825121462e-05 0 -0.016452883738772094 0.0014312906467548352 0 -0.017065201277372901 0.00068307793783287996 0 -0.01405880009364845 0.00020889860715268718 0 -0.014350115833097213 0.00038663543286227334 0 -0.013839311864754457 0.0013419293678717326 0 -0.014558439191434026 0.00041919058046127389 0 -0.015276846675732945 0.0012874164273111409 0 -0.020774967051398311 -0.0003750819468962998 0 -0.020510040748145237 -0.00045207610094445086 0 -0.020642130710182827 -0.00029869643407032828 0 -0.018237789921840313 0.00085630068115078351 0 -0.015861669827550762 0.00010308476653743447 0 -0.0091644438353929662 -0.00016099809102391088 0 -0.0091768537259772024 -0.00015623558550400711 0 -0.0092134130850566928 -0.00014652700788460858 0 -0.011282047986870039 -0.0001129418865330989 0 -0.015861669827550762 0.00010308476653743447 0 -0.0089597951910896142 -0.0010182492407788614 0 -0.014082506918405666 -0.00067954198120948896 0 -0.0091529777864898763 -0.00016442250279515732 0 -0.0091504565353779446 -0.00015909186492668966 0 -0.0091768537259772024 -0.00015623558550400711 0 -0.0091529777864898763 -0.00016442250279515732 0 -0.0091858066978150344 -0.00015194887785333611 0 -0.0092000906036610527 -0.00014571645892405292 0 -0.0091858066978150344 -0.00015194887785333611 0 -0.0091768537259772024 -0.00015623558550400711 0 -0.0092000906036610527 -0.00014571645892405292 0 -0.0091529777864898763 -0.00016442250279515732 0 -0.0091858066978150344 -0.00015194887785333611 0 -0.0091768537259772024 -0.00015623558550400711 0 -0.0091768537259772024 -0.00015623558550400711 0 -0.0092000906036610527 -0.00014571645892405292 0 -0.0092134130850566928 -0.00014652700788460858 0 -0.020262848529195732 -0.0011537159644703209 0 -0.020375543116694421 -0.0011210596744875749 0 -0.020261171932810434 -0.00090356647331136836 0 -0.014082506918405666 -0.00067954198120948896 0 -0.015861669827550762 0.00010308476653743447 0 -0.0091581739722520275 -0.00026488348978661691 0 -0.0091529777864898763 -0.00016442250279515732 0 -0.0091317256678600505 -0.00018610849341716253 0 -0.014411723754149517 -0.00038114713588382229 0 -0.014082506918405666 -0.00067954198120948896 0 -0.019795462827445771 -0.00073908374208772132 0 -0.020262848529195732 -0.0011537159644703209 0 -0.020261171932810434 -0.00090356647331136836 0 -0.015861669827550762 0.00010308476653743447 0 -0.020627795102649404 -0.00030923109420508946 0 -0.019795462827445771 -0.00073908374208772132 0 -0.020261171932810434 -0.00090356647331136836 0 -0.020215754249755458 -0.00071990096864117778 0 -0.019795462827445771 -0.00073908374208772132 0 -0.020553289788339583 -0.00038761892384899904 0 -0.020571774733980169 -0.00013637606931241769 0 -0.019795462827445771 -0.00073908374208772132 0 -0.020215754249755458 -0.00071990096864117778 0 -0.020553289788339583 -0.00038761892384899904 0 -0.020375543116694421 -0.0011210596744875749 0 -0.020261171932810434 -0.00090356647331136836 0 -0.020553289788339583 -0.00038761892384899904 0 -0.020510040748145237 -0.00045207610094445086 0 -0.020604389080528224 -0.00015069641584412955 0 -0.020642130710182827 -0.00029869643407032828 0 -0.020261171932810434 -0.00090356647331136836 0 -0.020215754249755458 -0.00071990096864117778 0 -0.020553289788339583 -0.00038761892384899904 0 -0.020774967051398311 -0.0003750819468962998 0 -0.020642130710182827 -0.00029869643407032828 0 -0.020692778525638111 -0.00022168479747548459 0 -0.020774967051398311 -0.0003750819468962998 0 -0.020781014520524735 -0.00017428795103618941 0 -0.02091986496697695 -6.2914545317766706e-05 0 -0.018237789921840313 0.00085630068115078351 0 -0.021030470723246226 0.0003036047524076438 0 -0.018237789921840313 0.00085630068115078351 0 -0.018971159710066722 0.0012377208786052869 0 -0.020774967051398311 -0.0003750819468962998 0 -0.020781014520524735 -0.00017428795103618941 0 -0.020692778525638111 -0.00022168479747548459 0 -0.020781014520524735 -0.00017428795103618941 0 -0.020797373026302066 -7.5756639707260604e-05 0 -0.02091986496697695 -6.2914545317766706e-05 0 -0.020781014520524735 -0.00017428795103618941 0 -0.020722057964397807 -0.00012812839422302071 0 -0.020797373026302066 -7.5756639707260604e-05 0 -0.020604389080528224 -0.00015069641584412955 0 -0.020722057964397807 -0.00012812839422302071 0 -0.020745874948030027 -2.6056355104069846e-05 0 -0.020604389080528224 -0.00015069641584412955 0 -0.020642130710182827 -0.00029869643407032828 0 -0.020692778525638111 -0.00022168479747548459 0 -0.020604389080528224 -0.00015069641584412955 0 -0.020692778525638111 -0.00022168479747548459 0 -0.020722057964397807 -0.00012812839422302071 0 -0.020781014520524735 -0.00017428795103618941 0 -0.020692778525638111 -0.00022168479747548459 0 -0.020722057964397807 -0.00012812839422302071 0 -0.020627795102649404 -0.00030923109420508946 0 -0.020676002744197956 8.1065855681168768e-05 0 -0.020604389080528224 -0.00015069641584412955 0 -0.020745874948030027 -2.6056355104069846e-05 0 -0.020701763595468319 0.00010572209996902419 0 -0.020722057964397807 -0.00012812839422302071 0 -0.020745874948030027 -2.6056355104069846e-05 0 -0.020797373026302066 -7.5756639707260604e-05 0 -0.020831246333507452 3.5877086114483354e-06 0 -0.020889084794623352 0.0001167137180913915 0 -0.02091986496697695 -6.2914545317766706e-05 0 -0.020797373026302066 -7.5756639707260604e-05 0 -0.020831246333507452 3.5877086114483354e-06 0 -0.02091986496697695 -6.2914545317766706e-05 0 -0.020745874948030027 -2.6056355104069846e-05 0 -0.020797373026302066 -7.5756639707260604e-05 0 -0.020831246333507452 3.5877086114483354e-06 0 -0.020798142911376792 0.00018944776310300389 0 -0.020792922150093446 7.9738995287057605e-05 0 -0.020889084794623352 0.0001167137180913915 0 -0.020831246333507452 3.5877086114483354e-06 0 -0.020792922150093446 7.9738995287057605e-05 0 -0.020889084794623352 0.0001167137180913915 0 -0.020745874948030027 -2.6056355104069846e-05 0 -0.020831246333507452 3.5877086114483354e-06 0 -0.020792922150093446 7.9738995287057605e-05 0 -0.020745874948030027 -2.6056355104069846e-05 0 -0.020792922150093446 7.9738995287057605e-05 0 -0.020701763595468319 0.00010572209996902419 0 -0.020798142911376792 0.00018944776310300389 0 -0.020792922150093446 7.9738995287057605e-05 0 -0.020701763595468319 0.00010572209996902419 0 -0.020553289788339583 -0.00038761892384899904 0 -0.020701763595468319 0.00010572209996902419 0 -0.020571774733980169 -0.00013637606931241769 0 -0.020701763595468319 0.00010572209996902419 0 -0.020509877025287473 -9.7938037323620546e-06 0 -0.020571774733980169 -0.00013637606931241769 0 -0.020530634049526337 0.00011071659246882292 0 -0.020701763595468319 0.00010572209996902419 0 -0.020509877025287473 -9.7938037323620546e-06 0 -0.016310618017878854 -0.00010138030115350336 0 -0.021990700450046908 -5.1030164903609882e-05 0 -0.020399887319549458 -8.3534783561526471e-05 0 -0.020400648459849315 1.8417511730035035e-05 0 -0.020509877025287473 -9.7938037323620546e-06 0 -0.020530634049526337 0.00011071659246882292 0 -0.020400648459849315 1.8417511730035035e-05 0 -0.020509877025287473 -9.7938037323620546e-06 0 -0.020399887319549458 -8.3534783561526471e-05 0 -0.020509877025287473 -9.7938037323620546e-06 0 -0.020571774733980169 -0.00013637606931241769 0 -0.020853524084661148 0.0011001201798388116 0 -0.020935202880144992 0.001142297957323881 0 -0.02091633162079742 0.0010126380788748092 0 -0.020935202880144992 0.001142297957323881 0 -0.02091633162079742 0.0010126380788748092 0 -0.020971867952840999 0.0010629030655343395 0 -0.020853524084661148 0.0011001201798388116 0 -0.020935202880144992 0.001142297957323881 0 -0.020830530978955864 0.0011937484405544064 0 -0.020853524084661148 0.0011001201798388116 0 -0.020767218301707538 0.0011184355894080494 0 -0.020830530978955864 0.0011937484405544064 0 -0.020853524084661148 0.0011001201798388116 0 -0.020767218301707538 0.0011184355894080494 0 -0.020810825330406006 0.0010275946942893549 0 -0.020845550235312871 0.00088989728216772978 0 -0.020810825330406006 0.0010275946942893549 0 -0.02068032558891637 0.0010121893537025231 0 -0.020767218301707538 0.0011184355894080494 0 -0.020810825330406006 0.0010275946942893549 0 -0.02068032558891637 0.0010121893537025231 0 -0.020947763308771176 0.00090888072719509595 0 -0.020845550235312871 0.00088989728216772978 0 -0.02091633162079742 0.0010126380788748092 0 -0.020845550235312871 0.00088989728216772978 0 -0.020810825330406006 0.0010275946942893549 0 -0.02091633162079742 0.0010126380788748092 0 -0.020853524084661148 0.0011001201798388116 0 -0.020810825330406006 0.0010275946942893549 0 -0.02091633162079742 0.0010126380788748092 0 -0.020947763308771176 0.00090888072719509595 0 -0.02091633162079742 0.0010126380788748092 0 -0.020979238379616839 0.00099499519985984919 0 -0.021020444578975617 0.00086431600014188483 0 -0.020856193365002138 0.00073115863105475824 0 -0.020929040698838799 0.00073055019170212049 0 -0.021020444578975617 0.00086431600014188483 0 -0.020979238379616839 0.00099499519985984919 0 -0.02104371323689657 0.0011296063647349519 0 -0.021042273393963778 0.00023226147728649458 0 -0.020889084794623352 0.0001167137180913915 0 -0.02091986496697695 -6.2914545317766706e-05 0 -0.021024408367625209 0.00086823738474531092 0 -0.021020444578975617 0.00086431600014188483 0 -0.020856193365002138 0.00073115863105475824 0 -0.021009662511142505 0.00053126814423127525 0 -0.021030470723246226 0.0003036047524076438 0 -0.021005109927639799 0.00087172922485169631 0 -0.020975831362938926 0.00094928654307338393 0 -0.021020444578975617 0.00086431600014188483 0 -0.020947763308771176 0.00090888072719509595 0 -0.020979238379616839 0.00099499519985984919 0 -0.02091633162079742 0.0010126380788748092 0 -0.020979238379616839 0.00099499519985984919 0 -0.020971867952840999 0.0010629030655343395 0 -0.020979238379616839 0.00099499519985984919 0 -0.020971867952840999 0.0010629030655343395 0 -0.02104371323689657 0.0011296063647349519 0 -0.020935202880144992 0.001142297957323881 0 -0.020971867952840999 0.0010629030655343395 0 -0.02104371323689657 0.0011296063647349519 0 -0.020935202880144992 0.001142297957323881 0 -0.02104371323689657 0.0011296063647349519 0 -0.020986119535162724 0.0011951557026370211 0 -0.020975831362938926 0.00094928654307338393 0 -0.018971159710066722 0.0012377208786052869 0 -0.020986119535162724 0.0011951557026370211 0 -0.020947502229627955 0.0012510852241030823 0 -0.02106467364426258 0.0013502234581375377 0 -0.020856193365002138 0.00073115863105475824 0 -0.020929040698838799 0.00073055019170212049 0 -0.020858913407946968 0.00051212882476038503 0 -0.020935202880144992 0.001142297957323881 0 -0.020986119535162724 0.0011951557026370211 0 -0.020898068878048577 0.0012102698376279563 0 -0.020986119535162724 0.0011951557026370211 0 -0.020947502229627955 0.0012510852241030823 0 -0.020898068878048577 0.0012102698376279563 0 -0.020947502229627955 0.0012510852241030823 0 -0.02106467364426258 0.0013502234581375377 0 -0.020816665376383162 0.001276741013120979 0 -0.018971159710066722 0.0012377208786052869 0 -0.018219186244141462 0.0016624278960061865 0 -0.020709557129474341 0.00047079765663581409 0 -0.020856193365002138 0.00073115863105475824 0 -0.020858913407946968 0.00051212882476038503 0 -0.02104371323689657 0.0011296063647349519 0 -0.020986119535162724 0.0011951557026370211 0 -0.02106467364426258 0.0013502234581375377 0 -0.01681036099512458 0.0015388910889578328 0 -0.017428502223960619 0.0017288282726344551 0 -0.017439253048677893 0.0016263414474769371 0 -0.020947502229627955 0.0012510852241030823 0 -0.020898068878048577 0.0012102698376279563 0 -0.020816665376383162 0.001276741013120979 0 -0.019137091771154722 0.0011681960643227603 0 -0.018219186244141462 0.0016624278960061865 0 -0.020830530978955864 0.0011937484405544064 0 -0.020898068878048577 0.0012102698376279563 0 -0.020816665376383162 0.001276741013120979 0 -0.020935202880144992 0.001142297957323881 0 -0.020830530978955864 0.0011937484405544064 0 -0.020898068878048577 0.0012102698376279563 0 -0.020767218301707538 0.0011184355894080494 0 -0.020830530978955864 0.0011937484405544064 0 -0.020656219277066762 0.0012592917930451981 0 -0.020830530978955864 0.0011937484405544064 0 -0.020809173812037677 0.0012999655315258014 0 -0.020656219277066762 0.0012592917930451981 0 -0.018219186244141462 0.0016624278960061865 0 -0.016568681126686927 0.0021882681408627214 0 -0.016041500421477273 0.0018981958615416929 0 -0.016568681126686927 0.0021882681408627214 0 -0.016674189112976974 0.0022222256409229228 0 -0.016675041638226785 0.002208207815616669 0 -0.016715127335202262 0.0022382673467635575 0 -0.018219186244141462 0.0016624278960061865 0 -0.016041500421477273 0.0018981958615416929 0 -0.014197705888761947 0.0018406404282250467 0 -0.013952174724553262 0.0016843637722373647 0 -0.014207027216316042 0.0016138921307317919 0 -0.013477632876869377 0.0022261121995017564 0 -0.013492550049592862 0.0018143073416402985 0 -0.013719006146803997 0.0020405888056063428 0 -0.016041500421477273 0.0018981958615416929 0 -0.013702116061153761 0.0017801441740628848 0 -0.016041500421477273 0.0018981958615416929 0 -0.015276846675732945 0.0012874164273111409 0 -0.01681036099512458 0.0015388910889578328 0 -0.017439253048677893 0.0016263414474769371 0 -0.016722197707220034 0.001162627749041666 0 -0.018971159710066722 0.0012377208786052869 0 -0.015276846675732945 0.0012874164273111409 0 -0.016452883738772094 0.0014312906467548352 0 -0.017292113287071708 0.0016858461177955146 0 -0.017065201277372901 0.00068307793783287996 0 -0.013895506733032201 0.0014711909380272696 0 -0.013952174724553262 0.0016843637722373647 0 -0.014058120681700556 0.0014841281389767246 0 -0.013952174724553262 0.0016843637722373647 0 -0.014058120681700556 0.0014841281389767246 0 -0.014207027216316042 0.0016138921307317919 0 -0.013702116061153761 0.0017801441740628848 0 -0.013856637507261939 0.0013581123235766558 0 -0.014058120681700556 0.0014841281389767246 0 -0.014207027216316042 0.0016138921307317919 0 -0.014217068567096362 0.0013938266428075395 0 -0.012335523674613729 0.0014624752008382332 0 -0.012837749076277181 0.0009705637164659724 0 -0.013179072653650144 0.0012342206512818022 0 -0.014217068567096362 0.0013938266428075395 0 -0.01394390059054703 0.0012582885959109094 0 -0.014234077901031306 0.0011787412435627792 0 -0.012382141184080278 0.00092537039102359004 0 -0.013799164394369146 0.0012146745307358494 0 -0.013856637507261939 0.0013581123235766558 0 -0.013799164394369146 0.0012146745307358494 0 -0.0096882515584482774 0.00014301949600598136 0 -0.0095739906369460889 2.9380147340537415e-05 0 -0.0097118083723776016 -2.6312712734023776e-05 0 -0.012382141184080278 0.00092537039102359004 0 -0.010995736661858161 0.00042903150802870018 0 -0.013895506733032201 0.0014711909380272696 0 -0.014058120681700556 0.0014841281389767246 0 -0.01394390059054703 0.0012582885959109094 0 -0.013422237246582648 0.0010458080976285806 0 -0.012382141184080278 0.00092537039102359004 0 -0.014058120681700556 0.0014841281389767246 0 -0.014217068567096362 0.0013938266428075395 0 -0.01394390059054703 0.0012582885959109094 0 -0.013422237246582648 0.0010458080976285806 0 -0.013200773851909641 0.00059014426384205283 0 -0.013245489718169608 0.00090758995367598637 0 -0.013153858616667208 0.00056540723285706434 0 -0.012685383797126479 0.00050802874964879345 0 -0.013227353316871859 0.00090475454679901928 0 -0.013379462662631455 0.00032639770986291159 0 -0.013153858616667208 0.00056540723285706434 0 -0.013379462662631455 0.00032639770986291159 0 -0.013153858616667208 0.00056540723285706434 0 -0.012685383797126479 0.00050802874964879345 0 -0.0091429944256889318 -0.00015512335233785427 0 -0.0091644438353929662 -0.00016099809102391088 0 -0.0091546332655672875 -0.00016615499133190698 0 -0.014558439191434026 0.00041919058046127389 0 -0.011075069035993229 -7.2567999312819043e-05 0 -0.01360109617449431 1.5189363368494029e-05 0 -0.013611791470049083 -0.0013390129512370135 0 -0.013358453335975785 -0.0012680376894295038 0 -0.011282047986870039 -0.0001129418865330989 0 -0.010257220705569657 -0.0004245984462709341 0 -0.011075069035993229 -7.2567999312819043e-05 0 -0.010257220705569657 -0.0004245984462709341 0 -0.010257220705569657 -0.0004245984462709341 0 -0.009544580046299201 -0.00011007337977907321 0 -0.011075069035993229 -7.2567999312819043e-05 0 -0.009544580046299201 -0.00011007337977907321 0 -0.010117316127393023 -0.00021975827628118293 0 -0.010119139278209122 -0.00022059987041216461 0 -0.010110891904504954 -0.00020684903204347407 0 -0.0094868677339363053 0.000197350703780586 0 -0.0094197073160480378 5.7487910093720133e-05 0 -0.0094820657736290094 3.342619592907059e-05 0 -0.0094868677339363053 0.000197350703780586 0 -0.0095739906369460889 2.9380147340537415e-05 0 -0.0094820657736290094 3.342619592907059e-05 0 -0.0096882515584482774 0.00014301949600598136 0 -0.0094868677339363053 0.000197350703780586 0 -0.0095739906369460889 2.9380147340537415e-05 0 -0.012382141184080278 0.00092537039102359004 0 -0.011075069035993229 -7.2567999312819043e-05 0 -0.0095739906369460889 2.9380147340537415e-05 0 -0.0096091937034320056 -9.4751244228507346e-05 0 -0.0097118083723776016 -2.6312712734023776e-05 0 -0.0095739906369460889 2.9380147340537415e-05 0 -0.0094855267896519803 -8.0222505764008465e-05 0 -0.0096091937034320056 -9.4751244228507346e-05 0 -0.0093504613194429903 -9.838253652020662e-05 0 -0.0094126994374437289 2.8490995084816433e-05 0 -0.0094458550045741722 -2.3100834748507315e-05 0 -0.0093504613194429903 -9.838253652020662e-05 0 -0.0094185149550879473 5.6513971517817914e-05 0 -0.0094126994374437289 2.8490995084816433e-05 0 -0.0093504613194429903 -9.838253652020662e-05 0 -0.0094855267896519803 -8.0222505764008465e-05 0 -0.0094458550045741722 -2.3100834748507315e-05 0 -0.0094197073160480378 5.7487910093720133e-05 0 -0.0094126994374437289 2.8490995084816433e-05 0 -0.0094820657736290094 3.342619592907059e-05 0 -0.0094126994374437289 2.8490995084816433e-05 0 -0.0094820657736290094 3.342619592907059e-05 0 -0.0094458550045741722 -2.3100834748507315e-05 0 -0.009544580046299201 -0.00011007337977907321 0 -0.0095346459429541362 -6.0820585769889053e-05 0 -0.0095739906369460889 2.9380147340537415e-05 0 -0.0094820657736290094 3.342619592907059e-05 0 -0.0094855267896519803 -8.0222505764008465e-05 0 -0.0094820657736290094 3.342619592907059e-05 0 -0.0094855267896519803 -8.0222505764008465e-05 0 -0.0094458550045741722 -2.3100834748507315e-05 0 -0.0094855267896519803 -8.0222505764008465e-05 0 -0.0094140150459868441 -0.00019956027566798366 0 -0.0095407244798817771 -0.00020029886995996386 0 -0.0093504613194429903 -9.838253652020662e-05 0 -0.0094855267896519803 -8.0222505764008465e-05 0 -0.0094140150459868441 -0.00019956027566798366 0 -0.0094855267896519803 -8.0222505764008465e-05 0 -0.0096091937034320056 -9.4751244228507346e-05 0 -0.0095407244798817771 -0.00020029886995996386 0 -0.0096091937034320056 -9.4751244228507346e-05 0 -0.0097315810894116096 -0.00019251747281962873 0 -0.0097118083723776016 -2.6312712734023776e-05 0 -0.0096091937034320056 -9.4751244228507346e-05 0 -0.0095407244798817771 -0.00020029886995996386 0 -0.0097315810894116096 -0.00019251747281962873 0 -0.01265043583990549 0.00025025772069749939 0 -0.012924706454925095 0.00054454626697179908 0 -0.012495070077002282 0.00085757501668796098 0 -0.011358017415324464 0.00010639756481945479 0 -0.010995736661858161 0.00042903150802870018 0 -0.01265043583990549 0.00025025772069749939 0 -0.012924706454925095 0.00054454626697179908 0 -0.013038637460592506 8.867583758431339e-05 0 -0.012924706454925095 0.00054454626697179908 0 -0.013038637460592506 8.867583758431339e-05 0 -0.013310561842472205 0.00031237217672314561 0 -0.012924706454925095 0.00054454626697179908 0 -0.013310561842472205 0.00031237217672314561 0 -0.013237313152826521 0.00078074045324739354 0 -0.012924706454925095 0.00054454626697179908 0 -0.012837749076277181 0.0009705637164659724 0 -0.012495070077002282 0.00085757501668796098 0 -0.012924706454925095 0.00054454626697179908 0 -0.012837749076277181 0.0009705637164659724 0 -0.013237313152826521 0.00078074045324739354 0 -0.012837749076277181 0.0009705637164659724 0 -0.013179072653650144 0.0012342206512818022 0 -0.013237313152826521 0.00078074045324739354 0 -0.012335523674613729 0.0014624752008382332 0 -0.012837749076277181 0.0009705637164659724 0 -0.012495070077002282 0.00085757501668796098 0 -0.0060004635521111026 -0.002062260227780768 0 -0.0058681557513611642 -0.0021601801160750643 0 -0.005940299383226549 -0.0021579322803916452 0 -0.0097537493959196971 -0.00035890865489932055 0 -0.0096136112699199364 -0.00029362929388817644 0 -0.0095600606216382465 -0.0004261152827834107 0 -0.0087216691567734862 -0.0012554814332311802 0 -0.0075546885688456619 -0.0013190462052113513 0 -0.0087216691567734862 -0.0012554814332311802 0 -0.0055429308508286616 -0.0022421784334952567 0 -0.0059555954363978737 -0.0017766301459504709 0 -0.0060300527741935636 -0.0021531181669893541 0 -0.006183103379524317 -0.001904836468683525 0 -0.011358017415324464 0.00010639756481945479 0 -0.0087216691567734862 -0.0012554814332311802 0 -0.01265043583990549 0.00025025772069749939 0 -0.012793125258955935 -0.00037095354336289622 0 -0.013038637460592506 8.867583758431339e-05 0 -0.012793125258955935 -0.00037095354336289622 0 -0.013038637460592506 8.867583758431339e-05 0 -0.013440798207483739 -3.8747701089080467e-05 0 -0.0087216691567734862 -0.0012554814332311802 0 -0.0099666117022768133 -0.00079102707683422076 0 -0.0095407244798817771 -0.00020029886995996386 0 -0.0097315810894116096 -0.00019251747281962873 0 -0.0096136112699199364 -0.00029362929388817644 0 -0.0097315810894116096 -0.00019251747281962873 0 -0.0097537493959196971 -0.00035890865489932055 0 -0.0096136112699199364 -0.00029362929388817644 0 -0.0095407244798817771 -0.00020029886995996386 0 -0.0096136112699199364 -0.00029362929388817644 0 -0.0094391394701031014 -0.00032952806720750735 0 -0.0094140150459868441 -0.00019956027566798366 0 -0.0095407244798817771 -0.00020029886995996386 0 -0.0094391394701031014 -0.00032952806720750735 0 -0.0094140150459868441 -0.00019956027566798366 0 -0.0094391394701031014 -0.00032952806720750735 0 -0.0092885608305680826 -0.00024804779195001462 0 -0.0094391394701031014 -0.00032952806720750735 0 -0.0095600606216382465 -0.0004261152827834107 0 -0.0094015873480222251 -0.00046578567975953368 0 -0.0096136112699199364 -0.00029362929388817644 0 -0.0094391394701031014 -0.00032952806720750735 0 -0.0095600606216382465 -0.0004261152827834107 0 -0.0075546885688456619 -0.0013190462052113513 0 -0.0076715845038494998 -0.0013641195051274947 0 -0.0058681557513611642 -0.0021601801160750643 0 -0.0058779695703636585 -0.0022751833582102098 0 -0.0058356362539700246 -0.0022509498830296658 0 -0.0058681557513611642 -0.0021601801160750643 0 -0.0058356362539700246 -0.0022509498830296658 0 -0.0058752996941374173 -0.0022442934633555445 0 -0.0058779695703636585 -0.0022751833582102098 0 -0.0058356362539700246 -0.0022509498830296658 0 -0.0058917264618646419 -0.0021798105558706602 0 -0.0058356362539700246 -0.0022509498830296658 0 -0.00580666950502879 -0.0022993301530298701 0 -0.0058917264618646419 -0.0021798105558706602 0 -0.0058752996941374173 -0.0022442934633555445 0 -0.00580666950502879 -0.0022993301530298701 0 -0.0058162381336956696 -0.0023307835816289285 0 -0.0058356362539700246 -0.0022509498830296658 0 -0.0058752996941374173 -0.0022442934633555445 0 -0.00580666950502879 -0.0022993301530298701 0 -0.0058752996941374173 -0.0022442934633555445 0 -0.0059685197011447684 -0.0022941668728282895 0 -0.0058162381336956696 -0.0023307835816289285 0 -0.0058752996941374173 -0.0022442934633555445 0 -0.0059475108822951202 -0.0022118239982095085 0 -0.0059685197011447684 -0.0022941668728282895 0 -0.0058681557513611642 -0.0021601801160750643 0 -0.0058752996941374173 -0.0022442934633555445 0 -0.005940299383226549 -0.0021579322803916452 0 -0.0058752996941374173 -0.0022442934633555445 0 -0.005940299383226549 -0.0021579322803916452 0 -0.0059475108822951202 -0.0022118239982095085 0 -0.0060004635521111026 -0.002062260227780768 0 -0.005940299383226549 -0.0021579322803916452 0 -0.0060300527741935636 -0.0021531181669893541 0 -0.005940299383226549 -0.0021579322803916452 0 -0.0059475108822951202 -0.0022118239982095085 0 -0.0060300527741935636 -0.0021531181669893541 0 -0.0059475108822951202 -0.0022118239982095085 0 -0.0060300527741935636 -0.0021531181669893541 0 -0.0059685197011447684 -0.0022941668728282895 0 0.00071323733936258158 -0.0011088078354537804 0 0.00075212028842443711 -0.0013581491082209664 0 0.00044702387853724822 -0.0012847853265832011 0 0.00075212028842443711 -0.0013581491082209664 0 0.00077378585143058666 -0.001496999189663445 0 0.00058039164510891267 -0.0014567921636195983 0 0.00071323733936258158 -0.0011088078354537804 0 0.00075212028842443711 -0.0013581491082209664 0 0.0010349286939134535 -0.0014055331985445309 0 -0.0025994910549958501 -0.0017040034040525923 0 -0.0026173929620146846 -0.0018629882287450072 0 0.00075212028842443711 -0.0013581491082209664 0 0.00090791403446646008 -0.0014757904012503986 0 0.0010349286939134535 -0.0014055331985445309 0 0.00093378542260843145 -0.001614042731317973 0 0.0011471263418260469 -0.0016943023914404776 0 0.0010330767265440853 -0.0015193162482341667 0 0.00090791403446646008 -0.0014757904012503986 0 0.0010330767265440853 -0.0015193162482341667 0 0.0010349286939134535 -0.0014055331985445309 0 0.00090791403446646008 -0.0014757904012503986 0 0.00077378585143058666 -0.001496999189663445 0 0.00093378542260843145 -0.001614042731317973 0 0.00090791403446646008 -0.0014757904012503986 0 0.00093378542260843145 -0.001614042731317973 0 0.0010330767265440853 -0.0015193162482341667 0 0.00077378585143058666 -0.001496999189663445 0 0.00069592897919914186 -0.0016099901336925897 0 0.00093378542260843145 -0.001614042731317973 0 0.00077378585143058666 -0.001496999189663445 0 0.00069592897919914186 -0.0016099901336925897 0 0.00058039164510891267 -0.0014567921636195983 0 0.00075212028842443711 -0.0013581491082209664 0 0.00090791403446646008 -0.0014757904012503986 0 0.00077378585143058666 -0.001496999189663445 0 0.00069592897919914186 -0.0016099901336925897 0 0.00087122933425234808 -0.0017397847224617322 0 0.00093378542260843145 -0.001614042731317973 0 0.00069592897919914186 -0.0016099901336925897 0 0.00071834289865793015 -0.0017297048067189855 0 0.00087122933425234808 -0.0017397847224617322 0 0.00087122933425234808 -0.0017397847224617322 0 0.00093378542260843145 -0.001614042731317973 0 0.0010497384177400092 -0.0017588650106304061 0 0.00093378542260843145 -0.001614042731317973 0 0.0010497384177400092 -0.0017588650106304061 0 0.0011471263418260469 -0.0016943023914404776 0 0.0010497384177400092 -0.0017588650106304061 0 0.00089940659915305535 -0.0019179799951582011 0 0.0011635964302208503 -0.0018221690154713651 0 0.00087122933425234808 -0.0017397847224617322 0 0.00078916873643910027 -0.0018266590766310245 0 0.00089940659915305535 -0.0019179799951582011 0 0.00087122933425234808 -0.0017397847224617322 0 0.0010497384177400092 -0.0017588650106304061 0 0.00089940659915305535 -0.0019179799951582011 0 0.00071834289865793015 -0.0017297048067189855 0 0.00087122933425234808 -0.0017397847224617322 0 0.00078916873643910027 -0.0018266590766310245 0 0.0012347759915978115 -0.0017854723993918833 0 0.0012475048369759807 -0.0018033767022609156 0 0.0012713950420337235 -0.00179915499169776 0 0.0012347759915978115 -0.0017854723993918833 0 0.0012713950420337235 -0.00179915499169776 0 0.0012737322849400042 -0.0018106854449084894 0 0.0012347759915978115 -0.0017854723993918833 0 0.0011799954097257322 -0.0017764658523158998 0 0.0012737322849400042 -0.0018106854449084894 0 0.0010497384177400092 -0.0017588650106304061 0 0.0011799954097257322 -0.0017764658523158998 0 0.0011471263418260469 -0.0016943023914404776 0 0.0011799954097257322 -0.0017764658523158998 0 0.0012737322849400042 -0.0018106854449084894 0 0.0011635964302208503 -0.0018221690154713651 0 0.0010497384177400092 -0.0017588650106304061 0 0.0011799954097257322 -0.0017764658523158998 0 0.0011635964302208503 -0.0018221690154713651 0 0.0012347759915978115 -0.0017854723993918833 0 0.0011799954097257322 -0.0017764658523158998 0 0.0011471263418260469 -0.0016943023914404776 0 0.0012347759915978115 -0.0017854723993918833 0 0.0012361063388778301 -0.0016637045713239545 0 0.0012475048369759807 -0.0018033767022609156 0 0.0012347759915978115 -0.0017854723993918833 0 0.0011471263418260469 -0.0016943023914404776 0 0.0012361063388778301 -0.0016637045713239545 0 0.0011471263418260469 -0.0016943023914404776 0 0.0012361063388778301 -0.0016637045713239545 0 0.0010330767265440853 -0.0015193162482341667 0 -0.0011616204876085518 -0.0016850939602241724 0 -0.0026173929620146846 -0.0018629882287450072 0 0.0010998413688828087 -0.0015445543603841579 0 0.0010330767265440853 -0.0015193162482341667 0 0.0010349286939134535 -0.0014055331985445309 0 -0.0011616204876085518 -0.0016850939602241724 0 0.0019972169259203547 -0.0015850506591924989 0 -0.0057102429588100946 -0.0023456792508523157 0 -0.00580666950502879 -0.0022993301530298701 0 -0.0058162381336956696 -0.0023307835816289285 0 -0.0057960320523053046 -0.0022961219203631745 0 -0.0058999176571379276 -0.0022956036588069094 0 -0.0057102429588100946 -0.0023456792508523157 0 -0.00580666950502879 -0.0022993301530298701 0 -0.0057572614431196864 -0.00240001212117213 0 -0.0057102429588100946 -0.0023456792508523157 0 -0.0057572614431196864 -0.00240001212117213 0 -0.0058144548323432136 -0.0023818199264476797 0 -0.0057572614431196864 -0.00240001212117213 0 -0.0058144548323432136 -0.0023818199264476797 0 -0.0059110280358210827 -0.0025546581438279188 0 -0.0060078584962915543 -0.0024298552036527152 0 -0.0062299211015409651 -0.0026674458986758656 0 -0.0059110280358210827 -0.0025546581438279188 0 -0.0058144548323432136 -0.0023818199264476797 0 -0.0060078584962915543 -0.0024298552036527152 0 -0.0059110280358210827 -0.0025546581438279188 0 -0.0058144548323432136 -0.0023818199264476797 0 -0.0060078584962915543 -0.0024298552036527152 0 -0.0059057794435043061 -0.0022124994527700156 0 -0.0011616204876085518 -0.0016850939602241724 0 -0.0034528829930392385 -0.0019586139013571106 0 -0.0057102429588100946 -0.0023456792508523157 0 -0.0058144548323432136 -0.0023818199264476797 0 -0.0059057794435043061 -0.0022124994527700156 0 -0.00043726634097156924 -0.001603628739440074 0 -0.0002206613637479737 -0.0017506364867574155 0 -0.00012837747820746074 -0.0016767457567559263 0 0.0012361063388778301 -0.0016637045713239545 0 0.0012447771313699929 -0.0018089876404996142 0 0.0012475048369759807 -0.0018033767022609156 0 -0.0011616204876085518 -0.0016850939602241724 0 0.00075594729468118199 -0.0018580599737003821 0 -0.0002206613637479737 -0.0017506364867574155 0 -0.00012837747820746074 -0.0016767457567559263 0 -2.5358498782429445e-05 -0.0018138831880075558 0 0.00075594729468118199 -0.0018580599737003821 0 0.00047667005029894703 -0.0018223183687712747 0 0.0012447771313699929 -0.0018089876404996142 0 0.0012202511431363794 -0.0018237261725583102 0 0.0010949948005283903 -0.0019027060644202249 0 0.0012202511431363794 -0.0018237261725583102 0 0.0010949948005283903 -0.0019027060644202249 0 0.001160576018661816 -0.0017762097534492235 0 0.0012447771313699929 -0.0018089876404996142 0 0.0012475048369759807 -0.0018033767022609156 0 0.0012202511431363794 -0.0018237261725583102 0 0.0012475048369759807 -0.0018033767022609156 0 0.0012202511431363794 -0.0018237261725583102 0 0.0012713950420337235 -0.00179915499169776 0 5.5589835188987996e-05 -0.0017708024008996582 0 8.9284623632429247e-05 -0.001778160662005697 0 9.4014768013060183e-05 -0.0017902107701495162 0 -2.5358498782429445e-05 -0.0018138831880075558 0 5.5589835188987996e-05 -0.0017708024008996582 0 9.4014768013060183e-05 -0.0017902107701495162 0 0.00047667005029894703 -0.0018223183687712747 0 0.00044062457478500835 -0.0018201068765172489 0 -0.0034528829930392385 -0.0019586139013571106 0 -0.0030709593567220883 -0.0019467861583434701 0 -0.00012837747820746074 -0.0016767457567559263 0 -2.5358498782429445e-05 -0.0018138831880075558 0 5.5589835188987996e-05 -0.0017708024008996582 0 -0.006291051317939186 -0.0023916168849861252 0 -0.0066172624072930496 -0.002587443975483098 0 -0.0067216928746396589 -0.0023098673507000087 0 -0.0063554520507261847 -0.0021043653494844882 0 -0.006291051317939186 -0.0023916168849861252 0 -0.0067216928746396589 -0.0023098673507000087 0 -0.0060078584962915543 -0.0024298552036527152 0 -0.0059057794435043061 -0.0022124994527700156 0 -0.006291051317939186 -0.0023916168849861252 0 -0.0059057794435043061 -0.0022124994527700156 0 -0.0063554520507261847 -0.0021043653494844882 0 -0.006291051317939186 -0.0023916168849861252 0 -0.0060078584962915543 -0.0024298552036527152 0 -0.006291051317939186 -0.0023916168849861252 0 -0.0062299211015409651 -0.0026674458986758656 0 -0.006291051317939186 -0.0023916168849861252 0 -0.0062299211015409651 -0.0026674458986758656 0 -0.0066172624072930496 -0.002587443975483098 0 -0.0076720095119516907 -0.0017424456295767503 0 -0.0074359020668612451 -0.0021834379693701804 0 -0.0086519800822802452 -0.0015434134461565021 0 -0.0083153839885436991 -0.0015126507828391309 0 -0.0083679327607254841 -0.0016805978938046176 0 -0.009179442378921163 -0.00048165709464154165 0 -0.0092363297588055841 -0.00064971557163534749 0 -0.0090376045160170688 -0.00080921423802619028 0 -0.0076720095119516907 -0.0017424456295767503 0 -0.0089331552390813102 -0.0011016770352561681 0 -0.009179442378921163 -0.00048165709464154165 0 -0.0092506839485190766 -0.00048288952592174709 0 -0.0092452671856039625 -0.00032690668824743833 0 -0.0092506839485190766 -0.00048288952592174709 0 -0.0092835306073212505 -0.00043555994744253406 0 -0.0092452671856039625 -0.00032690668824743833 0 -0.0076720095119516907 -0.0017424456295767503 0 -0.0077398881227785732 -0.0013355854416032215 0 -0.0092506839485190766 -0.00048288952592174709 0 -0.0092363297588055841 -0.00064971557163534749 0 -0.0093077850160877568 -0.00051292948435594735 0 -0.009179442378921163 -0.00048165709464154165 0 -0.0092506839485190766 -0.00048288952592174709 0 -0.0092363297588055841 -0.00064971557163534749 0 -0.0076720095119516907 -0.0017424456295767503 0 -0.0057551191607851026 -0.002383120636216964 0 -0.0064373846389906833 -0.0021337820600947984 0 -0.0061137513887834852 -0.0021268935153972027 0 -0.0060899755320256909 -0.0022526743951296361 0 -0.0058779695703636585 -0.0022751833582102098 0 -0.0058917264618646419 -0.0021798105558706602 0 -0.0060899755320256909 -0.0022526743951296361 0 -0.0058999176571379276 -0.0022956036588069094 0 -0.0057551191607851026 -0.002383120636216964 0 -0.0058917264618646419 -0.0021798105558706602 0 -0.0061137513887834852 -0.0021268935153972027 0 -0.0060899755320256909 -0.0022526743951296361 0 -0.0094015873480222251 -0.00046578567975953368 0 -0.0093077850160877568 -0.00051292948435594735 0 -0.0093161959580660182 -0.00040096386980786229 0 -0.0076715845038494998 -0.0013641195051274947 0 -0.0077398881227785732 -0.0013355854416032215 0 -0.0092506839485190766 -0.00048288952592174709 0 -0.0093077850160877568 -0.00051292948435594735 0 -0.0092835306073212505 -0.00043555994744253406 0 -0.0093077850160877568 -0.00051292948435594735 0 -0.0092835306073212505 -0.00043555994744253406 0 -0.0093161959580660182 -0.00040096386980786229 0 -0.0092628622959155422 -0.00030493578280099329 0 -0.0093161959580660182 -0.00040096386980786229 0 -0.0092452671856039625 -0.00032690668824743833 0 -0.0092835306073212505 -0.00043555994744253406 0 -0.0093161959580660182 -0.00040096386980786229 0 -0.0092452671856039625 -0.00032690668824743833 0 -0.0092628622959155422 -0.00030493578280099329 0 -0.0093161959580660182 -0.00040096386980786229 0 -0.0092885608305680826 -0.00024804779195001462 0 -0.0092628622959155422 -0.00030493578280099329 0 -0.0091963252463984711 -0.00023740147335415528 0 -0.0092452671856039625 -0.00032690668824743833 0 -0.0094391394701031014 -0.00032952806720750735 0 -0.0093161959580660182 -0.00040096386980786229 0 -0.0092885608305680826 -0.00024804779195001462 0 -0.0094391394701031014 -0.00032952806720750735 0 -0.0094015873480222251 -0.00046578567975953368 0 -0.0093161959580660182 -0.00040096386980786229 0 -0.0091944081174284448 -0.00019877796986877871 0 -0.0092885608305680826 -0.00024804779195001462 0 -0.0091963252463984711 -0.00023740147335415528 0 -0.0092628622959155422 -0.00030493578280099329 0 -0.0092885608305680826 -0.00024804779195001462 0 -0.0091963252463984711 -0.00023740147335415528 0 -0.0091497930869515499 -0.00020550815790349591 0 -0.0091963252463984711 -0.00023740147335415528 0 -0.0091615898831187495 -0.00016519602949855006 0 -0.0091907780533148648 0.00010880337145812364 0 -0.0091597364329438508 -0.00014974632965535214 0 -0.009179442378921163 -0.00048165709464154165 0 -0.0092452671856039625 -0.00032690668824743833 0 -0.0091615898831187495 -0.00016519602949855006 0 -0.0091963252463984711 -0.00023740147335415528 0 -0.0092452671856039625 -0.00032690668824743833 0 -0.0091615898831187495 -0.00016519602949855006 0 -0.0089385493109821797 0.00015050793014029001 0 -0.0085816425580713691 -0.00018554645210598931 0 -0.0089107620963339434 -0.00047528024835302062 0 -0.0091615898831187495 -0.00016519602949855006 0 -0.0089385493109821797 0.00015050793014029001 0 -0.0089107620963339434 -0.00047528024835302062 0 -0.0092502217837990355 0.00044943976488839111 0 -0.0091615898831187495 -0.00016519602949855006 0 -0.0089385493109821797 0.00015050793014029001 0 -0.0090521004066804068 0.00055029046702277401 0 -0.0089385493109821797 0.00015050793014029001 0 -0.0086076336837699816 0.0002453788937820895 0 -0.0089385493109821797 0.00015050793014029001 0 -0.0086076336837699816 0.0002453788937820895 0 -0.0085816425580713691 -0.00018554645210598931 0 -0.008822578536914729 0.00066920223379206278 0 -0.0086076336837699816 0.0002453788937820895 0 -0.0081254743569717566 0.00035527765799498845 0 -0.0086076336837699816 0.0002453788937820895 0 -0.0081254743569717566 0.00035527765799498845 0 -0.0077654149167717158 -0.00022656811819315729 0 -0.0081254743569717566 0.00035527765799498845 0 -0.0077654149167717158 -0.00022656811819315729 0 -0.0073733766828181979 0.00019279465193951359 0 -0.0086076336837699816 0.0002453788937820895 0 -0.0077654149167717158 -0.00022656811819315729 0 -0.0085816425580713691 -0.00018554645210598931 0 -0.0077654149167717158 -0.00022656811819315729 0 -0.0085816425580713691 -0.00018554645210598931 0 -0.008281649894861718 -0.00062281487318302227 0 -0.0077654149167717158 -0.00022656811819315729 0 -0.007440567107441347 -0.0012697772038762311 0 -0.006863786561514788 -0.00075132443249723794 0 -0.0077654149167717158 -0.00022656811819315729 0 -0.008281649894861718 -0.00062281487318302227 0 -0.007440567107441347 -0.0012697772038762311 0 -0.0074946130704633329 -0.0012622543024204103 0 -0.0080875556121342441 -0.0012514017081619747 0 -0.008281649894861718 -0.00062281487318302227 0 -0.007440567107441347 -0.0012697772038762311 0 -0.0085338668339414846 -0.0010668903620694638 0 -0.0080875556121342441 -0.0012514017081619747 0 -0.0089331552390813102 -0.0011016770352561681 0 -0.0078352322053098881 -0.0014400371945266018 0 -0.0083153839885436991 -0.0015126507828391309 0 -0.0080790057035248601 -0.0016167534123100727 0 -0.0085338668339414846 -0.0010668903620694638 0 -0.0089107620963339434 -0.00047528024835302062 0 -0.0090376045160170688 -0.00080921423802619028 0 -0.0085816425580713691 -0.00018554645210598931 0 -0.008281649894861718 -0.00062281487318302227 0 -0.0089107620963339434 -0.00047528024835302062 0 -0.008281649894861718 -0.00062281487318302227 0 -0.0085338668339414846 -0.0010668903620694638 0 -0.0089107620963339434 -0.00047528024835302062 0 -0.009179442378921163 -0.00048165709464154165 0 -0.0089107620963339434 -0.00047528024835302062 0 -0.0090376045160170688 -0.00080921423802619028 0 -0.009179442378921163 -0.00048165709464154165 0 -0.0091615898831187495 -0.00016519602949855006 0 -0.0089107620963339434 -0.00047528024835302062 0 -0.0074359020668612451 -0.0021834379693701804 0 -0.0075124142763299696 -0.0021689281832255893 0 -0.0083153839885436991 -0.0015126507828391309 0 -0.0083679327607254841 -0.0016805978938046176 0 -0.0080790057035248601 -0.0016167534123100727 0 -0.0083679327607254841 -0.0016805978938046176 0 -0.0080790057035248601 -0.0016167534123100727 0 -0.0079959233211399517 -0.001899504014715687 0 -0.0078352322053098881 -0.0014400371945266018 0 -0.0080790057035248601 -0.0016167534123100727 0 -0.0079959233211399517 -0.001899504014715687 0 -0.0070271936839220962 -0.0024593988708688144 0 -0.0067216928746396589 -0.0023098673507000087 0 -0.0071440452406389071 -0.0022437666069211803 0 -0.0066172624072930496 -0.002587443975483098 0 -0.0070271936839220962 -0.0024593988708688144 0 -0.0067216928746396589 -0.0023098673507000087 0 5.5589835188987996e-05 -0.0017708024008996582 0 -1.4535508870334333e-05 -0.0018850988211010047 0 8.9284623632429247e-05 -0.001778160662005697 0 -0.0063554520507261847 -0.0021043653494844882 0 -0.0067216928746396589 -0.0023098673507000087 0 -0.0069355225538020784 -0.0020823672088062712 0 -0.0030709593567220883 -0.0019467861583434701 0 -0.0034512258991026938 -0.0019791384904873821 0 -0.0071440452406389071 -0.0022437666069211803 0 -0.0069355225538020784 -0.0020823672088062712 0 -0.0072717357907531545 -0.0023696323553319102 0 -0.0067216928746396589 -0.0023098673507000087 0 -0.0071440452406389071 -0.0022437666069211803 0 -0.0069355225538020784 -0.0020823672088062712 0 -1.4535508870334333e-05 -0.0018850988211010047 0 -0.00032511961327144504 -0.001904681411179744 0 -8.1365075694002123e-05 -0.0017078312612021835 0 -1.4535508870334333e-05 -0.0018850988211010047 0 8.9284623632429247e-05 -0.001778160662005697 0 -8.1365075694002123e-05 -0.0017078312612021835 0 -0.00049947270143624691 -0.0018002471117006028 0 -0.00032511961327144504 -0.001904681411179744 0 -0.00062327242946994259 -0.0018572393203923289 0 -0.0039680449618640446 -0.0022380281846579959 0 -0.0027489702030040601 -0.0014451871164913126 0 -0.00049947270143624691 -0.0018002471117006028 0 -0.00032511961327144504 -0.001904681411179744 0 -0.00040481831618368339 -0.0017201674945959019 0 -0.00049947270143624691 -0.0018002471117006028 0 -0.00059386830351791881 -0.0017377011695997007 0 -0.00040481831618368339 -0.0017201674945959019 0 -0.00032511961327144504 -0.001904681411179744 0 -0.00040481831618368339 -0.0017201674945959019 0 -8.1365075694002123e-05 -0.0017078312612021835 0 -0.0034512258991026938 -0.0019791384904873821 0 -0.0039680449618640446 -0.0022380281846579959 0 -0.0071440452406389071 -0.0022437666069211803 0 -0.0072717357907531545 -0.0023696323553319102 0 -0.0073592310767090349 -0.0022306854238520789 0 -0.0072717357907531545 -0.0023696323553319102 0 -0.0069850466126191238 -0.0023535089991205556 0 -0.0073592310767090349 -0.0022306854238520789 0 -0.0072717357907531545 -0.0023696323553319102 0 -0.0069850466126191238 -0.0023535089991205556 0 -0.0066846327230206748 -0.0027084442840660974 0 -0.0069850466126191238 -0.0023535089991205556 0 -0.0073592310767090349 -0.0022306854238520789 0 -0.0070483659753793034 -0.0019092221008991728 0 -0.0073592310767090349 -0.0022306854238520789 0 -0.0075460238457275425 -0.0016896413354094404 0 -0.0070483659753793034 -0.0019092221008991728 0 -0.0070271936839220962 -0.0024593988708688144 0 -0.0071440452406389071 -0.0022437666069211803 0 -0.0073592310767090349 -0.0022306854238520789 0 -0.0075124142763299696 -0.0021689281832255893 0 -0.0073604446159352644 -0.0022354174420739 0 -0.0079959233211399517 -0.001899504014715687 0 -0.0073592310767090349 -0.0022306854238520789 0 -0.0075460238457275425 -0.0016896413354094404 0 -0.007440567107441347 -0.0012697772038762311 0 -0.0078352322053098881 -0.0014400371945266018 0 -0.0075460238457275425 -0.0016896413354094404 0 -0.0078352322053098881 -0.0014400371945266018 0 -0.0079959233211399517 -0.001899504014715687 0 -0.0075460238457275425 -0.0016896413354094404 0 -0.007440567107441347 -0.0012697772038762311 0 -0.0075460238457275425 -0.0016896413354094404 0 -0.0070483659753793034 -0.0019092221008991728 0 -0.0070483659753793034 -0.0019092221008991728 0 -0.0065088862380578479 -0.0015762604828485787 0 -0.0062717539285111227 -0.0023188725903741229 0 -0.007440567107441347 -0.0012697772038762311 0 -0.0070483659753793034 -0.0019092221008991728 0 -0.0065088862380578479 -0.0015762604828485787 0 -0.0065088862380578479 -0.0015762604828485787 0 -0.0062717539285111227 -0.0023188725903741229 0 -0.0055323170116483847 -0.0017548757271281235 0 -0.0037265405662155163 -0.0010933118209722843 0 -0.0037827995296844763 -0.00082816439308700961 0 -0.0069850466126191238 -0.0023535089991205556 0 -0.0070483659753793034 -0.0019092221008991728 0 -0.0062717539285111227 -0.0023188725903741229 0 -0.0069850466126191238 -0.0023535089991205556 0 -0.0062717539285111227 -0.0023188725903741229 0 -0.0066846327230206748 -0.0027084442840660974 0 -0.0037265405662155163 -0.0010933118209722843 0 -0.0027489702030040601 -0.0014451871164913126 0 -0.00095260046803073521 7.4280990803139471e-05 0 -0.00064637786980032287 0.00018876273244874866 0 -0.0008392342259286521 0.00017184517740885576 0 -0.00056279605104980117 0.00019185797491336925 0 -0.00064637786980032287 0.00018876273244874866 0 -0.0008392342259286521 0.00017184517740885576 0 -0.0001226973740279837 0.00011870013118108359 0 -0.0027489702030040601 -0.0014451871164913126 0 -0.00056279605104980117 0.00019185797491336925 0 -0.00095665849373895997 4.0704609337967929e-05 0 -0.0012465628607353212 0.00036088713175450905 0 -0.00056279605104980117 0.00019185797491336925 0 -0.00095665849373895997 4.0704609337967929e-05 0 -0.0001539842174030093 2.704965284195214e-05 0 -0.00095665849373895997 4.0704609337967929e-05 0 -0.0014436164186733328 6.8620357696778722e-05 0 -0.0012465628607353212 0.00036088713175450905 0 -0.00095665849373895997 4.0704609337967929e-05 0 -0.0014436164186733328 6.8620357696778722e-05 0 -0.0013862091831404451 -0.0005570424624482378 0 -0.00032511961327144504 -0.001904681411179744 0 -0.00062327242946994259 -0.0018572393203923289 0 -0.00068339042538172765 -0.0018643943109306485 0 -0.00049947270143624691 -0.0018002471117006028 0 -0.00059386830351791881 -0.0017377011695997007 0 -0.0006238736159143776 -0.0017789481904854543 0 -0.00059386830351791881 -0.0017377011695997007 0 -0.00061724986849700484 -0.0017767297196512875 0 -0.00063054373194401214 -0.0016323166796390896 0 -0.00096426508731031063 -0.0013049047719904761 0 -0.00095813232218645795 -0.0011118325351772988 0 -0.00095813232218645795 -0.0011118325351772988 0 -0.00080433899917616426 -0.0016896646494172017 0 -0.00049947270143624691 -0.0018002471117006028 0 -0.0006238736159143776 -0.0017789481904854543 0 -0.00062327242946994259 -0.0018572393203923289 0 -0.00095813232218645795 -0.0011118325351772988 0 -0.0027489702030040601 -0.0014451871164913126 0 -0.00063647680197345734 -0.0017701959047076597 0 -0.00062327242946994259 -0.0018572393203923289 0 -0.00068339042538172765 -0.0018643943109306485 0 -0.00023137262565010045 7.6363376460953489e-05 0 -0.00082714854704165177 0.00010342239485859732 0 -0.0011035111422071835 2.8678370797731157e-07 0 -0.00023137262565010045 7.6363376460953489e-05 0 -0.0011035111422071835 2.8678370797731157e-07 0 0.00028019543454318107 7.4905430257059749e-08 0 -0.00023137262565010045 7.6363376460953489e-05 0 -0.0001539842174030093 2.704965284195214e-05 0 -0.00050397713767269504 0.00014035952720247371 0 -0.00056279605104980117 0.00019185797491336925 0 -0.0001539842174030093 2.704965284195214e-05 0 -0.00050397713767269504 0.00014035952720247371 0 -0.00056279605104980117 0.00019185797491336925 0 -0.00050397713767269504 0.00014035952720247371 0 -0.0008392342259286521 0.00017184517740885576 0 -0.00023137262565010045 7.6363376460953489e-05 0 -0.00050397713767269504 0.00014035952720247371 0 -0.00082714854704165177 0.00010342239485859732 0 -0.00082714854704165177 0.00010342239485859732 0 -0.0008392342259286521 0.00017184517740885576 0 -0.0014684839705375234 7.9913798998503717e-05 0 -0.00095260046803073521 7.4280990803139471e-05 0 -0.0008392342259286521 0.00017184517740885576 0 -0.0014684839705375234 7.9913798998503717e-05 0 -0.00050397713767269504 0.00014035952720247371 0 -0.00082714854704165177 0.00010342239485859732 0 -0.0008392342259286521 0.00017184517740885576 0 -0.00082714854704165177 0.00010342239485859732 0 -0.0011035111422071835 2.8678370797731157e-07 0 -0.0014684839705375234 7.9913798998503717e-05 0 -0.0011035111422071835 2.8678370797731157e-07 0 -0.0014684839705375234 7.9913798998503717e-05 0 -0.002487984380523345 6.7148653898336078e-08 0 -0.00095260046803073521 7.4280990803139471e-05 0 -0.0014684839705375234 7.9913798998503717e-05 0 -0.0020731728403557102 -0.00014740882412071004 0 -0.0014684839705375234 7.9913798998503717e-05 0 -0.0020731728403557102 -0.00014740882412071004 0 -0.002487984380523345 6.7148653898336078e-08 0 -0.0020731728403557102 -0.00014740882412071004 0 -0.002487984380523345 6.7148653898336078e-08 0 -0.0032006799543849696 -0.00016048930551326192 0 -0.002487984380523345 6.7148653898336078e-08 0 -0.0032006799543849696 -0.00016048930551326192 0 -0.0038723931726187062 -1.2160765080272605e-06 0 -0.0032006799543849696 -0.00016048930551326192 0 -0.0038723931726187062 -1.2160765080272605e-06 0 -0.0042220007169589202 -0.00031011425602441402 0 -0.0038723931726187062 -1.2160765080272605e-06 0 -0.0042220007169589202 -0.00031011425602441402 0 -0.005256802634515151 9.5255953708734081e-07 0 -0.0042220007169589202 -0.00031011425602441402 0 -0.0059754460024374397 -0.00070085229476150889 0 -0.0054604658023345099 0.00012698124136871578 0 -0.0020731728403557102 -0.00014740882412071004 0 -0.0032006799543849696 -0.00016048930551326192 0 -0.0042220007169589202 -0.00031011425602441402 0 -0.0037827995296844763 -0.00082816439308700961 0 -0.0040599694979858714 -0.00030160202926858207 0 -0.0055323170116483847 -0.0017548757271281235 0 -0.0042220007169589202 -0.00031011425602441402 0 -0.0059754460024374397 -0.00070085229476150889 0 -0.0065088862380578479 -0.0015762604828485787 0 -0.0055323170116483847 -0.0017548757271281235 0 -0.0059754460024374397 -0.00070085229476150889 0 -0.0065088862380578479 -0.0015762604828485787 0 -0.0059754460024374397 -0.00070085229476150889 0 -0.006863786561514788 -0.00075132443249723794 0 -0.007440567107441347 -0.0012697772038762311 0 -0.0065088862380578479 -0.0015762604828485787 0 -0.006863786561514788 -0.00075132443249723794 0 -0.0077654149167717158 -0.00022656811819315729 0 -0.006863786561514788 -0.00075132443249723794 0 -0.0065699304471011338 -4.3368594330078542e-05 0 -0.0059754460024374397 -0.00070085229476150889 0 -0.006863786561514788 -0.00075132443249723794 0 -0.0065699304471011338 -4.3368594330078542e-05 0 -0.0059754460024374397 -0.00070085229476150889 0 -0.0065699304471011338 -4.3368594330078542e-05 0 -0.0054604658023345099 0.00012698124136871578 0 -0.0065699304471011338 -4.3368594330078542e-05 0 -0.0057582089312092789 0.00037173695218556277 0 -0.0054604658023345099 0.00012698124136871578 0 -0.0077654149167717158 -0.00022656811819315729 0 -0.0065699304471011338 -4.3368594330078542e-05 0 -0.0073733766828181979 0.00019279465193951359 0 -0.0075829538827507977 0.000507031228400743 0 -0.0081254743569717566 0.00035527765799498845 0 -0.0073733766828181979 0.00019279465193951359 0 -0.0065699304471011338 -4.3368594330078542e-05 0 -0.0073733766828181979 0.00019279465193951359 0 -0.0069352243269162877 0.0003247141737005112 0 -0.00660644207823269 -0.00011178895994401469 0 -0.0062073952388594636 0.00035893709650704604 0 -0.0075829538827507977 0.000507031228400743 0 -0.0073733766828181979 0.00019279465193951359 0 -0.0069352243269162877 0.0003247141737005112 0 -0.0057582089312092789 0.00037173695218556277 0 -0.0058104465102038986 0.00024315018375883451 0 -0.0054604658023345099 0.00012698124136871578 0 -0.0066387178168568154 -4.3626017732152076e-07 0 -0.0058104465102038986 0.00024315018375883451 0 -0.005256802634515151 9.5255953708734081e-07 0 -0.0042220007169589202 -0.00031011425602441402 0 -0.005256802634515151 9.5255953708734081e-07 0 -0.0054604658023345099 0.00012698124136871578 0 -0.0058104465102038986 0.00024315018375883451 0 -0.005256802634515151 9.5255953708734081e-07 0 -0.0054604658023345099 0.00012698124136871578 0 -0.0052737756281192021 -0.00060205247499892371 0 -0.004298829214547298 -0.00059556788947243795 0 -0.0052737756281192021 -0.00060205247499892371 0 -0.009680189332936729 0.0012515588030325322 0 -0.0090223158124609661 -2.1149965157066793e-05 0 -0.0099277604291911487 0.00097807686558439759 0 -0.008247729216115697 0.0002727858641396574 0 -0.0018975217817855483 -0.0014005601539602123 0 -0.0025579362337162953 -0.00082051698960285309 0 -0.0021463415972828377 -0.0014489883474113946 0 -0.012443516715445323 0.0015020039755572914 0 -0.012136793148270415 0.00077602691054100325 0 -0.0052737756281192021 -0.00060205247499892371 0 -0.0044636545912673355 -0.0011232192231957103 0 -0.0018975217817855483 -0.0014005601539602123 0 -0.0019321504466238094 -0.001471746564385432 0 -0.0019779679101765936 -0.0015060071306872524 0 -0.0018975217817855483 -0.0014005601539602123 0 -0.0021463415972828377 -0.0014489883474113946 0 -0.0019779679101765936 -0.0015060071306872524 0 -0.0060253144472172419 -0.00034337997536315888 0 -0.0064842960974814462 -0.00026831387229278917 0 -0.0064306443860144072 6.3681657865755916e-06 0 -0.0025579362337162953 -0.00082051698960285309 0 -0.0023930018272166655 -0.0018785250273984778 0 -0.0037009277783235798 -0.0013733237938012464 0 -0.00643633728892246 -1.4440762215943883e-06 0 -0.0065196754391022458 3.9436615938913859e-05 0 -0.0068017940123423033 0.0003750606855911633 0 -0.013624234232051783 0.0039876466431420102 0 -0.013852145817478602 0.0037245489077431335 0 -0.013580387870684595 0.0035646168712309351 0 -0.009680189332936729 0.0012515588030325322 0 -0.012443516715445323 0.0015020039755572914 0 -0.0064842960974814462 -0.00026831387229278917 0 -0.0064306443860144072 6.3681657865755916e-06 0 -0.0065196754391022458 3.9436615938913859e-05 0 -0.009680189332936729 0.0012515588030325322 0 -0.0078734772726391511 0.00053584354921117148 0 -0.013624234232051783 0.0039876466431420102 0 -0.013789594175584837 0.0040552575971322582 0 -0.013852145817478602 0.0037245489077431335 0 -0.012443516715445323 0.0015020039755572914 0 -0.014639184107373381 0.0024831877675680672 0 -0.013789594175584837 0.0040552575971322582 0 -0.014307878271890338 0.0038137623611262023 0 -0.013852145817478602 0.0037245489077431335 0 -0.014653669758260154 0.0010909742425563535 0 -0.014666475347035137 0.0011010135898345541 0 -0.014677217652948908 0.0010389550978723264 0 -0.0090223158124609661 -2.1149965157066793e-05 0 -0.010318025580476351 0.0011400134240746628 0 -0.0099277604291911487 0.00097807686558439759 0 -0.014666475347035137 0.0011010135898345541 0 -0.014622354970041556 0.001098563529267825 0 -0.014677217652948908 0.0010389550978723264 0 -0.014666475347035137 0.0011010135898345541 0 -0.014622354970041556 0.001098563529267825 0 -0.014622347180065335 0.0011241162755858307 0 -0.014622354970041556 0.001098563529267825 0 -0.014590035785503325 0.0010732897344415018 0 -0.014677217652948908 0.0010389550978723264 0 -0.014587477632862925 0.0010978090996687649 0 -0.014607498940145461 0.0011284972635197193 0 -0.014598737098850035 0.0011161022819516043 0 -0.014587477632862925 0.0010978090996687649 0 -0.014622354970041556 0.001098563529267825 0 -0.014607498940145461 0.0011284972635197193 0 -0.014622354970041556 0.001098563529267825 0 -0.014607498940145461 0.0011284972635197193 0 -0.014622347180065335 0.0011241162755858307 0 -0.014587477632862925 0.0010978090996687649 0 -0.014622354970041556 0.001098563529267825 0 -0.014590035785503325 0.0010732897344415018 0 -0.014587477632862925 0.0010978090996687649 0 -0.014548838491775217 0.0010594753585315307 0 -0.014555108076134547 0.0010529605557450608 0 -0.014587477632862925 0.0010978090996687649 0 -0.014590035785503325 0.0010732897344415018 0 -0.014548838491775217 0.0010594753585315307 0 -0.014590035785503325 0.0010732897344415018 0 -0.014677217652948908 0.0010389550978723264 0 -0.014472233086070626 0.0010002386958693822 0 -0.012136793148270415 0.00077602691054100325 0 -0.0069738009031988053 -0.00049247951098770103 0 -0.014677217652948908 0.0010389550978723264 0 -0.014472233086070626 0.0010002386958693822 0 -0.014426338027338836 0.00071943929870311562 0 -0.008247729216115697 0.0002727858641396574 0 -0.0078001200529871076 -0.00022179244768624388 0 -0.0065858533571898289 -0.00043171409858286678 0 -0.0044319131260122267 -0.00097246243497690421 0 -0.0069738009031988053 -0.00049247951098770103 0 -0.014590035785503325 0.0010732897344415018 0 -0.014548838491775217 0.0010594753585315307 0 -0.014472233086070626 0.0010002386958693822 0 -0.0019321504466238094 -0.001471746564385432 0 -0.0019318143248531455 -0.0015805045210664924 0 -0.0019448790860097827 -0.0015601434539169827 0 -0.0090223158124609661 -2.1149965157066793e-05 0 -0.008247729216115697 0.0002727858641396574 0 -0.0078001200529871076 -0.00022179244768624388 0 -0.0052737756281192021 -0.00060205247499892371 0 -0.0044319131260122267 -0.00097246243497690421 0 -0.0019352999912035759 -0.0014531065978747617 0 -0.0019321504466238094 -0.001471746564385432 0 -0.0019318143248531455 -0.0015805045210664924 0 -0.0019318143248531455 -0.0015805045210664924 0 -0.0019448790860097827 -0.0015601434539169827 0 -0.0019324551255595387 -0.0016054201819736811 0 -0.0019318143248531455 -0.0015805045210664924 0 -0.0019324551255595387 -0.0016054201819736811 0 -0.0019399816044349504 -0.0016157879528113539 0 -0.0019318143248531455 -0.0015805045210664924 0 -0.0019399816044349504 -0.0016157879528113539 0 -0.0019926687995656146 -0.0016636594536647059 0 -0.0019399816044349504 -0.0016157879528113539 0 -0.0019926687995656146 -0.0016636594536647059 0 -0.002003347095945122 -0.0016394579580176491 0 -0.0019399816044349504 -0.0016157879528113539 0 -0.0019520425631333173 -0.0016085120629727163 0 -0.002003347095945122 -0.0016394579580176491 0 -0.0019324551255595387 -0.0016054201819736811 0 -0.0019399816044349504 -0.0016157879528113539 0 -0.001913204582923822 -0.0016068286569577983 0 -0.0019399816044349504 -0.0016157879528113539 0 -0.0019520425631333173 -0.0016085120629727163 0 -0.001913204582923822 -0.0016068286569577983 0 -0.0019520425631333173 -0.0016085120629727163 0 -0.001913204582923822 -0.0016068286569577983 0 -0.0019228615516261962 -0.0015834804509212519 0 -0.0019324551255595387 -0.0016054201819736811 0 -0.001913204582923822 -0.0016068286569577983 0 -0.0019722910179189833 -0.0016533179720404562 0 -0.001913204582923822 -0.0016068286569577983 0 -0.0019722910179189833 -0.0016533179720404562 0 -0.0019005386584180859 -0.0015969461621042193 0 -0.0019722910179189833 -0.0016533179720404562 0 -0.0021073412548553165 -0.0017179687770378605 0 -0.0019755535035164058 -0.0016362824765345982 0 -0.0019324551255595387 -0.0016054201819736811 0 -0.0019722910179189833 -0.0016533179720404562 0 -0.0020383114454639341 -0.001656591565383126 0 -0.0019722910179189833 -0.0016533179720404562 0 -0.0020383114454639341 -0.001656591565383126 0 -0.0021073412548553165 -0.0017179687770378605 0 -0.0019448790860097827 -0.0015601434539169827 0 -0.0019324551255595387 -0.0016054201819736811 0 -0.0020383114454639341 -0.001656591565383126 0 -0.0020383114454639341 -0.001656591565383126 0 -0.0021463415972828377 -0.0014489883474113946 0 -0.0019779679101765936 -0.0015060071306872524 0 -0.0019448790860097827 -0.0015601434539169827 0 -0.0020383114454639341 -0.001656591565383126 0 -0.0019779679101765936 -0.0015060071306872524 0 -0.0019321504466238094 -0.001471746564385432 0 -0.0019448790860097827 -0.0015601434539169827 0 -0.0019779679101765936 -0.0015060071306872524 0 -0.0020383114454639341 -0.001656591565383126 0 -0.0021463415972828377 -0.0014489883474113946 0 -0.0023930018272166655 -0.0018785250273984778 0 -0.0025579362337162953 -0.00082051698960285309 0 -0.0021463415972828377 -0.0014489883474113946 0 -0.0023930018272166655 -0.0018785250273984778 0 -0.0020383114454639341 -0.001656591565383126 0 -0.0023930018272166655 -0.0018785250273984778 0 -0.0021073412548553165 -0.0017179687770378605 0 -0.0023930018272166655 -0.0018785250273984778 0 -0.0021073412548553165 -0.0017179687770378605 0 -0.002134674443850116 -0.0017390038257412681 0 -0.0021073412548553165 -0.0017179687770378605 0 -0.002134674443850116 -0.0017390038257412681 0 -0.0020466697512384318 -0.0016780449492140438 0 -0.002134674443850116 -0.0017390038257412681 0 -0.0019802845973220439 -0.0018237554047533238 0 -0.0019939400722866749 -0.0016937175456562051 0 -0.002134674443850116 -0.0017390038257412681 0 -0.0020466697512384318 -0.0016780449492140438 0 -0.0019939400722866749 -0.0016937175456562051 0 -0.0033735433462130687 -0.0023333293195922614 0 -0.0029052429783103682 -0.0040358640229452994 0 -0.0019802845973220439 -0.0018237554047533238 0 -0.0018556622895159801 -0.0017790988086013974 0 -0.0019939400722866749 -0.0016937175456562051 0 -0.0058908618301202293 -0.0017379959983457932 0 -0.0044217311225465128 -0.0029734279580421906 0 -0.0037009277783235798 -0.0013733237938012464 0 -0.0058908618301202293 -0.0017379959983457932 0 -0.0044217311225465128 -0.0029734279580421906 0 -0.0064244663138837612 -0.0037069732646027725 0 -0.0024099821489309003 -0.0019570902400446988 0 -0.0033735433462130687 -0.0023333293195922614 0 -0.0023930018272166655 -0.0018785250273984778 0 -0.002134674443850116 -0.0017390038257412681 0 -0.0019802845973220439 -0.0018237554047533238 0 -0.0023930018272166655 -0.0018785250273984778 0 -0.0044217311225465128 -0.0029734279580421906 0 -0.0037009277783235798 -0.0013733237938012464 0 -0.0072131991913334222 -0.0060410552719677105 0 -0.0065458565035976576 -0.0060496451763927279 0 -0.0070120942195967236 -0.0054095123559193227 0 -0.0065458565035976576 -0.0060496451763927279 0 -0.0058871920588508889 -0.0058100364125049306 0 -0.0070120942195967236 -0.0054095123559193227 0 -0.0021727725027086801 -0.0054265927904595277 0 -0.0029052429783103682 -0.0040358640229452994 0 0.0022648210599774824 -0.0047130692857639215 0 0.0020516727665682161 -0.0047790153974781816 0 0.0021335801788183516 -0.0045849659097332018 0 -0.0058908618301202293 -0.0017379959983457932 0 -0.0064244663138837612 -0.0037069732646027725 0 -0.0077195390447682014 -0.0011792752297391106 0 -0.0029052429783103682 -0.0040358640229452994 0 -0.0075321780778771878 -0.0030740101037095829 0 -0.0058871920588508889 -0.0058100364125049306 0 -0.0070120942195967236 -0.0054095123559193227 0 -0.0064300806695466546 -0.0048849456982236611 0 -0.0071918095959138083 -0.0047324437775399589 0 -0.0070120942195967236 -0.0054095123559193227 0 -0.0064300806695466546 -0.0048849456982236611 0 -0.0075321780778771878 -0.0030740101037095829 0 -0.0075521212789273406 -0.001938926933134429 0 -0.0072570726956076512 -0.00024263021891407261 0 -0.0077195390447682014 -0.0011792752297391106 0 -0.008212995765596651 9.2306067679396721e-05 0 -0.0071918095959138083 -0.0047324437775399589 0 -0.0064300806695466546 -0.0048849456982236611 0 -0.0070213612761995227 -0.00391460498572423 0 -0.0058908618301202293 -0.0017379959983457932 0 -0.0072570726956076512 -0.00024263021891407261 0 -0.0077195390447682014 -0.0011792752297391106 0 -0.0075731053545887604 0.00014611539820036016 0 -0.0071209318567543077 -2.7360654956981369e-05 0 -0.0072216533204233916 0.00031331673854362719 0 -0.0072570726956076512 -0.00024263021891407261 0 -0.0075731053545887604 0.00014611539820036016 0 -0.0071209318567543077 -2.7360654956981369e-05 0 -0.0072570726956076512 -0.00024263021891407261 0 -0.0075731053545887604 0.00014611539820036016 0 -0.008212995765596651 9.2306067679396721e-05 0 -0.0025579362337162953 -0.00082051698960285309 0 -0.0037009277783235798 -0.0013733237938012464 0 -0.0047294957415655488 -0.00026020745933214755 0 -0.0064842960974814462 -0.00026831387229278917 0 -0.0069245445268301242 -0.0002078710893398354 0 -0.0067922520554371734 4.4751679501387461e-05 0 -0.004298829214547298 -0.00059556788947243795 0 -0.0059077965636287998 -0.0002636239598692147 0 -0.0058908618301202293 -0.0017379959983457932 0 -0.0072570726956076512 -0.00024263021891407261 0 -0.0047294957415655488 -0.00026020745933214755 0 -0.0058908618301202293 -0.0017379959983457932 0 -0.0037009277783235798 -0.0013733237938012464 0 -0.0047294957415655488 -0.00026020745933214755 0 -0.0071007999152939913 -0.0002079279823573911 0 -0.0059077965636287998 -0.0002636239598692147 0 -0.0071209318567543077 -2.7360654956981369e-05 0 -0.0067922520554371734 4.4751679501387461e-05 0 -0.0072216533204233916 0.00031331673854362719 0 -0.0069245445268301242 -0.0002078710893398354 0 -0.0071209318567543077 -2.7360654956981369e-05 0 -0.0067922520554371734 4.4751679501387461e-05 0 -0.0072570726956076512 -0.00024263021891407261 0 -0.0069245445268301242 -0.0002078710893398354 0 -0.0071209318567543077 -2.7360654956981369e-05 0 -0.0064842960974814462 -0.00026831387229278917 0 -0.0065196754391022458 3.9436615938913859e-05 0 -0.0067922520554371734 4.4751679501387461e-05 0 -0.009680189332936729 0.0012515588030325322 0 -0.010056780651677052 0.0020960404935548831 0 -0.0065196754391022458 3.9436615938913859e-05 0 -0.0067922520554371734 4.4751679501387461e-05 0 -0.0068017940123423033 0.0003750606855911633 0 -0.0067922520554371734 4.4751679501387461e-05 0 -0.0068017940123423033 0.0003750606855911633 0 -0.0072216533204233916 0.00031331673854362719 0 -0.0068017940123423033 0.0003750606855911633 0 -0.0072216533204233916 0.00031331673854362719 0 -0.0073096388940168504 0.0008553382901374377 0 -0.01259594794780312 0.0031168863364365055 0 -0.013179357722766166 0.0029866889887593599 0 -0.012831364920299709 0.0027762268252958066 0 -0.013105682535450013 0.003538045509858069 0 -0.01259594794780312 0.0031168863364365055 0 -0.013179357722766166 0.0029866889887593599 0 -0.010056780651677052 0.0020960404935548831 0 -0.0099294453566424294 0.0019542144711374738 0 -0.013105682535450013 0.003538045509858069 0 -0.013179357722766166 0.0029866889887593599 0 -0.013513524504985502 0.0031939968618157292 0 -0.0086808590079675216 0.00069524223199561705 0 -0.008212995765596651 9.2306067679396721e-05 0 -0.0079580314758895196 0.00065049073019107448 0 -0.0075731053545887604 0.00014611539820036016 0 -0.008212995765596651 9.2306067679396721e-05 0 -0.0079580314758895196 0.00065049073019107448 0 -0.0075731053545887604 0.00014611539820036016 0 -0.0072216533204233916 0.00031331673854362719 0 -0.0079580314758895196 0.00065049073019107448 0 -0.0072216533204233916 0.00031331673854362719 0 -0.0073096388940168504 0.0008553382901374377 0 -0.0079580314758895196 0.00065049073019107448 0 -0.0073096388940168504 0.0008553382901374377 0 -0.0079580314758895196 0.00065049073019107448 0 -0.0079845940875466048 0.0013113654238000232 0 -0.0086012362543894608 0.0011987713512141708 0 -0.0079580314758895196 0.00065049073019107448 0 -0.0079845940875466048 0.0013113654238000232 0 -0.0086012362543894608 0.0011987713512141708 0 -0.0087077874361488634 0.0016994538835813 0 -0.0079845940875466048 0.0013113654238000232 0 -0.01259594794780312 0.0031168863364365055 0 -0.012073151310639055 0.0027263980564635327 0 -0.0124833433929057 0.0027444285418668194 0 -0.0099294453566424294 0.0019542144711374738 0 -0.010027000855999123 0.0020162526371988996 0 -0.012073151310639055 0.0027263980564635327 0 -0.0124833433929057 0.0027444285418668194 0 -0.012258287510066419 0.0025573215240930957 0 -0.0124833433929057 0.0027444285418668194 0 -0.012258287510066419 0.0025573215240930957 0 -0.012666847233912374 0.0025364339959632201 0 -0.012652230819440603 0.0018065760798042097 0 -0.012258287510066419 0.0025573215240930957 0 -0.01273659378416646 0.0022031121383064354 0 -0.012591493562365243 0.0018927877665123379 0 -0.012277646684647451 0.0025301395861792634 0 -0.012258287510066419 0.0025573215240930957 0 -0.012666847233912374 0.0025364339959632201 0 -0.01273659378416646 0.0022031121383064354 0 -0.011970498392377574 0.0021879654170663117 0 -0.012073151310639055 0.0027263980564635327 0 -0.012258287510066419 0.0025573215240930957 0 -0.010120126345839217 0.0020383259368846746 0 -0.010027000855999123 0.0020162526371988996 0 -0.011557532236630391 0.0024022668242496977 0 -0.011970498392377574 0.0021879654170663117 0 -0.012073151310639055 0.0027263980564635327 0 -0.013173375922385251 0.002662334187230754 0 -0.012915642152295336 0.0025578336064714792 0 -0.013134391657992784 0.0023945633940505463 0 -0.013173375922385251 0.002662334187230754 0 -0.013364074050771014 0.0024376000495249469 0 -0.01360473898880649 0.0026752153297400841 0 -0.013179357722766166 0.0029866889887593599 0 -0.013173375922385251 0.002662334187230754 0 -0.01360473898880649 0.0026752153297400841 0 -0.013179357722766166 0.0029866889887593599 0 -0.013173375922385251 0.002662334187230754 0 -0.012831364920299709 0.0027762268252958066 0 -0.01259594794780312 0.0031168863364365055 0 -0.0124833433929057 0.0027444285418668194 0 -0.012831364920299709 0.0027762268252958066 0 -0.0124833433929057 0.0027444285418668194 0 -0.012831364920299709 0.0027762268252958066 0 -0.012666847233912374 0.0025364339959632201 0 -0.012831364920299709 0.0027762268252958066 0 -0.012915642152295336 0.0025578336064714792 0 -0.012666847233912374 0.0025364339959632201 0 -0.013173375922385251 0.002662334187230754 0 -0.012831364920299709 0.0027762268252958066 0 -0.012915642152295336 0.0025578336064714792 0 -0.012915642152295336 0.0025578336064714792 0 -0.012932782271755488 0.0023456232229466497 0 -0.013134391657992784 0.0023945633940505463 0 -0.012915642152295336 0.0025578336064714792 0 -0.012932782271755488 0.0023456232229466497 0 -0.012666847233912374 0.0025364339959632201 0 -0.012932782271755488 0.0023456232229466497 0 -0.012666847233912374 0.0025364339959632201 0 -0.01273659378416646 0.0022031121383064354 0 -0.012932782271755488 0.0023456232229466497 0 -0.01273659378416646 0.0022031121383064354 0 -0.012978571789252203 0.002140849452031743 0 -0.012932782271755488 0.0023456232229466497 0 -0.012978571789252203 0.002140849452031743 0 -0.013122982424309126 0.0022157335512481085 0 -0.013122982424309126 0.0022157335512481085 0 -0.013134391657992784 0.0023945633940505463 0 -0.013295182557254891 0.0021503851365043715 0 -0.013109113508763547 0.002045605054247706 0 -0.012978571789252203 0.002140849452031743 0 -0.013122982424309126 0.0022157335512481085 0 -0.013109113508763547 0.002045605054247706 0 -0.013122982424309126 0.0022157335512481085 0 -0.013295182557254891 0.0021503851365043715 0 -0.012932782271755488 0.0023456232229466497 0 -0.013122982424309126 0.0022157335512481085 0 -0.013134391657992784 0.0023945633940505463 0 -0.013173375922385251 0.002662334187230754 0 -0.013134391657992784 0.0023945633940505463 0 -0.013364074050771014 0.0024376000495249469 0 -0.013134391657992784 0.0023945633940505463 0 -0.013364074050771014 0.0024376000495249469 0 -0.013295182557254891 0.0021503851365043715 0 -0.013364074050771014 0.0024376000495249469 0 -0.013295182557254891 0.0021503851365043715 0 -0.013468274190715855 0.0022066207786523187 0 -0.013435571633792496 0.0020019638004837997 0 -0.013295182557254891 0.0021503851365043715 0 -0.013468274190715855 0.0022066207786523187 0 -0.01368948929653345 0.0020397498706840609 0 -0.013435571633792496 0.0020019638004837997 0 -0.013468274190715855 0.0022066207786523187 0 -0.01368948929653345 0.0020397498706840609 0 -0.013468274190715855 0.0022066207786523187 0 -0.013587001936986674 0.002376290670870721 0 -0.01391051571572146 0.0018749557572747665 0 -0.01368948929653345 0.0020397498706840609 0 -0.01384939540853234 0.0022820081454511649 0 -0.01368948929653345 0.0020397498706840609 0 -0.01384939540853234 0.0022820081454511649 0 -0.013587001936986674 0.002376290670870721 0 -0.01384939540853234 0.0022820081454511649 0 -0.013587001936986674 0.002376290670870721 0 -0.01360473898880649 0.0026752153297400841 0 -0.013364074050771014 0.0024376000495249469 0 -0.013587001936986674 0.002376290670870721 0 -0.01360473898880649 0.0026752153297400841 0 -0.013364074050771014 0.0024376000495249469 0 -0.013468274190715855 0.0022066207786523187 0 -0.013587001936986674 0.002376290670870721 0 -0.01384939540853234 0.0022820081454511649 0 -0.014196196998137438 0.0021399943591554932 0 -0.014099154936778524 0.0025797823078134658 0 -0.014196196998137438 0.0021399943591554932 0 -0.014099154936778524 0.0025797823078134658 0 -0.014408237646063827 0.0023591541959141343 0 -0.01391051571572146 0.0018749557572747665 0 -0.01384939540853234 0.0022820081454511649 0 -0.014196196998137438 0.0021399943591554932 0 -0.014099154936778524 0.0025797823078134658 0 -0.01360473898880649 0.0026752153297400841 0 -0.013908390295096827 0.0029827879647295135 0 -0.014099154936778524 0.0025797823078134658 0 -0.014340644813854409 0.0029646925417568916 0 -0.014448084282251529 0.002629578602604681 0 -0.014099154936778524 0.0025797823078134658 0 -0.013908390295096827 0.0029827879647295135 0 -0.014340644813854409 0.0029646925417568916 0 -0.01384939540853234 0.0022820081454511649 0 -0.014099154936778524 0.0025797823078134658 0 -0.01360473898880649 0.0026752153297400841 0 -0.013179357722766166 0.0029866889887593599 0 -0.01360473898880649 0.0026752153297400841 0 -0.013513524504985502 0.0031939968618157292 0 -0.01360473898880649 0.0026752153297400841 0 -0.013513524504985502 0.0031939968618157292 0 -0.013908390295096827 0.0029827879647295135 0 -0.013513524504985502 0.0031939968618157292 0 -0.013908390295096827 0.0029827879647295135 0 -0.01381127723238159 0.0033807581655615417 0 -0.013908390295096827 0.0029827879647295135 0 -0.014113636325868572 0.0032182535708530705 0 -0.014340644813854409 0.0029646925417568916 0 -0.014113636325868572 0.0032182535708530705 0 -0.014403768893306888 0.0033896361367124505 0 -0.014340644813854409 0.0029646925417568916 0 -0.013908390295096827 0.0029827879647295135 0 -0.014113636325868572 0.0032182535708530705 0 -0.01381127723238159 0.0033807581655615417 0 -0.014113636325868572 0.0032182535708530705 0 -0.01410263701592825 0.0035179906771474431 0 -0.01381127723238159 0.0033807581655615417 0 -0.014307878271890338 0.0038137623611262023 0 -0.01410263701592825 0.0035179906771474431 0 -0.013852145817478602 0.0037245489077431335 0 -0.014113636325868572 0.0032182535708530705 0 -0.01410263701592825 0.0035179906771474431 0 -0.014403768893306888 0.0033896361367124505 0 -0.014307878271890338 0.0038137623611262023 0 -0.01410263701592825 0.0035179906771474431 0 -0.014403768893306888 0.0033896361367124505 0 -0.01410263701592825 0.0035179906771474431 0 -0.013852145817478602 0.0037245489077431335 0 -0.01381127723238159 0.0033807581655615417 0 -0.013105682535450013 0.003538045509858069 0 -0.013513524504985502 0.0031939968618157292 0 -0.013580387870684595 0.0035646168712309351 0 -0.013624234232051783 0.0039876466431420102 0 -0.013105682535450013 0.003538045509858069 0 -0.013580387870684595 0.0035646168712309351 0 -0.013852145817478602 0.0037245489077431335 0 -0.013580387870684595 0.0035646168712309351 0 -0.01381127723238159 0.0033807581655615417 0 -0.013513524504985502 0.0031939968618157292 0 -0.013580387870684595 0.0035646168712309351 0 -0.01381127723238159 0.0033807581655615417 0 -0.014607498940145461 0.0011284972635197193 0 -0.014608012523572739 0.0011361048230424989 0 -0.014629444080300121 0.0011501244463501482 0 -0.014608012523572739 0.0011361048230424989 0 -0.014629444080300121 0.0011501244463501482 0 -0.0146758898770247 0.0011408983484644441 0 -0.014916240242653938 0.0018672865979217775 0 -0.015271810659275388 0.001114087142036864 0 -0.014607498940145461 0.0011284972635197193 0 -0.014629444080300121 0.0011501244463501482 0 -0.014598737098850035 0.0011161022819516043 0 -0.014607498940145461 0.0011284972635197193 0 -0.014608012523572739 0.0011361048230424989 0 -0.014622347180065335 0.0011241162755858307 0 -0.014916240242653938 0.0018672865979217775 0 -0.014920112939263397 0.0013688310946903097 0 -0.014639184107373381 0.0024831877675680672 0 -0.014916240242653938 0.0018672865979217775 0 -0.014666475347035137 0.0011010135898345541 0 -0.014614277584505486 0.0011521835378048636 0 -0.014622347180065335 0.0011241162755858307 0 -0.014307878271890338 0.0038137623611262023 0 -0.0148205287390151 0.00355807649214893 0 -0.014403768893306888 0.0033896361367124505 0 -0.0148205287390151 0.00355807649214893 0 -0.014403768893306888 0.0033896361367124505 0 -0.014677161761908442 0.0031321834692785407 0 -0.014403768893306888 0.0033896361367124505 0 -0.014677161761908442 0.0031321834692785407 0 -0.014340644813854409 0.0029646925417568916 0 -0.014677161761908442 0.0031321834692785407 0 -0.014340644813854409 0.0029646925417568916 0 -0.014706826288215227 0.0028017121298929875 0 -0.014677161761908442 0.0031321834692785407 0 -0.015138425747220238 0.0029488728469632087 0 -0.014706826288215227 0.0028017121298929875 0 -0.015808849360416957 0.0011984718009567809 0 -0.015755350977683831 0.0013468302239828126 0 -0.015678156692983475 0.0012492902989240484 0 -0.014916240242653938 0.0018672865979217775 0 -0.01547115261114749 0.0022294977876153488 0 -0.0148205287390151 0.00355807649214893 0 -0.014677161761908442 0.0031321834692785407 0 -0.015138425747220238 0.0029488728469632087 0 -0.015138425747220238 0.0029488728469632087 0 -0.014997409471025985 0.0025315482058684089 0 -0.015459147716990777 0.0023079837160610642 0 -0.015138425747220238 0.0029488728469632087 0 -0.014997409471025985 0.0025315482058684089 0 -0.014706826288215227 0.0028017121298929875 0 -0.014997409471025985 0.0025315482058684089 0 -0.014706826288215227 0.0028017121298929875 0 -0.014687084016802882 0.0024462038043040067 0 -0.014340644813854409 0.0029646925417568916 0 -0.014706826288215227 0.0028017121298929875 0 -0.014448084282251529 0.002629578602604681 0 -0.014706826288215227 0.0028017121298929875 0 -0.014448084282251529 0.002629578602604681 0 -0.014687084016802882 0.0024462038043040067 0 -0.014099154936778524 0.0025797823078134658 0 -0.014448084282251529 0.002629578602604681 0 -0.014408237646063827 0.0023591541959141343 0 -0.014448084282251529 0.002629578602604681 0 -0.014408237646063827 0.0023591541959141343 0 -0.014687084016802882 0.0024462038043040067 0 -0.014408237646063827 0.0023591541959141343 0 -0.014687084016802882 0.0024462038043040067 0 -0.014600535189224809 0.0020482688091377141 0 -0.014687084016802882 0.0024462038043040067 0 -0.014600535189224809 0.0020482688091377141 0 -0.014998882447802429 0.0021543232504342667 0 -0.014196196998137438 0.0021399943591554932 0 -0.014408237646063827 0.0023591541959141343 0 -0.014600535189224809 0.0020482688091377141 0 -0.014997409471025985 0.0025315482058684089 0 -0.014998882447802429 0.0021543232504342667 0 -0.015459147716990777 0.0023079837160610642 0 -0.014997409471025985 0.0025315482058684089 0 -0.014687084016802882 0.0024462038043040067 0 -0.014998882447802429 0.0021543232504342667 0 -0.015703811432331783 0.0016362276987012881 0 -0.015566172283991176 0.001903253972883546 0 -0.015302400266334963 0.0016905826158295607 0 -0.014998882447802429 0.0021543232504342667 0 -0.015459147716990777 0.0023079837160610642 0 -0.01547115261114749 0.0022294977876153488 0 -0.015566172283991176 0.001903253972883546 0 -0.015668253458094313 0.0015390222076750875 0 -0.015627735761788959 0.0014116223798908245 0 -0.015573921635834685 0.0014929560721760942 0 -0.015755350977683831 0.0013468302239828126 0 -0.015668253458094313 0.0015390222076750875 0 -0.015627735761788959 0.0014116223798908245 0 -0.015546594145075665 0.0013713119963313961 0 -0.015573921635834685 0.0014929560721760942 0 -0.015340928765093602 0.0013143289120111732 0 -0.015627735761788959 0.0014116223798908245 0 -0.015546594145075665 0.0013713119963313961 0 -0.015573921635834685 0.0014929560721760942 0 -0.015668253458094313 0.0015390222076750875 0 -0.015573921635834685 0.0014929560721760942 0 -0.015702199355178137 0.0015627633073850592 0 -0.015719934832140611 0.0016000552623952615 0 -0.015668253458094313 0.0015390222076750875 0 -0.015702199355178137 0.0015627633073850592 0 -0.015290500072512652 0.001800930420541967 0 -0.014967293256561742 0.0015701619632244341 0 -0.015573921635834685 0.0014929560721760942 0 -0.015702199355178137 0.0015627633073850592 0 -0.015606283829714296 0.0015152222536556491 0 -0.015809651118380272 0.0015428973670249104 0 -0.015702199355178137 0.0015627633073850592 0 -0.015606283829714296 0.0015152222536556491 0 -0.014260814139382206 0.0019005442198193273 0 -0.014146843613482637 0.0016272165558342878 0 -0.014376493102191612 0.001674105770755866 0 -0.014481478971283317 0.0017946783167095946 0 -0.014649158757810553 0.0021041972297356571 0 -0.014681573131459827 0.0019332119692179017 0 -0.015290500072512652 0.001800930420541967 0 -0.01428201515455426 0.0018340657716576913 0 -0.014146843613482637 0.0016272165558342878 0 -0.014354972872998825 0.0015206289793658764 0 -0.014261392180485933 0.0014217584214490262 0 -0.014376493102191612 0.001674105770755866 0 -0.014354972872998825 0.0015206289793658764 0 -0.014498759533782388 0.0014511795577938566 0 -0.014146843613482637 0.0016272165558342878 0 -0.014376493102191612 0.001674105770755866 0 -0.014354972872998825 0.0015206289793658764 0 -0.014967293256561742 0.0015701619632244341 0 -0.014884098774073136 0.0013336776392468717 0 -0.015606283829714296 0.0015152222536556491 0 -0.015340928765093602 0.0013143289120111732 0 -0.015258104519012336 0.0012690415143431887 0 -0.015573921635834685 0.0014929560721760942 0 -0.015606283829714296 0.0015152222536556491 0 -0.015340928765093602 0.0013143289120111732 0 -0.014354972872998825 0.0015206289793658764 0 -0.014384117258606346 0.0013878425252323375 0 -0.014498759533782388 0.0014511795577938566 0 -0.014354972872998825 0.0015206289793658764 0 -0.014384117258606346 0.0013878425252323375 0 -0.014261392180485933 0.0014217584214490262 0 -0.014384117258606346 0.0013878425252323375 0 -0.014261392180485933 0.0014217584214490262 0 -0.014303572183988287 0.0013031833631820349 0 -0.014384117258606346 0.0013878425252323375 0 -0.014498759533782388 0.0014511795577938566 0 -0.014485240100738889 0.0013315392348512956 0 -0.014384117258606346 0.0013878425252323375 0 -0.014408854680059533 0.0012670425817614822 0 -0.014485240100738889 0.0013315392348512956 0 -0.014146843613482637 0.0016272165558342878 0 -0.014153428916514044 0.0014146504218051216 0 -0.014261392180485933 0.0014217584214490262 0 -0.014146843613482637 0.0016272165558342878 0 -0.014153428916514044 0.0014146504218051216 0 -0.014031820947324768 0.0013378231758284589 0 -0.014153428916514044 0.0014146504218051216 0 -0.014261392180485933 0.0014217584214490262 0 -0.014174593858572459 0.0012686175067770798 0 -0.014261392180485933 0.0014217584214490262 0 -0.014174593858572459 0.0012686175067770798 0 -0.014303572183988287 0.0013031833631820349 0 -0.014153428916514044 0.0014146504218051216 0 -0.014174593858572459 0.0012686175067770798 0 -0.014031820947324768 0.0013378231758284589 0 -0.014174593858572459 0.0012686175067770798 0 -0.014071164773317464 0.0011763633714314025 0 -0.014126732028745625 0.00107695079200113 0 -0.014174593858572459 0.0012686175067770798 0 -0.014291205885932299 0.0011731312268248484 0 -0.014126732028745625 0.00107695079200113 0 -0.014174593858572459 0.0012686175067770798 0 -0.014303572183988287 0.0013031833631820349 0 -0.014291205885932299 0.0011731312268248484 0 -0.014384117258606346 0.0013878425252323375 0 -0.014408854680059533 0.0012670425817614822 0 -0.014303572183988287 0.0013031833631820349 0 -0.014408854680059533 0.0012670425817614822 0 -0.014303572183988287 0.0013031833631820349 0 -0.014291205885932299 0.0011731312268248484 0 -0.014408854680059533 0.0012670425817614822 0 -0.014291205885932299 0.0011731312268248484 0 -0.014419022100109199 0.0011391692456827218 0 -0.014408854680059533 0.0012670425817614822 0 -0.014661138222298043 0.001214264922269315 0 -0.014485240100738889 0.0013315392348512956 0 -0.014661138222298043 0.001214264922269315 0 -0.014514786343929425 0.0010866716146593297 0 -0.014419022100109199 0.0011391692456827218 0 -0.014408854680059533 0.0012670425817614822 0 -0.014661138222298043 0.001214264922269315 0 -0.014419022100109199 0.0011391692456827218 0 -0.014661138222298043 0.001214264922269315 0 -0.014629444080300121 0.0011501244463501482 0 -0.014603963637531369 0.0011189936830468838 0 -0.014661138222298043 0.001214264922269315 0 -0.014629444080300121 0.0011501244463501482 0 -0.0146758898770247 0.0011408983484644441 0 -0.015627735761788959 0.0014116223798908245 0 -0.015546594145075665 0.0013713119963313961 0 -0.015678156692983475 0.0012492902989240484 0 -0.015755350977683831 0.0013468302239828126 0 -0.015627735761788959 0.0014116223798908245 0 -0.015678156692983475 0.0012492902989240484 0 -0.0146758898770247 0.0011408983484644441 0 -0.015340928765093602 0.0013143289120111732 0 -0.015258104519012336 0.0012690415143431887 0 -0.015271810659275388 0.001114087142036864 0 -0.015241335026946469 0.0013316547690256524 0 -0.014661138222298043 0.001214264922269315 0 -0.014498759533782388 0.0014511795577938566 0 -0.014485240100738889 0.0013315392348512956 0 -0.014661138222298043 0.001214264922269315 0 -0.0146758898770247 0.0011408983484644441 0 -0.015258104519012336 0.0012690415143431887 0 -0.015546594145075665 0.0013713119963313961 0 -0.015678156692983475 0.0012492902989240484 0 -0.015340928765093602 0.0013143289120111732 0 -0.014730079593623878 0.0012145935233255586 0 -0.014884098774073136 0.0013336776392468717 0 -0.013955451733573116 0.0022390110713525002 0 -0.013670320000519149 0.0023555805606100665 0 -0.013719006146803997 0.0020405888056063428 0 -0.013477632876869377 0.0022261121995017564 0 -0.013670320000519149 0.0023555805606100665 0 -0.013719006146803997 0.0020405888056063428 0 -0.013955451733573116 0.0022390110713525002 0 -0.014037219637758693 0.0021660385487668929 0 -0.013719006146803997 0.0020405888056063428 0 -0.016568681126686927 0.0021882681408627214 0 -0.016736288431714607 0.0019621256031588478 0 -0.020656219277066762 0.0012592917930451981 0 -0.02068032558891637 0.0010121893537025231 0 -0.020334229563914851 0.0010710743283148241 0 -0.020767218301707538 0.0011184355894080494 0 -0.020656219277066762 0.0012592917930451981 0 -0.02068032558891637 0.0010121893537025231 0 -0.015460736681989761 0.0027580747444115095 0 -0.014681555446733463 0.0022692664200920239 0 -0.014366682985967941 0.002415824213042306 0 -0.014805257177365175 0.0018112447730255581 0 -0.01509573239758798 0.0025649457316732601 0 -0.014509618144692999 0.0021042457097089936 0 -0.016736288431714607 0.0019621256031588478 0 -0.014512777056371329 0.0017627161723311846 0 -0.014681555446733463 0.0022692664200920239 0 -0.014366682985967941 0.002415824213042306 0 -0.014509618144692999 0.0021042457097089936 0 -0.016568681126686927 0.0021882681408627214 0 -0.013537775287830529 0.0024403740582411007 0 -0.013955451733573116 0.0022390110713525002 0 -0.014366682985967941 0.002415824213042306 0 -0.01421000695034557 0.0022577603116035443 0 -0.013955451733573116 0.0022390110713525002 0 -0.013670320000519149 0.0023555805606100665 0 -0.014366682985967941 0.002415824213042306 0 -0.013955451733573116 0.0022390110713525002 0 -0.014037219637758693 0.0021660385487668929 0 -0.01421000695034557 0.0022577603116035443 0 -0.014037219637758693 0.0021660385487668929 0 -0.01421000695034557 0.0022577603116035443 0 -0.014060693932216688 0.001994536844112639 0 -0.014320106276078357 0.0022755988746846713 0 -0.014277775276091691 0.0024324794439483399 0 -0.014600216754863291 0.0020880636551803052 0 -0.01421000695034557 0.0022577603116035443 0 -0.014320106276078357 0.0022755988746846713 0 -0.014307756102389916 0.0020496113191684185 0 -0.014366682985967941 0.002415824213042306 0 -0.01421000695034557 0.0022577603116035443 0 -0.014320106276078357 0.0022755988746846713 0 -0.014366682985967941 0.002415824213042306 0 -0.014320106276078357 0.0022755988746846713 0 -0.014277775276091691 0.0024324794439483399 0 -0.014366682985967941 0.002415824213042306 0 -0.014509618144692999 0.0021042457097089936 0 -0.014277775276091691 0.0024324794439483399 0 -0.015055739845806628 0.0017980836955671375 0 -0.014926759945342531 0.0020046580119724841 0 -0.014898821208682377 0.0018633746119114487 0 -0.014926759945342531 0.0020046580119724841 0 -0.014790233886183609 0.0019292198422959602 0 -0.014730363658711642 0.0020363074731423745 0 -0.014813264856251004 0.0018022413128064366 0 -0.014790233886183609 0.0019292198422959602 0 -0.014898821208682377 0.0018633746119114487 0 -0.014926759945342531 0.0020046580119724841 0 -0.014790233886183609 0.0019292198422959602 0 -0.014898821208682377 0.0018633746119114487 0 -0.014682402713675756 0.0017614636379635245 0 -0.014813264856251004 0.0018022413128064366 0 -0.014681573131459827 0.0019332119692179017 0 -0.014813264856251004 0.0018022413128064366 0 -0.014790233886183609 0.0019292198422959602 0 -0.014681573131459827 0.0019332119692179017 0 -0.014649158757810553 0.0021041972297356571 0 -0.014681573131459827 0.0019332119692179017 0 -0.014730363658711642 0.0020363074731423745 0 -0.014790233886183609 0.0019292198422959602 0 -0.014681573131459827 0.0019332119692179017 0 -0.014730363658711642 0.0020363074731423745 0 -0.01460962858337184 0.0021769540819959561 0 -0.014613855130679919 0.0020894429407879479 0 -0.014649158757810553 0.0021041972297356571 0 -0.014730363658711642 0.0020363074731423745 0 -0.014600216754863291 0.0020880636551803052 0 -0.014926759945342531 0.0020046580119724841 0 -0.014730363658711642 0.0020363074731423745 0 -0.014600216754863291 0.0020880636551803052 0 -0.01428201515455426 0.0018340657716576913 0 -0.014348073386502996 0.0016489780555746303 0 -0.014649158757810553 0.0021041972297356571 0 -0.014600216754863291 0.0020880636551803052 0 -0.014641857345043486 0.0019518265241308937 0 -0.014600216754863291 0.0020880636551803052 0 -0.014480262185298657 0.0019783884056810172 0 -0.014641857345043486 0.0019518265241308937 0 -0.014480262185298657 0.0019783884056810172 0 -0.014641857345043486 0.0019518265241308937 0 -0.014342396407019118 0.0018163526666473008 0 -0.014174593858572459 0.0012686175067770798 0 -0.014031820947324768 0.0013378231758284589 0 -0.014071164773317464 0.0011763633714314025 0 -0.014641857345043486 0.0019518265241308937 0 -0.014342396407019118 0.0018163526666473008 0 -0.014379615534375056 0.0013621747493097359 0 -0.014348073386502996 0.0016489780555746303 0 -0.014163394030608321 0.0011997042740646972 0 -0.014031820947324768 0.0013378231758284589 0 -0.014071164773317464 0.0011763633714314025 0 -0.013953557131292409 0.0010272226185195654 0 -0.014342396407019118 0.0018163526666473008 0 -0.014053056599310325 0.0016058355670783531 0 -0.014379615534375056 0.0013621747493097359 0 -0.014127769334755133 0.0016046416451288991 0 -0.014279466512710422 0.0020131022066330368 0 -0.014342396407019118 0.0018163526666473008 0 -0.014053056599310325 0.0016058355670783531 0 -0.014307756102389916 0.0020496113191684185 0 -0.014199313433876421 0.0016082663788033785 0 -0.014307756102389916 0.0020496113191684185 0 -0.014060693932216688 0.001994536844112639 0 -0.014480262185298657 0.0019783884056810172 0 -0.014342396407019118 0.0018163526666473008 0 -0.014307756102389916 0.0020496113191684185 0 -0.014600216754863291 0.0020880636551803052 0 -0.014480262185298657 0.0019783884056810172 0 -0.014307756102389916 0.0020496113191684185 0 -0.014320106276078357 0.0022755988746846713 0 -0.014600216754863291 0.0020880636551803052 0 -0.014307756102389916 0.0020496113191684185 0 -0.014037219637758693 0.0021660385487668929 0 -0.014060693932216688 0.001994536844112639 0 -0.013719006146803997 0.0020405888056063428 0 -0.01421000695034557 0.0022577603116035443 0 -0.014307756102389916 0.0020496113191684185 0 -0.014060693932216688 0.001994536844112639 0 -0.014199313433876421 0.0016082663788033785 0 -0.013878255588282274 0.00179643958402429 0 -0.013878212936612445 0.001481902290959595 0 -0.014199313433876421 0.0016082663788033785 0 -0.014060693932216688 0.001994536844112639 0 -0.013878255588282274 0.00179643958402429 0 -0.013467885208937866 0.0014151593130844245 0 -0.013878255588282274 0.00179643958402429 0 -0.013878212936612445 0.001481902290959595 0 -0.013492550049592862 0.0018143073416402985 0 -0.013467885208937866 0.0014151593130844245 0 -0.013878255588282274 0.00179643958402429 0 -0.014060693932216688 0.001994536844112639 0 -0.013878255588282274 0.00179643958402429 0 -0.013719006146803997 0.0020405888056063428 0 -0.013492550049592862 0.0018143073416402985 0 -0.013878255588282274 0.00179643958402429 0 -0.013719006146803997 0.0020405888056063428 0 -0.013467885208937866 0.0014151593130844245 0 -0.013422507004165524 0.0009902020543407213 0 -0.01356762965132169 0.0010773224305521832 0 -0.013422507004165524 0.0009902020543407213 0 -0.01356762965132169 0.0010773224305521832 0 -0.013593622249342963 0.00081555248444169096 0 -0.01356762965132169 0.0010773224305521832 0 -0.013762237211071095 0.00099870445171495559 0 -0.013593622249342963 0.00081555248444169096 0 -0.01356762965132169 0.0010773224305521832 0 -0.013721442237078397 0.0012487194950583618 0 -0.013762237211071095 0.00099870445171495559 0 -0.013467885208937866 0.0014151593130844245 0 -0.01356762965132169 0.0010773224305521832 0 -0.013721442237078397 0.0012487194950583618 0 -0.013467885208937866 0.0014151593130844245 0 -0.013721442237078397 0.0012487194950583618 0 -0.013878212936612445 0.001481902290959595 0 -0.014199313433876421 0.0016082663788033785 0 -0.013878212936612445 0.001481902290959595 0 -0.014049282730291998 0.001154358311578082 0 -0.013721442237078397 0.0012487194950583618 0 -0.013878212936612445 0.001481902290959595 0 -0.014049282730291998 0.001154358311578082 0 -0.014049282730291998 0.001154358311578082 0 -0.013762237211071095 0.00099870445171495559 0 -0.013873576575821308 0.00067926505699828898 0 -0.013721442237078397 0.0012487194950583618 0 -0.014049282730291998 0.001154358311578082 0 -0.013762237211071095 0.00099870445171495559 0 -0.013940264478095953 0.001101965567271432 0 -0.013786819226401049 0.00064760767706484779 0 -0.013985063028825724 0.0008030423096587302 0 -0.013953557131292409 0.0010272226185195654 0 -0.014017768512868501 0.00087161054241291708 0 -0.013824291619647577 0.0010452530524369525 0 -0.013985063028825724 0.0008030423096587302 0 -0.014379615534375056 0.0013621747493097359 0 -0.013824291619647577 0.0010452530524369525 0 -0.013985063028825724 0.0008030423096587302 0 -0.013883583366164642 0.00071070971511599421 0 -0.01400660089518342 0.0008393878493882773 0 -0.014163394030608321 0.0011997042740646972 0 -0.013985063028825724 0.0008030423096587302 0 -0.014017768512868501 0.00087161054241291708 0 -0.014019737678305841 0.00077028362766846145 0 -0.014053056599310325 0.0016058355670783531 0 -0.013824291619647577 0.0010452530524369525 0 -0.014379615534375056 0.0013621747493097359 0 -0.014127769334755133 0.0016046416451288991 0 -0.013940264478095953 0.001101965567271432 0 -0.013953557131292409 0.0010272226185195654 0 -0.014060998182644261 0.00094488060790192806 0 -0.014017768512868501 0.00087161054241291708 0 -0.013953557131292409 0.0010272226185195654 0 -0.014060998182644261 0.00094488060790192806 0 -0.014126732028745625 0.00107695079200113 0 -0.014071164773317464 0.0011763633714314025 0 -0.013953557131292409 0.0010272226185195654 0 -0.014126732028745625 0.00107695079200113 0 -0.014060998182644261 0.00094488060790192806 0 -0.014017768512868501 0.00087161054241291708 0 -0.014069193597203492 0.00085084942305907213 0 -0.014060998182644261 0.00094488060790192806 0 -0.014069193597203492 0.00085084942305907213 0 -0.014134473798604021 0.00092774868530136399 0 -0.014017768512868501 0.00087161054241291708 0 -0.01404236961942029 0.00078124450418982699 0 -0.014019737678305841 0.00077028362766846145 0 -0.014017768512868501 0.00087161054241291708 0 -0.014069193597203492 0.00085084942305907213 0 -0.01404236961942029 0.00078124450418982699 0 -0.014069193597203492 0.00085084942305907213 0 -0.01404236961942029 0.00078124450418982699 0 -0.014060327085238951 0.00075585256041616974 0 -0.014048342081315699 0.00071642125195687969 0 -0.014028824669888213 0.0006987837447340467 0 -0.013999039891439842 0.00079127727935957167 0 -0.01404236961942029 0.00078124450418982699 0 -0.014031343596587817 0.00071555210330267983 0 -0.014048342081315699 0.00071642125195687969 0 -0.01404236961942029 0.00078124450418982699 0 -0.014048342081315699 0.00071642125195687969 0 -0.014060327085238951 0.00075585256041616974 0 -0.014019737678305841 0.00077028362766846145 0 -0.014031343596587817 0.00071555210330267983 0 -0.014007498719732255 0.00067776588888156426 0 -0.01404236961942029 0.00078124450418982699 0 -0.014019737678305841 0.00077028362766846145 0 -0.014031343596587817 0.00071555210330267983 0 -0.014031343596587817 0.00071555210330267983 0 -0.014028824669888213 0.0006987837447340467 0 -0.014007498719732255 0.00067776588888156426 0 -0.014031343596587817 0.00071555210330267983 0 -0.014048342081315699 0.00071642125195687969 0 -0.014028824669888213 0.0006987837447340467 0 -0.014048342081315699 0.00071642125195687969 0 -0.014060327085238951 0.00075585256041616974 0 -0.014051043907571337 0.00071690463295217145 0 -0.0069318297679525085 -0.0013354516614589179 0 -0.0070500404297401528 -0.00150026774841803 0 -0.006839855463239103 -0.00151641033848052 0 -0.0098210199895273857 -0.00061034623525653843 0 -0.002830595126790784 -0.00078446582900755903 0 -0.0031098764284160684 -0.0016055266743566945 0 -0.0026475203915079641 -0.0015367547176964942 0 -0.0027334966396352395 -0.0011818390148532667 0 -0.0098210199895273857 -0.00061034623525653843 0 -0.014209083479535379 6.8406944318859865e-05 0 -0.014171613453058594 0.00043319116549322902 0 -0.013972051318480958 0.0004525946178401244 0 -0.013837666027516815 0.00023548965327464149 0 -0.0069318297679525085 -0.0013354516614589179 0 -0.0066372344738628592 -0.0014646660016887358 0 -0.006839855463239103 -0.00151641033848052 0 -0.014171613453058594 0.00043319116549322902 0 -0.013972051318480958 0.0004525946178401244 0 -0.014007498719732255 0.00067776588888156426 0 -0.013972051318480958 0.0004525946178401244 0 -0.013874269694228579 0.00047522827220927672 0 -0.014007498719732255 0.00067776588888156426 0 -0.0098210199895273857 -0.00061034623525653843 0 -0.010354088894249647 -0.00058023975209043482 0 -0.013972051318480958 0.0004525946178401244 0 -0.013874269694228579 0.00047522827220927672 0 -0.013837666027516815 0.00023548965327464149 0 -0.013874269694228579 0.00047522827220927672 0 -0.014007498719732255 0.00067776588888156426 0 -0.013883583366164642 0.00071070971511599421 0 -0.013985063028825724 0.0008030423096587302 0 -0.014019737678305841 0.00077028362766846145 0 -0.014007498719732255 0.00067776588888156426 0 -0.013985063028825724 0.0008030423096587302 0 -0.014007498719732255 0.00067776588888156426 0 -0.013883583366164642 0.00071070971511599421 0 -0.013824291619647577 0.0010452530524369525 0 -0.013883583366164642 0.00071070971511599421 0 -0.013702172144772987 0.00062317307692983455 0 -0.013762237211071095 0.00099870445171495559 0 -0.013873576575821308 0.00067926505699828898 0 -0.013593622249342963 0.00081555248444169096 0 -0.013873576575821308 0.00067926505699828898 0 -0.013555310725089651 0.00052811777353461964 0 -0.013593622249342963 0.00081555248444169096 0 -0.013874269694228579 0.00047522827220927672 0 -0.013883583366164642 0.00071070971511599421 0 -0.013702172144772987 0.00062317307692983455 0 -0.013873576575821308 0.00067926505699828898 0 -0.013555310725089651 0.00052811777353461964 0 -0.013638786856179816 0.00016233259945641127 0 -0.013786819226401049 0.00064760767706484779 0 -0.013659063471075652 0.00020656337688632355 0 -0.013874269694228579 0.00047522827220927672 0 -0.013702172144772987 0.00062317307692983455 0 -0.013638786856179816 0.00016233259945641127 0 -0.013874269694228579 0.00047522827220927672 0 -0.013638786856179816 0.00016233259945641127 0 -0.013837666027516815 0.00023548965327464149 0 -0.013555310725089651 0.00052811777353461964 0 -0.013310561842472205 0.00031237217672314561 0 -0.013638786856179816 0.00016233259945641127 0 -0.013555310725089651 0.00052811777353461964 0 -0.013310561842472205 0.00031237217672314561 0 -0.013373752137612086 0.00065727505698306152 0 -0.013322610047175011 0.0003633779338557904 0 -0.013327363517292358 0.00069583262598348398 0 -0.013555310725089651 0.00052811777353461964 0 -0.013373752137612086 0.00065727505698306152 0 -0.013593622249342963 0.00081555248444169096 0 -0.013799164394369146 0.0012146745307358494 0 -0.013327363517292358 0.00069583262598348398 0 -0.013422507004165524 0.0009902020543407213 0 -0.013373752137612086 0.00065727505698306152 0 -0.013593622249342963 0.00081555248444169096 0 -0.01448472426586218 0.00096180432220094791 0 -0.014532119756752896 0.0010191111397994423 0 -0.014474696339147306 0.0010123665715338099 0 -0.014517336433096403 0.00095968789085917937 0 -0.01448472426586218 0.00096180432220094791 0 -0.014532119756752896 0.0010191111397994423 0 -0.014517336433096403 0.00095968789085917937 0 -0.014520229551092669 0.000979783302072619 0 -0.014532119756752896 0.0010191111397994423 0 -0.014517336433096403 0.00095968789085917937 0 -0.01448472426586218 0.00096180432220094791 0 -0.014496298049075072 0.00093308103120589691 0 -0.01448472426586218 0.00096180432220094791 0 -0.014440974096221391 0.00088412502001413503 0 -0.01441241485783965 0.00095386638840525278 0 -0.01448472426586218 0.00096180432220094791 0 -0.014474696339147306 0.0010123665715338099 0 -0.01441241485783965 0.00095386638840525278 0 -0.01448472426586218 0.00096180432220094791 0 -0.014440974096221391 0.00088412502001413503 0 -0.014496298049075072 0.00093308103120589691 0 -0.014517336433096403 0.00095968789085917937 0 -0.014532316694760086 0.00092134736316474381 0 -0.014520229551092669 0.000979783302072619 0 -0.014440974096221391 0.00088412502001413503 0 -0.014496298049075072 0.00093308103120589691 0 -0.014532316694760086 0.00092134736316474381 0 -0.014517336433096403 0.00095968789085917937 0 -0.014496298049075072 0.00093308103120589691 0 -0.014532316694760086 0.00092134736316474381 0 -0.014488164971377195 0.0010342227983022815 0 -0.014245546522606289 0.00091535661162436713 0 -0.014532316694760086 0.00092134736316474381 0 -0.014472233086070626 0.0010002386958693822 0 -0.014520229551092669 0.000979783302072619 0 -0.013537183028220955 0.00078612422188792147 0 -0.014472233086070626 0.0010002386958693822 0 -0.014426338027338836 0.00071943929870311562 0 -0.014472233086070626 0.0010002386958693822 0 -0.014520229551092669 0.000979783302072619 0 -0.014555108076134547 0.0010529605557450608 0 -0.014548838491775217 0.0010594753585315307 0 -0.014472233086070626 0.0010002386958693822 0 -0.014555108076134547 0.0010529605557450608 0 -0.014520229551092669 0.000979783302072619 0 -0.014555108076134547 0.0010529605557450608 0 -0.014532119756752896 0.0010191111397994423 0 -0.014555108076134547 0.0010529605557450608 0 -0.014603963637531369 0.0011189936830468838 0 -0.014532119756752896 0.0010191111397994423 0 -0.014629444080300121 0.0011501244463501482 0 -0.014598737098850035 0.0011161022819516043 0 -0.014603963637531369 0.0011189936830468838 0 -0.014555108076134547 0.0010529605557450608 0 -0.014598737098850035 0.0011161022819516043 0 -0.014603963637531369 0.0011189936830468838 0 -0.014587477632862925 0.0010978090996687649 0 -0.014555108076134547 0.0010529605557450608 0 -0.014598737098850035 0.0011161022819516043 0 -0.014603963637531369 0.0011189936830468838 0 -0.014532119756752896 0.0010191111397994423 0 -0.014514786343929425 0.0010866716146593297 0 -0.014661138222298043 0.001214264922269315 0 -0.014603963637531369 0.0011189936830468838 0 -0.014514786343929425 0.0010866716146593297 0 -0.014532119756752896 0.0010191111397994423 0 -0.014474696339147306 0.0010123665715338099 0 -0.014514786343929425 0.0010866716146593297 0 -0.014474696339147306 0.0010123665715338099 0 -0.014514786343929425 0.0010866716146593297 0 -0.014405270078511914 0.0010279002578093882 0 -0.014474696339147306 0.0010123665715338099 0 -0.014405270078511914 0.0010279002578093882 0 -0.01441241485783965 0.00095386638840525278 0 -0.014514786343929425 0.0010866716146593297 0 -0.014419022100109199 0.0011391692456827218 0 -0.014405270078511914 0.0010279002578093882 0 -0.014419022100109199 0.0011391692456827218 0 -0.014311137853723479 0.0010441881548591658 0 -0.014405270078511914 0.0010279002578093882 0 -0.014291205885932299 0.0011731312268248484 0 -0.014419022100109199 0.0011391692456827218 0 -0.014311137853723479 0.0010441881548591658 0 -0.014291205885932299 0.0011731312268248484 0 -0.014311137853723479 0.0010441881548591658 0 -0.014216906098202788 0.0010354849166105892 0 -0.014311137853723479 0.0010441881548591658 0 -0.014405270078511914 0.0010279002578093882 0 -0.014301132146765788 0.0009286384285200252 0 -0.014291205885932299 0.0011731312268248484 0 -0.014126732028745625 0.00107695079200113 0 -0.014216906098202788 0.0010354849166105892 0 -0.014216906098202788 0.0010354849166105892 0 -0.014134473798604021 0.00092774868530136399 0 -0.014209342542417491 0.00094851731198948694 0 -0.014311137853723479 0.0010441881548591658 0 -0.014216906098202788 0.0010354849166105892 0 -0.014209342542417491 0.00094851731198948694 0 -0.014060998182644261 0.00094488060790192806 0 -0.014126732028745625 0.00107695079200113 0 -0.014134473798604021 0.00092774868530136399 0 -0.014126732028745625 0.00107695079200113 0 -0.014216906098202788 0.0010354849166105892 0 -0.014134473798604021 0.00092774868530136399 0 -0.014209342542417491 0.00094851731198948694 0 -0.014182502349094198 0.00086971628212264293 0 -0.014301132146765788 0.0009286384285200252 0 -0.014134473798604021 0.00092774868530136399 0 -0.014209342542417491 0.00094851731198948694 0 -0.014182502349094198 0.00086971628212264293 0 -0.014182502349094198 0.00086971628212264293 0 -0.014221397955730916 0.00079954901101528762 0 -0.014119992612331982 0.00078797725772332503 0 -0.014182502349094198 0.00086971628212264293 0 -0.014105409808322865 0.00082902775613198979 0 -0.014119992612331982 0.00078797725772332503 0 -0.014069193597203492 0.00085084942305907213 0 -0.014134473798604021 0.00092774868530136399 0 -0.014105409808322865 0.00082902775613198979 0 -0.014069193597203492 0.00085084942305907213 0 -0.014105409808322865 0.00082902775613198979 0 -0.014060327085238951 0.00075585256041616974 0 -0.014134473798604021 0.00092774868530136399 0 -0.014182502349094198 0.00086971628212264293 0 -0.014105409808322865 0.00082902775613198979 0 -0.01441241485783965 0.00095386638840525278 0 -0.014301132146765788 0.0009286384285200252 0 -0.014351986935303656 0.00086807452318514249 0 -0.014405270078511914 0.0010279002578093882 0 -0.01441241485783965 0.00095386638840525278 0 -0.014301132146765788 0.0009286384285200252 0 -0.014311137853723479 0.0010441881548591658 0 -0.014209342542417491 0.00094851731198948694 0 -0.014301132146765788 0.0009286384285200252 0 -0.014301132146765788 0.0009286384285200252 0 -0.014351986935303656 0.00086807452318514249 0 -0.014221397955730916 0.00079954901101528762 0 -0.014182502349094198 0.00086971628212264293 0 -0.014301132146765788 0.0009286384285200252 0 -0.014221397955730916 0.00079954901101528762 0 -0.014440974096221391 0.00088412502001413503 0 -0.014351986935303656 0.00086807452318514249 0 -0.01437075539925726 0.00075087513378473201 0 -0.014440974096221391 0.00088412502001413503 0 -0.01441241485783965 0.00095386638840525278 0 -0.014351986935303656 0.00086807452318514249 0 -0.010474557192094445 -8.8311866697733806e-05 0 -0.0075510656541364343 -0.00072471535278857929 0 -0.01437075539925726 0.00075087513378473201 0 -0.014221397955730916 0.00079954901101528762 0 -0.01406293011554766 0.00068412795974167728 0 -0.0022008955104448318 -0.0017500193593048879 0 -0.002466299640177421 -0.0017764114211412515 0 -0.0022273135842729762 -0.0016590176432584576 0 -0.014351986935303656 0.00086807452318514249 0 -0.01437075539925726 0.00075087513378473201 0 -0.014221397955730916 0.00079954901101528762 0 -0.010474557192094445 -8.8311866697733806e-05 0 -0.015324234264957477 0.00090011840777156737 0 -0.0022008955104448318 -0.0017500193593048879 0 -0.0022273135842729762 -0.0016590176432584576 0 -0.0021094672189785574 -0.0016521110854640926 0 -0.013263082161245589 0.00052477914660409178 0 -0.013999039891439842 0.00079127727935957167 0 -0.01406293011554766 0.00068412795974167728 0 -0.014060327085238951 0.00075585256041616974 0 -0.014119992612331982 0.00078797725772332503 0 -0.01406293011554766 0.00068412795974167728 0 -0.014060327085238951 0.00075585256041616974 0 -0.01406293011554766 0.00068412795974167728 0 -0.014051043907571337 0.00071690463295217145 0 -0.014105409808322865 0.00082902775613198979 0 -0.014060327085238951 0.00075585256041616974 0 -0.014119992612331982 0.00078797725772332503 0 -0.014221397955730916 0.00079954901101528762 0 -0.014119992612331982 0.00078797725772332503 0 -0.01406293011554766 0.00068412795974167728 0 -0.014048342081315699 0.00071642125195687969 0 -0.013999039891439842 0.00079127727935957167 0 -0.014051043907571337 0.00071690463295217145 0 -0.013999039891439842 0.00079127727935957167 0 -0.01406293011554766 0.00068412795974167728 0 -0.014051043907571337 0.00071690463295217145 0 -0.0098210199895273857 -0.00061034623525653843 0 -0.0075510656541364343 -0.00072471535278857929 0 -0.0031098764284160684 -0.0016055266743566945 0 -0.002466299640177421 -0.0017764114211412515 0 -0.0026475203915079641 -0.0015367547176964942 0 -0.002466299640177421 -0.0017764114211412515 0 -0.0023110739509898935 -0.0015451093236142797 0 -0.0026475203915079641 -0.0015367547176964942 0 -0.0021850985956088712 -0.0015939358839240907 0 -0.002830595126790784 -0.00078446582900755903 0 -0.0023110739509898935 -0.0015451093236142797 0 -0.0026475203915079641 -0.0015367547176964942 0 -0.0027334966396352395 -0.0011818390148532667 0 -0.0023110739509898935 -0.0015451093236142797 0 -0.0022273135842729762 -0.0016590176432584576 0 -0.0021426436894238831 -0.0015909814885877328 0 -0.0023110739509898935 -0.0015451093236142797 0 -0.0021426436894238831 -0.0015909814885877328 0 -0.0021495836353554649 -0.0015313757274703712 0 -0.0022273135842729762 -0.0016590176432584576 0 -0.0021426436894238831 -0.0015909814885877328 0 -0.0021094672189785574 -0.0016521110854640926 0 -0.002466299640177421 -0.0017764114211412515 0 -0.0023110739509898935 -0.0015451093236142797 0 -0.0022273135842729762 -0.0016590176432584576 0 -0.0021426436894238831 -0.0015909814885877328 0 -0.0020452601295004882 -0.0016074074255587186 0 -0.0020305526962203341 -0.0015632487766805111 0 -0.0020452601295004882 -0.0016074074255587186 0 -0.0019761456757271647 -0.0015901666417905667 0 -0.0020305526962203341 -0.0015632487766805111 0 -0.0020452601295004882 -0.0016074074255587186 0 -0.0021094672189785574 -0.0016521110854640926 0 -0.0020229229972608311 -0.0016308457129438265 0 -0.0021426436894238831 -0.0015909814885877328 0 -0.0020452601295004882 -0.0016074074255587186 0 -0.0021094672189785574 -0.0016521110854640926 0 -0.013537183028220955 0.00078612422188792147 0 -0.012207584400827157 0.00024672775961609623 0 -0.013509570606793815 0.00045696980064655133 0 -0.0022008955104448318 -0.0017500193593048879 0 -0.002075825223656372 -0.0016706613690652601 0 -0.0020676765944116163 -0.0016830199313275322 0 -0.0022008955104448318 -0.0017500193593048879 0 -0.0021094672189785574 -0.0016521110854640926 0 -0.002075825223656372 -0.0016706613690652601 0 -0.014488164971377195 0.0010342227983022815 0 -0.010474557192094445 -8.8311866697733806e-05 0 -0.014440974096221391 0.00088412502001413503 0 -0.014532316694760086 0.00092134736316474381 0 -0.01437075539925726 0.00075087513378473201 0 -0.010474557192094445 -8.8311866697733806e-05 0 -0.0074829535749968579 -0.00064334757009855122 0 -0.0021094672189785574 -0.0016521110854640926 0 -0.002075825223656372 -0.0016706613690652601 0 -0.0020229229972608311 -0.0016308457129438265 0 -0.002075825223656372 -0.0016706613690652601 0 -0.0020676765944116163 -0.0016830199313275322 0 -0.0021013361280498954 -0.0016831023482179366 0 -0.0020676765944116163 -0.0016830199313275322 0 -0.0023053370798835119 -0.0015379966810904161 0 -0.0021013361280498954 -0.0016831023482179366 0 -0.0074829535749968579 -0.00064334757009855122 0 -0.0069738009031988053 -0.00049247951098770103 0 -0.013537183028220955 0.00078612422188792147 0 -0.013509570606793815 0.00045696980064655133 0 -0.014426338027338836 0.00071943929870311562 0 -0.0069738009031988053 -0.00049247951098770103 0 -0.0011513539587362054 -0.0022128206619691109 0 -0.0019926687995656146 -0.0016636594536647059 0 -0.0021013361280498954 -0.0016831023482179366 0 -0.002003347095945122 -0.0016394579580176491 0 -0.0021013361280498954 -0.0016831023482179366 0 -0.0020571968288014449 -0.0016547767175353815 0 -0.002003347095945122 -0.0016394579580176491 0 -0.002075825223656372 -0.0016706613690652601 0 -0.0021013361280498954 -0.0016831023482179366 0 -0.0020571968288014449 -0.0016547767175353815 0 -0.002075825223656372 -0.0016706613690652601 0 -0.0020571968288014449 -0.0016547767175353815 0 -0.0020229229972608311 -0.0016308457129438265 0 -0.0020571968288014449 -0.0016547767175353815 0 -0.002003347095945122 -0.0016394579580176491 0 -0.0020229229972608311 -0.0016308457129438265 0 -0.0019520425631333173 -0.0016085120629727163 0 -0.002003347095945122 -0.0016394579580176491 0 -0.0020229229972608311 -0.0016308457129438265 0 -0.0019520425631333173 -0.0016085120629727163 0 -0.0020229229972608311 -0.0016308457129438265 0 -0.0019761456757271647 -0.0015901666417905667 0 -0.0020452601295004882 -0.0016074074255587186 0 -0.0020229229972608311 -0.0016308457129438265 0 -0.0019761456757271647 -0.0015901666417905667 0 -0.0019520425631333173 -0.0016085120629727163 0 -0.0019761456757271647 -0.0015901666417905667 0 -0.0019228615516261962 -0.0015834804509212519 0 -0.0019761456757271647 -0.0015901666417905667 0 -0.0019182450853795438 -0.00154908123742036 0 -0.0019228615516261962 -0.0015834804509212519 0 -0.0019761456757271647 -0.0015901666417905667 0 -0.0019182450853795438 -0.00154908123742036 0 -0.0020305526962203341 -0.0015632487766805111 0 -0.0019182450853795438 -0.00154908123742036 0 -0.0018771882028144685 -0.0014902704789075503 0 -0.0018292491542662506 -0.0015154752631033864 0 -0.0019182450853795438 -0.00154908123742036 0 -0.0018771882028144685 -0.0014902704789075503 0 -0.0020076612608395956 -0.0015101234073803739 0 -0.0018771882028144685 -0.0014902704789075503 0 -0.0017734712008230175 -0.0014598025528998716 0 -0.0018292491542662506 -0.0015154752631033864 0 -0.0019552098231989117 -0.0014520986428974364 0 -0.0020076612608395956 -0.0015101234073803739 0 -0.0021685161397518374 -0.0014491153578481844 0 -0.0018771882028144685 -0.0014902704789075503 0 -0.0019552098231989117 -0.0014520986428974364 0 -0.0020076612608395956 -0.0015101234073803739 0 -0.0018771882028144685 -0.0014902704789075503 0 -0.0019552098231989117 -0.0014520986428974364 0 -0.0018092516565213616 -0.0014300565434673088 0 -0.0019182450853795438 -0.00154908123742036 0 -0.0020076612608395956 -0.0015101234073803739 0 -0.0020305526962203341 -0.0015632487766805111 0 -0.0020076612608395956 -0.0015101234073803739 0 -0.0020305526962203341 -0.0015632487766805111 0 -0.0021495836353554649 -0.0015313757274703712 0 -0.0021426436894238831 -0.0015909814885877328 0 -0.0020305526962203341 -0.0015632487766805111 0 -0.0021495836353554649 -0.0015313757274703712 0 -0.0021495836353554649 -0.0015313757274703712 0 -0.002239323323668759 -0.0015153750199742636 0 -0.0021685161397518374 -0.0014491153578481844 0 -0.0020076612608395956 -0.0015101234073803739 0 -0.0021495836353554649 -0.0015313757274703712 0 -0.0021685161397518374 -0.0014491153578481844 0 -0.0023110739509898935 -0.0015451093236142797 0 -0.0021495836353554649 -0.0015313757274703712 0 -0.002239323323668759 -0.0015153750199742636 0 -0.002830595126790784 -0.00078446582900755903 0 -0.0016614821346771118 -0.00096691022119264392 0 -0.002317698656875233 -0.0015228634730154386 0 -0.002239323323668759 -0.0015153750199742636 0 -0.0021685161397518374 -0.0014491153578481844 0 -0.0023110739509898935 -0.0015451093236142797 0 -0.002317698656875233 -0.0015228634730154386 0 -0.002239323323668759 -0.0015153750199742636 0 -0.0014884701646848105 -0.00058650757886108873 0 -0.00092725999268043562 -0.00093470391342864744 0 -0.00073904440625825632 -0.0005320087803768939 0 -0.00095429779491492317 4.9885179205534778e-05 0 -0.0014884701646848105 -0.00058650757886108873 0 -0.00073904440625825632 -0.0005320087803768939 0 -0.0016614821346771118 -0.00096691022119264392 0 -0.0017868991795814597 -0.0012933157507639343 0 -0.0014884701646848105 -0.00058650757886108873 0 -0.0017072547116739499 -0.0011403082528784188 0 -0.00092725999268043562 -0.00093470391342864744 0 -0.0014884701646848105 -0.00058650757886108873 0 -0.0017072547116739499 -0.0011403082528784188 0 -0.0020216669546573875 -0.0012248693721647942 0 -0.0014015503405665165 -0.0011370917568228722 0 -0.00078665819907718386 -0.00091586556910292361 0 -0.0011198914568981597 -0.0011287621269480488 0 -0.00066575986829732806 -0.00090960121374858796 0 -0.00087561834528510725 -0.0012352656583038523 0 -0.00066575986829732806 -0.00090960121374858796 0 -0.00087561834528510725 -0.0012352656583038523 0 -0.00054912371296579035 -0.001246747152980252 0 -0.00045794743882983038 -0.0011425687653521524 0 -0.00085105421689459925 -0.0014164475840885407 0 -0.00087561834528510725 -0.0012352656583038523 0 -0.00054912371296579035 -0.001246747152980252 0 -0.00096480555739423201 -0.0015213248938875188 0 -0.0011198914568981597 -0.0011287621269480488 0 -0.001048279887201994 -0.0013398143854055841 0 -0.0012237747574360862 -0.0014534750081227942 0 -0.00087561834528510725 -0.0012352656583038523 0 -0.001048279887201994 -0.0013398143854055841 0 -0.00096480555739423201 -0.0015213248938875188 0 -0.001048279887201994 -0.0013398143854055841 0 -0.0012237747574360862 -0.0014534750081227942 0 -0.00096480555739423201 -0.0015213248938875188 0 -0.0011198914568981597 -0.0011287621269480488 0 -0.00087561834528510725 -0.0012352656583038523 0 -0.001048279887201994 -0.0013398143854055841 0 -0.0011198914568981597 -0.0011287621269480488 0 -0.0012237747574360862 -0.0014534750081227942 0 -0.001279369418776015 -0.001198121883671482 0 -0.0012237747574360862 -0.0014534750081227942 0 -0.0016121980502321563 -0.0013656313426676176 0 -0.001279369418776015 -0.001198121883671482 0 -0.0015685648508807499 -0.0013157820388837471 0 -0.0017868991795814597 -0.0012933157507639343 0 -0.0016121980502321563 -0.0013656313426676176 0 -0.0014504921517117914 -0.0015646309550935813 0 -0.0016649526221609984 -0.0015132853609606924 0 -0.0012237747574360862 -0.0014534750081227942 0 -0.0016121980502321563 -0.0013656313426676176 0 -0.0014504921517117914 -0.0015646309550935813 0 -0.0016121980502321563 -0.0013656313426676176 0 -0.0017734712008230175 -0.0014598025528998716 0 -0.001746917472121981 -0.0014788391817118882 0 -0.0016121980502321563 -0.0013656313426676176 0 -0.0017734712008230175 -0.0014598025528998716 0 -0.0018092516565213616 -0.0014300565434673088 0 -0.0018771882028144685 -0.0014902704789075503 0 -0.0017734712008230175 -0.0014598025528998716 0 -0.0018092516565213616 -0.0014300565434673088 0 -0.0019552098231989117 -0.0014520986428974364 0 -0.0018092516565213616 -0.0014300565434673088 0 -0.0019365582893401685 -0.0013325601687433342 0 -0.0019552098231989117 -0.0014520986428974364 0 -0.0021685161397518374 -0.0014491153578481844 0 -0.0019365582893401685 -0.0013325601687433342 0 -0.0014015503405665165 -0.0011370917568228722 0 -0.0017868991795814597 -0.0012933157507639343 0 -0.0016121980502321563 -0.0013656313426676176 0 -0.0018092516565213616 -0.0014300565434673088 0 -0.0019365582893401685 -0.0013325601687433342 0 -0.0059555954363978737 -0.0017766301459504709 0 -0.006183103379524317 -0.001904836468683525 0 -0.0063003587317242158 -0.0016171674612737922 0 -0.006183103379524317 -0.001904836468683525 0 -0.006447913909002039 -0.0017759998176709963 0 -0.0063387589530085791 -0.002078927410339459 0 -0.006183103379524317 -0.001904836468683525 0 -0.0063003587317242158 -0.0016171674612737922 0 -0.006447913909002039 -0.0017759998176709963 0 -0.013310561842472205 0.00031237217672314561 0 -0.013440798207483739 -3.8747701089080467e-05 0 -0.013638786856179816 0.00016233259945641127 0 -0.013038637460592506 8.867583758431339e-05 0 -0.013310561842472205 0.00031237217672314561 0 -0.013440798207483739 -3.8747701089080467e-05 0 -0.0099666117022768133 -0.00079102707683422076 0 -0.010354088894249647 -0.00058023975209043482 0 -0.0063003587317242158 -0.0016171674612737922 0 -0.006447913909002039 -0.0017759998176709963 0 -0.0066372344738628592 -0.0014646660016887358 0 -0.006447913909002039 -0.0017759998176709963 0 -0.0067319018089514356 -0.0017688473484834156 0 -0.0066372344738628592 -0.0014646660016887358 0 -0.013440798207483739 -3.8747701089080467e-05 0 -0.013638786856179816 0.00016233259945641127 0 -0.013837666027516815 0.00023548965327464149 0 -0.0037034792465462326 -0.0010667942375867736 0 -0.0029729426878907176 -0.0014721606596929642 0 -0.00019956516980881319 -0.0004787861656196272 0 -0.00014087605500044505 -0.00068230398826801028 0 0.00030783777576094169 -0.00083867548307060835 0 -0.006447913909002039 -0.0017759998176709963 0 -0.0067319018089514356 -0.0017688473484834156 0 -0.0063387589530085791 -0.002078927410339459 0 -0.00019956516980881319 -0.0004787861656196272 0 -0.00014087605500044505 -0.00068230398826801028 0 -0.00073904440625825632 -0.0005320087803768939 0 -0.0067319018089514356 -0.0017688473484834156 0 -0.0066372344738628592 -0.0014646660016887358 0 -0.006839855463239103 -0.00151641033848052 0 -0.00095429779491492317 4.9885179205534778e-05 0 -0.00019956516980881319 -0.0004787861656196272 0 -0.00073904440625825632 -0.0005320087803768939 0 -0.0070500404297401528 -0.00150026774841803 0 -0.0067319018089514356 -0.0017688473484834156 0 -0.006839855463239103 -0.00151641033848052 0 -0.002830595126790784 -0.00078446582900755903 0 -0.0037034792465462326 -0.0010667942375867736 0 -0.00092725999268043562 -0.00093470391342864744 0 -0.00014087605500044505 -0.00068230398826801028 0 -0.00073904440625825632 -0.0005320087803768939 0 -0.00066575986829732806 -0.00090960121374858796 0 -0.00038597168551966478 -0.00095759532069809264 0 -0.00054912371296579035 -0.001246747152980252 0 -0.00038597168551966478 -0.00095759532069809264 0 -0.00054912371296579035 -0.001246747152980252 0 -8.5383978377802283e-05 -0.00084438273858983249 0 -0.00066575986829732806 -0.00090960121374858796 0 -0.00014087605500044505 -0.00068230398826801028 0 -0.00038597168551966478 -0.00095759532069809264 0 -0.00045794743882983038 -0.0011425687653521524 0 -0.00010615260163042938 -0.00086845419085433164 0 -0.00078665819907718386 -0.00091586556910292361 0 -0.00017307491113847644 -0.00070333555569415532 0 -0.00036922629174402689 -0.0010538124430597312 0 -7.9329705848608063e-05 -0.001079451738589265 0 -0.00015809855082872995 -0.0012657778166502373 0 -0.00036922629174402689 -0.0010538124430597312 0 -7.9329705848608063e-05 -0.001079451738589265 0 -8.5383978377802283e-05 -0.00084438273858983249 0 -7.9329705848608063e-05 -0.001079451738589265 0 0.00011934549048267325 -0.0012308112828873217 0 -0.00015809855082872995 -0.0012657778166502373 0 -7.9329705848608063e-05 -0.001079451738589265 0 -8.5383978377802283e-05 -0.00084438273858983249 0 0.00012254484207023023 -0.0010133738599475549 0 -0.00014087605500044505 -0.00068230398826801028 0 -0.00038597168551966478 -0.00095759532069809264 0 -8.5383978377802283e-05 -0.00084438273858983249 0 -0.00014087605500044505 -0.00068230398826801028 0 -8.5383978377802283e-05 -0.00084438273858983249 0 0.00030783777576094169 -0.00083867548307060835 0 -8.5383978377802283e-05 -0.00084438273858983249 0 0.00012254484207023023 -0.0010133738599475549 0 0.00030783777576094169 -0.00083867548307060835 0 0.00012254484207023023 -0.0010133738599475549 0 0.00034746639661040982 -0.0010960446364144561 0 0.00030783777576094169 -0.00083867548307060835 0 0.00034746639661040982 -0.0010960446364144561 0 0.00044702387853724822 -0.0012847853265832011 0 0.00011934549048267325 -0.0012308112828873217 0 -7.9329705848608063e-05 -0.001079451738589265 0 0.00012254484207023023 -0.0010133738599475549 0 0.00011934549048267325 -0.0012308112828873217 0 0.00012254484207023023 -0.0010133738599475549 0 0.00034746639661040982 -0.0010960446364144561 0 0.00011934549048267325 -0.0012308112828873217 0 0.00071323733936258158 -0.0011088078354537804 0 0.00034746639661040982 -0.0010960446364144561 0 0.00030783777576094169 -0.00083867548307060835 0 0.00071323733936258158 -0.0011088078354537804 0 0.00034746639661040982 -0.0010960446364144561 0 0.00044702387853724822 -0.0012847853265832011 0 -0.0060300527741935636 -0.0021531181669893541 0 -0.006183103379524317 -0.001904836468683525 0 -0.0063387589530085791 -0.002078927410339459 0 -0.0025994910549958501 -0.0017040034040525923 0 -0.0029729426878907176 -0.0014721606596929642 0 -0.0060300527741935636 -0.0021531181669893541 0 -0.0059685197011447684 -0.0022941668728282895 0 -0.0063387589530085791 -0.002078927410339459 0 0.00047047424478921789 -0.0015993717717770904 0 0.00058039164510891267 -0.0014567921636195983 0 0.00024852853521115147 -0.0014732977671892843 0 0.00069592897919914186 -0.0016099901336925897 0 0.00047047424478921789 -0.0015993717717770904 0 0.00058039164510891267 -0.0014567921636195983 0 0.00075212028842443711 -0.0013581491082209664 0 0.00058039164510891267 -0.0014567921636195983 0 0.00044702387853724822 -0.0012847853265832011 0 0.00058039164510891267 -0.0014567921636195983 0 0.00044702387853724822 -0.0012847853265832011 0 0.00024852853521115147 -0.0014732977671892843 0 0.00011934549048267325 -0.0012308112828873217 0 0.00024852853521115147 -0.0014732977671892843 0 -6.472208405167409e-05 -0.0014508513238959632 0 0.00044702387853724822 -0.0012847853265832011 0 0.00011934549048267325 -0.0012308112828873217 0 0.00024852853521115147 -0.0014732977671892843 0 0.00047047424478921789 -0.0015993717717770904 0 0.00024852853521115147 -0.0014732977671892843 0 0.00023414204422541772 -0.0017014447437242429 0 0.00024852853521115147 -0.0014732977671892843 0 0.00023414204422541772 -0.0017014447437242429 0 1.0324930663199647e-05 -0.0016635271817870604 0 0.00024852853521115147 -0.0014732977671892843 0 1.0324930663199647e-05 -0.0016635271817870604 0 -6.472208405167409e-05 -0.0014508513238959632 0 1.0324930663199647e-05 -0.0016635271817870604 0 -6.472208405167409e-05 -0.0014508513238959632 0 -0.00028288095465547891 -0.0016896803402838985 0 0.00011934549048267325 -0.0012308112828873217 0 -6.472208405167409e-05 -0.0014508513238959632 0 -0.00015809855082872995 -0.0012657778166502373 0 -6.472208405167409e-05 -0.0014508513238959632 0 -0.00015809855082872995 -0.0012657778166502373 0 -0.00037048741363489328 -0.0014144454564694476 0 -0.00036922629174402689 -0.0010538124430597312 0 -0.00015809855082872995 -0.0012657778166502373 0 -0.00037048741363489328 -0.0014144454564694476 0 -0.00037048741363489328 -0.0014144454564694476 0 -0.00028288095465547891 -0.0016896803402838985 0 -0.00066197971026917479 -0.0016508067353060223 0 -6.472208405167409e-05 -0.0014508513238959632 0 -0.00037048741363489328 -0.0014144454564694476 0 -0.00028288095465547891 -0.0016896803402838985 0 -0.00028288095465547891 -0.0016896803402838985 0 -0.00029349878424207493 -0.001943580464965747 0 -0.00054265004018558781 -0.0018772039121042849 0 -0.00028288095465547891 -0.0016896803402838985 0 -0.00029349878424207493 -0.001943580464965747 0 -0.0001192916969749908 -0.0018302658279705456 0 -0.00029349878424207493 -0.001943580464965747 0 -0.00028254112971014034 -0.0021173580996461171 0 -0.00057977079110953754 -0.0021014393338620071 0 -0.00029349878424207493 -0.001943580464965747 0 -0.00028254112971014034 -0.0021173580996461171 0 -8.2992787540284743e-05 -0.00200985303830981 0 -0.00025403328582897905 -0.0019600900196521066 0 -7.376400849834582e-05 -0.0020299674264157453 0 -0.00028254112971014034 -0.0021173580996461171 0 -8.2992787540284743e-05 -0.00200985303830981 0 -0.00011843381475384285 -0.0022315658844038705 0 -8.2992787540284743e-05 -0.00200985303830981 0 0.00012463422789486293 -0.0020866611136678231 0 -0.00011843381475384285 -0.0022315658844038705 0 -2.2395500026163102e-05 -0.0020727371460119593 0 -0.0001192916969749908 -0.0018302658279705456 0 0.00011017249294457997 -0.001878153159898007 0 1.0324930663199647e-05 -0.0016635271817870604 0 -0.00028288095465547891 -0.0016896803402838985 0 -0.0001192916969749908 -0.0018302658279705456 0 -0.00029349878424207493 -0.001943580464965747 0 -2.2395500026163102e-05 -0.0020727371460119593 0 -0.0001192916969749908 -0.0018302658279705456 0 1.0324930663199647e-05 -0.0016635271817870604 0 -0.0001192916969749908 -0.0018302658279705456 0 0.00011017249294457997 -0.001878153159898007 0 0.00035502143512203591 -0.0019110671558337181 0 0.00011017249294457997 -0.001878153159898007 0 0.00025951674752459447 -0.0021880880692355742 0 0.00023414204422541772 -0.0017014447437242429 0 1.0324930663199647e-05 -0.0016635271817870604 0 0.00011017249294457997 -0.001878153159898007 0 0.00047047424478921789 -0.0015993717717770904 0 0.00023414204422541772 -0.0017014447437242429 0 0.00035502143512203591 -0.0019110671558337181 0 0.00023414204422541772 -0.0017014447437242429 0 0.00035502143512203591 -0.0019110671558337181 0 0.00011017249294457997 -0.001878153159898007 0 -7.376400849834582e-05 -0.0020299674264157453 0 0.00035521422532730821 -0.002056164704841964 0 0.00045525044854413926 -0.0017550726451938776 0 0.00038197724734290926 -0.0019910376326690393 0 0.00050981682124613659 -0.0020410030243768608 0 -2.2395500026163102e-05 -0.0020727371460119593 0 0.00011017249294457997 -0.001878153159898007 0 0.00025951674752459447 -0.0021880880692355742 0 0.00035521422532730821 -0.002056164704841964 0 0.0010138573181936335 -0.0019509482602523534 0 0.00040328708719937506 -0.0018341534580467232 0 0.00035521422532730821 -0.002056164704841964 0 0.00060772978693070657 -0.0017887782261722129 0 0.0010138573181936335 -0.0019509482602523534 0 0.00071834289865793015 -0.0017297048067189855 0 0.00045525044854413926 -0.0017550726451938776 0 0.00050981682124613659 -0.0020410030243768608 0 0.00071834289865793015 -0.0017297048067189855 0 0.00078916873643910027 -0.0018266590766310245 0 0.00067710187849414803 -0.0018633190246194996 0 0.00078916873643910027 -0.0018266590766310245 0 0.00067710187849414803 -0.0018633190246194996 0 0.00089940659915305535 -0.0019179799951582011 0 0.00071834289865793015 -0.0017297048067189855 0 0.00047047424478921789 -0.0015993717717770904 0 0.00045525044854413926 -0.0017550726451938776 0 0.00046607620415762765 -0.0016242685427119744 0 0.00040328708719937506 -0.0018341534580467232 0 0.00069592897919914186 -0.0016099901336925897 0 0.00071834289865793015 -0.0017297048067189855 0 0.00047047424478921789 -0.0015993717717770904 0 -0.0011452300275152879 -0.0016452730165660079 0 -0.001321219053722619 -0.0017932037938110823 0 -0.00091546166289788677 -0.0018991699763232989 0 -0.0011452300275152879 -0.0016452730165660079 0 -0.001321219053722619 -0.0017932037938110823 0 -0.0014504921517117914 -0.0015646309550935813 0 -0.0012237747574360862 -0.0014534750081227942 0 -0.0011452300275152879 -0.0016452730165660079 0 -0.0014504921517117914 -0.0015646309550935813 0 -0.0011290354085119606 -0.0016276697484326288 0 -0.00085105421689459925 -0.0014164475840885407 0 -0.0012237747574360862 -0.0014534750081227942 0 -0.0011452300275152879 -0.0016452730165660079 0 -0.00096480555739423201 -0.0015213248938875188 0 -0.00037048741363489328 -0.0014144454564694476 0 -0.00073942175359410973 -0.0013026163930850046 0 -0.00066197971026917479 -0.0016508067353060223 0 -0.00036922629174402689 -0.0010538124430597312 0 -0.00037048741363489328 -0.0014144454564694476 0 -0.00073942175359410973 -0.0013026163930850046 0 -0.0011452300275152879 -0.0016452730165660079 0 -0.00066197971026917479 -0.0016508067353060223 0 -0.00091546166289788677 -0.0018991699763232989 0 -0.0011452300275152879 -0.0016452730165660079 0 -0.00073942175359410973 -0.0013026163930850046 0 -0.00066197971026917479 -0.0016508067353060223 0 -0.00066197971026917479 -0.0016508067353060223 0 -0.00091546166289788677 -0.0018991699763232989 0 -0.00054265004018558781 -0.0018772039121042849 0 -0.00028288095465547891 -0.0016896803402838985 0 -0.00066197971026917479 -0.0016508067353060223 0 -0.00054265004018558781 -0.0018772039121042849 0 -0.00029349878424207493 -0.001943580464965747 0 -0.00054265004018558781 -0.0018772039121042849 0 -0.00057977079110953754 -0.0021014393338620071 0 -0.00091546166289788677 -0.0018991699763232989 0 -0.00054265004018558781 -0.0018772039121042849 0 -0.00057977079110953754 -0.0021014393338620071 0 -0.00091546166289788677 -0.0018991699763232989 0 -0.00057977079110953754 -0.0021014393338620071 0 -0.00088035334257755796 -0.0021494065516777026 0 -0.001125436115879921 -0.0019937984203953047 0 -0.00088035334257755796 -0.0021494065516777026 0 -0.0010439269664131161 -0.0021718780504244115 0 -0.00091546166289788677 -0.0018991699763232989 0 -0.001125436115879921 -0.0019937984203953047 0 -0.00088035334257755796 -0.0021494065516777026 0 -0.001321219053722619 -0.0017932037938110823 0 -0.00091546166289788677 -0.0018991699763232989 0 -0.001125436115879921 -0.0019937984203953047 0 -0.001321219053722619 -0.0017932037938110823 0 -0.001125436115879921 -0.0019937984203953047 0 -0.0012190900961224515 -0.0020041807203133753 0 -0.001125436115879921 -0.0019937984203953047 0 -0.001145662739708521 -0.002100369988362715 0 -0.0010439269664131161 -0.0021718780504244115 0 -0.001125436115879921 -0.0019937984203953047 0 -0.0012190900961224515 -0.0020041807203133753 0 -0.001145662739708521 -0.002100369988362715 0 -0.0012190900961224515 -0.0020041807203133753 0 -0.0015228252831408322 -0.0019301004438410879 0 -0.0011565170258658046 -0.0020426822785790427 0 -0.00021225400066850618 -0.0025635105694260525 0 -0.00034901542450080277 -0.0023112412124785815 0 0.0011204544806713696 -0.0032243825713714684 0 0.0011576496346937151 -0.0028351802001035575 0 0.00047872028141397521 -0.0027089605333498641 0 -0.0012190900961224515 -0.0020041807203133753 0 -0.001482532475623027 -0.0018117384583981092 0 -0.0015228252831408322 -0.0019301004438410879 0 -0.001321219053722619 -0.0017932037938110823 0 -0.0012190900961224515 -0.0020041807203133753 0 -0.001482532475623027 -0.0018117384583981092 0 0.0016192319513281652 -0.0031619614496484539 0 0.0011576496346937151 -0.0028351802001035575 0 0.0018184885625589081 -0.0027582916738780852 0 0.0016192319513281652 -0.0031619614496484539 0 0.0011204544806713696 -0.0032243825713714684 0 0.0011576496346937151 -0.0028351802001035575 0 0.0016192319513281652 -0.0031619614496484539 0 0.0011204544806713696 -0.0032243825713714684 0 0.0014450827897459009 -0.0035484477758952427 0 -0.00021225400066850618 -0.0025635105694260525 0 -0.00015544986762331905 -0.0026394169583149395 0 -0.001482532475623027 -0.0018117384583981092 0 -0.0015228252831408322 -0.0019301004438410879 0 -0.0017440240271178241 -0.0017407974148425697 0 0.0016192319513281652 -0.0031619614496484539 0 0.0014450827897459009 -0.0035484477758952427 0 0.0018443297459164491 -0.0033258413262945282 0 -0.0017440240271178241 -0.0017407974148425697 0 -0.0017466728306813383 -0.001604124456394154 0 -0.0015726159927616291 -0.0016351082198915652 0 0.0014450827897459009 -0.0035484477758952427 0 0.0018143999263870801 -0.0036325032118235991 0 0.0018443297459164491 -0.0033258413262945282 0 -0.0017440240271178241 -0.0017407974148425697 0 -0.0017466728306813383 -0.001604124456394154 0 -0.0018541590179415742 -0.0016267328450712572 0 -0.00015544986762331905 -0.0026394169583149395 0 -0.00010689207927373202 -0.002751426508715639 0 0.0014450827897459009 -0.0035484477758952427 0 0.0016247007761050862 -0.0038658636775530993 0 0.0018143999263870801 -0.0036325032118235991 0 -0.001482532475623027 -0.0018117384583981092 0 -0.0017440240271178241 -0.0017407974148425697 0 -0.0015726159927616291 -0.0016351082198915652 0 -0.001321219053722619 -0.0017932037938110823 0 -0.001482532475623027 -0.0018117384583981092 0 -0.0015726159927616291 -0.0016351082198915652 0 -0.001321219053722619 -0.0017932037938110823 0 -0.0014504921517117914 -0.0015646309550935813 0 -0.0015726159927616291 -0.0016351082198915652 0 -0.0017466728306813383 -0.001604124456394154 0 -0.0015726159927616291 -0.0016351082198915652 0 -0.0016649526221609984 -0.0015132853609606924 0 -0.0014504921517117914 -0.0015646309550935813 0 -0.0015726159927616291 -0.0016351082198915652 0 -0.0016649526221609984 -0.0015132853609606924 0 -0.0016121980502321563 -0.0013656313426676176 0 -0.0016649526221609984 -0.0015132853609606924 0 -0.001746917472121981 -0.0014788391817118882 0 -0.0016649526221609984 -0.0015132853609606924 0 -0.001746917472121981 -0.0014788391817118882 0 -0.0017986082202226372 -0.001539535224370153 0 -0.0017734712008230175 -0.0014598025528998716 0 -0.001746917472121981 -0.0014788391817118882 0 -0.0018292491542662506 -0.0015154752631033864 0 -0.001746917472121981 -0.0014788391817118882 0 -0.0017986082202226372 -0.001539535224370153 0 -0.0018312884533856035 -0.0015409257353638007 0 -0.0017466728306813383 -0.001604124456394154 0 -0.0016649526221609984 -0.0015132853609606924 0 -0.0017986082202226372 -0.001539535224370153 0 -0.0017466728306813383 -0.001604124456394154 0 -0.0018282602686615832 -0.001581962833370473 0 -0.0018541590179415742 -0.0016267328450712572 0 -0.0017466728306813383 -0.001604124456394154 0 -0.0017986082202226372 -0.001539535224370153 0 -0.0018282602686615832 -0.001581962833370473 0 -0.0018282602686615832 -0.001581962833370473 0 -0.0018541590179415742 -0.0016267328450712572 0 -0.0019179406653074219 -0.0016036098061307793 0 -0.0018282602686615832 -0.001581962833370473 0 -0.0018975433597609168 -0.0015877209924992884 0 -0.0019179406653074219 -0.0016036098061307793 0 -0.0017986082202226372 -0.001539535224370153 0 -0.0018282602686615832 -0.001581962833370473 0 -0.0018975433597609168 -0.0015877209924992884 0 -0.0017986082202226372 -0.001539535224370153 0 -0.0018975433597609168 -0.0015877209924992884 0 -0.0018806591628255458 -0.001579421595107934 0 -0.0018975433597609168 -0.0015877209924992884 0 -0.0019755535035164058 -0.0016362824765345982 0 -0.0018806591628255458 -0.001579421595107934 0 -0.0018975433597609168 -0.0015877209924992884 0 -0.0019755535035164058 -0.0016362824765345982 0 -0.0019671965192094745 -0.0016242804853850725 0 -0.0018975433597609168 -0.0015877209924992884 0 -0.0019671965192094745 -0.0016242804853850725 0 -0.0019179406653074219 -0.0016036098061307793 0 -0.0020466697512384318 -0.0016780449492140438 0 -0.0019755535035164058 -0.0016362824765345982 0 -0.0019671965192094745 -0.0016242804853850725 0 -0.0021073412548553165 -0.0017179687770378605 0 -0.0020466697512384318 -0.0016780449492140438 0 -0.0019755535035164058 -0.0016362824765345982 0 -0.0019722910179189833 -0.0016533179720404562 0 -0.0019755535035164058 -0.0016362824765345982 0 -0.0019005386584180859 -0.0015969461621042193 0 -0.0019755535035164058 -0.0016362824765345982 0 -0.0019005386584180859 -0.0015969461621042193 0 -0.0018806591628255458 -0.001579421595107934 0 -0.0019005386584180859 -0.0015969461621042193 0 -0.0018769851601012917 -0.0015654912772342777 0 -0.0018312884533856035 -0.0015409257353638007 0 -0.001913204582923822 -0.0016068286569577983 0 -0.0019228615516261962 -0.0015834804509212519 0 -0.0018769851601012917 -0.0015654912772342777 0 -0.001913204582923822 -0.0016068286569577983 0 -0.0019005386584180859 -0.0015969461621042193 0 -0.0018769851601012917 -0.0015654912772342777 0 -0.0019182450853795438 -0.00154908123742036 0 -0.0019228615516261962 -0.0015834804509212519 0 -0.0018769851601012917 -0.0015654912772342777 0 -0.0019182450853795438 -0.00154908123742036 0 -0.0018769851601012917 -0.0015654912772342777 0 -0.0018292491542662506 -0.0015154752631033864 0 -0.0018769851601012917 -0.0015654912772342777 0 -0.0018292491542662506 -0.0015154752631033864 0 -0.0018312884533856035 -0.0015409257353638007 0 -0.001746917472121981 -0.0014788391817118882 0 -0.0018292491542662506 -0.0015154752631033864 0 -0.0018312884533856035 -0.0015409257353638007 0 -0.0017986082202226372 -0.001539535224370153 0 -0.0018312884533856035 -0.0015409257353638007 0 -0.0018806591628255458 -0.001579421595107934 0 -0.0019005386584180859 -0.0015969461621042193 0 -0.0018312884533856035 -0.0015409257353638007 0 -0.0018806591628255458 -0.001579421595107934 0 0.0021796539959240452 -0.0043312092111065931 0 0.0021335801788183516 -0.0045849659097332018 0 0.0019467989914007608 -0.0045112764387565995 0 0.0021796539959240452 -0.0043312092111065931 0 0.0023102962405056747 -0.0045285994918446365 0 0.0021335801788183516 -0.0045849659097332018 0 0.0021796539959240452 -0.0043312092111065931 0 0.0024469441298021473 -0.004353749840731223 0 0.0023102962405056747 -0.0045285994918446365 0 0.0024565983273622275 -0.0046433638825862317 0 0.0024469441298021473 -0.004353749840731223 0 0.0023102962405056747 -0.0045285994918446365 0 0.0024565983273622275 -0.0046433638825862317 0 0.0022648210599774824 -0.0047130692857639215 0 0.0023102962405056747 -0.0045285994918446365 0 -0.0015691127794741522 -0.0053163901764997938 0 -0.0021727725027086801 -0.0054265927904595277 0 0.0022648210599774824 -0.0047130692857639215 0 0.0023102962405056747 -0.0045285994918446365 0 0.0021335801788183516 -0.0045849659097332018 0 0.0020516727665682161 -0.0047790153974781816 0 0.0021335801788183516 -0.0045849659097332018 0 0.0019467989914007608 -0.0045112764387565995 0 -0.0018556622895159801 -0.0017790988086013974 0 -0.0019269473183836307 -0.0016396160779460647 0 -0.0019939400722866749 -0.0016937175456562051 0 -0.0029052429783103682 -0.0040358640229452994 0 0.00040897189647229028 -0.0030519894634453283 0 -0.0019269473183836307 -0.0016396160779460647 0 -0.0019939400722866749 -0.0016937175456562051 0 -0.0019671965192094745 -0.0016242804853850725 0 -0.0020466697512384318 -0.0016780449492140438 0 -0.0019939400722866749 -0.0016937175456562051 0 -0.0019671965192094745 -0.0016242804853850725 0 0.00040897189647229028 -0.0030519894634453283 0 -0.00011732766248845218 -0.0028919183146520894 0 -0.0019269473183836307 -0.0016396160779460647 0 -0.0019671965192094745 -0.0016242804853850725 0 -0.0019179406653074219 -0.0016036098061307793 0 0.0021796539959240452 -0.0043312092111065931 0 0.0019467989914007608 -0.0045112764387565995 0 0.0017950077469090569 -0.0042078085545251588 0 0.0021796539959240452 -0.0043312092111065931 0 0.0017950077469090569 -0.0042078085545251588 0 0.0020466356786654682 -0.0039271097800614762 0 0.0016247007761050862 -0.0038658636775530993 0 0.0017950077469090569 -0.0042078085545251588 0 0.0020466356786654682 -0.0039271097800614762 0 -0.00010689207927373202 -0.002751426508715639 0 -0.00011732766248845218 -0.0028919183146520894 0 0.0020466356786654682 -0.0039271097800614762 0 0.0024792418263427768 -0.0040527653649419532 0 0.0024162142176760723 -0.0037437151662242001 0 0.0021796539959240452 -0.0043312092111065931 0 0.0020466356786654682 -0.0039271097800614762 0 0.0024792418263427768 -0.0040527653649419532 0 0.0030641685828066722 -0.0045826095837157438 0 0.0023352414155814382 -0.0040275897029380045 0 0.0021796539959240452 -0.0043312092111065931 0 0.0024469441298021473 -0.004353749840731223 0 0.0024792418263427768 -0.0040527653649419532 0 0.0028196944317313045 -0.0039756481967053361 0 0.0026198941688420981 -0.0047088395105843676 0 0.0024792418263427768 -0.0040527653649419532 0 0.0028196944317313045 -0.0039756481967053361 0 0.0024792418263427768 -0.0040527653649419532 0 0.0024162142176760723 -0.0037437151662242001 0 0.0028196944317313045 -0.0039756481967053361 0 0.0029387023371430982 -0.0035436385823203295 0 0.0024162142176760723 -0.0037437151662242001 0 0.0020466356786654682 -0.0039271097800614762 0 0.0024162142176760723 -0.0037437151662242001 0 0.0021181250478990313 -0.0035760854724951213 0 0.0024162142176760723 -0.0037437151662242001 0 0.0024468730030117194 -0.0033473281411765159 0 0.0021181250478990313 -0.0035760854724951213 0 0.0024468730030117194 -0.0033473281411765159 0 0.0021181250478990313 -0.0035760854724951213 0 0.0021560076738730287 -0.0032300847249421873 0 0.0029387023371430982 -0.0035436385823203295 0 0.0028805671592906793 -0.0030241035996340059 0 0.0024468730030117194 -0.0033473281411765159 0 0.0029387023371430982 -0.0035436385823203295 0 0.0024162142176760723 -0.0037437151662242001 0 0.0024468730030117194 -0.0033473281411765159 0 0.0016247007761050862 -0.0038658636775530993 0 0.0020466356786654682 -0.0039271097800614762 0 0.0018143999263870801 -0.0036325032118235991 0 0.0020466356786654682 -0.0039271097800614762 0 0.0018143999263870801 -0.0036325032118235991 0 0.0021181250478990313 -0.0035760854724951213 0 0.0021181250478990313 -0.0035760854724951213 0 0.0018443297459164491 -0.0033258413262945282 0 0.0021560076738730287 -0.0032300847249421873 0 0.0018143999263870801 -0.0036325032118235991 0 0.0021181250478990313 -0.0035760854724951213 0 0.0018443297459164491 -0.0033258413262945282 0 0.0018443297459164491 -0.0033258413262945282 0 0.0021560076738730287 -0.0032300847249421873 0 0.002058702942477124 -0.0029189561408170792 0 0.00240616997896513 -0.0028972223669070049 0 0.0028089088870504341 -0.0029580554715328269 0 0.0021560076738730287 -0.0032300847249421873 0 0.002058702942477124 -0.0029189561408170792 0 0.0023994503331655113 -0.0029870608057813233 0 0.0016192319513281652 -0.0031619614496484539 0 0.0018443297459164491 -0.0033258413262945282 0 0.002058702942477124 -0.0029189561408170792 0 0.0016192319513281652 -0.0031619614496484539 0 0.002058702942477124 -0.0029189561408170792 0 0.0018184885625589081 -0.0027582916738780852 0 0.0031941297051589425 -0.0030198197007330432 0 0.0028089088870504341 -0.0029580554715328269 0 0.0028805671592906793 -0.0030241035996340059 0 0.0024468730030117194 -0.0033473281411765159 0 0.0023994503331655113 -0.0029870608057813233 0 0.0024468730030117194 -0.0033473281411765159 0 0.0021560076738730287 -0.0032300847249421873 0 0.0023994503331655113 -0.0029870608057813233 0 0.0027990124781013307 -0.0028905796678249237 0 0.0032107590839379717 -0.0029291719785406634 0 0.0032149920422332849 -0.0025150122453309149 0 0.0034872805139797352 -0.0029917320591897932 0 0.0032107590839379717 -0.0029291719785406634 0 0.0034284564555307384 -0.0027824060466415355 0 0.0032107590839379717 -0.0029291719785406634 0 0.0034284564555307384 -0.0027824060466415355 0 0.0032149920422332849 -0.0025150122453309149 0 0.0034284564555307384 -0.0027824060466415355 0 0.0032149920422332849 -0.0025150122453309149 0 0.0035423835470190417 -0.0025233352861128767 0 0.0032149920422332849 -0.0025150122453309149 0 0.0034442364157009535 -0.0022766604473273598 0 0.0032019298973837663 -0.0020727289058580407 0 0.0032149920422332849 -0.0025150122453309149 0 0.0027600640360092277 -0.0022596132489531239 0 0.0032019298973837663 -0.0020727289058580407 0 0.0032149920422332849 -0.0025150122453309149 0 0.0034442364157009535 -0.0022766604473273598 0 0.0035423835470190417 -0.0025233352861128767 0 0.0027990124781013307 -0.0028905796678249237 0 0.0027600640360092277 -0.0022596132489531239 0 0.0018184885625589081 -0.0027582916738780852 0 0.00240616997896513 -0.0028972223669070049 0 0.0018461384201701261 -0.0027560817431011662 0 0.0027990124781013307 -0.0028905796678249237 0 0.0032149920422332849 -0.0025150122453309149 0 0.0027600640360092277 -0.0022596132489531239 0 0.0027600640360092277 -0.0022596132489531239 0 0.0022608854721716167 -0.0016742721366971936 0 0.0018184885625589081 -0.0027582916738780852 0 0.0027600640360092277 -0.0022596132489531239 0 0.0022608854721716167 -0.0016742721366971936 0 0.0028182092591503669 -0.00085032863127887219 0 0.0027832943669026501 -0.0022136370613023829 0 0.0028169243276400641 -0.0014014058440405962 0 0.0022608854721716167 -0.0016742721366971936 0 0.0028182092591503669 -0.00085032863127887219 0 0.0021979256099387287 -0.000761093659492572 0 0.0027600640360092277 -0.0022596132489531239 0 0.0028353490534589135 -0.0019504079761483522 0 0.0032019298973837663 -0.0020727289058580407 0 0.0028353490534589135 -0.0019504079761483522 0 0.0032019298973837663 -0.0020727289058580407 0 0.0031996601729790881 -0.0017421514419899741 0 0.0028182092591503669 -0.00085032863127887219 0 0.002282909373330943 -5.7650971343453437e-05 0 0.0021979256099387287 -0.000761093659492572 0 0.0034442364157009535 -0.0022766604473273598 0 0.0032019298973837663 -0.0020727289058580407 0 0.0036090285032094652 -0.0020464339249314269 0 0.0032019298973837663 -0.0020727289058580407 0 0.0034642706116915028 -0.0017974471188313404 0 0.0031996601729790881 -0.0017421514419899741 0 0.0032019298973837663 -0.0020727289058580407 0 0.0034642706116915028 -0.0017974471188313404 0 0.0036090285032094652 -0.0020464339249314269 0 0.0034642706116915028 -0.0017974471188313404 0 0.0034186133745680064 -0.0015534965360373381 0 0.0037003291922171476 -0.001579885595828025 0 0.0034186133745680064 -0.0015534965360373381 0 0.0037003291922171476 -0.001579885595828025 0 0.0037236117716840447 -0.0012475575625741993 0 0.0034186133745680064 -0.0015534965360373381 0 0.0032346461657709932 -0.0014859496848518118 0 0.0033851754109316731 -0.0012916300362079693 0 0.0034642706116915028 -0.0017974471188313404 0 0.0034186133745680064 -0.0015534965360373381 0 0.0031996601729790881 -0.0017421514419899741 0 0.0034186133745680064 -0.0015534965360373381 0 0.0032346461657709932 -0.0014859496848518118 0 0.0031996601729790881 -0.0017421514419899741 0 0.0032346461657709932 -0.0014859496848518118 0 0.0031996601729790881 -0.0017421514419899741 0 0.003058166327022797 -0.0015901660888862242 0 0.0028353490534589135 -0.0019504079761483522 0 0.0031996601729790881 -0.0017421514419899741 0 0.003058166327022797 -0.0015901660888862242 0 0.0028169243276400641 -0.0014014058440405962 0 0.0027885720117482049 -0.00049360302635951994 0 0.0028353490534589135 -0.0019504079761483522 0 0.003058166327022797 -0.0015901660888862242 0 0.002848777199442949 -0.0015628794643678967 0 0.0028182092591503669 -0.00085032863127887219 0 0.0027376394698772717 0.00060275170236380828 0 0.002282909373330943 -5.7650971343453437e-05 0 0.0027885720117482049 -0.00049360302635951994 0 0.0027176888648480649 -0.00012966523170478988 0 0.0027376394698772717 0.00060275170236380828 0 0.0025881750288902303 0.00091715679559784945 0 0.0025519530963037328 0.00098969132582284354 0 0.0032346461657709932 -0.0014859496848518118 0 0.003058166327022797 -0.0015901660888862242 0 0.0030976331924777059 -0.0013268375806710824 0 0.003058166327022797 -0.0015901660888862242 0 0.002848777199442949 -0.0015628794643678967 0 0.0030976331924777059 -0.0013268375806710824 0 0.0030976331924777059 -0.0013268375806710824 0 0.003054855640516867 -0.001086456046485895 0 0.0032820351367364876 -0.0010617939215390524 0 0.0030976331924777059 -0.0013268375806710824 0 0.0028519895572307313 -0.0011553005008978967 0 0.003054855640516867 -0.001086456046485895 0 0.002848777199442949 -0.0015628794643678967 0 0.0030976331924777059 -0.0013268375806710824 0 0.0028519895572307313 -0.0011553005008978967 0 0.0028519895572307313 -0.0011553005008978967 0 0.0029639118814555332 -0.0009623902294086553 0 0.0028761988209195693 -0.00075791285582017971 0 0.0027176888648480649 -0.00012966523170478988 0 0.0029238575059551747 -0.00044448344471889915 0 0.0028519895572307313 -0.0011553005008978967 0 0.0029639118814555332 -0.0009623902294086553 0 0.003054855640516867 -0.001086456046485895 0 0.0029639118814555332 -0.0009623902294086553 0 0.003054855640516867 -0.001086456046485895 0 0.0031024639434358596 -0.00088204307271394727 0 0.003054855640516867 -0.001086456046485895 0 0.0032820351367364876 -0.0010617939215390524 0 0.0031024639434358596 -0.00088204307271394727 0 0.0032820351367364876 -0.0010617939215390524 0 0.0035440070089806245 -0.0011006827669655063 0 0.0033851754109316731 -0.0012916300362079693 0 0.0032820351367364876 -0.0010617939215390524 0 0.0035440070089806245 -0.0011006827669655063 0 0.003523465966473043 -0.00086448235820617985 0 0.0035440070089806245 -0.0011006827669655063 0 0.003523465966473043 -0.00086448235820617985 0 0.0038533090193987119 -0.00094297965355059519 0 0.0034186133745680064 -0.0015534965360373381 0 0.0033851754109316731 -0.0012916300362079693 0 0.0037236117716840447 -0.0012475575625741993 0 0.0035440070089806245 -0.0011006827669655063 0 0.0033851754109316731 -0.0012916300362079693 0 0.0037236117716840447 -0.0012475575625741993 0 0.0030976331924777059 -0.0013268375806710824 0 0.0032820351367364876 -0.0010617939215390524 0 0.0033851754109316731 -0.0012916300362079693 0 0.0032346461657709932 -0.0014859496848518118 0 0.0030976331924777059 -0.0013268375806710824 0 0.0033851754109316731 -0.0012916300362079693 0 0.00419589803764035 0.00079995206275816578 0 0.003762012909670012 0.00063239124581920142 0 0.0036254676597681683 0.0012909769242654932 0 0.00419589803764035 0.00079995206275816578 0 0.0045835881510066867 0.001280263482364823 0 0.0036254676597681683 0.0012909769242654932 0 0.0029554147835805949 0.00071869842975689092 0 0.002274482450183584 0.0012646861177332768 0 0.0048496947947190656 0.00058285327122532165 0 0.0049532501145833014 0.00010677869203038395 0 0.0051048309421842467 0.00034431578166265923 0 0.00419589803764035 0.00079995206275816578 0 0.0045835881510066867 0.001280263482364823 0 0.0047815451555947731 0.0004088279814693239 0 0.0029554147835805949 0.00071869842975689092 0 0.0050677062507928057 0.00025724750063014227 0 0.0029554147835805949 0.00071869842975689092 0 0.0035838589719966478 0.00026739053715111552 0 0.00419589803764035 0.00079995206275816578 0 0.0047815451555947731 0.0004088279814693239 0 0.0042729333206305287 0.00035440192735282963 0 0.00419589803764035 0.00079995206275816578 0 0.0042729333206305287 0.00035440192735282963 0 0.003762012909670012 0.00063239124581920142 0 0.0042729333206305287 0.00035440192735282963 0 0.003762012909670012 0.00063239124581920142 0 0.0038698622157900416 0.00024668100552854177 0 0.003762012909670012 0.00063239124581920142 0 0.0035101676422677171 0.00038367961938667075 0 0.0038698622157900416 0.00024668100552854177 0 0.0035101676422677171 0.00038367961938667075 0 0.0032298656593287766 0.00033188727996786113 0 0.003245182354735106 0.0006438414763598432 0 0.003762012909670012 0.00063239124581920142 0 0.0035101676422677171 0.00038367961938667075 0 0.003245182354735106 0.0006438414763598432 0 0.0025881750288902303 0.00091715679559784945 0 0.0029144305208430362 0.00048368571027063167 0 0.0027936565247386634 -9.5745532320506941e-05 0 0.0032298656593287766 0.00033188727996786113 0 0.003245182354735106 0.0006438414763598432 0 0.0029144305208430362 0.00048368571027063167 0 0.003245182354735106 0.0006438414763598432 0 0.0029144305208430362 0.00048368571027063167 0 0.0028499575007465694 0.00085824060541719546 0 0.0025881750288902303 0.00091715679559784945 0 0.0029144305208430362 0.00048368571027063167 0 0.0028499575007465694 0.00085824060541719546 0 0.0028499575007465694 0.00085824060541719546 0 0.0036254676597681683 0.0012909769242654932 0 0.0025519530963037328 0.00098969132582284354 0 0.0025881750288902303 0.00091715679559784945 0 0.0028499575007465694 0.00085824060541719546 0 0.0025519530963037328 0.00098969132582284354 0 0.003245182354735106 0.0006438414763598432 0 0.0028499575007465694 0.00085824060541719546 0 0.0036254676597681683 0.0012909769242654932 0 0.003762012909670012 0.00063239124581920142 0 0.003245182354735106 0.0006438414763598432 0 0.0036254676597681683 0.0012909769242654932 0 0.002274482450183584 0.0012646861177332768 0 0.0026163317723397568 0.0010270631698103534 0 0.0011837152785749941 0.0011771235004891468 0 0.0016104167237977116 0.00061875247139985608 0 0.00088391938527324966 0.00068766898904034149 0 0.0011837152785749941 0.0011771235004891468 0 0.0016104167237977116 0.00061875247139985608 0 0.0025519530963037328 0.00098969132582284354 0 0.0016104167237977116 0.00061875247139985608 0 0.0010803368027443405 0.00029466189182900522 0 0.00088391938527324966 0.00068766898904034149 0 0.0016104167237977116 0.00061875247139985608 0 0.0025519530963037328 0.00098969132582284354 0 0.0022923349669311836 0.00054171247157313251 0 0.0016104167237977116 0.00061875247139985608 0 0.0022923349669311836 0.00054171247157313251 0 0.0018466643948850325 0.00024108922187310341 0 0.0027376394698772717 0.00060275170236380828 0 0.0025519530963037328 0.00098969132582284354 0 0.0022923349669311836 0.00054171247157313251 0 0.0027376394698772717 0.00060275170236380828 0 0.0022923349669311836 0.00054171247157313251 0 0.002282909373330943 -5.7650971343453437e-05 0 0.0022923349669311836 0.00054171247157313251 0 0.0018466643948850325 0.00024108922187310341 0 0.002282909373330943 -5.7650971343453437e-05 0 0.0018466643948850325 0.00024108922187310341 0 0.002282909373330943 -5.7650971343453437e-05 0 0.0018201411497976009 -0.00037556100887252821 0 0.0014829621215275625 0.00027184708491302326 0 0.0013916505553578989 -7.3739130393108942e-05 0 0.0010803368027443405 0.00029466189182900522 0 0.0016104167237977116 0.00061875247139985608 0 0.0014829621215275625 0.00027184708491302326 0 0.0010803368027443405 0.00029466189182900522 0 0.0018466643948850325 0.00024108922187310341 0 0.0014829621215275625 0.00027184708491302326 0 0.0013916505553578989 -7.3739130393108942e-05 0 0.0016104167237977116 0.00061875247139985608 0 0.0018466643948850325 0.00024108922187310341 0 0.0014829621215275625 0.00027184708491302326 0 0.0018466643948850325 0.00024108922187310341 0 0.0013916505553578989 -7.3739130393108942e-05 0 0.0018201411497976009 -0.00037556100887252821 0 0.0013916505553578989 -7.3739130393108942e-05 0 0.0010674505078591614 -1.6436568049681129e-05 0 0.0010581494848153053 -0.0004282871424411045 0 0.0013916505553578989 -7.3739130393108942e-05 0 0.0010674505078591614 -1.6436568049681129e-05 0 0.0010803368027443405 0.00029466189182900522 0 0.00042660253130164791 0.00018742650703721045 0 0.000815545359744859 -0.00033526164302601091 0 0.0010581494848153053 -0.0004282871424411045 0 0.0010674505078591614 -1.6436568049681129e-05 0 0.0008481383033038508 0.00010013418419977524 0 0.0010581494848153053 -0.0004282871424411045 0 0.00043288458119628156 0.00043554500095136645 0 0.001043105266142798 -0.00043896483747464011 0 0.0008481383033038508 0.00010013418419977524 0 0.00040396420149019452 0.00024773871916274818 0 0.0010581494848153053 -0.0004282871424411045 0 0.00043288458119628156 0.00043554500095136645 0 0.00066182569533594746 -0.000308199255898779 0 9.1907251183304868e-05 -0.00011666824245751986 0 -5.9683823661988844e-05 0.00037310378007014873 0 0.00048465091499855743 -0.00024328272007154066 0 0.00065227963912131172 0.00042568097966538414 0 0.0008481383033038508 0.00010013418419977524 0 0.00040396420149019452 0.00024773871916274818 0 0.00065227963912131172 0.00042568097966538414 0 0.0008481383033038508 0.00010013418419977524 0 0.0010803368027443405 0.00029466189182900522 0 0.0010674505078591614 -1.6436568049681129e-05 0 0.0008481383033038508 0.00010013418419977524 0 0.0010803368027443405 0.00029466189182900522 0 0.00010305033064365351 0.0011924500487738197 0 0.0011837152785749941 0.0011771235004891468 0 0.00053023642180267082 0.00080673219349816573 0 0.00065227963912131172 0.00042568097966538414 0 0.0010803368027443405 0.00029466189182900522 0 0.00088391938527324966 0.00068766898904034149 0 0.00065227963912131172 0.00042568097966538414 0 0.00088391938527324966 0.00068766898904034149 0 0.00053023642180267082 0.00080673219349816573 0 0.00065227963912131172 0.00042568097966538414 0 0.00053023642180267082 0.00080673219349816573 0 0.00022643715690123692 0.00046968925491808319 0 0.0011837152785749941 0.0011771235004891468 0 0.00088391938527324966 0.00068766898904034149 0 0.00053023642180267082 0.00080673219349816573 0 0.0011644065294816248 0.0013365910552552592 0 0.0011356353333841652 0.001491665137878766 0 0.0031944617841880847 -0.00025416793391344486 0 0.00059187576093082709 0.00088539073423608426 0 0.0035838589719966478 0.00026739053715111552 0 0.00010305033064365351 0.0011924500487738197 0 0.00053023642180267082 0.00080673219349816573 0 0.00022643715690123692 0.00046968925491808319 0 0.0020874747084362491 0.00014367461506239356 0 0.0018601679679865187 0.0013552369113812033 0 0.0028860608493502726 0.00010337423119862276 0 0.0029554147835805949 0.00071869842975689092 0 0.00059187576093082709 0.00088539073423608426 0 -0.00025923520660132982 0.00038328910559087392 0 -0.00061805746533865095 -3.7866426405315763e-06 0 -0.0010740232922805087 0.00029563125425426042 0 -0.00024895984010316795 0.00054347354567895162 0 -5.9683823661988844e-05 0.00037310378007014873 0 -0.00013689058818817739 -0.00010724238314087615 0 0.00017972024939161762 0.00088078874426253384 0 -5.4001314279173995e-05 -7.4170696874960749e-05 0 0.00065227963912131172 0.00042568097966538414 0 0.00022643715690123692 0.00046968925491808319 0 0.00040396420149019452 0.00024773871916274818 0 0.00059187576093082709 0.00088539073423608426 0 0.00043288458119628156 0.00043554500095136645 0 0.00036250871885046244 0.00086846736104536097 0 0.00037654602363134071 0.00078989147070646559 0 0.00055090909653032782 0.00063476782394707588 0 0.00017972024939161762 0.00088078874426253384 0 0.00043288458119628156 0.00043554500095136645 0 0.00059187576093082709 0.00088539073423608426 0 0.00017972024939161762 0.00088078874426253384 0 -0.00025923520660132982 0.00038328910559087392 0 -0.00013689058818817739 -0.00010724238314087615 0 -0.00061805746533865095 -3.7866426405315763e-06 0 -0.00013689058818817739 -0.00010724238314087615 0 -0.00061805746533865095 -3.7866426405315763e-06 0 -0.00028844198717203391 -0.00042588866990099305 0 9.1907251183304868e-05 -0.00011666824245751986 0 -5.9683823661988844e-05 0.00037310378007014873 0 -0.00013689058818817739 -0.00010724238314087615 0 -0.00061805746533865095 -3.7866426405315763e-06 0 -0.00062828752399572804 -0.00045302817981042335 0 -0.00028844198717203391 -0.00042588866990099305 0 -0.00061805746533865095 -3.7866426405315763e-06 0 -0.00062828752399572804 -0.00045302817981042335 0 -0.00086946252055972108 -0.00030256223727052634 0 -0.00062828752399572804 -0.00045302817981042335 0 -0.00046513684704605146 -0.00086892162192149308 0 -0.00078678499080213934 -0.00067518357962269976 0 -0.00046513684704605146 -0.00086892162192149308 0 -0.00078678499080213934 -0.00067518357962269976 0 -0.00081325943983025977 -0.00115175303381981 0 -0.00062828752399572804 -0.00045302817981042335 0 -0.00046513684704605146 -0.00086892162192149308 0 -0.00028844198717203391 -0.00042588866990099305 0 -0.00046513684704605146 -0.00086892162192149308 0 -2.9770617498276437e-05 -0.00078135224878460655 0 -0.00028844198717203391 -0.00042588866990099305 0 -2.9770617498276437e-05 -0.00078135224878460655 0 -0.00028844198717203391 -0.00042588866990099305 0 8.1473043708769294e-05 -0.00047684143877615455 0 -0.00013689058818817739 -0.00010724238314087615 0 -0.00028844198717203391 -0.00042588866990099305 0 8.1473043708769294e-05 -0.00047684143877615455 0 9.1907251183304868e-05 -0.00011666824245751986 0 8.1473043708769294e-05 -0.00047684143877615455 0 0.00048465091499855743 -0.00024328272007154066 0 8.1473043708769294e-05 -0.00047684143877615455 0 0.00048465091499855743 -0.00024328272007154066 0 0.0004253536434201557 -0.00081457227140979379 0 9.1907251183304868e-05 -0.00011666824245751986 0 -0.00013689058818817739 -0.00010724238314087615 0 8.1473043708769294e-05 -0.00047684143877615455 0 0.000815545359744859 -0.00033526164302601091 0 0.0010581494848153053 -0.0004282871424411045 0 0.0011234187206172483 -0.000909566539049801 0 0.00048465091499855743 -0.00024328272007154066 0 0.0004253536434201557 -0.00081457227140979379 0 0.0011234187206172483 -0.000909566539049801 0 0.00066182569533594746 -0.000308199255898779 0 0.0010804848767768437 -0.00084499443830863739 0 -2.9770617498276437e-05 -0.00078135224878460655 0 8.1473043708769294e-05 -0.00047684143877615455 0 0.0004253536434201557 -0.00081457227140979379 0 -2.9770617498276437e-05 -0.00078135224878460655 0 0.0004253536434201557 -0.00081457227140979379 0 0.00010247062255712563 -0.0011781777729938812 0 0.00010247062255712563 -0.0011781777729938812 0 -0.00051028244398992428 -0.001698265275419024 0 0.00049140094154423734 -0.0018080510983250202 0 0.0004253536434201557 -0.00081457227140979379 0 0.00068791314255164926 -0.001221592187801748 0 0.0011234187206172483 -0.000909566539049801 0 0.0004253536434201557 -0.00081457227140979379 0 0.00010247062255712563 -0.0011781777729938812 0 0.00068791314255164926 -0.001221592187801748 0 0.00010247062255712563 -0.0011781777729938812 0 0.00068791314255164926 -0.001221592187801748 0 0.00049140094154423734 -0.0018080510983250202 0 0.00068791314255164926 -0.001221592187801748 0 0.0011010327527803379 -0.0015339286177067193 0 0.00049140094154423734 -0.0018080510983250202 0 -0.00046513684704605146 -0.00086892162192149308 0 0.00010247062255712563 -0.0011781777729938812 0 -0.00051028244398992428 -0.001698265275419024 0 -0.00046513684704605146 -0.00086892162192149308 0 -0.00051028244398992428 -0.001698265275419024 0 -0.00081325943983025977 -0.00115175303381981 0 -0.00051028244398992428 -0.001698265275419024 0 -0.00080851035623469725 -0.0015504905407249395 0 -0.00081325943983025977 -0.00115175303381981 0 -0.00051028244398992428 -0.001698265275419024 0 -0.00080851035623469725 -0.0015504905407249395 0 -0.00078421647019644484 -0.0017186564369687689 0 -0.00046513684704605146 -0.00086892162192149308 0 -2.9770617498276437e-05 -0.00078135224878460655 0 0.00010247062255712563 -0.0011781777729938812 0 0.002282909373330943 -5.7650971343453437e-05 0 0.0021979256099387287 -0.000761093659492572 0 0.0018201411497976009 -0.00037556100887252821 0 0.0021979256099387287 -0.000761093659492572 0 0.0018201411497976009 -0.00037556100887252821 0 0.0016606568745843849 -0.0010958694273242419 0 0.0018201411497976009 -0.00037556100887252821 0 0.0013873900284128711 -0.00056874254152413858 0 0.0016606568745843849 -0.0010958694273242419 0 0.0013873900284128711 -0.00056874254152413858 0 0.0011234187206172483 -0.000909566539049801 0 0.0016606568745843849 -0.0010958694273242419 0 0.0013916505553578989 -7.3739130393108942e-05 0 0.0018201411497976009 -0.00037556100887252821 0 0.0013873900284128711 -0.00056874254152413858 0 0.0013916505553578989 -7.3739130393108942e-05 0 0.0013873900284128711 -0.00056874254152413858 0 0.0010581494848153053 -0.0004282871424411045 0 0.0013873900284128711 -0.00056874254152413858 0 0.0010581494848153053 -0.0004282871424411045 0 0.0011234187206172483 -0.000909566539049801 0 0.0011010327527803379 -0.0015339286177067193 0 0.0016606568745843849 -0.0010958694273242419 0 0.0015929670570704469 -0.0018814708898533109 0 0.00068791314255164926 -0.001221592187801748 0 0.0011234187206172483 -0.000909566539049801 0 0.0011010327527803379 -0.0015339286177067193 0 0.0011234187206172483 -0.000909566539049801 0 0.0011010327527803379 -0.0015339286177067193 0 0.0016606568745843849 -0.0010958694273242419 0 0.0022608854721716167 -0.0016742721366971936 0 0.0016606568745843849 -0.0010958694273242419 0 0.0015929670570704469 -0.0018814708898533109 0 0.0022608854721716167 -0.0016742721366971936 0 0.0021979256099387287 -0.000761093659492572 0 0.0016606568745843849 -0.0010958694273242419 0 0.0022608854721716167 -0.0016742721366971936 0 0.0015929670570704469 -0.0018814708898533109 0 0.0018184885625589081 -0.0027582916738780852 0 0.0015929670570704469 -0.0018814708898533109 0 0.00097377505629951916 -0.0022357916157553248 0 0.0018184885625589081 -0.0027582916738780852 0 0.0011010327527803379 -0.0015339286177067193 0 0.0015929670570704469 -0.0018814708898533109 0 0.00097377505629951916 -0.0022357916157553248 0 0.0011010327527803379 -0.0015339286177067193 0 0.00097377505629951916 -0.0022357916157553248 0 0.00049140094154423734 -0.0018080510983250202 0 0.00097377505629951916 -0.0022357916157553248 0 0.0011576496346937151 -0.0028351802001035575 0 0.0018184885625589081 -0.0027582916738780852 0 -0.00054752223042412883 -0.0017005368262447682 0 -0.00034901542450080277 -0.0023112412124785815 0 -0.00051028244398992428 -0.001698265275419024 0 -0.00085141909422072602 -0.0018629150940161069 0 -0.00098329938468634439 -0.0019873091758971311 0 -0.00051028244398992428 -0.001698265275419024 0 -0.0011565170258658046 -0.0020426822785790427 0 -0.00098329938468634439 -0.0019873091758971311 0 -0.00051028244398992428 -0.001698265275419024 0 -0.00085141909422072602 -0.0018629150940161069 0 -0.00078421647019644484 -0.0017186564369687689 0 -0.00085141909422072602 -0.0018629150940161069 0 -0.00078421647019644484 -0.0017186564369687689 0 -0.00097006660619446215 -0.0017678271710257596 0 -0.00080851035623469725 -0.0015504905407249395 0 -0.00078421647019644484 -0.0017186564369687689 0 -0.00089187509886144267 -0.0016598161351349162 0 0.00097377505629951916 -0.0022357916157553248 0 0.00049140094154423734 -0.0018080510983250202 0 0.00047872028141397521 -0.0027089605333498641 0 -0.00051028244398992428 -0.001698265275419024 0 0.00049140094154423734 -0.0018080510983250202 0 0.00047872028141397521 -0.0027089605333498641 0 0.00097377505629951916 -0.0022357916157553248 0 0.0011576496346937151 -0.0028351802001035575 0 0.00047872028141397521 -0.0027089605333498641 0 -0.0012190900961224515 -0.0020041807203133753 0 -0.0011565170258658046 -0.0020426822785790427 0 -0.00098329938468634439 -0.0019873091758971311 0 -0.0011788424214035295 -0.0020418409357303392 0 -0.0011459862326987072 -0.0021061522952978496 0 -0.0012190900961224515 -0.0020041807203133753 0 -0.00098329938468634439 -0.0019873091758971311 0 -0.00098568650064176952 -0.0019968039866425195 0 -0.00085141909422072602 -0.0018629150940161069 0 -0.00098329938468634439 -0.0019873091758971311 0 -0.00098568650064176952 -0.0019968039866425195 0 -0.0012190900961224515 -0.0020041807203133753 0 -0.001145662739708521 -0.002100369988362715 0 -0.0012131882423518064 -0.0022272026321962153 0 -0.001145662739708521 -0.002100369988362715 0 -0.0011066720930407363 -0.0022573548187431211 0 -0.0010439269664131161 -0.0021718780504244115 0 -0.001145662739708521 -0.002100369988362715 0 -0.0011066720930407363 -0.0022573548187431211 0 -0.0012131882423518064 -0.0022272026321962153 0 -0.0011066720930407363 -0.0022573548187431211 0 -0.0012131882423518064 -0.0022272026321962153 0 -0.0011226256179094377 -0.002369554289823586 0 -0.0011459862326987072 -0.0021061522952978496 0 0.0011418222147891227 -0.0014364746563232593 0 -0.0012131882423518064 -0.0022272026321962153 0 -0.0011226256179094377 -0.002369554289823586 0 -0.0011273801761331581 -0.0024530820586015261 0 -0.00098568650064176952 -0.0019968039866425195 0 -0.00099850794085505168 -0.0017639851453776039 0 -0.00097006660619446215 -0.0017678271710257596 0 -0.00085141909422072602 -0.0018629150940161069 0 -0.00098568650064176952 -0.0019968039866425195 0 -0.00097006660619446215 -0.0017678271710257596 0 -0.0011066720930407363 -0.0022573548187431211 0 -0.0011226256179094377 -0.002369554289823586 0 -0.0009479253280968037 -0.0023866214407560764 0 -0.0011226256179094377 -0.002369554289823586 0 -0.0011269415039746001 -0.0024488978856575497 0 -0.0009479253280968037 -0.0023866214407560764 0 0.0011418222147891227 -0.0014364746563232593 0 0.0029285676558737329 -0.0012077928657735174 0 -0.0010874464185793426 -0.0017676185464913909 0 -0.0010256874611598869 -0.0016679347870637549 0 -0.0011534814009358156 -0.0016341007038201466 0 0.0011418222147891227 -0.0014364746563232593 0 0.00065447133284501739 -0.0014270671098785318 0 -0.0010874464185793426 -0.0017676185464913909 0 -0.00097006660619446215 -0.0017678271710257596 0 -0.0010256874611598869 -0.0016679347870637549 0 -0.00097006660619446215 -0.0017678271710257596 0 -0.0010256874611598869 -0.0016679347870637549 0 -0.00089187509886144267 -0.0016598161351349162 0 -0.00078421647019644484 -0.0017186564369687689 0 -0.00097006660619446215 -0.0017678271710257596 0 -0.00089187509886144267 -0.0016598161351349162 0 0.0003284604229725386 -0.0023128113928578531 0 0.0011418222147891227 -0.0014364746563232593 0 -0.0011269415039746001 -0.0024488978856575497 0 -0.0009479253280968037 -0.0023866214407560764 0 -0.0007913563592503582 -0.002515971432522733 0 0.0011418222147891227 -0.0014364746563232593 0 0.0024763774754443294 -0.002047324754634954 0 -0.0011066720930407363 -0.0022573548187431211 0 -0.0009479253280968037 -0.0023866214407560764 0 -0.0010439269664131161 -0.0021718780504244115 0 -0.0009479253280968037 -0.0023866214407560764 0 -0.00088035334257755796 -0.0021494065516777026 0 -0.0010439269664131161 -0.0021718780504244115 0 -0.0009479253280968037 -0.0023866214407560764 0 -0.00088035334257755796 -0.0021494065516777026 0 -0.0006704272589172336 -0.0023390004580441815 0 -0.00057977079110953754 -0.0021014393338620071 0 -0.00088035334257755796 -0.0021494065516777026 0 -0.0006704272589172336 -0.0023390004580441815 0 -0.00057977079110953754 -0.0021014393338620071 0 -0.0006704272589172336 -0.0023390004580441815 0 -0.00035107519696093119 -0.002299470370339664 0 -0.0006704272589172336 -0.0023390004580441815 0 -0.00044168873848076648 -0.0025741145129232795 0 -0.00035107519696093119 -0.002299470370339664 0 -0.0006704272589172336 -0.0023390004580441815 0 -0.0007913563592503582 -0.002515971432522733 0 -0.00044168873848076648 -0.0025741145129232795 0 -0.0009479253280968037 -0.0023866214407560764 0 -0.0006704272589172336 -0.0023390004580441815 0 -0.0007913563592503582 -0.002515971432522733 0 0.0051007531835088197 -0.001204765814806139 0 0.0052605277851761525 -0.0010641951723442057 0 0.005411910288105547 -0.0012432018473973357 0 0.0051944294572119779 -0.0014306506499467229 0 0.0051007531835088197 -0.001204765814806139 0 0.0047133196528496317 -0.0014319492111638911 0 0.0051944294572119779 -0.0014306506499467229 0 0.0051007531835088197 -0.001204765814806139 0 0.005411910288105547 -0.0012432018473973357 0 0.0051007531835088197 -0.001204765814806139 0 0.0047133196528496317 -0.0014319492111638911 0 0.0048574913357514468 -0.0011465898835132566 0 0.0024763774754443294 -0.002047324754634954 0 0.0019732256820342263 -0.0020098148703005321 0 0.0047133196528496317 -0.0014319492111638911 0 0.0048574913357514468 -0.0011465898835132566 0 0.0046535197680855588 -0.0011374660286446938 0 0.0048574913357514468 -0.0011465898835132566 0 0.0047710956642442503 -0.00097114570196937496 0 0.0046535197680855588 -0.0011374660286446938 0 0.0048574913357514468 -0.0011465898835132566 0 0.0047710956642442503 -0.00097114570196937496 0 0.0050413709113685456 -0.00098689214677521141 0 0.0047710956642442503 -0.00097114570196937496 0 0.0050413709113685456 -0.00098689214677521141 0 0.0048795568897470089 -0.00075607396365154052 0 0.0051007531835088197 -0.001204765814806139 0 0.0052605277851761525 -0.0010641951723442057 0 0.0050413709113685456 -0.00098689214677521141 0 0.0051007531835088197 -0.001204765814806139 0 0.0048574913357514468 -0.0011465898835132566 0 0.0050413709113685456 -0.00098689214677521141 0 0.0050413709113685456 -0.00098689214677521141 0 0.0051958881027462161 -0.00087598521387773217 0 0.0050809705855044997 -0.00073903450993336687 0 0.0052605277851761525 -0.0010641951723442057 0 0.0051958881027462161 -0.00087598521387773217 0 0.0053431074018137044 -0.00087514610513486949 0 0.0052605277851761525 -0.0010641951723442057 0 0.0050413709113685456 -0.00098689214677521141 0 0.0051958881027462161 -0.00087598521387773217 0 0.0053826128894265291 -0.0010397798042372577 0 0.0055118220810913094 -0.00096853150706308533 0 0.005411910288105547 -0.0012432018473973357 0 0.0053431074018137044 -0.00087514610513486949 0 0.0053826128894265291 -0.0010397798042372577 0 0.0055118220810913094 -0.00096853150706308533 0 0.0052605277851761525 -0.0010641951723442057 0 0.0053431074018137044 -0.00087514610513486949 0 0.0053826128894265291 -0.0010397798042372577 0 0.0052605277851761525 -0.0010641951723442057 0 0.0053826128894265291 -0.0010397798042372577 0 0.005411910288105547 -0.0012432018473973357 0 0.0053143254824029665 -9.8473144587593801e-05 0 0.0053404472691592087 -0.00012127045361393401 0 0.0053785563253302988 -9.2194713568810789e-06 0 0.0053143254824029665 -9.8473144587593801e-05 0 0.0053404472691592087 -0.00012127045361393401 0 0.0052802455755844814 -0.00027490831323823226 0 -0.00086946252055972108 -0.00030256223727052634 0 -0.00078678499080213934 -0.00067518357962269976 0 -0.0011514290253191494 -0.00062467128410135684 0 -0.00062828752399572804 -0.00045302817981042335 0 -0.00086946252055972108 -0.00030256223727052634 0 -0.00078678499080213934 -0.00067518357962269976 0 -0.00078678499080213934 -0.00067518357962269976 0 -0.0011514290253191494 -0.00062467128410135684 0 -0.00081325943983025977 -0.00115175303381981 0 0.0057386019025437102 -0.00053895757451080922 0 0.0029285676558737329 -0.0012077928657735174 0 -0.0011514290253191494 -0.00062467128410135684 0 -0.00081325943983025977 -0.00115175303381981 0 -0.00097141563221136312 -0.001388162885675711 0 -0.0011514290253191494 -0.00062467128410135684 0 -0.00097141563221136312 -0.001388162885675711 0 -0.0011534814009358156 -0.0016341007038201466 0 0.0020410545966361164 -0.00033288964335473624 0 0.0029285676558737329 -0.0012077928657735174 0 -0.00080851035623469725 -0.0015504905407249395 0 -0.00081325943983025977 -0.00115175303381981 0 -0.00097141563221136312 -0.001388162885675711 0 -0.0010256874611598869 -0.0016679347870637549 0 -0.00089187509886144267 -0.0016598161351349162 0 -0.00097141563221136312 -0.001388162885675711 0 -0.0010256874611598869 -0.0016679347870637549 0 -0.00097141563221136312 -0.001388162885675711 0 -0.0011534814009358156 -0.0016341007038201466 0 -0.00080851035623469725 -0.0015504905407249395 0 -0.00089187509886144267 -0.0016598161351349162 0 -0.00097141563221136312 -0.001388162885675711 0 0.0056096940613281207 -0.0014481837727801433 0 0.0055951028115352837 -0.0013958418024308502 0 0.005411910288105547 -0.0012432018473973357 0 0.0055118220810913094 -0.00096853150706308533 0 0.0055951028115352837 -0.0013958418024308502 0 0.005411910288105547 -0.0012432018473973357 0 0.0056096940613281207 -0.0014481837727801433 0 0.0051944294572119779 -0.0014306506499467229 0 0.005411910288105547 -0.0012432018473973357 0 0.0016053268330780746 -0.0018818357436738702 0 0.0015607523703870957 -0.0017324277298049597 0 0.0014405143320603434 -0.00182695224578805 0 0.0016053268330780746 -0.0018818357436738702 0 0.0017697599660503034 -0.0018516092537348553 0 0.0015607523703870957 -0.0017324277298049597 0 0.0010138573181936335 -0.0019509482602523534 0 0.0012031206378128143 -0.0019332893762544457 0 0.0016205596609775864 -0.0020400919444950173 0 0.0016053268330780746 -0.0018818357436738702 0 0.0014463985526657391 -0.0019613912174963463 0 0.00012463422789486293 -0.0020866611136678231 0 1.6554214301280095e-05 -0.0024491110720580508 0 -0.00011843381475384285 -0.0022315658844038705 0 0.00035521422532730821 -0.002056164704841964 0 0.0012113381156429479 -0.0022957043942295925 0 0.0016205596609775864 -0.0020400919444950173 0 0.0016053268330780746 -0.0018818357436738702 0 0.0017697599660503034 -0.0018516092537348553 0 0.00088268721020891218 -0.002122451177427835 0 0.00088801436684665766 -0.0021240759131036253 0 0.00088371990842009722 -0.0021402786019802263 0 0.0010138573181936335 -0.0019509482602523534 0 0.0012113381156429479 -0.0022957043942295925 0 1.6554214301280095e-05 -0.0024491110720580508 0 -0.00019527763755964987 -0.0024324792483971782 0 -8.4896957341879743e-05 -0.0026068652692538162 0 1.6554214301280095e-05 -0.0024491110720580508 0 -0.00019527763755964987 -0.0024324792483971782 0 -0.00011843381475384285 -0.0022315658844038705 0 0.0012113381156429479 -0.0022957043942295925 0 0.0025467457698215346 -0.0017895127334167239 0 0.0019094922495263976 -0.0025142350895748073 0 0.0026517469482199795 -0.0014690948292885476 0 0.0022641618527160026 -0.0014345307506630058 0 0.0012113381156429479 -0.0022957043942295925 0 0.0033251924903885282 -0.0016922372971399958 0 -0.00028254112971014034 -0.0021173580996461171 0 -0.00011843381475384285 -0.0022315658844038705 0 -0.00035107519696093119 -0.002299470370339664 0 -0.00028254112971014034 -0.0021173580996461171 0 -0.00057977079110953754 -0.0021014393338620071 0 -0.00035107519696093119 -0.002299470370339664 0 -0.00019527763755964987 -0.0024324792483971782 0 -0.00011843381475384285 -0.0022315658844038705 0 -0.00035107519696093119 -0.002299470370339664 0 -0.00044168873848076648 -0.0025741145129232795 0 -0.00019527763755964987 -0.0024324792483971782 0 -8.4896957341879743e-05 -0.0026068652692538162 0 -0.00044168873848076648 -0.0025741145129232795 0 -0.00019527763755964987 -0.0024324792483971782 0 -0.00035107519696093119 -0.002299470370339664 0 0.0047133196528496317 -0.0014319492111638911 0 0.0044799200681154977 -0.0012648636026493724 0 0.0041799369472438818 -0.0014014610375322595 0 0.0044799200681154977 -0.0012648636026493724 0 0.0045100261411761596 -0.0009841186728626306 0 0.0041799369472438818 -0.0014014610375322595 0 0.0019732256820342263 -0.0020098148703005321 0 0.0025467457698215346 -0.0017895127334167239 0 0.0047133196528496317 -0.0014319492111638911 0 0.0044799200681154977 -0.0012648636026493724 0 0.0046535197680855588 -0.0011374660286446938 0 0.0044799200681154977 -0.0012648636026493724 0 0.0046535197680855588 -0.0011374660286446938 0 0.0045100261411761596 -0.0009841186728626306 0 0.0047710956642442503 -0.00097114570196937496 0 0.0046535197680855588 -0.0011374660286446938 0 0.0045100261411761596 -0.0009841186728626306 0 0.0047710956642442503 -0.00097114570196937496 0 0.0045100261411761596 -0.0009841186728626306 0 0.004676355592509663 -0.00073448932570466773 0 0.0045100261411761596 -0.0009841186728626306 0 0.004229614065928246 -0.00098167536195758131 0 0.0044843261417130686 -0.00076081876255154645 0 0.0052873091081007155 -0.0019588392068234091 0 0.0051200902000118923 -0.0021330482653111752 0 0.0052394472367781851 -0.0019786938694229027 0 0.0045100261411761596 -0.0009841186728626306 0 0.004229614065928246 -0.00098167536195758131 0 0.004159813637924073 -0.0014882436204865953 0 0.0052873091081007155 -0.0019588392068234091 0 0.0052394472367781851 -0.0019786938694229027 0 0.0052800762339835234 -0.0019468531214293411 0 0.0049860899567862162 -0.00073685063437017222 0 0.0025467457698215346 -0.0017895127334167239 0 0.0048728328828214042 -0.0014243886246994696 0 0.0033251924903885282 -0.0016922372971399958 0 0.0052873091081007155 -0.0019588392068234091 0 0.0051200902000118923 -0.0021330482653111752 0 0.0051448920752087549 -0.0021793527819341939 0 0.004229614065928246 -0.00098167536195758131 0 0.004159813637924073 -0.0014882436204865953 0 0.0040518621565879837 -0.0014794792502090691 0 0.0025467457698215346 -0.0017895127334167239 0 0.0033251924903885282 -0.0016922372971399958 0 0.0051200902000118923 -0.0021330482653111752 0 0.0045332072090522868 -0.0019550397617397464 0 0.0041293565671905452 -0.0013252206964565864 0 0.0017697599660503034 -0.0018516092537348553 0 0.001811439615405941 -0.0017486481503756904 0 0.0015607523703870957 -0.0017324277298049597 0 0.0051448920752087549 -0.0021793527819341939 0 0.0045332072090522868 -0.0019550397617397464 0 0.0037298904501484416 -0.0021564840940999333 0 0.0033251924903885282 -0.0016922372971399958 0 0.0026852312756620558 -0.001981954886896026 0 0.0051200902000118923 -0.0021330482653111752 0 0.0051448920752087549 -0.0021793527819341939 0 0.0045332072090522868 -0.0019550397617397464 0 0.0050654169198962968 -0.0020743493014455526 0 0.0048630124380107144 -0.0017414613619460061 0 0.0051200902000118923 -0.0021330482653111752 0 0.0052394472367781851 -0.0019786938694229027 0 0.0053016239534746752 -0.0019148998963270309 0 0.0052394472367781851 -0.0019786938694229027 0 0.0053016239534746752 -0.0019148998963270309 0 0.0052800762339835234 -0.0019468531214293411 0 0.0041293565671905452 -0.0013252206964565864 0 0.0037298904501484416 -0.0021564840940999333 0 0.0029738671876777174 -0.0012943907842499942 0 0.0045332072090522868 -0.0019550397617397464 0 0.0041293565671905452 -0.0013252206964565864 0 0.0037298904501484416 -0.0021564840940999333 0 0.0054246867191876822 -0.0020279217674452582 0 0.0053604737587203419 -0.0019632297660369911 0 0.0055336823899748179 -0.0019644926772060789 0 0.0054246867191876822 -0.0020279217674452582 0 0.0055336823899748179 -0.0019644926772060789 0 0.0055463239656155993 -0.0020714333790547148 0 0.0048630124380107144 -0.0017414613619460061 0 0.0038100215173633603 -0.0010094272602874548 0 0.0053016239534746752 -0.0019148998963270309 0 0.0053604737587203419 -0.0019632297660369911 0 0.0055336823899748179 -0.0019644926772060789 0 0.0053604737587203419 -0.0019632297660369911 0 0.0052800762339835234 -0.0019468531214293411 0 0.0053174675776501944 -0.0019788484846895568 0 0.0053016239534746752 -0.0019148998963270309 0 0.0053604737587203419 -0.0019632297660369911 0 0.0052800762339835234 -0.0019468531214293411 0 0.0054246867191876822 -0.0020279217674452582 0 0.0053174675776501944 -0.0019788484846895568 0 0.0053571098818366702 -0.0020567984901214502 0 0.0054246867191876822 -0.0020279217674452582 0 0.0053604737587203419 -0.0019632297660369911 0 0.0053174675776501944 -0.0019788484846895568 0 0.0053174675776501944 -0.0019788484846895568 0 0.0053571098818366702 -0.0020567984901214502 0 0.0052781669256896698 -0.0020264307659946896 0 0.0057607401675710806 -0.0017654317230439006 0 0.0059992126292687615 -0.00044508769943979437 0 0.0052492433663008323 -0.001836476393243372 0 0.0053196861767132297 -0.0018621885911108886 0 0.0054326430271480954 -0.0017155586247655393 0 0.0057607401675710806 -0.0017654317230439006 0 0.0054747166623508496 -0.0019080479461706268 0 0.0052492433663008323 -0.001836476393243372 0 0.0053196861767132297 -0.0018621885911108886 0 0.0052880901128719779 -0.0019446455714190545 0 0.0053196861767132297 -0.0018621885911108886 0 0.0052880901128719779 -0.0019446455714190545 0 0.0053289893508631954 -0.001940796213762156 0 0.0052095174529775603 -0.0020606158390312282 0 0.0057607401675710806 -0.0017654317230439006 0 0.0053174675776501944 -0.0019788484846895568 0 0.0052927262204058639 -0.001977113704823228 0 0.0052880901128719779 -0.0019446455714190545 0 0.0052800762339835234 -0.0019468531214293411 0 0.0053174675776501944 -0.0019788484846895568 0 0.0052880901128719779 -0.0019446455714190545 0 0.0052873091081007155 -0.0019588392068234091 0 0.0052800762339835234 -0.0019468531214293411 0 0.0052880901128719779 -0.0019446455714190545 0 0.0052873091081007155 -0.0019588392068234091 0 0.0052880901128719779 -0.0019446455714190545 0 0.0053289893508631954 -0.001940796213762156 0 0.0048728328828214042 -0.0014243886246994696 0 0.0047548230935844909 -0.0013728642114633487 0 0.0044049874122873605 -0.00054820344280187084 0 0.0044843261417130686 -0.00076081876255154645 0 0.0045970101081167372 -0.00058889262269578831 0 0.004229614065928246 -0.00098167536195758131 0 0.0044049874122873605 -0.00054820344280187084 0 0.0044843261417130686 -0.00076081876255154645 0 0.0044843261417130686 -0.00076081876255154645 0 0.004676355592509663 -0.00073448932570466773 0 0.0045970101081167372 -0.00058889262269578831 0 0.0045100261411761596 -0.0009841186728626306 0 0.0044843261417130686 -0.00076081876255154645 0 0.004676355592509663 -0.00073448932570466773 0 0.004676355592509663 -0.00073448932570466773 0 0.0045970101081167372 -0.00058889262269578831 0 0.0047682463396430631 -0.00055501657794132303 0 0.0044049874122873605 -0.00054820344280187084 0 0.0045970101081167372 -0.00058889262269578831 0 0.004654584544208246 -0.0003794168808177861 0 0.0045970101081167372 -0.00058889262269578831 0 0.004654584544208246 -0.0003794168808177861 0 0.0047682463396430631 -0.00055501657794132303 0 0.0047548230935844909 -0.0013728642114633487 0 0.0059992126292687615 -0.00044508769943979437 0 0.0044049874122873605 -0.00054820344280187084 0 0.004654584544208246 -0.0003794168808177861 0 0.0045633595259738794 -9.3826307502472737e-05 0 0.0053196861767132297 -0.0018621885911108886 0 0.0053289893508631954 -0.001940796213762156 0 0.0054326430271480954 -0.0017155586247655393 0 0.004654584544208246 -0.0003794168808177861 0 0.0045633595259738794 -9.3826307502472737e-05 0 0.0047389326328317232 -0.0002353512843943189 0 0.0070641356210761159 -0.00069677513099609164 0 0.0070947545044250304 -0.00060267183553560841 0 0.0068285986038232726 -0.00062418136329523614 0 0.0072587765481568287 0.0013707225908671291 0 0.007708415730111543 0.00073073827014348146 0 0.0083587893273638306 0.0014253660999028143 0 0.0045633595259738794 -9.3826307502472737e-05 0 0.0047389326328317232 -0.0002353512843943189 0 0.0048956503919951625 -0.0001278193991169714 0 0.0070305371720146689 0.0010803088343436626 0 0.0069533735699206598 0.00085694758853234931 0 0.0067621003464890181 0.00085200355098872334 0 0.0059992126292687615 -0.00044508769943979437 0 0.0069292471989212418 0.00067214269261129625 0 0.0069292471989212418 0.00067214269261129625 0 0.006860702038711277 0.00072147890880363034 0 0.0069292471989212418 0.00067214269261129625 0 0.0068855322251253036 0.00037730952301511303 0 0.0072587765481568287 0.0013707225908671291 0 0.007708415730111543 0.00073073827014348146 0 0.0069394395861919547 0.00039442913536358472 0 0.0069614902319844818 0.00086222340707508855 0 0.0067621003464890181 0.00085200355098872334 0 0.0067705143573115354 0.00020476507078138613 0 0.007708415730111543 0.00073073827014348146 0 0.0069394395861919547 0.00039442913536358472 0 0.0075885781841765476 0.00027216623406702825 0 0.007708415730111543 0.00073073827014348146 0 0.0085553490682375079 0.00029279431815205844 0 0.0075885781841765476 0.00027216623406702825 0 0.0088427438938865691 -0.00081146615911102649 0 0.013619292718047351 -0.00077338099261491274 0 0.007708415730111543 0.00073073827014348146 0 0.0083587893273638306 0.0014253660999028143 0 0.0085553490682375079 0.00029279431815205844 0 0.0053571098818366702 -0.0020567984901214502 0 0.0052781669256896698 -0.0020264307659946896 0 0.0053097288903988064 -0.0021165681090228477 0 0.0069292471989212418 0.00067214269261129625 0 0.0088427438938865691 -0.00081146615911102649 0 0.0057607401675710806 -0.0017654317230439006 0 0.0088427438938865691 -0.00081146615911102649 0 0.006852555132943622 -0.00084161464067566657 0 0.0070641356210761159 -0.00069677513099609164 0 0.0068285986038232726 -0.00062418136329523614 0 0.015592040815760339 -0.0033306103862272376 0 0.014739847179243678 -0.0029485455666012537 0 0.014269371446429709 -0.0035758624131468886 0 0.0053571098818366702 -0.0020567984901214502 0 0.0053097288903988064 -0.0021165681090228477 0 0.0054834223986686094 -0.0021471959268650051 0 0.0088427438938865691 -0.00081146615911102649 0 0.010517076844651752 -0.0032501796342233077 0 0.015592040815760339 -0.0033306103862272376 0 0.015074199637238698 -0.0025386739459779067 0 0.014739847179243678 -0.0029485455666012537 0 0.015592040815760339 -0.0033306103862272376 0 0.015074199637238698 -0.0025386739459779067 0 0.015442946716664638 -0.0023242499951194075 0 0.014782085719126366 -0.0016223509866409693 0 0.013619292718047351 -0.00077338099261491274 0 0.015074199637238698 -0.0025386739459779067 0 0.014739847179243678 -0.0029485455666012537 0 0.014710220458147204 -0.0025573404872488276 0 0.015074199637238698 -0.0025386739459779067 0 0.014710220458147204 -0.0025573404872488276 0 0.01485587293600767 -0.0022241731269741368 0 0.014739847179243678 -0.0029485455666012537 0 0.014242536718649806 -0.0027323138894498103 0 0.014269371446429709 -0.0035758624131468886 0 0.014710220458147204 -0.0025573404872488276 0 0.014242536718649806 -0.0027323138894498103 0 0.014481296290968672 -0.0023138940365210483 0 0.014739847179243678 -0.0029485455666012537 0 0.014710220458147204 -0.0025573404872488276 0 0.014242536718649806 -0.0027323138894498103 0 0.014242536718649806 -0.0027323138894498103 0 0.014138367658880749 -0.0022648815426621082 0 0.014481296290968672 -0.0023138940365210483 0 0.014242536718649806 -0.0027323138894498103 0 0.014138367658880749 -0.0022648815426621082 0 0.013758002805953955 -0.0024852822909774055 0 0.014242536718649806 -0.0027323138894498103 0 0.014269371446429709 -0.0035758624131468886 0 0.013304611882410493 -0.0031193045714427367 0 0.0054246867191876822 -0.0020279217674452582 0 0.0054834223986686094 -0.0021471959268650051 0 0.0055463239656155993 -0.0020714333790547148 0 0.0054246867191876822 -0.0020279217674452582 0 0.0053571098818366702 -0.0020567984901214502 0 0.0054834223986686094 -0.0021471959268650051 0 0.0053569395142959659 1.4599164683481794e-05 0 0.0053852002155818915 3.6174277067374302e-05 0 0.0053785563253302988 -9.2194713568810789e-06 0 0.0053569395142959659 1.4599164683481794e-05 0 0.0053852002155818915 3.6174277067374302e-05 0 0.005405602858499647 6.9804163000946655e-05 0 -0.00025923520660132982 0.00038328910559087392 0 -0.0010740232922805087 0.00029563125425426042 0 -0.001064921759121346 0.0010804035504928106 0 0.00017972024939161762 0.00088078874426253384 0 0.0033422555360200384 0.00028232609872045738 0 0.0011644065294816248 0.0013365910552552592 0 0.0024379239876363232 -0.00021792515648710084 0 0.0031944617841880847 -0.00025416793391344486 0 0.0020659381519792272 0.00019130299323910567 0 0.0033422555360200384 0.00028232609872045738 0 0.0053852002155818915 3.6174277067374302e-05 0 0.0053785563253302988 -9.2194713568810789e-06 0 0.0053992959316874157 6.183139681699651e-05 0 -0.00086946252055972108 -0.00030256223727052634 0 -0.0011514290253191494 -0.00062467128410135684 0 -0.0010740232922805087 0.00029563125425426042 0 0.0020410545966361164 -0.00033288964335473624 0 0.0020659381519792272 0.00019130299323910567 0 -0.00061805746533865095 -3.7866426405315763e-06 0 -0.00086946252055972108 -0.00030256223727052634 0 -0.0010740232922805087 0.00029563125425426042 0 0.0053431074018137044 -0.00087514610513486949 0 0.0054331522268862833 -0.00046758380043525561 0 0.0052482986223154338 -0.00070676009820127162 0 0.0053143254824029665 -9.8473144587593801e-05 0 0.0053569395142959659 1.4599164683481794e-05 0 0.0053785563253302988 -9.2194713568810789e-06 0 0.0053431074018137044 -0.00087514610513486949 0 0.0055118220810913094 -0.00096853150706308533 0 0.0054331522268862833 -0.00046758380043525561 0 0.0057386019025437102 -0.00053895757451080922 0 0.0053491466925993545 -0.00020643104059420403 0 0.0051958881027462161 -0.00087598521387773217 0 0.0053431074018137044 -0.00087514610513486949 0 0.0052482986223154338 -0.00070676009820127162 0 0.0051958881027462161 -0.00087598521387773217 0 0.0052482986223154338 -0.00070676009820127162 0 0.0050809705855044997 -0.00073903450993336687 0 0.0050809705855044997 -0.00073903450993336687 0 0.0049566569175986033 -0.00052353924949314669 0 0.0051659125005811242 -0.0004981984433145289 0 0.0052482986223154338 -0.00070676009820127162 0 0.0050809705855044997 -0.00073903450993336687 0 0.0051659125005811242 -0.0004981984433145289 0 0.0054331522268862833 -0.00046758380043525561 0 0.0052482986223154338 -0.00070676009820127162 0 0.0051659125005811242 -0.0004981984433145289 0 0.0047710956642442503 -0.00097114570196937496 0 0.004676355592509663 -0.00073448932570466773 0 0.0048795568897470089 -0.00075607396365154052 0 0.0050413709113685456 -0.00098689214677521141 0 0.0050809705855044997 -0.00073903450993336687 0 0.0048795568897470089 -0.00075607396365154052 0 0.0050809705855044997 -0.00073903450993336687 0 0.0048795568897470089 -0.00075607396365154052 0 0.0049566569175986033 -0.00052353924949314669 0 0.004676355592509663 -0.00073448932570466773 0 0.0048795568897470089 -0.00075607396365154052 0 0.0047682463396430631 -0.00055501657794132303 0 0.0048795568897470089 -0.00075607396365154052 0 0.0047682463396430631 -0.00055501657794132303 0 0.0049566569175986033 -0.00052353924949314669 0 0.004654584544208246 -0.0003794168808177861 0 0.0047682463396430631 -0.00055501657794132303 0 0.0048410744067356373 -0.00035236844239830238 0 0.0047682463396430631 -0.00055501657794132303 0 0.0049566569175986033 -0.00052353924949314669 0 0.0048410744067356373 -0.00035236844239830238 0 0.0049566569175986033 -0.00052353924949314669 0 0.005036065928951193 -0.00030170650357972545 0 0.0048410744067356373 -0.00035236844239830238 0 0.005036065928951193 -0.00030170650357972545 0 0.0048410744067356373 -0.00035236844239830238 0 0.0048956503919951625 -0.0001278193991169714 0 0.0048410744067356373 -0.00035236844239830238 0 0.0047389326328317232 -0.0002353512843943189 0 0.0048956503919951625 -0.0001278193991169714 0 0.004654584544208246 -0.0003794168808177861 0 0.0048410744067356373 -0.00035236844239830238 0 0.0047389326328317232 -0.0002353512843943189 0 0.0054331522268862833 -0.00046758380043525561 0 0.0052213816419950255 -0.00025229738538497514 0 0.0053642949745349401 0.00010300495444673888 0 0.0054331522268862833 -0.00046758380043525561 0 0.0051659125005811242 -0.0004981984433145289 0 0.0052213816419950255 -0.00025229738538497514 0 0.0049566569175986033 -0.00052353924949314669 0 0.005036065928951193 -0.00030170650357972545 0 0.0051659125005811242 -0.0004981984433145289 0 0.005036065928951193 -0.00030170650357972545 0 0.0052213816419950255 -0.00025229738538497514 0 0.0051316657974086457 -3.9470011358793117e-05 0 0.005036065928951193 -0.00030170650357972545 0 0.0051659125005811242 -0.0004981984433145289 0 0.0052213816419950255 -0.00025229738538497514 0 0.0053491466925993545 -0.00020643104059420403 0 0.0053670341547119573 7.809693016527211e-05 0 0.0052213816419950255 -0.00025229738538497514 0 0.0051316657974086457 -3.9470011358793117e-05 0 0.0053642949745349401 0.00010300495444673888 0 0.0051316657974086457 -3.9470011358793117e-05 0 0.0053642949745349401 0.00010300495444673888 0 0.0050615205784918915 0.00018296587699204609 0 0.0045633595259738794 -9.3826307502472737e-05 0 0.0048956503919951625 -0.0001278193991169714 0 0.0050615205784918915 0.00018296587699204609 0 0.0070305371720146689 0.0010803088343436626 0 0.0067621003464890181 0.00085200355098872334 0 0.0063881216919582954 0.00069771535295423757 0 0.0059992126292687615 -0.00044508769943979437 0 0.0057381089774495948 0.00052204138990720125 0 0.005036065928951193 -0.00030170650357972545 0 0.0051316657974086457 -3.9470011358793117e-05 0 0.0048956503919951625 -0.0001278193991169714 0 0.0051316657974086457 -3.9470011358793117e-05 0 0.0048956503919951625 -0.0001278193991169714 0 0.0050615205784918915 0.00018296587699204609 0 0.0063881216919582954 0.00069771535295423757 0 0.0067705143573115354 0.00020476507078138613 0 0.0062110068627705293 0.00018167757783267173 0 0.0067621003464890181 0.00085200355098872334 0 0.0063881216919582954 0.00069771535295423757 0 0.0067705143573115354 0.00020476507078138613 0 0.0053642949745349401 0.00010300495444673888 0 0.0050615205784918915 0.00018296587699204609 0 0.0055956082008160567 0.00019500836053333158 0 0.0063881216919582954 0.00069771535295423757 0 0.0062110068627705293 0.00018167757783267173 0 0.0055956082008160567 0.00019500836053333158 0 0.0053642949745349401 0.00010300495444673888 0 0.0055956082008160567 0.00019500836053333158 0 0.0054545235316172504 0.00018055470818094353 0 0.0057381089774495948 0.00052204138990720125 0 0.0055617051116524695 0.00019605711942534166 0 0.0055956082008160567 0.00019500836053333158 0 0.0054256579164046869 0.00013614300654296699 0 0.0054545235316172504 0.00018055470818094353 0 0.0054256579164046869 0.00013614300654296699 0 0.0054545235316172504 0.00018055470818094353 0 0.0053291875645836385 0.00023754414886655742 0 0.0054545235316172504 0.00018055470818094353 0 0.0052879780803049238 0.00027108867060454287 0 0.0053291875645836385 0.00023754414886655742 0 0.0053642949745349401 0.00010300495444673888 0 0.0054545235316172504 0.00018055470818094353 0 0.005405602858499647 6.9804163000946655e-05 0 0.0053569395142959659 1.4599164683481794e-05 0 0.0053642949745349401 0.00010300495444673888 0 0.005405602858499647 6.9804163000946655e-05 0 0.0059564685540713829 -9.1089912919172137e-05 0 0.0033422555360200384 0.00028232609872045738 0 0.0054545235316172504 0.00018055470818094353 0 0.005405602858499647 6.9804163000946655e-05 0 0.0054426232292253659 6.0028081301665028e-05 0 0.0054545235316172504 0.00018055470818094353 0 0.0052752193592560895 0.00040836613029210725 0 0.0052879780803049238 0.00027108867060454287 0 0.0057399220605696445 8.4657098971656458e-05 0 0.0033422555360200384 0.00028232609872045738 0 0.0053852002155818915 3.6174277067374302e-05 0 0.005405602858499647 6.9804163000946655e-05 0 0.0053992959316874157 6.183139681699651e-05 0 0.0035838589719966478 0.00026739053715111552 0 0.0033422555360200384 0.00028232609872045738 0 0.0048496947947190656 0.00058285327122532165 0 0.0050724009158567701 0.00057363248322138567 0 0.0051048309421842467 0.00034431578166265923 0 0.0037187564837790443 0.0004040367308961821 0 0.003977071436305833 0.00039088564320792024 0 0.0039969153662046137 6.2662043727927059e-05 0 0.0052607566145331094 0.00034497029178062044 0 0.0051048309421842467 0.00034431578166265923 0 0.0052638577937410896 0.00029180030813986106 0 0.0033422555360200384 0.00028232609872045738 0 0.0045898641859747451 0.00014119847372096142 0 0.0035838589719966478 0.00026739053715111552 0 0.0045898641859747451 0.00014119847372096142 0 0.0045898641859747451 0.00014119847372096142 0 0.0046215220877509717 0.00016626395309744211 0 0.0045898641859747451 0.00014119847372096142 0 0.0048266319407034453 6.3149871909751865e-05 0 0.0050724009158567701 0.00057363248322138567 0 0.0052607566145331094 0.00034497029178062044 0 0.0051048309421842467 0.00034431578166265923 0 0.0049532501145833014 0.00010677869203038395 0 0.0052295698104549712 0.00016929418900425957 0 0.0052830625208866834 -9.7864214281905733e-05 0 0.0049532501145833014 0.00010677869203038395 0 0.0051048309421842467 0.00034431578166265923 0 0.0052295698104549712 0.00016929418900425957 0 0.0051048309421842467 0.00034431578166265923 0 0.0052638577937410896 0.00029180030813986106 0 0.0052295698104549712 0.00016929418900425957 0 0.0054256579164046869 0.00013614300654296699 0 0.0053291875645836385 0.00023754414886655742 0 0.0052295698104549712 0.00016929418900425957 0 0.0053291875645836385 0.00023754414886655742 0 0.0052638577937410896 0.00029180030813986106 0 0.0052295698104549712 0.00016929418900425957 0 0.0052627873620920513 0.00035044863505985052 0 0.0053291875645836385 0.00023754414886655742 0 0.0052638577937410896 0.00029180030813986106 0 0.0054256579164046869 0.00013614300654296699 0 0.0052295698104549712 0.00016929418900425957 0 0.0052830625208866834 -9.7864214281905733e-05 0 0.0049532501145833014 0.00010677869203038395 0 0.0052830625208866834 -9.7864214281905733e-05 0 0.0050253353100960648 -0.00043282404028350136 0 0.0052830625208866834 -9.7864214281905733e-05 0 0.0050253353100960648 -0.00043282404028350136 0 0.0055457793739052338 -0.00052047118900433432 0 0.0050253353100960648 -0.00043282404028350136 0 0.0055457793739052338 -0.00052047118900433432 0 0.0054499896670235186 -0.0010418149822509866 0 0.0055457793739052338 -0.00052047118900433432 0 0.0055840659326696299 -0.00014272135849289331 0 0.006003382688108236 -0.00023940295854803359 0 0.0052830625208866834 -9.7864214281905733e-05 0 0.0055457793739052338 -0.00052047118900433432 0 0.0055840659326696299 -0.00014272135849289331 0 0.0054256579164046869 0.00013614300654296699 0 0.0052830625208866834 -9.7864214281905733e-05 0 0.0055840659326696299 -0.00014272135849289331 0 0.0055956082008160567 0.00019500836053333158 0 0.0054256579164046869 0.00013614300654296699 0 0.0055840659326696299 -0.00014272135849289331 0 0.0062110068627705293 0.00018167757783267173 0 0.0055956082008160567 0.00019500836053333158 0 0.006003382688108236 -0.00023940295854803359 0 0.0055956082008160567 0.00019500836053333158 0 0.0055840659326696299 -0.00014272135849289331 0 0.006003382688108236 -0.00023940295854803359 0 0.0062110068627705293 0.00018167757783267173 0 0.006003382688108236 -0.00023940295854803359 0 0.0064132296092577557 -6.9836042534478232e-05 0 0.0069394395861919547 0.00039442913536358472 0 0.0066469121118731935 -0.00044368873126192165 0 0.0071825024498487914 -0.0003373573102045767 0 0.0067705143573115354 0.00020476507078138613 0 0.0062110068627705293 0.00018167757783267173 0 0.0064132296092577557 -6.9836042534478232e-05 0 0.0067705143573115354 0.00020476507078138613 0 0.0064132296092577557 -6.9836042534478232e-05 0 0.0066469121118731935 -0.00044368873126192165 0 0.0068855322251253036 0.00037730952301511303 0 0.0066461099735325227 -0.00041789511533139596 0 0.006003382688108236 -0.00023940295854803359 0 0.0064132296092577557 -6.9836042534478232e-05 0 0.0066469121118731935 -0.00044368873126192165 0 0.0066469121118731935 -0.00044368873126192165 0 0.0060679693724992037 -0.00075734956162115663 0 0.0071825024498487914 -0.0003373573102045767 0 0.012075836098839443 0.0012989126442526132 0 0.013426482989697517 0.00068439574699474045 0 0.013754352709778522 0.0016745812499461196 0 0.0090976149164895097 0.00023568902909343144 0 0.010158325360246296 0.00093892048896078916 0 0.006003382688108236 -0.00023940295854803359 0 0.0066469121118731935 -0.00044368873126192165 0 0.0060679693724992037 -0.00075734956162115663 0 0.0055457793739052338 -0.00052047118900433432 0 0.006003382688108236 -0.00023940295854803359 0 0.0060679693724992037 -0.00075734956162115663 0 0.012075836098839443 0.0012989126442526132 0 0.012662233194919428 0.00029332023644267118 0 0.011015337446220408 -0.00036716464383986934 0 0.012075836098839443 0.0012989126442526132 0 0.013426482989697517 0.00068439574699474045 0 0.012662233194919428 0.00029332023644267118 0 0.013426482989697517 0.00068439574699474045 0 0.012662233194919428 0.00029332023644267118 0 0.013716482019372762 -0.00054593098766467056 0 0.012533600378006351 -0.00078926213338775223 0 0.013716482019372762 -0.00054593098766467056 0 0.01352018550041776 -0.0013688245766743891 0 0.012662233194919428 0.00029332023644267118 0 0.012533600378006351 -0.00078926213338775223 0 0.013716482019372762 -0.00054593098766467056 0 0.012662233194919428 0.00029332023644267118 0 0.011015337446220408 -0.00036716464383986934 0 0.012533600378006351 -0.00078926213338775223 0 0.011015337446220408 -0.00036716464383986934 0 0.012533600378006351 -0.00078926213338775223 0 0.010643135286150227 -0.0025711162669747249 0 0.012652061952295512 -0.00079099568336621102 0 0.010675034035402526 -0.0023099002667755983 0 0.011015337446220408 -0.00036716464383986934 0 0.0084495063062302103 -0.001706111956797305 0 0.0089183316237438637 0.0003594671271496204 0 0.011015337446220408 -0.00036716464383986934 0 0.0084495063062302103 -0.001706111956797305 0 0.010643135286150227 -0.0025711162669747249 0 0.0084495063062302103 -0.001706111956797305 0 0.0061856379081457113 -0.002500418163852553 0 0.0050913680696426248 -0.0017088674294302327 0 0.0084495063062302103 -0.001706111956797305 0 0.0089183316237438637 0.0003594671271496204 0 0.0050913680696426248 -0.0017088674294302327 0 0.0071433066085794588 -0.0004122483677431655 0 0.0051686272378361859 -0.0016182153313105824 0 0.0054499896670235186 -0.0010418149822509866 0 0.004970468134488047 -0.00095197306998113542 0 0.0050913680696426248 -0.0017088674294302327 0 0.0050253353100960648 -0.00043282404028350136 0 0.0054499896670235186 -0.0010418149822509866 0 0.004970468134488047 -0.00095197306998113542 0 0.0090976149164895097 0.00023568902909343144 0 0.0071433066085794588 -0.0004122483677431655 0 0.012075836098839443 0.0012989126442526132 0 0.011015337446220408 -0.00036716464383986934 0 0.0089183316237438637 0.0003594671271496204 0 0.0055457793739052338 -0.00052047118900433432 0 0.0060679693724992037 -0.00075734956162115663 0 0.0054499896670235186 -0.0010418149822509866 0 0.014424953334371646 -0.0017995255897146093 0 0.01455018676024018 -0.0011989089990496569 0 0.013934316669785422 -0.0013609908937362665 0 0.014424953334371646 -0.0017995255897146093 0 0.014837715593150341 -0.0014563837315260595 0 0.01455018676024018 -0.0011989089990496569 0 0.014424953334371646 -0.0017995255897146093 0 0.014967611419022007 -0.0018306774881878623 0 0.014837715593150341 -0.0014563837315260595 0 0.014138367658880749 -0.0022648815426621082 0 0.014481296290968672 -0.0023138940365210483 0 0.014424953334371646 -0.0017995255897146093 0 0.014138367658880749 -0.0022648815426621082 0 0.014424953334371646 -0.0017995255897146093 0 0.013884114893805028 -0.0020110751430343888 0 0.014710220458147204 -0.0025573404872488276 0 0.014481296290968672 -0.0023138940365210483 0 0.01485587293600767 -0.0022241731269741368 0 0.014481296290968672 -0.0023138940365210483 0 0.014424953334371646 -0.0017995255897146093 0 0.01485587293600767 -0.0022241731269741368 0 0.015463386577561413 -6.549729384299582e-05 0 0.013619292718047351 -0.00077338099261491274 0 0.014967611419022007 -0.0018306774881878623 0 0.015250406953461087 -0.0012908044559166603 0 0.015418942589695183 -0.0023054888580239527 0 0.014424953334371646 -0.0017995255897146093 0 0.014967611419022007 -0.0018306774881878623 0 0.01485587293600767 -0.0022241731269741368 0 0.015074199637238698 -0.0025386739459779067 0 0.01485587293600767 -0.0022241731269741368 0 0.015418942589695183 -0.0023054888580239527 0 0.014967611419022007 -0.0018306774881878623 0 0.01485587293600767 -0.0022241731269741368 0 0.015418942589695183 -0.0023054888580239527 0 0.014837715593150341 -0.0014563837315260595 0 0.015250406953461087 -0.0012908044559166603 0 0.01502992329422323 -0.00093996620502047323 0 0.014967611419022007 -0.0018306774881878623 0 0.014837715593150341 -0.0014563837315260595 0 0.015250406953461087 -0.0012908044559166603 0 0.015284760520266083 0.00086156387131530547 0 0.014645897247050536 0.0015217131749378898 0 0.014302701313194102 0.00096445132724007777 0 0.014645897247050536 0.0015217131749378898 0 0.015057149962236284 0.002267225275568322 0 0.013754352709778522 0.0016745812499461196 0 0.013619292718047351 -0.00077338099261491274 0 0.010158325360246296 0.00093892048896078916 0 0.015284760520266083 0.00086156387131530547 0 0.014645897247050536 0.0015217131749378898 0 0.015057149962236284 0.002267225275568322 0 0.0085553490682375079 0.00029279431815205844 0 0.0075885781841765476 0.00027216623406702825 0 0.0071825024498487914 -0.0003373573102045767 0 0.0069394395861919547 0.00039442913536358472 0 0.0075885781841765476 0.00027216623406702825 0 0.0071825024498487914 -0.0003373573102045767 0 0.014645897247050536 0.0015217131749378898 0 0.013754352709778522 0.0016745812499461196 0 0.014302701313194102 0.00096445132724007777 0 0.013426482989697517 0.00068439574699474045 0 0.013754352709778522 0.0016745812499461196 0 0.014302701313194102 0.00096445132724007777 0 0.013426482989697517 0.00068439574699474045 0 0.014302701313194102 0.00096445132724007777 0 0.014343767806707701 5.7046357304567771e-05 0 0.013426482989697517 0.00068439574699474045 0 0.014343767806707701 5.7046357304567771e-05 0 0.013716482019372762 -0.00054593098766467056 0 0.014343767806707701 5.7046357304567771e-05 0 0.013716482019372762 -0.00054593098766467056 0 0.014589231877730273 -0.00077887413056562844 0 0.013716482019372762 -0.00054593098766467056 0 0.014589231877730273 -0.00077887413056562844 0 0.014468114323902227 -0.0013606745311516984 0 0.014343767806707701 5.7046357304567771e-05 0 0.014589231877730273 -0.00077887413056562844 0 0.014825314245996236 -0.00041720138437900754 0 0.014589231877730273 -0.00077887413056562844 0 0.014825314245996236 -0.00041720138437900754 0 0.015098252559560023 -0.00085519743474729896 0 0.015284760520266083 0.00086156387131530547 0 0.014302701313194102 0.00096445132724007777 0 0.014343767806707701 5.7046357304567771e-05 0 0.015284760520266083 0.00086156387131530547 0 0.014343767806707701 5.7046357304567771e-05 0 0.014825314245996236 -0.00041720138437900754 0 0.015250406953461087 -0.0012908044559166603 0 0.01502992329422323 -0.00093996620502047323 0 0.015278385505076195 -0.00052810248613070516 0 0.015284760520266083 0.00086156387131530547 0 0.014825314245996236 -0.00041720138437900754 0 0.015278385505076195 -0.00052810248613070516 0 0.015463386577561413 -6.549729384299582e-05 0 0.015233101681833908 -0.00054647351043959902 0 0.015278385505076195 -0.00052810248613070516 0 0.015223570291786283 -0.00072593456205007219 0 0.015098252559560023 -0.00085519743474729896 0 0.014825314245996236 -0.00041720138437900754 0 0.015278385505076195 -0.00052810248613070516 0 0.015098252559560023 -0.00085519743474729896 0 0.015278385505076195 -0.00052810248613070516 0 0.015150580396634642 -0.0004991038525483456 0 0.015223570291786283 -0.00072593456205007219 0 0.015150580396634642 -0.0004991038525483456 0 0.015382253078222925 -0.00072864108306909092 0 0.015223570291786283 -0.00072593456205007219 0 0.01502992329422323 -0.00093996620502047323 0 0.015278385505076195 -0.00052810248613070516 0 0.015150580396634642 -0.0004991038525483456 0 0.01502992329422323 -0.00093996620502047323 0 0.015150580396634642 -0.0004991038525483456 0 0.014719599381435506 -0.00075651602309938725 0 0.015150580396634642 -0.0004991038525483456 0 0.015382253078222925 -0.00072864108306909092 0 0.015796066201879601 -0.00064392865251470784 0 0.015150580396634642 -0.0004991038525483456 0 0.014719599381435506 -0.00075651602309938725 0 0.014242793791888446 -0.00014519795848516763 0 0.014719599381435506 -0.00075651602309938725 0 0.014266582961107199 -0.00086102745055623923 0 0.014242793791888446 -0.00014519795848516763 0 0.015079155068469128 -0.00045301331923305112 0 0.015178336025992686 -0.00050298689747586053 0 0.014719599381435506 -0.00075651602309938725 0 0.01455018676024018 -0.0011989089990496569 0 0.014266582961107199 -0.00086102745055623923 0 0.014837715593150341 -0.0014563837315260595 0 0.01502992329422323 -0.00093996620502047323 0 0.01455018676024018 -0.0011989089990496569 0 0.01502992329422323 -0.00093996620502047323 0 0.014719599381435506 -0.00075651602309938725 0 0.01455018676024018 -0.0011989089990496569 0 0.015689015062499732 -0.00126525282428362 0 0.01560623809285761 -0.0013392770604053594 0 0.015790117339676727 -0.0013638704017261659 0 0.015689015062499732 -0.00126525282428362 0 0.015641239117374289 -0.0011532405508497183 0 0.015785785227663381 -0.0012198590414904482 0 0.015567473472928932 -0.0012275582611545649 0 0.015689015062499732 -0.00126525282428362 0 0.015641239117374289 -0.0011532405508497183 0 0.015567473472928932 -0.0012275582611545649 0 0.015689015062499732 -0.00126525282428362 0 0.01560623809285761 -0.0013392770604053594 0 0.015567473472928932 -0.0012275582611545649 0 0.01560623809285761 -0.0013392770604053594 0 0.015494091212680387 -0.0012873794457250916 0 0.015364591582375768 -0.0012624154235998327 0 0.015453721096917743 -0.0012109602279832309 0 0.015324981561751088 -0.0010828421709675982 0 0.01560623809285761 -0.0013392770604053594 0 0.015494091212680387 -0.0012873794457250916 0 0.015450572085316165 -0.0014055926240439313 0 0.015364591582375768 -0.0012624154235998327 0 0.01531685780583977 -0.0013602849782436679 0 0.015450572085316165 -0.0014055926240439313 0 0.015494091212680387 -0.0012873794457250916 0 0.015364591582375768 -0.0012624154235998327 0 0.015450572085316165 -0.0014055926240439313 0 0.015494091212680387 -0.0012873794457250916 0 0.015364591582375768 -0.0012624154235998327 0 0.015453721096917743 -0.0012109602279832309 0 0.015567473472928932 -0.0012275582611545649 0 0.015453721096917743 -0.0012109602279832309 0 0.015511137391950959 -0.0011226118913534905 0 0.015567473472928932 -0.0012275582611545649 0 0.015494091212680387 -0.0012873794457250916 0 0.015453721096917743 -0.0012109602279832309 0 0.015511137391950959 -0.0011226118913534905 0 0.015477872734404383 -0.00099042770719204244 0 0.015324981561751088 -0.0010828421709675982 0 0.015453721096917743 -0.0012109602279832309 0 0.015511137391950959 -0.0011226118913534905 0 0.015324981561751088 -0.0010828421709675982 0 0.015511137391950959 -0.0011226118913534905 0 0.015582032876257505 -0.0010634379565662036 0 0.015477872734404383 -0.00099042770719204244 0 0.015567473472928932 -0.0012275582611545649 0 0.015511137391950959 -0.0011226118913534905 0 0.015641239117374289 -0.0011532405508497183 0 0.015511137391950959 -0.0011226118913534905 0 0.015582032876257505 -0.0010634379565662036 0 0.015641239117374289 -0.0011532405508497183 0 0.015582032876257505 -0.0010634379565662036 0 0.015641239117374289 -0.0011532405508497183 0 0.015738260138600454 -0.0011000069013667225 0 0.015582032876257505 -0.0010634379565662036 0 0.015667470074730183 -0.00098058224644495041 0 0.015738260138600454 -0.0011000069013667225 0 0.01557242592075915 -0.00086165072672572511 0 0.015667470074730183 -0.00098058224644495041 0 0.015827143313986755 -0.00088395290369983038 0 0.015582032876257505 -0.0010634379565662036 0 0.015667470074730183 -0.00098058224644495041 0 0.015477872734404383 -0.00099042770719204244 0 0.01557242592075915 -0.00086165072672572511 0 0.015667470074730183 -0.00098058224644495041 0 0.015477872734404383 -0.00099042770719204244 0 0.01557242592075915 -0.00086165072672572511 0 0.015382253078222925 -0.00072864108306909092 0 0.015796066201879601 -0.00064392865251470784 0 0.01557242592075915 -0.00086165072672572511 0 0.015382253078222925 -0.00072864108306909092 0 0.015335913675687429 -0.00089847894979919554 0 0.015382253078222925 -0.00072864108306909092 0 0.015335913675687429 -0.00089847894979919554 0 0.015223570291786283 -0.00072593456205007219 0 0.015335913675687429 -0.00089847894979919554 0 0.015477872734404383 -0.00099042770719204244 0 0.015324981561751088 -0.0010828421709675982 0 0.01557242592075915 -0.00086165072672572511 0 0.015335913675687429 -0.00089847894979919554 0 0.015477872734404383 -0.00099042770719204244 0 0.015102209425024974 -0.00092637870556774914 0 0.015131478896846932 -0.0013428945002577483 0 0.015194319047260535 -0.0009225961486774919 0 0.015098252559560023 -0.00085519743474729896 0 0.015074999890477758 -0.0010778275566078398 0 0.015335913675687429 -0.00089847894979919554 0 0.015194319047260535 -0.0009225961486774919 0 0.015324981561751088 -0.0010828421709675982 0 0.015335913675687429 -0.00089847894979919554 0 0.015194319047260535 -0.0009225961486774919 0 0.015223570291786283 -0.00072593456205007219 0 0.015194319047260535 -0.0009225961486774919 0 0.015223570291786283 -0.00072593456205007219 0 0.015098252559560023 -0.00085519743474729896 0 0.015131478896846932 -0.0013428945002577483 0 0.015481755301236074 -0.0019438664780972688 0 0.015074999890477758 -0.0010778275566078398 0 0.015090056404998083 -0.0014834449189097257 0 0.015109192630009075 -0.0014300942485340217 0 0.015364591582375768 -0.0012624154235998327 0 0.015324981561751088 -0.0010828421709675982 0 0.015254847193080791 -0.0011828379001994657 0 0.015074999890477758 -0.0010778275566078398 0 0.015324981561751088 -0.0010828421709675982 0 0.015254847193080791 -0.0011828379001994657 0 0.015194319047260535 -0.0009225961486774919 0 0.015074999890477758 -0.0010778275566078398 0 0.015324981561751088 -0.0010828421709675982 0 0.015364591582375768 -0.0012624154235998327 0 0.015254847193080791 -0.0011828379001994657 0 0.015222768575994127 -0.0013038071474960522 0 0.015364591582375768 -0.0012624154235998327 0 0.015222768575994127 -0.0013038071474960522 0 0.01531685780583977 -0.0013602849782436679 0 0.015074999890477758 -0.0010778275566078398 0 0.015254847193080791 -0.0011828379001994657 0 0.015222768575994127 -0.0013038071474960522 0 0.015074999890477758 -0.0010778275566078398 0 0.015222768575994127 -0.0013038071474960522 0 0.015109192630009075 -0.0014300942485340217 0 0.014846103328464937 -0.0013438861017932141 0 0.014468114323902227 -0.0013606745311516984 0 0.014720127190665075 -0.0021630960062393244 0 0.014560943363387572 -0.0014094059401456428 0 0.015020953249497555 -0.0026792515839667002 0 0.015191464923737916 -0.0016524249484047317 0 0.014846103328464937 -0.0013438861017932141 0 0.014720127190665075 -0.0021630960062393244 0 0.015191464923737916 -0.0016524249484047317 0 0.014720127190665075 -0.0021630960062393244 0 0.01524439447356866 -0.0022719519925858199 0 0.015098252559560023 -0.00085519743474729896 0 0.015191464923737916 -0.0016524249484047317 0 0.014846103328464937 -0.0013438861017932141 0 0.014589231877730273 -0.00077887413056562844 0 0.015098252559560023 -0.00085519743474729896 0 0.014846103328464937 -0.0013438861017932141 0 0.014589231877730273 -0.00077887413056562844 0 0.014846103328464937 -0.0013438861017932141 0 0.014468114323902227 -0.0013606745311516984 0 0.013716482019372762 -0.00054593098766467056 0 0.014468114323902227 -0.0013606745311516984 0 0.01352018550041776 -0.0013688245766743891 0 0.014468114323902227 -0.0013606745311516984 0 0.014236390673680314 -0.0021657713476883251 0 0.01352018550041776 -0.0013688245766743891 0 0.014468114323902227 -0.0013606745311516984 0 0.014236390673680314 -0.0021657713476883251 0 0.015492890838486656 -0.0029555042609686563 0 0.014236390673680314 -0.0021657713476883251 0 0.014381780048652435 -0.0029489081331008954 0 0.015492890838486656 -0.0029555042609686563 0 0.014236390673680314 -0.0021657713476883251 0 0.014381780048652435 -0.0029489081331008954 0 0.013518012923435147 -0.0023713173095500435 0 0.014381780048652435 -0.0029489081331008954 0 0.015025254806162309 -0.0034700068585523879 0 0.015492890838486656 -0.0029555042609686563 0 0.015025254806162309 -0.0034700068585523879 0 0.014464221389384146 -0.0038488416267447134 0 0.015057291748528519 -0.0041247244694602491 0 0.014381780048652435 -0.0029489081331008954 0 0.015025254806162309 -0.0034700068585523879 0 0.014464221389384146 -0.0038488416267447134 0 0.014464221389384146 -0.0038488416267447134 0 0.015344013077153365 -0.0047531789747587549 0 0.013284723717831466 -0.0036458713559903138 0 0.015344013077153365 -0.0047531789747587549 0 0.017118222035988936 -0.0048894285655443357 0 0.016358046241097119 -0.0044405189127775888 0 0.015344013077153365 -0.0047531789747587549 0 0.015323737786963625 -0.0045391489444511907 0 0.015057291748528519 -0.0041247244694602491 0 0.015292770158917343 -0.0046963119972045402 0 0.015323737786963625 -0.0045391489444511907 0 0.01551436711812893 -0.0045994652858604166 0 0.015292770158917343 -0.0046963119972045402 0 0.015344013077153365 -0.0047531789747587549 0 0.015323737786963625 -0.0045391489444511907 0 0.015323737786963625 -0.0045391489444511907 0 0.01538468452940691 -0.0043931418332815841 0 0.015057291748528519 -0.0041247244694602491 0 0.015323737786963625 -0.0045391489444511907 0 0.01538468452940691 -0.0043931418332815841 0 0.01551436711812893 -0.0045994652858604166 0 0.014464221389384146 -0.0038488416267447134 0 0.015344013077153365 -0.0047531789747587549 0 0.015057291748528519 -0.0041247244694602491 0 0.01538468452940691 -0.0043931418332815841 0 0.015057291748528519 -0.0041247244694602491 0 0.01542975492688229 -0.0040201449601175061 0 0.015025254806162309 -0.0034700068585523879 0 0.015057291748528519 -0.0041247244694602491 0 0.01542975492688229 -0.0040201449601175061 0 0.01538468452940691 -0.0043931418332815841 0 0.01542975492688229 -0.0040201449601175061 0 0.015651900793759017 -0.0044991867920180593 0 0.01542975492688229 -0.0040201449601175061 0 0.016104897609702063 -0.0044941355291068762 0 0.015492890838486656 -0.0029555042609686563 0 0.016268009242768902 -0.0031274431903575966 0 0.015481755301236074 -0.0019438664780972688 0 0.01542975492688229 -0.0040201449601175061 0 0.015651900793759017 -0.0044991867920180593 0 0.016104897609702063 -0.0044941355291068762 0 0.015292770158917343 -0.0046963119972045402 0 0.01551436711812893 -0.0045994652858604166 0 0.015954795322856638 -0.0048154656985277839 0 0.01538468452940691 -0.0043931418332815841 0 0.015651900793759017 -0.0044991867920180593 0 0.01551436711812893 -0.0045994652858604166 0 0.015651900793759017 -0.0044991867920180593 0 0.01551436711812893 -0.0045994652858604166 0 0.015954795322856638 -0.0048154656985277839 0 0.016860448673763229 -0.0029050737431108812 0 0.017011213155468198 -0.0024461611888150596 0 0.016713136260334497 -0.0024181237574585888 0 0.016268009242768902 -0.0031274431903575966 0 0.017635067350355825 -0.0022527883163327503 0 0.015651900793759017 -0.0044991867920180593 0 0.016104897609702063 -0.0044941355291068762 0 0.015954795322856638 -0.0048154656985277839 0 0.016268009242768902 -0.0031274431903575966 0 0.016588776991524622 -0.0028647187420387291 0 0.016268009242768902 -0.0031274431903575966 0 0.015020953249497555 -0.0026792515839667002 0 0.015006650897417741 -0.0030457665418141015 0 0.014720127190665075 -0.0021630960062393244 0 0.01524439447356866 -0.0022719519925858199 0 0.015025254806162309 -0.0034700068585523879 0 0.01542975492688229 -0.0040201449601175061 0 0.015492890838486656 -0.0029555042609686563 0 0.015481755301236074 -0.0019438664780972688 0 0.015476908658967389 -0.0018686232380205536 0 0.015222768575994127 -0.0013038071474960522 0 0.015109192630009075 -0.0014300942485340217 0 0.015214974290222597 -0.0014192304632115536 0 0.015094508302528981 -0.0014837840794375565 0 0.015109192630009075 -0.0014300942485340217 0 0.015214974290222597 -0.0014192304632115536 0 0.015094508302528981 -0.0014837840794375565 0 0.015214974290222597 -0.0014192304632115536 0 0.015335736936660137 -0.001532788973037974 0 0.015222768575994127 -0.0013038071474960522 0 0.015214974290222597 -0.0014192304632115536 0 0.01531685780583977 -0.0013602849782436679 0 0.015214974290222597 -0.0014192304632115536 0 0.01531685780583977 -0.0013602849782436679 0 0.015335736936660137 -0.001532788973037974 0 0.015094508302528981 -0.0014837840794375565 0 0.015335736936660137 -0.001532788973037974 0 0.015408501062099669 -0.0017834730650759963 0 0.015094508302528981 -0.0014837840794375565 0 0.015408501062099669 -0.0017834730650759963 0 0.015170112521070674 -0.0021223107255272191 0 0.015481755301236074 -0.0019438664780972688 0 0.01747602727096342 -0.001851833032910556 0 0.016468413275380293 -0.002362155963825374 0 0.016531118687582447 -0.0021301655984308004 0 0.01657226920560282 -0.0024378258787429974 0 0.016468413275380293 -0.002362155963825374 0 0.01657226920560282 -0.0024378258787429974 0 0.016493211691284992 -0.0024319614530973104 0 0.015408501062099669 -0.0017834730650759963 0 0.015673405126918456 -0.0017611431589615919 0 0.015706098812441685 -0.0021767112512897854 0 0.015408501062099669 -0.0017834730650759963 0 0.015706098812441685 -0.0021767112512897854 0 0.015170112521070674 -0.0021223107255272191 0 0.015673405126918456 -0.0017611431589615919 0 0.015650395964180119 -0.0014854434708477975 0 0.015843288853656538 -0.0016075761904456088 0 0.015673405126918456 -0.0017611431589615919 0 0.015499575143934938 -0.0016084463854763999 0 0.015650395964180119 -0.0014854434708477975 0 0.015335736936660137 -0.001532788973037974 0 0.015408501062099669 -0.0017834730650759963 0 0.015499575143934938 -0.0016084463854763999 0 0.015408501062099669 -0.0017834730650759963 0 0.015673405126918456 -0.0017611431589615919 0 0.015499575143934938 -0.0016084463854763999 0 0.015335736936660137 -0.001532788973037974 0 0.015499575143934938 -0.0016084463854763999 0 0.015450572085316165 -0.0014055926240439313 0 0.015499575143934938 -0.0016084463854763999 0 0.015450572085316165 -0.0014055926240439313 0 0.015650395964180119 -0.0014854434708477975 0 0.01531685780583977 -0.0013602849782436679 0 0.015335736936660137 -0.001532788973037974 0 0.015450572085316165 -0.0014055926240439313 0 0.01560623809285761 -0.0013392770604053594 0 0.015650395964180119 -0.0014854434708477975 0 0.015790117339676727 -0.0013638704017261659 0 0.01560623809285761 -0.0013392770604053594 0 0.015450572085316165 -0.0014055926240439313 0 0.015650395964180119 -0.0014854434708477975 0 0.018042236909326229 0.0014603043370282121 0 0.019093213728253376 0.00043765237749346717 0 0.017671435811157897 0.0001710139369671046 0 0.013326988858770705 -0.0010732505594673496 0 0.015757133599394187 -0.00075235064349600132 0 0.018042236909326229 0.0014603043370282121 0 0.017671435811157897 0.0001710139369671046 0 0.016638879297872559 0.00072587054144184675 0 0.013326988858770705 -0.0010732505594673496 0 0.016165183082438001 0.00052351441115637543 0 0.0084495063062302103 -0.001706111956797305 0 0.008490647018635708 -0.0042057493478574529 0 0.0061856379081457113 -0.002500418163852553 0 0.014264790286766272 -0.00050259612031339804 0 0.014377451778284825 -0.00058588284078495124 0 0.014446590187111544 -0.00050355296008648502 0 0.013326988858770705 -0.0010732505594673496 0 0.01006408055880607 -0.0014888921982725302 0 0.013326988858770705 -0.0010732505594673496 0 0.010675034035402526 -0.0023099002667755983 0 0.01129920663012117 -0.0017532451082293665 0 0.011988425934049664 -0.0012575372339473038 0 0.012129995080577514 -0.0024444909484007404 0 0.0084495063062302103 -0.001706111956797305 0 0.008490647018635708 -0.0042057493478574529 0 0.010643135286150227 -0.0025711162669747249 0 0.012533600378006351 -0.00078926213338775223 0 0.011988425934049664 -0.0012575372339473038 0 0.01261944466981536 -0.0017016439678947141 0 0.011988425934049664 -0.0012575372339473038 0 0.01261944466981536 -0.0017016439678947141 0 0.012129995080577514 -0.0024444909484007404 0 0.012533600378006351 -0.00078926213338775223 0 0.01261944466981536 -0.0017016439678947141 0 0.01352018550041776 -0.0013688245766743891 0 0.01261944466981536 -0.0017016439678947141 0 0.01352018550041776 -0.0013688245766743891 0 0.013245401760563408 -0.0023193877483618109 0 0.013545526121306703 -0.001399800192095042 0 0.013280194862020837 -0.0024499869757757193 0 0.014236390673680314 -0.0021657713476883251 0 0.01352018550041776 -0.0013688245766743891 0 0.013518012923435147 -0.0023713173095500435 0 0.01261944466981536 -0.0017016439678947141 0 0.013245401760563408 -0.0023193877483618109 0 0.012129995080577514 -0.0024444909484007404 0 0.015757133599394187 -0.00075235064349600132 0 0.015729847741243069 -0.0032343314177134133 0 0.013245401760563408 -0.0023193877483618109 0 0.012129995080577514 -0.0024444909484007404 0 0.01305487911195178 -0.0031966114522401952 0 0.019093213728253376 0.00043765237749346717 0 0.019445039342720707 -0.0001971816263142465 0 0.019065937639197474 -0.00036373836210615794 0 0.014381780048652435 -0.0029489081331008954 0 0.013518012923435147 -0.0023713173095500435 0 0.013284723717831466 -0.0036458713559903138 0 0.014381780048652435 -0.0029489081331008954 0 0.014464221389384146 -0.0038488416267447134 0 0.013284723717831466 -0.0036458713559903138 0 0.013280194862020837 -0.0024499869757757193 0 0.015729847741243069 -0.0032343314177134133 0 0.015344013077153365 -0.0047531789747587549 0 0.018159010783162063 -0.0068867750546187838 0 0.017118222035988936 -0.0048894285655443357 0 0.015729847741243069 -0.0032343314177134133 0 0.019104540172595139 -0.0024641149741797962 0 0.015490586765018906 -0.0054345070995582192 0 0.015729847741243069 -0.0032343314177134133 0 0.018159010783162063 -0.0068867750546187838 0 0.017118222035988936 -0.0048894285655443357 0 0.018660570050290062 -0.0044815531997609674 0 0.019445039342720707 -0.0001971816263142465 0 0.019065937639197474 -0.00036373836210615794 0 0.019201959506756225 -0.00054363233820229587 0 0.019065937639197474 -0.00036373836210615794 0 0.018957465022612675 -0.00055396261503825781 0 0.019201959506756225 -0.00054363233820229587 0 0.019065937639197474 -0.00036373836210615794 0 0.01863395295664589 -0.00040730814821106923 0 0.018957465022612675 -0.00055396261503825781 0 0.01863395295664589 -0.00040730814821106923 0 0.01889212344928768 -0.00052694076191611022 0 0.018957465022612675 -0.00055396261503825781 0 0.019093213728253376 0.00043765237749346717 0 0.019065937639197474 -0.00036373836210615794 0 0.01863395295664589 -0.00040730814821106923 0 0.019093213728253376 0.00043765237749346717 0 0.01863395295664589 -0.00040730814821106923 0 0.017671435811157897 0.0001710139369671046 0 0.01863395295664589 -0.00040730814821106923 0 0.017671435811157897 0.0001710139369671046 0 0.016685550203318616 -0.001426849196811075 0 0.01863395295664589 -0.00040730814821106923 0 0.01887180266480723 -0.00051831824026829368 0 0.01889212344928768 -0.00052694076191611022 0 0.018494649951442999 -0.00046664681871233087 0 0.018053649372322796 -0.00097926790338700239 0 0.016685550203318616 -0.001426849196811075 0 0.015199474977906561 -0.0011485639512559503 0 0.016207676197606647 -0.00043403992422884292 0 0.016685550203318616 -0.001426849196811075 0 0.015199474977906561 -0.0011485639512559503 0 0.014694193302735701 -0.0022128395972864233 0 0.015199474977906561 -0.0011485639512559503 0 0.014539474630439505 -0.00056108514115083279 0 0.014694193302735701 -0.0022128395972864233 0 0.015199474977906561 -0.0011485639512559503 0 0.014773453329923147 -0.00043025954751012058 0 0.016207676197606647 -0.00043403992422884292 0 0.015199474977906561 -0.0011485639512559503 0 0.014773453329923147 -0.00043025954751012058 0 0.014539474630439505 -0.00056108514115083279 0 0.014773453329923147 -0.00043025954751012058 0 0.014472797358149967 -0.00039762267660115296 0 0.014588217561360108 -0.00044659322321216572 0 0.014773453329923147 -0.00043025954751012058 0 0.016207676197606647 -0.00043403992422884292 0 0.016638879297872559 0.00072587054144184675 0 0.014542799551337937 -0.00056628708991387437 0 0.016165183082438001 0.00052351441115637543 0 0.017671435811157897 0.0001710139369671046 0 0.016685550203318616 -0.001426849196811075 0 0.016207676197606647 -0.00043403992422884292 0 0.017671435811157897 0.0001710139369671046 0 0.016207676197606647 -0.00043403992422884292 0 0.016638879297872559 0.00072587054144184675 0 0.014264790286766272 -0.00050259612031339804 0 0.014472797358149967 -0.00039762267660115296 0 0.014446590187111544 -0.00050355296008648502 0 0.014472797358149967 -0.00039762267660115296 0 0.014588217561360108 -0.00044659322321216572 0 0.014446590187111544 -0.00050355296008648502 0 0.014773453329923147 -0.00043025954751012058 0 0.014588217561360108 -0.00044659322321216572 0 0.014618922072225208 -0.00040365592154149036 0 0.014588217561360108 -0.00044659322321216572 0 0.014563152433433325 -0.00050597331833860542 0 0.014618922072225208 -0.00040365592154149036 0 0.014588217561360108 -0.00044659322321216572 0 0.01452124875494726 -0.00051712884923589715 0 0.014446590187111544 -0.00050355296008648502 0 0.014588217561360108 -0.00044659322321216572 0 0.01452124875494726 -0.00051712884923589715 0 0.014563152433433325 -0.00050597331833860542 0 0.01452124875494726 -0.00051712884923589715 0 0.014563152433433325 -0.00050597331833860542 0 0.014523975714945191 -0.00054316885555542079 0 0.014563152433433325 -0.00050597331833860542 0 0.014523975714945191 -0.00054316885555542079 0 0.01452520608264779 -0.00057168123776230886 0 0.01452124875494726 -0.00051712884923589715 0 0.014486204269531401 -0.00057885298642540255 0 0.014446298335104297 -0.00056097997383432348 0 0.01452124875494726 -0.00051712884923589715 0 0.014523975714945191 -0.00054316885555542079 0 0.014486204269531401 -0.00057885298642540255 0 0.014523975714945191 -0.00054316885555542079 0 0.01452520608264779 -0.00057168123776230886 0 0.014486204269531401 -0.00057885298642540255 0 0.014446298335104297 -0.00056097997383432348 0 0.014377451778284825 -0.00058588284078495124 0 0.014446590187111544 -0.00050355296008648502 0 0.01452124875494726 -0.00051712884923589715 0 0.014446298335104297 -0.00056097997383432348 0 0.014446590187111544 -0.00050355296008648502 0 0.0072695949213731704 -0.00094156398948754374 0 0.0073696033343236943 -0.00063278783212169219 0 0.011500071789927086 -0.001392410078935868 0 0.011609292813705324 -0.0012295398992640226 0 0.011715336155640218 -0.0012899284707405913 0 0.0072695949213731704 -0.00094156398948754374 0 0.0082425317081549002 -0.00097653988919504226 0 0.014563152433433325 -0.00050597331833860542 0 0.01452520608264779 -0.00057168123776230886 0 0.014606594878812365 -0.00055891884319319901 0 0.0082425317081549002 -0.00097653988919504226 0 0.013415316407993301 -0.00074692894364078205 0 0.011439515675602533 -0.0010103882001315143 0 0.011405131339516367 -0.0010248510972442819 0 0.011436945910971765 -0.00095707377059711446 0 0.014563152433433325 -0.00050597331833860542 0 0.014606594878812365 -0.00055891884319319901 0 0.014618922072225208 -0.00040365592154149036 0 0.011439515675602533 -0.0010103882001315143 0 0.011436945910971765 -0.00095707377059711446 0 0.01148893707259685 -0.00092688625159249242 0 0.0072695949213731704 -0.00094156398948754374 0 0.011958873593827093 -0.0011267513654953762 0 0.011500071789927086 -0.001392410078935868 0 0.011609292813705324 -0.0012295398992640226 0 0.0115134216610767 -0.00108783938664178 0 0.011609292813705324 -0.0012295398992640226 0 0.0115134216610767 -0.00108783938664178 0 0.011663217759618734 -0.0011317518216717093 0 0.0115134216610767 -0.00108783938664178 0 0.011621968170024389 -0.00090495837869021328 0 0.011529151226823029 -0.00078076252474809703 0 0.01163755229052332 -0.0010155599126229903 0 0.0115134216610767 -0.00108783938664178 0 0.011663217759618734 -0.0011317518216717093 0 0.011958873593827093 -0.0011267513654953762 0 0.011420123245421862 -0.00073325499999670515 0 0.01163755229052332 -0.0010155599126229903 0 0.011621968170024389 -0.00090495837869021328 0 0.011723813598093706 -0.00091212059026927344 0 0.01163755229052332 -0.0010155599126229903 0 0.0115134216610767 -0.00108783938664178 0 0.011621968170024389 -0.00090495837869021328 0 0.014773453329923147 -0.00043025954751012058 0 0.014618922072225208 -0.00040365592154149036 0 0.014539474630439505 -0.00056108514115083279 0 0.011436945910971765 -0.00095707377059711446 0 0.01148893707259685 -0.00092688625159249242 0 0.01144158158653168 -0.00085286514311843167 0 0.013415316407993301 -0.00074692894364078205 0 0.012780815152120685 -0.00079042011564514798 0 0.01148893707259685 -0.00092688625159249242 0 0.01144158158653168 -0.00085286514311843167 0 0.011529151226823029 -0.00078076252474809703 0 0.012780815152120685 -0.00079042011564514798 0 0.015454707284959445 -0.00082083525601676043 0 0.01144158158653168 -0.00085286514311843167 0 0.011529151226823029 -0.00078076252474809703 0 0.011412682018253708 -0.00067311988518330645 0 0.011621968170024389 -0.00090495837869021328 0 0.011700327240965125 -0.00073785765472264369 0 0.011723813598093706 -0.00091212059026927344 0 0.011621968170024389 -0.00090495837869021328 0 0.011529151226823029 -0.00078076252474809703 0 0.011700327240965125 -0.00073785765472264369 0 0.011700327240965125 -0.00073785765472264369 0 0.011723813598093706 -0.00091212059026927344 0 0.011967950892965972 -0.0007121722225403508 0 0.011723813598093706 -0.00091212059026927344 0 0.011840247145850006 -0.00096208984658153617 0 0.011967950892965972 -0.0007121722225403508 0 0.01194138099969716 -0.0010421603554940399 0 0.011840247145850006 -0.00096208984658153617 0 0.011967950892965972 -0.0007121722225403508 0 0.015084699735254318 -0.0022882251745651016 0 0.015579943842586976 -0.0014729524248957336 0 0.015099297681395042 -0.001174044417022518 0 0.0124461067235992 -0.0014265669242351673 0 0.013529031039919263 -0.001025148018214183 0 0.0124461067235992 -0.0014265669242351673 0 0.013125653266381671 -0.00093234419991854091 0 0.013125653266381671 -0.00093234419991854091 0 0.0068262177674148997 -0.00025891745626370276 0 0.010374603965892511 -0.0008730360426257869 0 0.010666550300636707 -0.00041199013677283464 0 0.010524001554665064 -0.0010886768810224349 0 0.01194138099969716 -0.0010421603554940399 0 0.011789545205193619 -0.0010884102827443314 0 0.011840247145850006 -0.00096208984658153617 0 0.01163755229052332 -0.0010155599126229903 0 0.011789545205193619 -0.0010884102827443314 0 0.011663217759618734 -0.0011317518216717093 0 0.01163755229052332 -0.0010155599126229903 0 0.011723813598093706 -0.00091212059026927344 0 0.011789545205193619 -0.0010884102827443314 0 0.011723813598093706 -0.00091212059026927344 0 0.011789545205193619 -0.0010884102827443314 0 0.011840247145850006 -0.00096208984658153617 0 0.010235566087510225 -0.00023948995418781983 0 0.010565236634198819 -0.00050379859914761495 0 0.010695466123659854 -0.00012693837731552615 0 0.0071495551714099497 0.00018022363045520359 0 0.0068262177674148997 -0.00025891745626370276 0 0.010235566087510225 -0.00023948995418781983 0 0.010565236634198819 -0.00050379859914761495 0 0.010119311416651535 -0.0007283174253948073 0 0.0038022915502391951 0.00083661933640628969 0 0.0036392269726147966 0.00072627968499937821 0 0.0032385349275101203 0.00053789115179979244 0 0.0038022915502391951 0.00083661933640628969 0 0.0036392269726147966 0.00072627968499937821 0 0.0042517400780269369 0.0006835158672929408 0 0.0036632663743841965 0.00072053986608090889 0 0.0041080534063541955 0.0006638864982136815 0 0.0036392269726147966 0.00072627968499937821 0 0.0037855704455360974 0.00044804978041601529 0 0.0039859290688851823 0.00062883047250968549 0 0.0036392269726147966 0.00072627968499937821 0 0.0037855704455360974 0.00044804978041601529 0 0.0035618930079702738 0.00042085951927011659 0 0.0037855704455360974 0.00044804978041601529 0 0.0035618930079702738 0.00042085951927011659 0 0.0036979138777926308 0.00018476786268256133 0 0.0035618930079702738 0.00042085951927011659 0 0.0034288899864904345 0.00022175386456523488 0 0.0032385349275101203 0.00053789115179979244 0 0.0036392269726147966 0.00072627968499937821 0 0.0035618930079702738 0.00042085951927011659 0 0.0032385349275101203 0.00053789115179979244 0 0.0034288899864904345 0.00022175386456523488 0 0.0036979138777926308 0.00018476786268256133 0 0.0034600865031365609 -4.2957756174182023e-05 0 0.0034288899864904345 0.00022175386456523488 0 0.0032385349275101203 0.00053789115179979244 0 0.0031938650968004324 0.00012528449212898213 0 0.0034288899864904345 0.00022175386456523488 0 0.0031938650968004324 0.00012528449212898213 0 0.0034600865031365609 -4.2957756174182023e-05 0 0.0035618930079702738 0.00042085951927011659 0 0.0034288899864904345 0.00022175386456523488 0 0.0036979138777926308 0.00018476786268256133 0 0.0031322276383205783 7.6336750707780928e-05 0 0.0033765845537262577 0.00017443894885934647 0 0.0032623957193309502 9.8720391104573803e-06 0 0.0073696033343236943 -0.00063278783212169219 0 0.0080760662961020142 -0.00047130957814500116 0 0.011792392718377842 -0.0012261488323352758 0 0.011715336155640218 -0.0012899284707405913 0 0.011717385039635484 -0.0011990675851059746 0 0.011792392718377842 -0.0012261488323352758 0 0.011715336155640218 -0.0012899284707405913 0 0.011870310523137919 -0.0012021147983108315 0 0.011609292813705324 -0.0012295398992640226 0 0.011715336155640218 -0.0012899284707405913 0 0.011717385039635484 -0.0011990675851059746 0 0.011609292813705324 -0.0012295398992640226 0 0.011717385039635484 -0.0011990675851059746 0 0.011663217759618734 -0.0011317518216717093 0 0.011789545205193619 -0.0010884102827443314 0 0.011717385039635484 -0.0011990675851059746 0 0.011663217759618734 -0.0011317518216717093 0 0.011789545205193619 -0.0010884102827443314 0 0.011792392718377842 -0.0012261488323352758 0 0.011717385039635484 -0.0011990675851059746 0 0.003496912156451672 0.00025810393595406905 0 0.0033765845537262577 0.00017443894885934647 0 0.0033865897541310729 -7.7862883302111244e-05 0 0.0068262177674148997 -0.00025891745626370276 0 0.0030095352136979962 0.00011144613943022644 0 0.0124461067235992 -0.0014265669242351673 0 0.011827592648244177 -0.0011923625128947202 0 0.0031322276383205783 7.6336750707780928e-05 0 0.003379364433944875 0.00020628313010324925 0 0.0033765845537262577 0.00017443894885934647 0 0.0124461067235992 -0.0014265669242351673 0 0.0080760662961020142 -0.00047130957814500116 0 0.01194138099969716 -0.0010421603554940399 0 0.011789545205193619 -0.0010884102827443314 0 0.011792392718377842 -0.0012261488323352758 0 0.011866991499125304 -0.0010842020988696196 0 0.011792392718377842 -0.0012261488323352758 0 0.011870310523137919 -0.0012021147983108315 0 0.010374603965892511 -0.0008730360426257869 0 0.010364803185757802 -0.0011685416397410233 0 0.010524001554665064 -0.0010886768810224349 0 0.0033798348047927762 0.00020712629081503803 0 0.003496912156451672 0.00025810393595406905 0 0.0033765845537262577 0.00017443894885934647 0 0.0080760662961020142 -0.00047130957814500116 0 0.0068262177674148997 -0.00025891745626370276 0 0.0080760662961020142 -0.00047130957814500116 0 0.0078797682410203587 -0.00035560661653496627 0 0.0033765845537262577 0.00017443894885934647 0 0.0033865897541310729 -7.7862883302111244e-05 0 0.0032623957193309502 9.8720391104573803e-06 0 0.0033865897541310729 -7.7862883302111244e-05 0 0.0032623957193309502 9.8720391104573803e-06 0 0.003180040180200871 -0.00020980035681841596 0 0.0032623957193309502 9.8720391104573803e-06 0 0.003101391668880646 -9.9982428453338284e-05 0 0.003180040180200871 -0.00020980035681841596 0 0.0031322276383205783 7.6336750707780928e-05 0 0.0032623957193309502 9.8720391104573803e-06 0 0.003101391668880646 -9.9982428453338284e-05 0 0.0029297687143304842 -4.4547440925412269e-05 0 0.0031322276383205783 7.6336750707780928e-05 0 0.003101391668880646 -9.9982428453338284e-05 0 0.0029297687143304842 -4.4547440925412269e-05 0 0.003101391668880646 -9.9982428453338284e-05 0 0.0030418593176748001 -0.00023719917751610788 0 0.003180040180200871 -0.00020980035681841596 0 0.0032687411925649786 -0.0003698871539077025 0 0.0030843598030016414 -0.00041384222481728641 0 0.0030418593176748001 -0.00023719917751610788 0 0.003180040180200871 -0.00020980035681841596 0 0.0030843598030016414 -0.00041384222481728641 0 0.003101391668880646 -9.9982428453338284e-05 0 0.0030418593176748001 -0.00023719917751610788 0 0.003180040180200871 -0.00020980035681841596 0 0.0030095352136979962 0.00011144613943022644 0 0.0032348449286284352 -0.00032973381128603788 0 0.0033865897541310729 -7.7862883302111244e-05 0 0.003180040180200871 -0.00020980035681841596 0 0.0032687411925649786 -0.0003698871539077025 0 0.0031938650968004324 0.00012528449212898213 0 0.0031553733696557452 -0.00026860300553333173 0 0.0034600865031365609 -4.2957756174182023e-05 0 0.0032348449286284352 -0.00032973381128603788 0 0.0031497272596579182 -0.00059502904642759523 0 0.0032687411925649786 -0.0003698871539077025 0 0.0030843598030016414 -0.00041384222481728641 0 0.0031427221737533144 -0.00062829983756785906 0 0.0030843598030016414 -0.00041384222481728641 0 0.0030093302969104387 -0.00058234587120467259 0 0.0029164435364977576 -0.00041274702248071611 0 0.0030418593176748001 -0.00023719917751610788 0 0.0030843598030016414 -0.00041384222481728641 0 0.0029164435364977576 -0.00041274702248071611 0 0.0036979138777926308 0.00018476786268256133 0 0.0034600865031365609 -4.2957756174182023e-05 0 0.0038913014166319206 -0.00012647905928583943 0 0.0034600865031365609 -4.2957756174182023e-05 0 0.00359604160943353 -0.00033432959860139969 0 0.0038913014166319206 -0.00012647905928583943 0 0.0031553733696557452 -0.00026860300553333173 0 0.0034600865031365609 -4.2957756174182023e-05 0 0.00359604160943353 -0.00033432959860139969 0 0.0031553733696557452 -0.00026860300553333173 0 0.00359604160943353 -0.00033432959860139969 0 0.0033965384832778207 -0.00059992846011962492 0 0.003672665736492347 -0.00064732755686912173 0 0.0033965384832778207 -0.00059992846011962492 0 0.003523465966473043 -0.00086448235820617985 0 0.00359604160943353 -0.00033432959860139969 0 0.003672665736492347 -0.00064732755686912173 0 0.0039589793936806242 -0.00056029872305393322 0 0.00359604160943353 -0.00033432959860139969 0 0.003672665736492347 -0.00064732755686912173 0 0.0033965384832778207 -0.00059992846011962492 0 0.0033965384832778207 -0.00059992846011962492 0 0.0032875609520036713 -0.0008148645019591317 0 0.003523465966473043 -0.00086448235820617985 0 0.0032820351367364876 -0.0010617939215390524 0 0.0032875609520036713 -0.0008148645019591317 0 0.003523465966473043 -0.00086448235820617985 0 0.003672665736492347 -0.00064732755686912173 0 0.003523465966473043 -0.00086448235820617985 0 0.0038533090193987119 -0.00094297965355059519 0 0.0030843598030016414 -0.00041384222481728641 0 0.0030093302969104387 -0.00058234587120467259 0 0.0031427221737533144 -0.00062829983756785906 0 0.0030093302969104387 -0.00058234587120467259 0 0.0028761988209195693 -0.00075791285582017971 0 0.0029164435364977576 -0.00041274702248071611 0 0.0030093302969104387 -0.00058234587120467259 0 0.0031427221737533144 -0.00062829983756785906 0 0.0030190751047021883 -0.00072527436304267018 0 0.0030093302969104387 -0.00058234587120467259 0 0.0030190751047021883 -0.00072527436304267018 0 0.0028761988209195693 -0.00075791285582017971 0 0.0033965384832778207 -0.00059992846011962492 0 0.0032875609520036713 -0.0008148645019591317 0 0.0031427221737533144 -0.00062829983756785906 0 0.0031553733696557452 -0.00026860300553333173 0 0.0033965384832778207 -0.00059992846011962492 0 0.0031427221737533144 -0.00062829983756785906 0 0.0032875609520036713 -0.0008148645019591317 0 0.0031427221737533144 -0.00062829983756785906 0 0.0031024639434358596 -0.00088204307271394727 0 0.0032820351367364876 -0.0010617939215390524 0 0.0032875609520036713 -0.0008148645019591317 0 0.0031024639434358596 -0.00088204307271394727 0 0.0031427221737533144 -0.00062829983756785906 0 0.0031024639434358596 -0.00088204307271394727 0 0.0030190751047021883 -0.00072527436304267018 0 0.0029639118814555332 -0.0009623902294086553 0 0.0031024639434358596 -0.00088204307271394727 0 0.0029843623572583453 -0.00084308270774117327 0 0.0031024639434358596 -0.00088204307271394727 0 0.0029843623572583453 -0.00084308270774117327 0 0.0030190751047021883 -0.00072527436304267018 0 0.0029843623572583453 -0.00084308270774117327 0 0.0030190751047021883 -0.00072527436304267018 0 0.0028761988209195693 -0.00075791285582017971 0 0.0029639118814555332 -0.0009623902294086553 0 0.0029843623572583453 -0.00084308270774117327 0 0.0028761988209195693 -0.00075791285582017971 0 0.0029144305208430362 0.00048368571027063167 0 0.0030057085449918261 4.2658593080613656e-05 0 0.0027936565247386634 -9.5745532320506941e-05 0 0.0032298656593287766 0.00033188727996786113 0 0.0030057085449918261 4.2658593080613656e-05 0 0.0034656163472301768 6.6637034261293773e-05 0 0.0032298656593287766 0.00033188727996786113 0 0.0029144305208430362 0.00048368571027063167 0 0.0030057085449918261 4.2658593080613656e-05 0 0.0029238575059551747 -0.00044448344471889915 0 0.0023744092355252613 -0.00055949440318517124 0 0.0030057085449918261 4.2658593080613656e-05 0 0.003387285685743049 -0.00033869534384677296 0 0.0033128574554311852 -0.00090914004665435032 0 0.0030057085449918261 4.2658593080613656e-05 0 0.0027936565247386634 -9.5745532320506941e-05 0 0.0032565286325999146 -0.00074606352421468928 0 0.003221778241712971 2.0804325825529507e-05 0 0.0025953237546988369 -0.00089821890502137501 0 0.0027936565247386634 -9.5745532320506941e-05 0 0.0030440532342485664 -0.00086929198872274876 0 0.0032565286325999146 -0.00074606352421468928 0 0.00355275541855621 -0.00058862055900617901 0 0.003387285685743049 -0.00033869534384677296 0 0.0033128574554311852 -0.00090914004665435032 0 0.0038487719970526552 -0.0006379062008789768 0 0.00355275541855621 -0.00058862055900617901 0 0.0035951322882927226 -0.00030980353481726024 0 0.0038487719970526552 -0.0006379062008789768 0 0.00355275541855621 -0.00058862055900617901 0 0.0037228633576761971 -0.00092899083145996607 0 0.00355275541855621 -0.00058862055900617901 0 0.003387285685743049 -0.00033869534384677296 0 0.0035951322882927226 -0.00030980353481726024 0 0.0038487719970526552 -0.0006379062008789768 0 0.0035951322882927226 -0.00030980353481726024 0 0.0038856661660203488 -0.00017098943279921926 0 0.0035951322882927226 -0.00030980353481726024 0 0.0034656163472301768 6.6637034261293773e-05 0 0.0038856661660203488 -0.00017098943279921926 0 0.0030057085449918261 4.2658593080613656e-05 0 0.003387285685743049 -0.00033869534384677296 0 0.0034656163472301768 6.6637034261293773e-05 0 0.003387285685743049 -0.00033869534384677296 0 0.0035951322882927226 -0.00030980353481726024 0 0.0034656163472301768 6.6637034261293773e-05 0 0.0035101676422677171 0.00038367961938667075 0 0.0032298656593287766 0.00033188727996786113 0 0.0034656163472301768 6.6637034261293773e-05 0 0.0035101676422677171 0.00038367961938667075 0 0.0034656163472301768 6.6637034261293773e-05 0 0.0038698622157900416 0.00024668100552854177 0 0.0034656163472301768 6.6637034261293773e-05 0 0.0038698622157900416 0.00024668100552854177 0 0.0038856661660203488 -0.00017098943279921926 0 0.0042729333206305287 0.00035440192735282963 0 0.0038698622157900416 0.00024668100552854177 0 0.0043594425510701867 -0.00013176945956044756 0 0.0038698622157900416 0.00024668100552854177 0 0.0043594425510701867 -0.00013176945956044756 0 0.0038856661660203488 -0.00017098943279921926 0 0.0050677062507928057 0.00025724750063014227 0 0.0049689739145964661 -0.00039634130586099401 0 0.0047815451555947731 0.0004088279814693239 0 0.0042729333206305287 0.00035440192735282963 0 0.0043594425510701867 -0.00013176945956044756 0 0.0047815451555947731 0.0004088279814693239 0 0.0050253353100960648 -0.00043282404028350136 0 0.0043594425510701867 -0.00013176945956044756 0 0.0050253353100960648 -0.00043282404028350136 0 0.0043594425510701867 -0.00013176945956044756 0 0.0045667132542023866 -0.00072898335071655562 0 0.0050253353100960648 -0.00043282404028350136 0 0.0045667132542023866 -0.00072898335071655562 0 0.004970468134488047 -0.00095197306998113542 0 0.0043594425510701867 -0.00013176945956044756 0 0.0045667132542023866 -0.00072898335071655562 0 0.0041672143526441646 -0.00051315821111438378 0 0.0038487719970526552 -0.0006379062008789768 0 0.0038856661660203488 -0.00017098943279921926 0 0.0041672143526441646 -0.00051315821111438378 0 0.0043594425510701867 -0.00013176945956044756 0 0.0038856661660203488 -0.00017098943279921926 0 0.0041672143526441646 -0.00051315821111438378 0 0.0038487719970526552 -0.0006379062008789768 0 0.0041672143526441646 -0.00051315821111438378 0 0.004144715377659247 -0.00098947596295537697 0 0.0045667132542023866 -0.00072898335071655562 0 0.0044961101025749262 -0.0010834547956910297 0 0.004144715377659247 -0.00098947596295537697 0 0.0045667132542023866 -0.00072898335071655562 0 0.0041672143526441646 -0.00051315821111438378 0 0.004144715377659247 -0.00098947596295537697 0 0.0044961101025749262 -0.0010834547956910297 0 0.0043158648925483139 -0.0012266523291377541 0 0.004144715377659247 -0.00098947596295537697 0 0.0044961101025749262 -0.0010834547956910297 0 0.0043158648925483139 -0.0012266523291377541 0 0.0045250012143426875 -0.0012840984342684764 0 0.0043158648925483139 -0.0012266523291377541 0 0.004144715377659247 -0.00098947596295537697 0 0.0040002097658277651 -0.0013122719416498315 0 0.004144715377659247 -0.00098947596295537697 0 0.0040002097658277651 -0.0013122719416498315 0 0.0039006835531595042 -0.0011162535626006572 0 0.004970468134488047 -0.00095197306998113542 0 0.0047519744632685199 -0.0010074307094233572 0 0.0050913680696426248 -0.0017088674294302327 0 0.0045667132542023866 -0.00072898335071655562 0 0.004970468134488047 -0.00095197306998113542 0 0.0047519744632685199 -0.0010074307094233572 0 0.0045667132542023866 -0.00072898335071655562 0 0.0044961101025749262 -0.0010834547956910297 0 0.0047519744632685199 -0.0010074307094233572 0 0.0044961101025749262 -0.0010834547956910297 0 0.0047055303543103817 -0.0012795915497849815 0 0.0045250012143426875 -0.0012840984342684764 0 0.0044961101025749262 -0.0010834547956910297 0 0.0047519744632685199 -0.0010074307094233572 0 0.0047055303543103817 -0.0012795915497849815 0 0.0047519744632685199 -0.0010074307094233572 0 0.0047055303543103817 -0.0012795915497849815 0 0.0050913680696426248 -0.0017088674294302327 0 0.0065062332758859705 -0.0021999360114603132 0 0.0093107217260302889 -0.0013979431357718998 0 0.0047055303543103817 -0.0012795915497849815 0 0.0045250012143426875 -0.0012840984342684764 0 0.00448522553658147 -0.0014045798674933289 0 0.0047055303543103817 -0.0012795915497849815 0 0.0050913680696426248 -0.0017088674294302327 0 0.0040729495214603855 -0.0012185558800430485 0 0.014446298335104297 -0.00056097997383432348 0 0.014377451778284825 -0.00058588284078495124 0 0.014450670980694401 -0.00065056109544691927 0 0.0061856379081457113 -0.002500418163852553 0 0.0050913680696426248 -0.0017088674294302327 0 0.0040729495214603855 -0.0012185558800430485 0 0.01006408055880607 -0.0014888921982725302 0 0.0093107217260302889 -0.0013979431357718998 0 0.01452520608264779 -0.00057168123776230886 0 0.014606594878812365 -0.00055891884319319901 0 0.014450670980694401 -0.00065056109544691927 0 0.0035668089759751972 -0.0018729019623782857 0 0.00448522553658147 -0.0014045798674933289 0 0.0042892418885332713 -0.0013941759278846444 0 0.0082425317081549002 -0.00097653988919504226 0 0.0093107217260302889 -0.0013979431357718998 0 0.0043158648925483139 -0.0012266523291377541 0 0.0040002097658277651 -0.0013122719416498315 0 0.0042892418885332713 -0.0013941759278846444 0 0.0043158648925483139 -0.0012266523291377541 0 0.0043810254525110939 -0.0013231246869728128 0 0.0042892418885332713 -0.0013941759278846444 0 0.0043810254525110939 -0.0013231246869728128 0 0.00448522553658147 -0.0014045798674933289 0 0.0042892418885332713 -0.0013941759278846444 0 0.0043158648925483139 -0.0012266523291377541 0 0.0043810254525110939 -0.0013231246869728128 0 0.0045250012143426875 -0.0012840984342684764 0 0.0043810254525110939 -0.0013231246869728128 0 0.0045250012143426875 -0.0012840984342684764 0 0.00448522553658147 -0.0014045798674933289 0 0.01452520608264779 -0.00057168123776230886 0 0.014486204269531401 -0.00057885298642540255 0 0.014450670980694401 -0.00065056109544691927 0 0.014486204269531401 -0.00057885298642540255 0 0.014446298335104297 -0.00056097997383432348 0 0.014450670980694401 -0.00065056109544691927 0 0.0035668089759751972 -0.0018729019623782857 0 0.0040002097658277651 -0.0013122719416498315 0 0.0042892418885332713 -0.0013941759278846444 0 0.0035668089759751972 -0.0018729019623782857 0 0.0033128574554311852 -0.00090914004665435032 0 0.0037374036037505971 -0.0012337623729372701 0 0.0035668089759751972 -0.0018729019623782857 0 0.0040002097658277651 -0.0013122719416498315 0 0.0037374036037505971 -0.0012337623729372701 0 0.0082425317081549002 -0.00097653988919504226 0 0.0025953237546988369 -0.00089821890502137501 0 0.0034782688654598961 -0.0014394625156064927 0 0.0030440532342485664 -0.00086929198872274876 0 0.0032565286325999146 -0.00074606352421468928 0 0.0072695949213731704 -0.00094156398948754374 0 0.0023744092355252613 -0.00055949440318517124 0 0.0032406383059819977 -0.0015646351922094491 0 0.0034782688654598961 -0.0014394625156064927 0 0.0030440532342485664 -0.00086929198872274876 0 0.0029297687143304842 -4.4547440925412269e-05 0 0.0030418593176748001 -0.00023719917751610788 0 0.0029164435364977576 -0.00041274702248071611 0 0.00355275541855621 -0.00058862055900617901 0 0.0033128574554311852 -0.00090914004665435032 0 0.0037228633576761971 -0.00092899083145996607 0 0.0038487719970526552 -0.0006379062008789768 0 0.004144715377659247 -0.00098947596295537697 0 0.0037228633576761971 -0.00092899083145996607 0 0.004144715377659247 -0.00098947596295537697 0 0.0037228633576761971 -0.00092899083145996607 0 0.0039006835531595042 -0.0011162535626006572 0 0.0037228633576761971 -0.00092899083145996607 0 0.0039006835531595042 -0.0011162535626006572 0 0.0037374036037505971 -0.0012337623729372701 0 0.0040002097658277651 -0.0013122719416498315 0 0.0039006835531595042 -0.0011162535626006572 0 0.0037374036037505971 -0.0012337623729372701 0 0.0033128574554311852 -0.00090914004665435032 0 0.0037228633576761971 -0.00092899083145996607 0 0.0037374036037505971 -0.0012337623729372701 0 0.0060060274154427442 2.4651916825637224e-05 0 0.0063561124370463606 -2.1988734180636791e-05 0 0.0055941873999149324 -4.5166824768641906e-05 0 0.0060060274154427442 2.4651916825637224e-05 0 0.0056784296468246776 2.0023088683254688e-07 0 0.0055941873999149324 -4.5166824768641906e-05 0 0.0056784296468246776 2.0023088683254688e-07 0 0.0055941873999149324 -4.5166824768641906e-05 0 0.004363976592712971 1.9373112612353418e-07 0 0.0060060274154427442 2.4651916825637224e-05 0 0.0056784296468246776 2.0023088683254688e-07 0 0.0064938947325517138 0.00016538540521560694 0 0.0060060274154427442 2.4651916825637224e-05 0 0.0063561124370463606 -2.1988734180636791e-05 0 0.0064938947325517138 0.00016538540521560694 0 0.0063561124370463606 -2.1988734180636791e-05 0 0.0068935460757427692 0.00012253606118081258 0 0.0064938947325517138 0.00016538540521560694 0 0.0063561124370463606 -2.1988734180636791e-05 0 0.0069527511094536814 -0.00012360379319082673 0 0.0068935460757427692 0.00012253606118081258 0 0.0063561124370463606 -2.1988734180636791e-05 0 0.0063833965946458382 -0.00040866413768405078 0 0.0069527511094536814 -0.00012360379319082673 0 0.0036472762466920714 -0.00086471793537069006 0 0.0043306340553884836 -0.00082631492819546404 0 0.0063561124370463606 -2.1988734180636791e-05 0 0.0061626507548742616 -0.00028039026799383068 0 0.0055941873999149324 -4.5166824768641906e-05 0 0.0062700974223185418 4.3542108443886591e-06 0 0.0036472762466920714 -0.00086471793537069006 0 0.0036472762466920714 -0.00086471793537069006 0 0.0033260895562018762 -0.00061136552518663463 0 0.0016668716509129905 -0.0014507677536504855 0 0.0014773674507426438 -0.0013893621680683178 0 0.0014889673384132177 -0.0015628737977568404 0 0.0016668716509129905 -0.0014507677536504855 0 0.0016186685239388541 -0.0012620615162013966 0 0.0014773674507426438 -0.0013893621680683178 0 0.0016186685239388541 -0.0012620615162013966 0 0.0014356358763442784 -0.0012174817549026576 0 0.0014773674507426438 -0.0013893621680683178 0 0.0007895966188503587 -0.0014577083712341286 0 0.0015722619156609524 -0.00095838614807010802 0 0.00060466814723309664 -0.00046989438216801614 0 0.0036472762466920714 -0.00086471793537069006 0 0.00079983162215234416 -0.00097622280823984355 0 0.0061626507548742616 -0.00028039026799383068 0 0.0050717021632074415 -0.00040011233197253485 0 0.0055941873999149324 -4.5166824768641906e-05 0 0.0050717021632074415 -0.00040011233197253485 0 0.0055941873999149324 -4.5166824768641906e-05 0 0.004363976592712971 1.9373112612353418e-07 0 0.0050717021632074415 -0.00040011233197253485 0 0.004363976592712971 1.9373112612353418e-07 0 0.0030510518720914528 -1.4857924549311668e-06 0 0.0033260895562018762 -0.00061136552518663463 0 0.003049397041832214 -1.2820050778086309e-07 0 0.0015722619156609524 -0.00095838614807010802 0 0.0030459026608297287 -2.1529220391970429e-06 0 0.0011370248762296296 0.0001139791534531344 0 0.0015722619156609524 -0.00095838614807010802 0 0.0011370248762296296 0.0001139791534531344 0 0.00060466814723309664 -0.00046989438216801614 0 0.0030459026608297287 -2.1529220391970429e-06 0 0.0011370248762296296 0.0001139791534531344 0 0.0016650565599289286 9.3918056171294821e-07 0 0.0011370248762296296 0.0001139791534531344 0 0.0016650565599289286 9.3918056171294821e-07 0 0.00050770264846736299 0.00015276533410054047 0 0.0016650565599289286 9.3918056171294821e-07 0 0.00050770264846736299 0.00015276533410054047 0 0.00028019543454318107 7.4905430257059749e-08 0 0.0011370248762296296 0.0001139791534531344 0 0.00050770264846736299 0.00015276533410054047 0 0.00043295997477131359 0.00021857922503166788 0 -0.00023137262565010045 7.6363376460953489e-05 0 -0.0001539842174030093 2.704965284195214e-05 0 0.00050770264846736299 0.00015276533410054047 0 -0.0001539842174030093 2.704965284195214e-05 0 0.00050770264846736299 0.00015276533410054047 0 0.00043295997477131359 0.00021857922503166788 0 -0.00023137262565010045 7.6363376460953489e-05 0 0.00050770264846736299 0.00015276533410054047 0 0.00028019543454318107 7.4905430257059749e-08 0 -0.00059386830351791881 -0.0017377011695997007 0 -0.00063054373194401214 -0.0016323166796390896 0 -0.00040481831618368339 -0.0017201674945959019 0 -0.00095813232218645795 -0.0011118325351772988 0 7.9922666397837355e-05 -0.00069283066652401943 0 -0.00033039896841176303 8.1745874604878874e-05 0 7.9922666397837355e-05 -0.00069283066652401943 0 -0.0001539842174030093 2.704965284195214e-05 0 0.0005241728979656382 0.00011916352395960007 0 0.00043295997477131359 0.00021857922503166788 0 -0.00095665849373895997 4.0704609337967929e-05 0 -0.0001539842174030093 2.704965284195214e-05 0 -0.0013862091831404451 -0.0005570424624482378 0 0.0005241728979656382 0.00011916352395960007 0 0.00043295997477131359 0.00021857922503166788 0 0.00048023183534694994 0.00019858680962870284 0 7.9922666397837355e-05 -0.00069283066652401943 0 0.0011839045729994736 -0.00036418167343571056 0 0.0015323033070697054 -0.00086098707714343597 0 0.0015754430604952414 -0.0010602160621003952 0 0.0014679879541145682 -0.00097353196294930593 0 0.0015754430604952414 -0.0010602160621003952 0 0.0014144741363774764 -0.0010698057977413513 0 0.0014679879541145682 -0.00097353196294930593 0 0.0011370248762296296 0.0001139791534531344 0 0.00048023183534694994 0.00019858680962870284 0 0.00060466814723309664 -0.00046989438216801614 0 0.0011370248762296296 0.0001139791534531344 0 0.00043295997477131359 0.00021857922503166788 0 0.00048023183534694994 0.00019858680962870284 0 0.0011839045729994736 -0.00036418167343571056 0 0.00079983162215234416 -0.00097622280823984355 0 0.0015754430604952414 -0.0010602160621003952 0 0.0016186685239388541 -0.0012620615162013966 0 0.0014356358763442784 -0.0012174817549026576 0 0.0014356358763442784 -0.0012174817549026576 0 0.0012463442495389263 -0.0011612403184199404 0 0.0013201758247200096 -0.0013357270509431753 0 0.0012463442495389263 -0.0011612403184199404 0 0.0014144741363774764 -0.0010698057977413513 0 0.0013363070724664869 -0.00093799094322631886 0 0.0014356358763442784 -0.0012174817549026576 0 0.0012463442495389263 -0.0011612403184199404 0 0.0014144741363774764 -0.0010698057977413513 0 0.0015754430604952414 -0.0010602160621003952 0 0.0014356358763442784 -0.0012174817549026576 0 0.0014144741363774764 -0.0010698057977413513 0 0.0014144741363774764 -0.0010698057977413513 0 0.0014679879541145682 -0.00097353196294930593 0 0.0013363070724664869 -0.00093799094322631886 0 -0.00029906395402641475 -0.0015370664916056036 0 -0.00040481831618368339 -0.0017201674945959019 0 -8.1365075694002123e-05 -0.0017078312612021835 0 -0.00063054373194401214 -0.0016323166796390896 0 -0.00029906395402641475 -0.0015370664916056036 0 -0.00040481831618368339 -0.0017201674945959019 0 7.9922666397837355e-05 -0.00069283066652401943 0 0.0005800824745971785 -0.0013105910558801766 0 0.0015323033070697054 -0.00086098707714343597 0 0.0014679879541145682 -0.00097353196294930593 0 0.0013363070724664869 -0.00093799094322631886 0 8.9284623632429247e-05 -0.001778160662005697 0 -8.1365075694002123e-05 -0.0017078312612021835 0 0.00022275742983079357 -0.0016521614065924158 0 8.9284623632429247e-05 -0.001778160662005697 0 0.00022275742983079357 -0.0016521614065924158 0 9.4014768013060183e-05 -0.0017902107701495162 0 -8.1365075694002123e-05 -0.0017078312612021835 0 2.8555638143337892e-05 -0.0014355892880315595 0 0.00022275742983079357 -0.0016521614065924158 0 0.0005800824745971785 -0.0013105910558801766 0 0.00056509977543178107 -0.0012214486841465098 0 0.0012463442495389263 -0.0011612403184199404 0 0.0013363070724664869 -0.00093799094322631886 0 0.0011107484512913593 -0.0010171034022532432 0 -0.00029906395402641475 -0.0015370664916056036 0 -8.1365075694002123e-05 -0.0017078312612021835 0 2.8555638143337892e-05 -0.0014355892880315595 0 2.8555638143337892e-05 -0.0014355892880315595 0 0.00022275742983079357 -0.0016521614065924158 0 0.00079450169963427887 -0.0012208306134833969 0 0.00056509977543178107 -0.0012214486841465098 0 0.00078438459492868504 -0.0012146440076905719 0 0.0011107484512913593 -0.0010171034022532432 0 0.0009996366567591149 -0.0011834437348678874 0 0.00079450169963427887 -0.0012208306134833969 0 0.0011107484512913593 -0.0010171034022532432 0 0.0009996366567591149 -0.0011834437348678874 0 0.0011199424758989696 -0.0011479920750215378 0 0.0009996366567591149 -0.0011834437348678874 0 0.0011199424758989696 -0.0011479920750215378 0 0.0010701033942743141 -0.0012343739073094274 0 0.0012463442495389263 -0.0011612403184199404 0 0.0011199424758989696 -0.0011479920750215378 0 0.0010701033942743141 -0.0012343739073094274 0 0.0012463442495389263 -0.0011612403184199404 0 0.0011107484512913593 -0.0010171034022532432 0 0.0011199424758989696 -0.0011479920750215378 0 0.0012463442495389263 -0.0011612403184199404 0 0.0010701033942743141 -0.0012343739073094274 0 0.0011673702702938633 -0.0013200220730636082 0 0.0012463442495389263 -0.0011612403184199404 0 0.0011673702702938633 -0.0013200220730636082 0 0.0013201758247200096 -0.0013357270509431753 0 0.0009996366567591149 -0.0011834437348678874 0 0.0010701033942743141 -0.0012343739073094274 0 0.0009273156343108603 -0.0012329660456739258 0 0.0010701033942743141 -0.0012343739073094274 0 0.0010309626365130949 -0.0013270801548995442 0 0.0011673702702938633 -0.0013200220730636082 0 0.0010701033942743141 -0.0012343739073094274 0 0.0010309626365130949 -0.0013270801548995442 0 0.0009273156343108603 -0.0012329660456739258 0 0.0010309626365130949 -0.0013270801548995442 0 0.0011169311686329739 -0.0014108876127163835 0 0.0011673702702938633 -0.0013200220730636082 0 0.0010309626365130949 -0.0013270801548995442 0 0.0011169311686329739 -0.0014108876127163835 0 0.0010302309804479546 -0.0014340397472981979 0 0.0011169311686329739 -0.0014108876127163835 0 0.0010989004098212525 -0.0014689327430449557 0 0.0010302309804479546 -0.0014340397472981979 0 0.0011169311686329739 -0.0014108876127163835 0 0.0011619789793173244 -0.0014888490053451557 0 0.0010989004098212525 -0.0014689327430449557 0 0.0011619789793173244 -0.0014888490053451557 0 0.0010989004098212525 -0.0014689327430449557 0 0.0010927314488892034 -0.0015378535657933933 0 0.0010989004098212525 -0.0014689327430449557 0 0.0010927314488892034 -0.0015378535657933933 0 0.0010302309804479546 -0.0014340397472981979 0 0.0012313848433696544 -0.0014288044391375307 0 0.0013681394170194858 -0.0014799780810801427 0 0.0012549096486223169 -0.001533884013966624 0 0.0011619789793173244 -0.0014888490053451557 0 0.0012313848433696544 -0.0014288044391375307 0 0.0012549096486223169 -0.001533884013966624 0 0.0011169311686329739 -0.0014108876127163835 0 0.0011619789793173244 -0.0014888490053451557 0 0.0012313848433696544 -0.0014288044391375307 0 0.0012313848433696544 -0.0014288044391375307 0 0.0011673702702938633 -0.0013200220730636082 0 0.0013201758247200096 -0.0013357270509431753 0 0.0011169311686329739 -0.0014108876127163835 0 0.0012313848433696544 -0.0014288044391375307 0 0.0011673702702938633 -0.0013200220730636082 0 0.0014356358763442784 -0.0012174817549026576 0 0.0013201758247200096 -0.0013357270509431753 0 0.0014773674507426438 -0.0013893621680683178 0 0.0014773674507426438 -0.0013893621680683178 0 0.0013681394170194858 -0.0014799780810801427 0 0.0014889673384132177 -0.0015628737977568404 0 0.0012313848433696544 -0.0014288044391375307 0 0.0013201758247200096 -0.0013357270509431753 0 0.0013681394170194858 -0.0014799780810801427 0 0.0013201758247200096 -0.0013357270509431753 0 0.0014773674507426438 -0.0013893621680683178 0 0.0013681394170194858 -0.0014799780810801427 0 0.0013681394170194858 -0.0014799780810801427 0 0.0014889673384132177 -0.0015628737977568404 0 0.0013191513990409777 -0.0016615732811182231 0 0.0069527511094536814 -0.00012360379319082673 0 0.0072045317720803945 -1.6282836091239673e-05 0 0.0068935460757427692 0.00012253606118081258 0 0.0013681394170194858 -0.0014799780810801427 0 0.0013191513990409777 -0.0016615732811182231 0 0.0012549096486223169 -0.001533884013966624 0 0.0043306340553884836 -0.00082631492819546404 0 0.0040796960904801536 -0.00088459491341748623 0 0.0013191513990409777 -0.0016615732811182231 0 0.0011919786063271493 -0.0016064225876709541 0 0.001198252090654025 -0.0017390379224569593 0 0.0011315262108599921 -0.0016434707946396904 0 0.0011919786063271493 -0.0016064225876709541 0 0.001198252090654025 -0.0017390379224569593 0 0.0011315262108599921 -0.0016434707946396904 0 0.0011919786063271493 -0.0016064225876709541 0 0.0010927314488892034 -0.0015378535657933933 0 0.0011619789793173244 -0.0014888490053451557 0 0.0011919786063271493 -0.0016064225876709541 0 0.0010927314488892034 -0.0015378535657933933 0 0.0011619789793173244 -0.0014888490053451557 0 0.0011919786063271493 -0.0016064225876709541 0 0.0012549096486223169 -0.001533884013966624 0 0.0013191513990409777 -0.0016615732811182231 0 0.0011919786063271493 -0.0016064225876709541 0 0.0012549096486223169 -0.001533884013966624 0 0.0069454116273559722 -0.0040442128586330259 0 0.005311926629103644 -0.004108293880782851 0 0.0060972290403319062 -0.003159941577065002 0 0.0041096339892645623 -0.0023412678662961244 0 0.0024220288299070681 -0.0020696706822824046 0 0.0069454116273559722 -0.0040442128586330259 0 0.0060972290403319062 -0.003159941577065002 0 0.0074283490932223464 -0.002944704796714632 0 0.0011315262108599921 -0.0016434707946396904 0 0.0010927314488892034 -0.0015378535657933933 0 0.001064741018992305 -0.0015425671988581397 0 0.0029893105434600185 -0.0024399883986617782 0 0.0024220288299070681 -0.0020696706822824046 0 0.0049248387150281243 -0.0027865644148358558 0 0.005311926629103644 -0.004108293880782851 0 0.0060972290403319062 -0.003159941577065002 0 0.0012110161357255552 -0.0018822769032577071 0 0.0024220288299070681 -0.0020696706822824046 0 0.0049248387150281243 -0.0027865644148358558 0 0.0060972290403319062 -0.003159941577065002 0 0.0053071817284273811 -0.001944813505920322 0 0.0066048104399935139 -0.0023387549483049326 0 0.0060972290403319062 -0.003159941577065002 0 0.0053071817284273811 -0.001944813505920322 0 0.0066048104399935139 -0.0023387549483049326 0 0.0060972290403319062 -0.003159941577065002 0 0.0074283490932223464 -0.002944704796714632 0 0.0074283490932223464 -0.002944704796714632 0 0.0090106020270667875 -0.0024769470557980352 0 0.0072651319314663183 -0.0016088115624349458 0 0.0066048104399935139 -0.0023387549483049326 0 0.0074283490932223464 -0.002944704796714632 0 0.0072651319314663183 -0.0016088115624349458 0 0.0074283490932223464 -0.002944704796714632 0 0.0090106020270667875 -0.0024769470557980352 0 0.0085913164162008723 -0.0040007189206765085 0 0.0069454116273559722 -0.0040442128586330259 0 0.0074283490932223464 -0.002944704796714632 0 0.0085913164162008723 -0.0040007189206765085 0 0.0041096339892645623 -0.0023412678662961244 0 0.0050134513138470277 -0.0022305202166925725 0 0.0010292673126675008 -0.00058976462868258581 0 0.0014504432350932008 -0.00046676470020089021 0 0.0013271446814783689 -0.0008614572896323778 0 0.0010292673126675008 -0.00058976462868258581 0 0.0013271446814783689 -0.0008614572896323778 0 0.0010373958536741294 -0.00092531458394699503 0 0.0014504432350932008 -0.00046676470020089021 0 0.0013271446814783689 -0.0008614572896323778 0 0.0017304967300427738 -0.00086109357044363228 0 0.0013271446814783689 -0.0008614572896323778 0 0.001462969538065713 -0.0012986081136723648 0 0.0017304967300427738 -0.00086109357044363228 0 0.0013271446814783689 -0.0008614572896323778 0 0.0011889114752382086 -0.0011984392429855782 0 0.001462969538065713 -0.0012986081136723648 0 0.0013271446814783689 -0.0008614572896323778 0 0.0011889114752382086 -0.0011984392429855782 0 0.0010373958536741294 -0.00092531458394699503 0 0.0011889114752382086 -0.0011984392429855782 0 0.00098980091976440514 -0.0011818913032739852 0 0.0010373958536741294 -0.00092531458394699503 0 0.00098980091976440514 -0.0011818913032739852 0 0.0010373958536741294 -0.00092531458394699503 0 0.00074971282780089026 -0.0010297600374266241 0 0.0010292673126675008 -0.00058976462868258581 0 0.0010373958536741294 -0.00092531458394699503 0 0.00086111453820546854 -0.00079046178421919968 0 0.0010373958536741294 -0.00092531458394699503 0 0.00086111453820546854 -0.00079046178421919968 0 0.00074971282780089026 -0.0010297600374266241 0 0.0010292673126675008 -0.00058976462868258581 0 0.00065179512515929237 -0.00064494326973145541 0 0.00086111453820546854 -0.00079046178421919968 0 0.0024220288299070681 -0.0020696706822824046 0 0.0006208330163536528 -0.00093422464006751168 0 0.00065179512515929237 -0.00064494326973145541 0 0.00086111453820546854 -0.00079046178421919968 0 0.00074971282780089026 -0.0010297600374266241 0 0.0010146208229394812 -0.0015466864800866619 0 0.0010302309804479546 -0.0014340397472981979 0 0.00091165536678601631 -0.0013510709293874711 0 0.0010927314488892034 -0.0015378535657933933 0 0.0010146208229394812 -0.0015466864800866619 0 0.0010302309804479546 -0.0014340397472981979 0 0.0010309626365130949 -0.0013270801548995442 0 0.00091165536678601631 -0.0013510709293874711 0 0.0009273156343108603 -0.0012329660456739258 0 0.0010309626365130949 -0.0013270801548995442 0 0.0010302309804479546 -0.0014340397472981979 0 0.00091165536678601631 -0.0013510709293874711 0 0.00091165536678601631 -0.0013510709293874711 0 0.0009273156343108603 -0.0012329660456739258 0 0.00087467801697311957 -0.001175054642137452 0 0.00098980091976440514 -0.0011818913032739852 0 0.00074971282780089026 -0.0010297600374266241 0 0.00090931657708208196 -0.0014267385459521274 0 0.0006208330163536528 -0.00093422464006751168 0 0.00093202587145124792 -0.0013698857629967534 0 0.00098980091976440514 -0.0011818913032739852 0 0.00090931657708208196 -0.0014267385459521274 0 0.0010846101538906411 -0.0013723437681477941 0 0.00093202587145124792 -0.0013698857629967534 0 0.0010105556250754745 -0.0015348459063557209 0 0.00087467801697311957 -0.001175054642137452 0 0.00079450169963427887 -0.0012208306134833969 0 0.0010407953849573099 -0.0015807446390971617 0 0.00090931657708208196 -0.0014267385459521274 0 0.0010407953849573099 -0.0015807446390971617 0 0.0010987893557523462 -0.0015171675735104009 0 0.00090931657708208196 -0.0014267385459521274 0 0.0010987893557523462 -0.0015171675735104009 0 0.0010846101538906411 -0.0013723437681477941 0 0.0009996366567591149 -0.0011834437348678874 0 0.0009273156343108603 -0.0012329660456739258 0 0.00079450169963427887 -0.0012208306134833969 0 0.0009273156343108603 -0.0012329660456739258 0 0.00087467801697311957 -0.001175054642137452 0 0.00079450169963427887 -0.0012208306134833969 0 0.00022275742983079357 -0.0016521614065924158 0 0.00079450169963427887 -0.0012208306134833969 0 0.00074540345288694437 -0.001587275882973605 0 0.00079450169963427887 -0.0012208306134833969 0 0.00074540345288694437 -0.001587275882973605 0 0.0010407953849573099 -0.0015807446390971617 0 0.00074540345288694437 -0.001587275882973605 0 0.0010407953849573099 -0.0015807446390971617 0 0.0008056829001720974 -0.0018776098062494768 0 0.0010949948005283903 -0.0019027060644202249 0 0.0008056829001720974 -0.0018776098062494768 0 0.001160576018661816 -0.0017762097534492235 0 0.0010407953849573099 -0.0015807446390971617 0 0.0008056829001720974 -0.0018776098062494768 0 0.001160576018661816 -0.0017762097534492235 0 0.00021972074467735837 -0.0016557784685308251 0 0.00044062457478500835 -0.0018201068765172489 0 0.00022275742983079357 -0.0016521614065924158 0 0.00074540345288694437 -0.001587275882973605 0 0.0008056829001720974 -0.0018776098062494768 0 0.0012202511431363794 -0.0018237261725583102 0 0.0012713950420337235 -0.00179915499169776 0 0.001160576018661816 -0.0017762097534492235 0 0.0012713950420337235 -0.00179915499169776 0 0.001160576018661816 -0.0017762097534492235 0 0.0012518315530362022 -0.0016750295279819812 0 0.0010407953849573099 -0.0015807446390971617 0 0.0012518315530362022 -0.0016750295279819812 0 0.0010987893557523462 -0.0015171675735104009 0 0.0010407953849573099 -0.0015807446390971617 0 0.001160576018661816 -0.0017762097534492235 0 0.0012518315530362022 -0.0016750295279819812 0 0.0012713950420337235 -0.00179915499169776 0 0.0012518315530362022 -0.0016750295279819812 0 0.001366664654276093 -0.0017683374938476091 0 0.0012518315530362022 -0.0016750295279819812 0 0.0012427032853374999 -0.0014936211683594428 0 0.0015201956162028368 -0.0016926869607695948 0 0.0012518315530362022 -0.0016750295279819812 0 0.0012427032853374999 -0.0014936211683594428 0 0.0010987893557523462 -0.0015171675735104009 0 0.0012427032853374999 -0.0014936211683594428 0 0.0010987893557523462 -0.0015171675735104009 0 0.0010846101538906411 -0.0013723437681477941 0 0.0011889114752382086 -0.0011984392429855782 0 0.0012427032853374999 -0.0014936211683594428 0 0.0010846101538906411 -0.0013723437681477941 0 0.0011889114752382086 -0.0011984392429855782 0 0.00098980091976440514 -0.0011818913032739852 0 0.0010846101538906411 -0.0013723437681477941 0 0.0011889114752382086 -0.0011984392429855782 0 0.0012427032853374999 -0.0014936211683594428 0 0.001462969538065713 -0.0012986081136723648 0 0.0012427032853374999 -0.0014936211683594428 0 0.001462969538065713 -0.0012986081136723648 0 0.0015201956162028368 -0.0016926869607695948 0 0.001462969538065713 -0.0012986081136723648 0 0.0020948864039301868 -0.0014240119158865317 0 0.0015201956162028368 -0.0016926869607695948 0 0.0015201956162028368 -0.0016926869607695948 0 0.001366664654276093 -0.0017683374938476091 0 0.0013535932440161846 -0.0017485136450461213 0 0.0015470228990003422 -0.001719669030526317 0 0.0019733795497636816 -0.0018526333478134595 0 0.0020948864039301868 -0.0014240119158865317 0 0.0015201956162028368 -0.0016926869607695948 0 0.0025997468779267604 -0.0019915222372897533 0 0.0012518315530362022 -0.0016750295279819812 0 0.0015201956162028368 -0.0016926869607695948 0 0.001366664654276093 -0.0017683374938476091 0 0.001366664654276093 -0.0017683374938476091 0 0.00127004023283587 -0.001854321618821811 0 0.0013535932440161846 -0.0017485136450461213 0 0.001366664654276093 -0.0017683374938476091 0 0.00127004023283587 -0.001854321618821811 0 0.0012737322849400042 -0.0018106854449084894 0 0.00127004023283587 -0.001854321618821811 0 0.0012737322849400042 -0.0018106854449084894 0 0.0011635964302208503 -0.0018221690154713651 0 0.0012713950420337235 -0.00179915499169776 0 0.001366664654276093 -0.0017683374938476091 0 0.0012737322849400042 -0.0018106854449084894 0 0.0012363733215814689 -0.0018697204206284813 0 0.0012031206378128143 -0.0019332893762544457 0 0.00127004023283587 -0.001854321618821811 0 0.00089940659915305535 -0.0019179799951582011 0 0.0011635964302208503 -0.0018221690154713651 0 0.00127004023283587 -0.001854321618821811 0 0.0014463985526657391 -0.0019613912174963463 0 0.0014405143320603434 -0.00182695224578805 0 0.00127004023283587 -0.001854321618821811 0 0.0014405143320603434 -0.00182695224578805 0 0.0013535932440161846 -0.0017485136450461213 0 0.0016053268330780746 -0.0018818357436738702 0 0.0014463985526657391 -0.0019613912174963463 0 0.0014405143320603434 -0.00182695224578805 0 0.0015607523703870957 -0.0017324277298049597 0 0.0014405143320603434 -0.00182695224578805 0 0.0013535932440161846 -0.0017485136450461213 0 0.0026852312756620558 -0.001981954886896026 0 0.0019733795497636816 -0.0018526333478134595 0 0.0037298904501484416 -0.0021564840940999333 0 0.0025997468779267604 -0.0019915222372897533 0 0.0029738671876777174 -0.0012943907842499942 0 0.0020948864039301868 -0.0014240119158865317 0 0.0025997468779267604 -0.0019915222372897533 0 0.0029738671876777174 -0.0012943907842499942 0 0.0041293565671905452 -0.0013252206964565864 0 0.0029738671876777174 -0.0012943907842499942 0 0.0033286644493040426 -0.00068766403642702193 0 0.0029738671876777174 -0.0012943907842499942 0 0.0033286644493040426 -0.00068766403642702193 0 0.0027369211927183688 -0.00071298302717353506 0 0.0055336823899748179 -0.0019644926772060789 0 0.0055463239656155993 -0.0020714333790547148 0 0.0057578096930802321 -0.0021523836447698928 0 0.0038100215173633603 -0.0010094272602874548 0 0.0075550824529441816 -0.0020800296301063362 0 0.0033286644493040426 -0.00068766403642702193 0 0.0027369211927183688 -0.00071298302717353506 0 0.0027137316647604494 -0.00017168973790898681 0 0.0027369211927183688 -0.00071298302717353506 0 0.0023409668245595672 -0.00095645459167946825 0 0.0023588267434145149 -0.00052467367843890144 0 0.0027369211927183688 -0.00071298302717353506 0 0.0023588267434145149 -0.00052467367843890144 0 0.0027137316647604494 -0.00017168973790898681 0 0.0020948864039301868 -0.0014240119158865317 0 0.0029738671876777174 -0.0012943907842499942 0 0.0023409668245595672 -0.00095645459167946825 0 0.0029738671876777174 -0.0012943907842499942 0 0.0027369211927183688 -0.00071298302717353506 0 0.0023409668245595672 -0.00095645459167946825 0 0.0020948864039301868 -0.0014240119158865317 0 0.0023409668245595672 -0.00095645459167946825 0 0.0017304967300427738 -0.00086109357044363228 0 0.001462969538065713 -0.0012986081136723648 0 0.0020948864039301868 -0.0014240119158865317 0 0.0017304967300427738 -0.00086109357044363228 0 0.0014504432350932008 -0.00046676470020089021 0 0.0017304967300427738 -0.00086109357044363228 0 0.002021978031913669 -0.00030020621946297543 0 0.0023409668245595672 -0.00095645459167946825 0 0.0017304967300427738 -0.00086109357044363228 0 0.0023588267434145149 -0.00052467367843890144 0 0.0017304967300427738 -0.00086109357044363228 0 0.0023588267434145149 -0.00052467367843890144 0 0.002021978031913669 -0.00030020621946297543 0 0.00616791711109214 -0.0021323193471027512 0 0.0075550824529441816 -0.0020800296301063362 0 0.0023588267434145149 -0.00052467367843890144 0 0.002021978031913669 -0.00030020621946297543 0 0.0027137316647604494 -0.00017168973790898681 0 0.010328606140459532 -0.003969820931489048 0 0.010864657634061432 -0.0026227317325325538 0 0.011752086215938352 -0.0034378809453431375 0 0.010328606140459532 -0.003969820931489048 0 0.012160407569276327 -0.0039092698079960094 0 0.011752086215938352 -0.0034378809453431375 0 0.0090106020270667875 -0.0024769470557980352 0 0.0085913164162008723 -0.0040007189206765085 0 0.010328606140459532 -0.003969820931489048 0 0.0050134513138470277 -0.0022305202166925725 0 0.00616791711109214 -0.0021323193471027512 0 0.0090106020270667875 -0.0024769470557980352 0 0.010864657634061432 -0.0026227317325325538 0 0.010309469861114562 -0.001367328956043184 0 0.0090106020270667875 -0.0024769470557980352 0 0.010328606140459532 -0.003969820931489048 0 0.010864657634061432 -0.0026227317325325538 0 0.010864657634061432 -0.0026227317325325538 0 0.011958811213719726 -0.0026919826918400183 0 0.011752086215938352 -0.0034378809453431375 0 0.010864657634061432 -0.0026227317325325538 0 0.011958811213719726 -0.0026919826918400183 0 0.011991406760967951 -0.0018174729179839988 0 0.011958811213719726 -0.0026919826918400183 0 0.012423449617745585 -0.0031713135759002466 0 0.011752086215938352 -0.0034378809453431375 0 0.011958811213719726 -0.0026919826918400183 0 0.012423449617745585 -0.0031713135759002466 0 0.012769914038239917 -0.0027338856167713338 0 0.011958811213719726 -0.0026919826918400183 0 0.012769914038239917 -0.0027338856167713338 0 0.011991406760967951 -0.0018174729179839988 0 0.012769914038239917 -0.0027338856167713338 0 0.013758002805953955 -0.0024852822909774055 0 0.011991406760967951 -0.0018174729179839988 0 0.014242536718649806 -0.0027323138894498103 0 0.013758002805953955 -0.0024852822909774055 0 0.013304611882410493 -0.0031193045714427367 0 0.012769914038239917 -0.0027338856167713338 0 0.013758002805953955 -0.0024852822909774055 0 0.013304611882410493 -0.0031193045714427367 0 0.012423449617745585 -0.0031713135759002466 0 0.012769914038239917 -0.0027338856167713338 0 0.013304611882410493 -0.0031193045714427367 0 0.014269371446429709 -0.0035758624131468886 0 0.013304611882410493 -0.0031193045714427367 0 0.012256746775428545 -0.0039093768149527277 0 0.010517076844651752 -0.0032501796342233077 0 0.0075550824529441816 -0.0020800296301063362 0 0.0054834223986686094 -0.0021471959268650051 0 0.0055463239656155993 -0.0020714333790547148 0 0.0057578096930802321 -0.0021523836447698928 0 0.0075550824529441816 -0.0020800296301063362 0 0.011014867891948896 -0.0043173365471818092 0 0.012423449617745585 -0.0031713135759002466 0 0.012256746775428545 -0.0039093768149527277 0 0.011752086215938352 -0.0034378809453431375 0 0.012423449617745585 -0.0031713135759002466 0 0.013304611882410493 -0.0031193045714427367 0 0.012256746775428545 -0.0039093768149527277 0 0.012057594313571205 -0.0008610367684374219 0 0.013455001758321936 -0.00047050708525294072 0 0.012125216312992498 0.00034756965017106471 0 0.012057594313571205 -0.0008610367684374219 0 0.013455001758321936 -0.00047050708525294072 0 0.013078930637851399 -0.0014452260823154476 0 0.014424953334371646 -0.0017995255897146093 0 0.013934316669785422 -0.0013609908937362665 0 0.013884114893805028 -0.0020110751430343888 0 0.013705861907811381 -0.00098824086757669477 0 0.013893270887938906 -0.0019111914016436151 0 0.013455001758321936 -0.00047050708525294072 0 0.013078930637851399 -0.0014452260823154476 0 0.013884114893805028 -0.0020110751430343888 0 0.013078930637851399 -0.0014452260823154476 0 0.013884114893805028 -0.0020110751430343888 0 0.012381806954160317 -0.0021552425607302603 0 0.013758002805953955 -0.0024852822909774055 0 0.013884114893805028 -0.0020110751430343888 0 0.012381806954160317 -0.0021552425607302603 0 0.01363308109970785 -0.0024435819773225946 0 0.012199779557696157 -0.0019981589698109229 0 0.014138367658880749 -0.0022648815426621082 0 0.013758002805953955 -0.0024852822909774055 0 0.013884114893805028 -0.0020110751430343888 0 0.012057594313571205 -0.0008610367684374219 0 0.013078930637851399 -0.0014452260823154476 0 0.012381806954160317 -0.0021552425607302603 0 0.012199779557696157 -0.0019981589698109229 0 0.010529161134455473 -0.0015246754060970909 0 0.010864657634061432 -0.0026227317325325538 0 0.011991406760967951 -0.0018174729179839988 0 0.010309469861114562 -0.001367328956043184 0 0.012057594313571205 -0.0008610367684374219 0 0.012381806954160317 -0.0021552425607302603 0 0.010736898966506876 -0.001681700720227778 0 0.010529161134455473 -0.0015246754060970909 0 0.0088874943033683037 -0.0010540752354394117 0 0.0090106020270667875 -0.0024769470557980352 0 0.010309469861114562 -0.001367328956043184 0 0.0087456949888680812 -0.00095728447301151231 0 0.010607628754351972 0.00015624715350379394 0 0.0093715273487319818 9.3927869079959389e-05 0 0.0090633602694699892 -0.0011702339828136912 0 0.010736898966506876 -0.001681700720227778 0 0.010607628754351972 0.00015624715350379394 0 0.0090633602694699892 -0.0011702339828136912 0 0.012057594313571205 -0.0008610367684374219 0 0.010736898966506876 -0.001681700720227778 0 0.010607628754351972 0.00015624715350379394 0 0.010607628754351972 0.00015624715350379394 0 0.011737342381105253 0.00157833052609183 0 0.012125216312992498 0.00034756965017106471 0 0.012057594313571205 -0.0008610367684374219 0 0.010607628754351972 0.00015624715350379394 0 0.012125216312992498 0.00034756965017106471 0 0.010607628754351972 0.00015624715350379394 0 0.0091137458936204202 0.0012567372082743938 0 0.0093715273487319818 9.3927869079959389e-05 0 0.010607628754351972 0.00015624715350379394 0 0.010489658344290125 0.0020702123522655181 0 0.0091137458936204202 0.0012567372082743938 0 0.011903080841483241 0.00096807265685921789 0 0.010952961844877485 0.00033781542975934713 0 0.010607628754351972 0.00015624715350379394 0 0.010489658344290125 0.0020702123522655181 0 0.011737342381105253 0.00157833052609183 0 0.013203985531922731 0.00043709337974143789 0 0.014274386587511555 0.00054916275726768038 0 0.011737342381105253 0.00157833052609183 0 0.012961754789810848 0.0011087566943040917 0 0.012460404092087134 0.0026651959945722635 0 0.011737342381105253 0.00157833052609183 0 0.012961754789810848 0.0011087566943040917 0 0.012125216312992498 0.00034756965017106471 0 0.013455001758321936 -0.00047050708525294072 0 0.012961754789810848 0.0011087566943040917 0 0.012125216312992498 0.00034756965017106471 0 0.013934316669785422 -0.0013609908937362665 0 0.013748943067006376 -0.00066638801844285365 0 0.014266582961107199 -0.00086102745055623923 0 0.01455018676024018 -0.0011989089990496569 0 0.013934316669785422 -0.0013609908937362665 0 0.014266582961107199 -0.00086102745055623923 0 0.013705861907811381 -0.00098824086757669477 0 0.013203985531922731 0.00043709337974143789 0 0.013748943067006376 -0.00066638801844285365 0 0.014242793791888446 -0.00014519795848516763 0 0.013502069325622791 0.00010616340127211983 0 0.013748943067006376 -0.00066638801844285365 0 0.014266582961107199 -0.00086102745055623923 0 0.014242793791888446 -0.00014519795848516763 0 0.015796066201879601 -0.00064392865251470784 0 0.016047561711943419 -0.00087844375281518076 0 0.016271105132561484 -0.00079945869085346663 0 0.01557242592075915 -0.00086165072672572511 0 0.015796066201879601 -0.00064392865251470784 0 0.015827143313986755 -0.00088395290369983038 0 0.015178336025992686 -0.00050298689747586053 0 0.014274386587511555 0.00054916275726768038 0 0.015796066201879601 -0.00064392865251470784 0 0.016047561711943419 -0.00087844375281518076 0 0.015827143313986755 -0.00088395290369983038 0 0.016047561711943419 -0.00087844375281518076 0 0.015827143313986755 -0.00088395290369983038 0 0.01595510402364483 -0.0010195760118680715 0 0.016047561711943419 -0.00087844375281518076 0 0.016120134766713593 -0.0010185884056042702 0 0.01595510402364483 -0.0010195760118680715 0 0.015827143313986755 -0.00088395290369983038 0 0.015816775219123561 -0.0010180570390951724 0 0.01595510402364483 -0.0010195760118680715 0 0.015667470074730183 -0.00098058224644495041 0 0.015827143313986755 -0.00088395290369983038 0 0.015816775219123561 -0.0010180570390951724 0 0.011737342381105253 0.00157833052609183 0 0.012460404092087134 0.0026651959945722635 0 0.011844645504875588 0.0028745522504692723 0 0.016047561711943419 -0.00087844375281518076 0 0.016271105132561484 -0.00079945869085346663 0 0.016205781611399531 -0.00093016898728233107 0 0.016047561711943419 -0.00087844375281518076 0 0.016205781611399531 -0.00093016898728233107 0 0.016120134766713593 -0.0010185884056042702 0 0.016205781611399531 -0.00093016898728233107 0 0.016261463130522742 -0.00099951612043397593 0 0.016120134766713593 -0.0010185884056042702 0 0.014274386587511555 0.00054916275726768038 0 0.015002995227483178 0.00026495223300555928 0 0.015058198638749465 0.00014361910240058535 0 0.015110057033941212 -7.9911810345756159e-06 0 0.015247584385134318 7.9657368093605455e-05 0 0.01779702029079205 -0.0010693155038343858 0 0.017884536159793032 -0.0011186891113708416 0 0.017864139255286238 -0.0010260400319548253 0 0.016271105132561484 -0.00079945869085346663 0 0.016205781611399531 -0.00093016898728233107 0 0.016326308546197228 -0.00095541594768735615 0 0.014274386587511555 0.00054916275726768038 0 0.015858819741844547 -0.00055268802112945373 0 0.016205781611399531 -0.00093016898728233107 0 0.016326308546197228 -0.00095541594768735615 0 0.016261463130522742 -0.00099951612043397593 0 0.015858819741844547 -0.00055268802112945373 0 0.01593589639629182 -0.00058462262482404464 0 0.015858819741844547 -0.00055268802112945373 0 0.015002995227483178 0.00026495223300555928 0 0.015858819741844547 -0.00055268802112945373 0 0.017297811054756498 -0.0014622860039081563 0 0.01779702029079205 -0.0010693155038343858 0 0.017903135583967809 -0.0012563417492930113 0 0.017884536159793032 -0.0011186891113708416 0 0.016331879202590837 -0.00095484096858585278 0 0.016281139366778871 -0.0012895629103125905 0 0.016499394827556593 -0.0014005016668484501 0 0.016331879202590837 -0.00095484096858585278 0 0.016261463130522742 -0.00099951612043397593 0 0.016281139366778871 -0.0012895629103125905 0 0.016261463130522742 -0.00099951612043397593 0 0.016144992256975039 -0.0011778743022011302 0 0.016281139366778871 -0.0012895629103125905 0 0.016261463130522742 -0.00099951612043397593 0 0.016120134766713593 -0.0010185884056042702 0 0.016144992256975039 -0.0011778743022011302 0 0.016120134766713593 -0.0010185884056042702 0 0.016144992256975039 -0.0011778743022011302 0 0.016000925015900613 -0.0011882745443205704 0 0.016144992256975039 -0.0011778743022011302 0 0.016281139366778871 -0.0012895629103125905 0 0.016044245227565576 -0.0013774921570143615 0 0.015641239117374289 -0.0011532405508497183 0 0.015738260138600454 -0.0011000069013667225 0 0.015785785227663381 -0.0012198590414904482 0 0.015867725243020884 -0.0011336796081966923 0 0.015738260138600454 -0.0011000069013667225 0 0.015785785227663381 -0.0012198590414904482 0 0.015667470074730183 -0.00098058224644495041 0 0.015738260138600454 -0.0011000069013667225 0 0.015816775219123561 -0.0010180570390951724 0 0.015867725243020884 -0.0011336796081966923 0 0.015816775219123561 -0.0010180570390951724 0 0.01595510402364483 -0.0010195760118680715 0 0.015867725243020884 -0.0011336796081966923 0 0.015738260138600454 -0.0011000069013667225 0 0.015816775219123561 -0.0010180570390951724 0 0.016120134766713593 -0.0010185884056042702 0 0.01595510402364483 -0.0010195760118680715 0 0.016000925015900613 -0.0011882745443205704 0 0.015867725243020884 -0.0011336796081966923 0 0.01595510402364483 -0.0010195760118680715 0 0.016000925015900613 -0.0011882745443205704 0 0.016144992256975039 -0.0011778743022011302 0 0.016000925015900613 -0.0011882745443205704 0 0.016044245227565576 -0.0013774921570143615 0 0.015867725243020884 -0.0011336796081966923 0 0.015898081719334826 -0.0012697681133806236 0 0.016000925015900613 -0.0011882745443205704 0 0.015898081719334826 -0.0012697681133806236 0 0.016000925015900613 -0.0011882745443205704 0 0.016044245227565576 -0.0013774921570143615 0 0.015898081719334826 -0.0012697681133806236 0 0.015790117339676727 -0.0013638704017261659 0 0.016044245227565576 -0.0013774921570143615 0 0.015898081719334826 -0.0012697681133806236 0 0.015785785227663381 -0.0012198590414904482 0 0.015790117339676727 -0.0013638704017261659 0 0.015867725243020884 -0.0011336796081966923 0 0.015898081719334826 -0.0012697681133806236 0 0.015785785227663381 -0.0012198590414904482 0 0.015689015062499732 -0.00126525282428362 0 0.015785785227663381 -0.0012198590414904482 0 0.015790117339676727 -0.0013638704017261659 0 0.015843288853656538 -0.0016075761904456088 0 0.016044245227565576 -0.0013774921570143615 0 0.0162198795590003 -0.0016707047137506119 0 0.015650395964180119 -0.0014854434708477975 0 0.015790117339676727 -0.0013638704017261659 0 0.015843288853656538 -0.0016075761904456088 0 0.015790117339676727 -0.0013638704017261659 0 0.015843288853656538 -0.0016075761904456088 0 0.016044245227565576 -0.0013774921570143615 0 0.016281139366778871 -0.0012895629103125905 0 0.0162198795590003 -0.0016707047137506119 0 0.016499394827556593 -0.0014005016668484501 0 0.016281139366778871 -0.0012895629103125905 0 0.016044245227565576 -0.0013774921570143615 0 0.0162198795590003 -0.0016707047137506119 0 0.0162198795590003 -0.0016707047137506119 0 0.016664560979223468 -0.0018408192140998353 0 0.016499394827556593 -0.0014005016668484501 0 0.0162198795590003 -0.0016707047137506119 0 0.015934160435013115 -0.00190455665181086 0 0.016259184002782961 -0.0022354579113864222 0 0.0162198795590003 -0.0016707047137506119 0 0.016664560979223468 -0.0018408192140998353 0 0.016259184002782961 -0.0022354579113864222 0 0.015843288853656538 -0.0016075761904456088 0 0.0162198795590003 -0.0016707047137506119 0 0.015934160435013115 -0.00190455665181086 0 0.015673405126918456 -0.0017611431589615919 0 0.015934160435013115 -0.00190455665181086 0 0.015706098812441685 -0.0021767112512897854 0 0.015673405126918456 -0.0017611431589615919 0 0.015843288853656538 -0.0016075761904456088 0 0.015934160435013115 -0.00190455665181086 0 0.018107809019955946 -0.0013548280395221447 0 0.018127361756124932 -0.0014108260743964473 0 0.018000129635505038 -0.001381255618695561 0 0.018107809019955946 -0.0013548280395221447 0 0.018127361756124932 -0.0014108260743964473 0 0.018195013215541782 -0.0013547159800266397 0 0.018127361756124932 -0.0014108260743964473 0 0.018245267006276968 -0.0013994736656941945 0 0.018176136084410644 -0.001439221799872105 0 0.017288308421116984 -0.0015735708949065827 0 0.017990820170261872 -0.0018111482427887848 0 0.018127361756124932 -0.0014108260743964473 0 0.018000129635505038 -0.001381255618695561 0 0.018065918483760983 -0.0014954303129394309 0 0.018000129635505038 -0.001381255618695561 0 0.017903135583967809 -0.0012563417492930113 0 0.018063715528342655 -0.0012968023429258081 0 0.017288308421116984 -0.0015735708949065827 0 0.017297811054756498 -0.0014622860039081563 0 0.017903135583967809 -0.0012563417492930113 0 0.018063715528342655 -0.0012968023429258081 0 0.018030431097633047 -0.0012181038148615163 0 0.018063715528342655 -0.0012968023429258081 0 0.018102172599520728 -0.001251288269408037 0 0.018030431097633047 -0.0012181038148615163 0 0.018107809019955946 -0.0013548280395221447 0 0.018000129635505038 -0.001381255618695561 0 0.018063715528342655 -0.0012968023429258081 0 0.018107809019955946 -0.0013548280395221447 0 0.018063715528342655 -0.0012968023429258081 0 0.018148027075120289 -0.0013038335145383068 0 0.018107809019955946 -0.0013548280395221447 0 0.018148027075120289 -0.0013038335145383068 0 0.018195013215541782 -0.0013547159800266397 0 0.018063715528342655 -0.0012968023429258081 0 0.018102172599520728 -0.001251288269408037 0 0.018148027075120289 -0.0013038335145383068 0 0.018102172599520728 -0.001251288269408037 0 0.018148027075120289 -0.0013038335145383068 0 0.018161084696406631 -0.0012521763622603942 0 0.018102172599520728 -0.001251288269408037 0 0.018108654160336295 -0.0011909600255254548 0 0.018161084696406631 -0.0012521763622603942 0 0.018126753606006095 -0.0011707481319085701 0 0.018108654160336295 -0.0011909600255254548 0 0.018161084696406631 -0.0012521763622603942 0 0.018102172599520728 -0.001251288269408037 0 0.018030431097633047 -0.0012181038148615163 0 0.018108654160336295 -0.0011909600255254548 0 0.018030431097633047 -0.0012181038148615163 0 0.018017852653847199 -0.0011472754968507174 0 0.018108654160336295 -0.0011909600255254548 0 0.018017852653847199 -0.0011472754968507174 0 0.018133975834447636 -0.0011402539434320351 0 0.018108654160336295 -0.0011909600255254548 0 0.015898739854499667 -0.00059766465406405165 0 0.016573869774990493 -0.00048992491272622943 0 0.018017852653847199 -0.0011472754968507174 0 0.018133975834447636 -0.0011402539434320351 0 0.017864139255286238 -0.0010260400319548253 0 0.017903135583967809 -0.0012563417492930113 0 0.017953318630410487 -0.0011570290431606462 0 0.017884536159793032 -0.0011186891113708416 0 0.017903135583967809 -0.0012563417492930113 0 0.018030431097633047 -0.0012181038148615163 0 0.017953318630410487 -0.0011570290431606462 0 0.018030431097633047 -0.0012181038148615163 0 0.018017852653847199 -0.0011472754968507174 0 0.017953318630410487 -0.0011570290431606462 0 0.018017852653847199 -0.0011472754968507174 0 0.017953318630410487 -0.0011570290431606462 0 0.017864139255286238 -0.0010260400319548253 0 0.017953318630410487 -0.0011570290431606462 0 0.017884536159793032 -0.0011186891113708416 0 0.017864139255286238 -0.0010260400319548253 0 0.015898739854499667 -0.00059766465406405165 0 0.015002995227483178 0.00026495223300555928 0 0.011903080841483241 0.00096807265685921789 0 0.015002995227483178 0.00026495223300555928 0 0.010489658344290125 0.0020702123522655181 0 0.011737342381105253 0.00157833052609183 0 0.011844645504875588 0.0028745522504692723 0 0.013721626118174641 -0.00017716099457994468 0 0.013315373749766645 0.00077107607013275961 0 0.012904014004835349 0.00016881097561767297 0 0.013721626118174641 -0.00017716099457994468 0 0.012904014004835349 0.00016881097561767297 0 0.012908532719481725 -0.00027100978682448128 0 0.013721626118174641 -0.00017716099457994468 0 0.013315373749766645 0.00077107607013275961 0 0.014580080737988525 0.00035361858980153258 0 0.015898739854499667 -0.00059766465406405165 0 0.013401625805002123 -0.00013501414881558982 0 0.013841973152033196 -0.00043200831796821805 0 0.01359201686662395 -0.00041821293904934517 0 0.013750390363453557 -0.00054312755207001331 0 0.013841973152033196 -0.00043200831796821805 0 0.013723325168938967 -0.00025447769668284826 0 0.01359201686662395 -0.00041821293904934517 0 0.010847267795858862 -0.00017024732699999622 0 0.011341167380027413 -8.9113463394673001e-05 0 0.013723325168938967 -0.00025447769668284826 0 0.013570154524280327 -0.00030481286184366225 0 0.01359201686662395 -0.00041821293904934517 0 0.018126753606006095 -0.0011707481319085701 0 0.018243173328290188 -0.0012977343898934938 0 0.018161084696406631 -0.0012521763622603942 0 0.015898739854499667 -0.00059766465406405165 0 0.016028748796070236 -0.00080239316889718095 0 0.013936447464256678 -0.00031684603580981445 0 0.013841973152033196 -0.00043200831796821805 0 0.013723325168938967 -0.00025447769668284826 0 0.018148027075120289 -0.0013038335145383068 0 0.018161084696406631 -0.0012521763622603942 0 0.018227944883781679 -0.0013271530271743628 0 0.018243173328290188 -0.0012977343898934938 0 0.018161084696406631 -0.0012521763622603942 0 0.018227944883781679 -0.0013271530271743628 0 0.018148027075120289 -0.0013038335145383068 0 0.018227944883781679 -0.0013271530271743628 0 0.018195013215541782 -0.0013547159800266397 0 0.018243173328290188 -0.0012977343898934938 0 0.018227944883781679 -0.0013271530271743628 0 0.018274572418531011 -0.0013783796101135494 0 0.018243173328290188 -0.0012977343898934938 0 0.018274572418531011 -0.0013783796101135494 0 0.018223971143771018 -0.0014062217166591344 0 0.018227944883781679 -0.0013271530271743628 0 0.018274572418531011 -0.0013783796101135494 0 0.018258006840498501 -0.0013695267667201514 0 0.018274572418531011 -0.0013783796101135494 0 0.018310075845877495 -0.0013950945561945144 0 0.018258006840498501 -0.0013695267667201514 0 0.018274572418531011 -0.0013783796101135494 0 0.018310075845877495 -0.0013950945561945144 0 0.0182982225455386 -0.0013703335608629078 0 0.018310075845877495 -0.0013950945561945144 0 0.018245267006276968 -0.0013994736656941945 0 0.018258006840498501 -0.0013695267667201514 0 0.018127361756124932 -0.0014108260743964473 0 0.018245267006276968 -0.0013994736656941945 0 0.018195013215541782 -0.0013547159800266397 0 0.018245267006276968 -0.0013994736656941945 0 0.018195013215541782 -0.0013547159800266397 0 0.018258006840498501 -0.0013695267667201514 0 0.018227944883781679 -0.0013271530271743628 0 0.018195013215541782 -0.0013547159800266397 0 0.018258006840498501 -0.0013695267667201514 0 0.018274572418531011 -0.0013783796101135494 0 0.018196404674261511 -0.0013704253892525026 0 0.0182982225455386 -0.0013703335608629078 0 0.018274572418531011 -0.0013783796101135494 0 0.018196404674261511 -0.0013704253892525026 0 0.018223971143771018 -0.0014062217166591344 0 0.015762557928649272 -0.00077064587338933279 0 0.016219305372020248 -0.00091791584875920696 0 0.013450621154913713 -0.00030122180692775135 0 0.013324891547694007 -0.0002104176263394891 0 0.013360200959731535 -0.0001675228400790462 0 0.013529275613216167 -0.00020660725868423287 0 0.013450621154913713 -0.00030122180692775135 0 0.013360200959731535 -0.0001675228400790462 0 0.018196404674261511 -0.0013704253892525026 0 0.018223971143771018 -0.0014062217166591344 0 0.018098502516753757 -0.0014462806867930876 0 0.010881865377685547 -0.0001892162542540059 0 0.010361220348456518 2.0733149839374743e-05 0 0.013723325168938967 -0.00025447769668284826 0 0.013529275613216167 -0.00020660725868423287 0 0.013570154524280327 -0.00030481286184366225 0 0.016028748796070236 -0.00080239316889718095 0 0.015762557928649272 -0.00077064587338933279 0 0.013450621154913713 -0.00030122180692775135 0 0.013570154524280327 -0.00030481286184366225 0 0.01359201686662395 -0.00041821293904934517 0 0.013529275613216167 -0.00020660725868423287 0 0.013450621154913713 -0.00030122180692775135 0 0.013570154524280327 -0.00030481286184366225 0 0.0081353030551573058 3.0067786248146591e-05 0 0.0082049109902606662 7.5086811501150612e-05 0 0.0081288966976095847 5.300596891893258e-05 0 0.010881865377685547 -0.0001892162542540059 0 0.010847267795858862 -0.00017024732699999622 0 0.0082049109902606662 7.5086811501150612e-05 0 0.0081288966976095847 5.300596891893258e-05 0 0.0081035001006059242 4.3449409430990763e-05 0 0.0081353030551573058 3.0067786248146591e-05 0 0.0081288966976095847 5.300596891893258e-05 0 0.0081758960248445936 2.351858768008897e-05 0 0.0081288966976095847 5.300596891893258e-05 0 0.0081035001006059242 4.3449409430990763e-05 0 0.0081293236471426441 7.421706841530368e-05 0 0.0081035001006059242 4.3449409430990763e-05 0 0.0081383345237354271 -3.5591382989192523e-05 0 0.0079396654708416385 -1.7286487119151802e-05 0 0.0081383345237354271 -3.5591382989192523e-05 0 0.0081304248258185878 -0.0001941078948001646 0 0.0079396654708416385 -1.7286487119151802e-05 0 0.0081383345237354271 -3.5591382989192523e-05 0 0.008205584621311917 1.2802085872403987e-05 0 0.0082639131846273858 -6.6578459036779655e-05 0 0.0081383345237354271 -3.5591382989192523e-05 0 0.0082639131846273858 -6.6578459036779655e-05 0 0.0081304248258185878 -0.0001941078948001646 0 0.0082049109902606662 7.5086811501150612e-05 0 0.0081035001006059242 4.3449409430990763e-05 0 0.008205584621311917 1.2802085872403987e-05 0 0.0081035001006059242 4.3449409430990763e-05 0 0.0081383345237354271 -3.5591382989192523e-05 0 0.008205584621311917 1.2802085872403987e-05 0 0.0082049109902606662 7.5086811501150612e-05 0 0.008205584621311917 1.2802085872403987e-05 0 0.008331758730190611 2.9402107273907003e-05 0 0.008205584621311917 1.2802085872403987e-05 0 0.008331758730190611 2.9402107273907003e-05 0 0.0082639131846273858 -6.6578459036779655e-05 0 0.013721626118174641 -0.00017716099457994468 0 0.012908532719481725 -0.00027100978682448128 0 0.012860263604635937 -0.00071607894830251332 0 0.01011252237035914 0.00085321939937830246 0 0.010800940504616075 0.00033222784154441113 0 0.0090576908233377437 -0.00073505603176947073 0 0.013401625805002123 -0.00013501414881558982 0 0.011341167380027413 -8.9113463394673001e-05 0 0.012904014004835349 0.00016881097561767297 0 0.012908532719481725 -0.00027100978682448128 0 0.012490637031011165 -0.0004357349446476643 0 0.012908532719481725 -0.00027100978682448128 0 0.012490637031011165 -0.0004357349446476643 0 0.012860263604635937 -0.00071607894830251332 0 0.011341167380027413 -8.9113463394673001e-05 0 0.010952961844877485 0.00033781542975934713 0 0.0091137458936204202 0.0012567372082743938 0 0.0093715273487319818 9.3927869079959389e-05 0 0.0084096388071494745 -0.00022355008099906801 0 0.011341167380027413 -8.9113463394673001e-05 0 0.0079434919844577675 -6.5254880754829646e-05 0 0.0091137458936204202 0.0012567372082743938 0 0.0075519406591219394 0.00037236875962349994 0 0.0084096388071494745 -0.00022355008099906801 0 0.010952961844877485 0.00033781542975934713 0 0.0079434919844577675 -6.5254880754829646e-05 0 0.0073182584840344699 -0.00057220066593675033 0 0.0090633602694699892 -0.0011702339828136912 0 0.0084096388071494745 -0.00022355008099906801 0 0.0073182584840344699 -0.00057220066593675033 0 0.0087456949888680812 -0.00095728447301151231 0 0.0072651319314663183 -0.0016088115624349458 0 0.0073182584840344699 -0.00057220066593675033 0 0.0072651319314663183 -0.0016088115624349458 0 0.0068346477834038575 -0.0006661312483628376 0 0.0079434919844577675 -6.5254880754829646e-05 0 0.0068425545401269655 -0.00061818203223698608 0 0.007438948000328495 -0.00060934536770713532 0 0.0088874943033683037 -0.0010540752354394117 0 0.0075519406591219394 0.00037236875962349994 0 0.0073182584840344699 -0.00057220066593675033 0 0.0068346477834038575 -0.0006661312483628376 0 0.0075519406591219394 0.00037236875962349994 0 0.0073182584840344699 -0.00057220066593675033 0 0.0084096388071494745 -0.00022355008099906801 0 0.0093715273487319818 9.3927869079959389e-05 0 0.0090633602694699892 -0.0011702339828136912 0 0.0084096388071494745 -0.00022355008099906801 0 0.0090106020270667875 -0.0024769470557980352 0 0.0087456949888680812 -0.00095728447301151231 0 0.0072651319314663183 -0.0016088115624349458 0 0.0066048104399935139 -0.0023387549483049326 0 0.0061739149541554681 -0.0015850454225143369 0 0.0053071817284273811 -0.001944813505920322 0 0.0066048104399935139 -0.0023387549483049326 0 0.0072651319314663183 -0.0016088115624349458 0 0.0061739149541554681 -0.0015850454225143369 0 0.0072651319314663183 -0.0016088115624349458 0 0.0061739149541554681 -0.0015850454225143369 0 0.0068346477834038575 -0.0006661312483628376 0 0.0053071817284273811 -0.001944813505920322 0 0.0060039009233596383 -0.00051643693753867874 0 0.0045227111638115125 -0.0014437126569912314 0 0.0061739149541554681 -0.0015850454225143369 0 0.0053071817284273811 -0.001944813505920322 0 0.0060039009233596383 -0.00051643693753867874 0 0.0072462285193394434 -0.00030598649231800175 0 0.0050925945536125904 -0.00075997102547131702 0 0.0081304248258185878 -0.0001941078948001646 0 0.0077905773471364254 -0.00045828322585506813 0 0.0079396654708416385 -1.7286487119151802e-05 0 0.0079434919844577675 -6.5254880754829646e-05 0 0.0072462285193394434 -0.00030598649231800175 0 0.0075120006105681156 0.00042370805242610254 0 0.0060039009233596383 -0.00051643693753867874 0 0.0068448459056081531 -0.00058358833776110544 0 0.0062512401896658021 -0.0014865775247872182 0 0.0068425545401269655 -0.00061818203223698608 0 0.0061739149541554681 -0.0015850454225143369 0 0.0060039009233596383 -0.00051643693753867874 0 0.0068448459056081531 -0.00058358833776110544 0 0.0072850617328189225 0.00018480542288462116 0 0.0073891505904325342 0.00017083529842536598 0 0.0072691192769808507 9.7980362068688406e-05 0 0.0076951492147684158 -0.00016681697657887579 0 0.0077905773471364254 -0.00045828322585506813 0 0.0079396654708416385 -1.7286487119151802e-05 0 0.0075993038121134849 -9.4250471701392484e-07 0 0.0050925945536125904 -0.00075997102547131702 0 0.0073891505904325342 0.00017083529842536598 0 0.0073859333538388878 6.5604080891037186e-05 0 0.0072691192769808507 9.7980362068688406e-05 0 0.0029893105434600185 -0.0024399883986617782 0 0.0050925945536125904 -0.00075997102547131702 0 0.0049248387150281243 -0.0027865644148358558 0 0.0053071817284273811 -0.001944813505920322 0 0.0045227111638115125 -0.0014437126569912314 0 0.0040796960904801536 -0.00088459491341748623 0 0.0050925945536125904 -0.00075997102547131702 0 0.0072045317720803945 -1.6282836091239673e-05 0 0.0073859333538388878 6.5604080891037186e-05 0 0.0072691192769808507 9.7980362068688406e-05 0 0.0072045317720803945 -1.6282836091239673e-05 0 0.0072691192769808507 9.7980362068688406e-05 0 0.0071121958028114388 0.00014593833226219635 0 0.0072045317720803945 -1.6282836091239673e-05 0 0.0071121958028114388 0.00014593833226219635 0 0.0068935460757427692 0.00012253606118081258 0 0.0071121958028114388 0.00014593833226219635 0 0.0070484206370917211 0.00015522281447605276 0 0.0068935460757427692 0.00012253606118081258 0 0.0071121958028114388 0.00014593833226219635 0 0.0071941511207034839 0.00010816390509679011 0 0.0070484206370917211 0.00015522281447605276 0 0.0072850617328189225 0.00018480542288462116 0 0.0072691192769808507 9.7980362068688406e-05 0 0.0071121958028114388 0.00014593833226219635 0 0.0072850617328189225 0.00018480542288462116 0 0.0071121958028114388 0.00014593833226219635 0 0.0071805311583006386 0.00029589547133260322 0 0.0071229022969141681 0.00014767208364562214 0 0.0071913065796418542 0.00019399424708430163 0 0.0071121958028114388 0.00014593833226219635 0 0.0071958254647513653 7.9806349076982707e-05 0 0.0071941511207034839 0.00010816390509679011 0 0.0071958254647513653 7.9806349076982707e-05 0 0.0073123761156541857 1.952394497630563e-05 0 0.0071941511207034839 0.00010816390509679011 0 0.0071958254647513653 7.9806349076982707e-05 0 0.0073123761156541857 1.952394497630563e-05 0 0.0073665855670294036 -7.0747784907964354e-05 0 0.0071958254647513653 7.9806349076982707e-05 0 0.0072013070001975673 -9.54374618815453e-05 0 0.0073665855670294036 -7.0747784907964354e-05 0 0.0071913065796418542 0.00019399424708430163 0 0.007186044780331787 0.00027290016586936086 0 0.0071805311583006386 0.00029589547133260322 0 0.0073560209483318839 0.00044644855293523065 0 0.0072683416155896602 0.00064336168171412835 0 0.0073560209483318839 0.00044644855293523065 0 0.0074629498385784523 0.00025844701892914257 0 0.0075623699505846008 0.00055861695834366284 0 0.0071805311583006386 0.00029589547133260322 0 0.0073560209483318839 0.00044644855293523065 0 0.0074629498385784523 0.00025844701892914257 0 0.0072850617328189225 0.00018480542288462116 0 0.0073891505904325342 0.00017083529842536598 0 0.0074629498385784523 0.00025844701892914257 0 0.0072850617328189225 0.00018480542288462116 0 0.0071805311583006386 0.00029589547133260322 0 0.0074629498385784523 0.00025844701892914257 0 0.0075993038121134849 -9.4250471701392484e-07 0 0.0074614333142166266 0.00025603073980755731 0 0.0076951492147684158 -0.00016681697657887579 0 0.0074629498385784523 0.00025844701892914257 0 0.0079396654708416385 -1.7286487119151802e-05 0 0.0081035001006059242 4.3449409430990763e-05 0 0.0079396654708416385 -1.7286487119151802e-05 0 0.0081293236471426441 7.421706841530368e-05 0 0.0079419606008189238 -1.2347055912176873e-05 0 0.0078613685339227642 0.00029715021886323866 0 0.0074629498385784523 0.00025844701892914257 0 0.0079396654708416385 -1.7286487119151802e-05 0 0.0075623699505846008 0.00055861695834366284 0 0.0081293236471426441 7.421706841530368e-05 0 0.0083281169393906677 -1.4518826712210571e-05 0 0.0081758960248445936 2.351858768008897e-05 0 0.0081288966976095847 5.300596891893258e-05 0 0.0081293236471426441 7.421706841530368e-05 0 0.0081758960248445936 2.351858768008897e-05 0 0.0075623699505846008 0.00055861695834366284 0 0.0074131765278102561 0.00082570952319269467 0 0.0072683416155896602 0.00064336168171412835 0 0.0073560209483318839 0.00044644855293523065 0 0.0075623699505846008 0.00055861695834366284 0 0.0072683416155896602 0.00064336168171412835 0 0.0078613685339227642 0.00029715021886323866 0 0.0078270373705662064 0.00038508590808284288 0 0.0074131765278102561 0.00082570952319269467 0 0.0073693982725757771 0.00094160085284275075 0 0.0072683416155896602 0.00064336168171412835 0 0.0075731668135619462 0.00021424134912459582 0 0.007186044780331787 0.00027290016586936086 0 0.0078270373705662064 0.00038508590808284288 0 0.0075731668135619462 0.00021424134912459582 0 0.0081353030551573058 3.0067786248146591e-05 0 0.0081758960248445936 2.351858768008897e-05 0 0.0082000277437496924 -0.0001066152472050303 0 0.0083281169393906677 -1.4518826712210571e-05 0 0.0081758960248445936 2.351858768008897e-05 0 0.0082000277437496924 -0.0001066152472050303 0 0.016219305372020248 -0.00091791584875920696 0 0.013162923771069986 -0.00052756783560990446 0 0.013324891547694007 -0.0002104176263394891 0 0.013360200959731535 -0.0001675228400790462 0 0.013201320156090945 -0.00014044957634117605 0 0.0083281169393906677 -1.4518826712210571e-05 0 0.0084151897015057719 -0.00014327540797840979 0 0.0084358949637265389 -0.00030215031943610745 0 0.0083281169393906677 -1.4518826712210571e-05 0 0.0082000277437496924 -0.0001066152472050303 0 0.0084358949637265389 -0.00030215031943610745 0 0.010361220348456518 2.0733149839374743e-05 0 0.013162923771069986 -0.00052756783560990446 0 0.0084151897015057719 -0.00014327540797840979 0 0.0084358949637265389 -0.00030215031943610745 0 0.0085398536225451613 -0.00033567192012632724 0 0.0075731668135619462 0.00021424134912459582 0 0.011448526465734384 -0.0010147997228035785 0 0.017913153355992126 -0.0014343040327899487 0 0.017915112177854551 -0.0013839239438603126 0 0.018028949407276937 -0.001377118001755588 0 0.017913153355992126 -0.0014343040327899487 0 0.017915112177854551 -0.0013839239438603126 0 0.017856609062183497 -0.0014188326863500017 0 0.013162923771069986 -0.00052756783560990446 0 0.011448526465734384 -0.0010147997228035785 0 0.017915112177854551 -0.0013839239438603126 0 0.018028949407276937 -0.001377118001755588 0 0.017959747509027083 -0.0013298856454434075 0 0.018098502516753757 -0.0014462806867930876 0 0.017913153355992126 -0.0014343040327899487 0 0.018028949407276937 -0.001377118001755588 0 0.018196404674261511 -0.0013704253892525026 0 0.018098502516753757 -0.0014462806867930876 0 0.018028949407276937 -0.001377118001755588 0 0.0074902206077145511 -0.00087783282190458448 0 0.0073878617793155703 -0.00059545806233209705 0 0.0077114429890689749 -0.00052822104878002586 0 0.017915112177854551 -0.0013839239438603126 0 0.017856609062183497 -0.0014188326863500017 0 0.017828797490304315 -0.0013173754238490604 0 0.0097984838412513119 -0.00091002909964931422 0 0.011448526465734384 -0.0010147997228035785 0 0.012778100354507696 -0.0010111428481167342 0 0.012902459708215908 -0.0011366794670206331 0 0.012826152053435584 -0.00092127332398975225 0 0.012598359756014558 -0.0010422537194274574 0 0.012778100354507696 -0.0010111428481167342 0 0.012902459708215908 -0.0011366794670206331 0 0.011448526465734384 -0.0010147997228035785 0 0.014913589149743419 -0.0012221139061862 0 0.0074902206077145511 -0.00087783282190458448 0 0.0071657397404812275 -0.00067593859646730107 0 0.0073878617793155703 -0.00059545806233209705 0 0.0071657397404812275 -0.00067593859646730107 0 0.0072663945032582014 -0.00048671710882206579 0 0.0073878617793155703 -0.00059545806233209705 0 0.0072663945032582014 -0.00048671710882206579 0 0.0073975416272232721 -0.00040133925323189375 0 0.0073878617793155703 -0.00059545806233209705 0 0.0070870846496150358 -0.00042672897503561602 0 0.0071657397404812275 -0.00067593859646730107 0 0.0072663945032582014 -0.00048671710882206579 0 0.0070870846496150358 -0.00042672897503561602 0 0.0072663945032582014 -0.00048671710882206579 0 0.0072557807722329164 -0.00031430008204058016 0 0.0072663945032582014 -0.00048671710882206579 0 0.0073975416272232721 -0.00040133925323189375 0 0.0072557807722329164 -0.00031430008204058016 0 0.0073975416272232721 -0.00040133925323189375 0 0.0075975799872692595 -0.00024117665800065411 0 0.0077114429890689749 -0.00052822104878002586 0 0.0073975416272232721 -0.00040133925323189375 0 0.0073878617793155703 -0.00059545806233209705 0 0.0077114429890689749 -0.00052822104878002586 0 0.0073975416272232721 -0.00040133925323189375 0 0.0073718270787528888 -0.00018872433652627758 0 0.0075975799872692595 -0.00024117665800065411 0 0.0073718270787528888 -0.00018872433652627758 0 0.0075975799872692595 -0.00024117665800065411 0 0.0073665855670294036 -7.0747784907964354e-05 0 0.0073718270787528888 -0.00018872433652627758 0 0.0072557807722329164 -0.00031430008204058016 0 0.0072013070001975673 -9.54374618815453e-05 0 0.0070870846496150358 -0.00042672897503561602 0 0.0072557807722329164 -0.00031430008204058016 0 0.0072013070001975673 -9.54374618815453e-05 0 0.0073975416272232721 -0.00040133925323189375 0 0.0073718270787528888 -0.00018872433652627758 0 0.0072557807722329164 -0.00031430008204058016 0 0.0073718270787528888 -0.00018872433652627758 0 0.0072013070001975673 -9.54374618815453e-05 0 0.0073665855670294036 -7.0747784907964354e-05 0 0.0073123761156541857 1.952394497630563e-05 0 0.0073665855670294036 -7.0747784907964354e-05 0 0.007530205054414177 -0.00010454208164873487 0 0.0075975799872692595 -0.00024117665800065411 0 0.0073665855670294036 -7.0747784907964354e-05 0 0.007530205054414177 -0.00010454208164873487 0 0.0076745315079490527 -0.00017087731119692998 0 0.0078288432052971979 -0.00023208605769452288 0 0.0078416753996208444 -0.00024102534690048118 0 0.007530205054414177 -0.00010454208164873487 0 0.0076745315079490527 -0.00017087731119692998 0 0.0078288432052971979 -0.00023208605769452288 0 0.0078288432052971979 -0.00023208605769452288 0 0.0080408955120259643 -0.00027433701136811016 0 0.0078416753996208444 -0.00024102534690048118 0 0.0078288432052971979 -0.00023208605769452288 0 0.008040944386629818 -0.00034319784481105049 0 0.0080408955120259643 -0.00027433701136811016 0 0.0075975799872692595 -0.00024117665800065411 0 0.007530205054414177 -0.00010454208164873487 0 0.0078288432052971979 -0.00023208605769452288 0 0.0075975799872692595 -0.00024117665800065411 0 0.0078288432052971979 -0.00023208605769452288 0 0.008040944386629818 -0.00034319784481105049 0 0.0075975799872692595 -0.00024117665800065411 0 0.0077114429890689749 -0.00052822104878002586 0 0.008040944386629818 -0.00034319784481105049 0 0.0077114429890689749 -0.00052822104878002586 0 0.008040944386629818 -0.00034319784481105049 0 0.0081058723925753681 -0.00058721655781965483 0 0.008040944386629818 -0.00034319784481105049 0 0.0088976216586549722 -0.00069495914830945476 0 0.0081058723925753681 -0.00058721655781965483 0 0.008871075015527051 -0.00072044317912306911 0 0.0091408514912374138 -2.4634888590200717e-05 0 0.008040944386629818 -0.00034319784481105049 0 0.0088976216586549722 -0.00069495914830945476 0 0.0080408955120259643 -0.00027433701136811016 0 0.0080809395493259013 -0.00089076908549154789 0 0.0093182383279766731 -0.0009583640210659841 0 0.0088976216586549722 -0.00069495914830945476 0 0.0079413354388394863 -0.00090155436570756736 0 0.0096011325629925138 -0.00099222394992438154 0 0.0079413354388394863 -0.00090155436570756736 0 0.0092697630449349293 -0.00090842035135137004 0 0.0082182542216963674 -0.0012832094058727243 0 0.0074902206077145511 -0.00087783282190458448 0 0.0079413354388394863 -0.00090155436570756736 0 0.0082182542216963674 -0.0012832094058727243 0 0.0088976216586549722 -0.00069495914830945476 0 0.0079413354388394863 -0.00090155436570756736 0 0.0081058723925753681 -0.00058721655781965483 0 0.0074902206077145511 -0.00087783282190458448 0 0.0077114429890689749 -0.00052822104878002586 0 0.0079413354388394863 -0.00090155436570756736 0 0.0077114429890689749 -0.00052822104878002586 0 0.0079413354388394863 -0.00090155436570756736 0 0.0081058723925753681 -0.00058721655781965483 0 0.012382944663169545 -2.7898705982170632e-06 0 0.01080231711082391 -0.00014334667378870124 0 0.011026185334067365 1.3942932989623844e-06 0 0.012382944663169545 -2.7898705982170632e-06 0 0.01080231711082391 -0.00014334667378870124 0 0.011905957582454428 -0.0004973892102893867 0 0.012384858334652573 -3.5830205151249369e-07 0 0.011773087257143511 -0.0003713686024409145 0 0.01238600449685397 4.2186221811450995e-09 0 0.012501796879069887 -9.2451971486916024e-07 0 0.012528766492129164 -5.0848921202508298e-09 0 0.01080231711082391 -0.00014334667378870124 0 0.0096011325629925138 -0.00099222394992438154 0 0.011905957582454428 -0.0004973892102893867 0 0.0088976216586549722 -0.00069495914830945476 0 0.01080231711082391 -0.00014334667378870124 0 0.0096011325629925138 -0.00099222394992438154 0 0.0093182383279766731 -0.0009583640210659841 0 0.011773087257143511 -0.0003713686024409145 0 0.0088976216586549722 -0.00069495914830945476 0 0.01080231711082391 -0.00014334667378870124 0 0.010320519484298156 0.00039217921657551776 0 0.01080231711082391 -0.00014334667378870124 0 0.011026185334067365 1.3942932989623844e-06 0 0.010320519484298156 0.00039217921657551776 0 0.011026185334067365 1.3942932989623844e-06 0 0.010325944109734865 0.00015254563821827112 0 0.0096669922714984913 8.5458606330400631e-08 0 0.011026185334067365 1.3942932989623844e-06 0 0.010325944109734865 0.00015254563821827112 0 0.010320519484298156 0.00039217921657551776 0 0.010325944109734865 0.00015254563821827112 0 0.010320519484298156 0.00039217921657551776 0 0.010033845565620236 9.3939861579451364e-07 0 0.0080408955120259643 -0.00027433701136811016 0 0.0078416753996208444 -0.00024102534690048118 0 0.0078036602381083581 -0.00027793376100609815 0 0.0091408514912374138 -2.4634888590200717e-05 0 0.0089206403932225557 -5.2481970386073756e-05 0 0.0076745315079490527 -0.00017087731119692998 0 0.0078416753996208444 -0.00024102534690048118 0 0.0078036602381083581 -0.00027793376100609815 0 0.010325944109734865 0.00015254563821827112 0 0.010033845565620236 9.3939861579451364e-07 0 0.0096669922714984913 8.5458606330400631e-08 0 0.010033845565620236 9.3939861579451364e-07 0 0.0096669922714984913 8.5458606330400631e-08 0 0.0083085013243797828 -3.7889228143221258e-07 0 0.0078036602381083581 -0.00027793376100609815 0 0.008304815112370998 -3.0828802735360884e-07 0 0.0077291700916963073 -0.00016045534011650554 0 0.0089206403932225557 -5.2481970386073756e-05 0 0.0083079600418453862 2.1724263706904381e-07 0 0.008304815112370998 -3.0828802735360884e-07 0 0.0074533856562181257 -2.1571121545709706e-05 0 0.0071984132872806106 0.00014855189051938484 0 0.008304815112370998 -3.0828802735360884e-07 0 0.0074533856562181257 -2.1571121545709706e-05 0 0.0077291700916963073 -0.00016045534011650554 0 0.0074533856562181257 -2.1571121545709706e-05 0 0.0072143461084967428 8.9277143713298063e-05 0 0.0071984132872806106 0.00014855189051938484 0 0.0076745315079490527 -0.00017087731119692998 0 0.0074533856562181257 -2.1571121545709706e-05 0 0.0077291700916963073 -0.00016045534011650554 0 0.0076745315079490527 -0.00017087731119692998 0 0.0078036602381083581 -0.00027793376100609815 0 0.0077291700916963073 -0.00016045534011650554 0 0.0076745315079490527 -0.00017087731119692998 0 0.0074533856562181257 -2.1571121545709706e-05 0 0.0074150649654896117 -2.3754762910971854e-05 0 0.007530205054414177 -0.00010454208164873487 0 0.0076745315079490527 -0.00017087731119692998 0 0.0074150649654896117 -2.3754762910971854e-05 0 0.0073123761156541857 1.952394497630563e-05 0 0.0074150649654896117 -2.3754762910971854e-05 0 0.0071941511207034839 0.00010816390509679011 0 0.0073123761156541857 1.952394497630563e-05 0 0.007530205054414177 -0.00010454208164873487 0 0.0074150649654896117 -2.3754762910971854e-05 0 0.0074150649654896117 -2.3754762910971854e-05 0 0.0071941511207034839 0.00010816390509679011 0 0.0072143461084967428 8.9277143713298063e-05 0 0.0074533856562181257 -2.1571121545709706e-05 0 0.0074150649654896117 -2.3754762910971854e-05 0 0.0072143461084967428 8.9277143713298063e-05 0 0.0072143461084967428 8.9277143713298063e-05 0 0.0069476093926269305 0.00018792592090446242 0 0.0070484206370917211 0.00015522281447605276 0 0.0069476093926269305 0.00018792592090446242 0 0.0068935460757427692 0.00012253606118081258 0 0.0064938947325517138 0.00016538540521560694 0 0.0072143461084967428 8.9277143713298063e-05 0 0.0069476093926269305 0.00018792592090446242 0 0.0071984132872806106 0.00014855189051938484 0 0.0071941511207034839 0.00010816390509679011 0 0.0072143461084967428 8.9277143713298063e-05 0 0.0070484206370917211 0.00015522281447605276 0 0.0069476093926269305 0.00018792592090446242 0 0.0070484206370917211 0.00015522281447605276 0 0.0068935460757427692 0.00012253606118081258 0 0.0069476093926269305 0.00018792592090446242 0 0.0064938947325517138 0.00016538540521560694 0 0.0071984132872806106 0.00014855189051938484 0 0.0064938947325517138 0.00016538540521560694 0 0.0069934247550507284 5.1953625747304162e-07 0 0.0071984132872806106 0.00014855189051938484 0 0.0056784296468246776 2.0023088683254688e-07 0 0.0064938947325517138 0.00016538540521560694 0 0.0069934247550507284 5.1953625747304162e-07 0 0.008304815112370998 -3.0828802735360884e-07 0 0.0069934247550507284 5.1953625747304162e-07 0 0.0071984132872806106 0.00014855189051938484 0 0.017990503821748379 0.00012921695684302623 0 0.017899992908775687 2.470263512253897e-07 0 0.016458270380132003 8.8546841397708026e-08 0 0.017990503821748379 0.00012921695684302623 0 0.017899992908775687 2.470263512253897e-07 0 0.01887017785849671 0.00029839904413401299 0 0.017899992908775687 2.470263512253897e-07 0 0.01887017785849671 0.00029839904413401299 0 0.019341261187030355 8.1512647184783427e-07 0 0.017990503821748379 0.00012921695684302623 0 0.01887017785849671 0.00029839904413401299 0 0.018737235049271786 0.00018059408985432419 0 0.01887017785849671 0.00029839904413401299 0 0.019244440765620523 0.00033731162518860479 0 0.018737235049271786 0.00018059408985432419 0 0.019244440765620523 0.00033731162518860479 0 0.019516602351742393 0.00022323380400890219 0 0.019900726704923606 0.00047373102239544777 0 0.019244440765620523 0.00033731162518860479 0 0.018737235049271786 0.00018059408985432419 0 0.019516602351742393 0.00022323380400890219 0 0.018737235049271786 0.00018059408985432419 0 0.019134984532806844 -4.0481952895646552e-05 0 0.019516602351742393 0.00022323380400890219 0 0.018737235049271786 0.00018059408985432419 0 0.018503750131915613 -0.00010869236354193827 0 0.019134984532806844 -4.0481952895646552e-05 0 0.017990503821748379 0.00012921695684302623 0 0.018737235049271786 0.00018059408985432419 0 0.017615158915531955 -3.6766449297975653e-06 0 0.018737235049271786 0.00018059408985432419 0 0.018503750131915613 -0.00010869236354193827 0 0.017615158915531955 -3.6766449297975653e-06 0 0.018503750131915613 -0.00010869236354193827 0 0.019049538294538627 -0.00042266550124910079 0 0.019134984532806844 -4.0481952895646552e-05 0 0.01688973922074586 -0.00036734553102155544 0 0.017722963661672048 -9.0338177873137458e-05 0 0.018503750131915613 -0.00010869236354193827 0 0.017914863126150347 -0.00053002651801898866 0 0.019049538294538627 -0.00042266550124910079 0 0.017615158915531955 -3.6766449297975653e-06 0 0.016491502921467723 -0.00012686903155703565 0 0.017914863126150347 -0.00053002651801898866 0 0.018503750131915613 -0.00010869236354193827 0 0.017615158915531955 -3.6766449297975653e-06 0 0.017914863126150347 -0.00053002651801898866 0 0.017615158915531955 -3.6766449297975653e-06 0 0.016458270380132003 8.8546841397708026e-08 0 0.016491502921467723 -0.00012686903155703565 0 0.017990503821748379 0.00012921695684302623 0 0.017615158915531955 -3.6766449297975653e-06 0 0.016458270380132003 8.8546841397708026e-08 0 0.016458270380132003 8.8546841397708026e-08 0 0.0150165130743191 1.6613902474317325e-07 0 0.016491502921467723 -0.00012686903155703565 0 0.0150165130743191 1.6613902474317325e-07 0 0.016491502921467723 -0.00012686903155703565 0 0.015306366837738729 -0.00023371833665558172 0 0.016530801476605038 -0.00057383845647010045 0 0.015306366837738729 -0.00023371833665558172 0 0.014838350466084534 -0.0006138219730716394 0 0.016491502921467723 -0.00012686903155703565 0 0.016530801476605038 -0.00057383845647010045 0 0.015306366837738729 -0.00023371833665558172 0 0.0150165130743191 1.6613902474317325e-07 0 0.015306366837738729 -0.00023371833665558172 0 0.013576331931841202 -2.3471254878348774e-06 0 0.013196643750304052 -0.00076719887641723097 0 0.013260088826078658 -0.00070629639639360829 0 0.013438761498189499 -0.00085294550734019549 0 0.015306366837738729 -0.00023371833665558172 0 0.013576331931841202 -2.3471254878348774e-06 0 0.014838350466084534 -0.0006138219730716394 0 0.013572900232927709 5.3532376031660206e-08 0 0.013454770528302622 4.2934280119214214e-05 0 0.013389906066741834 -2.5404974651605242e-05 0 0.013574407978374935 -3.8197286268132988e-07 0 0.014170312316282184 -0.00056379473696036313 0 0.013482843622333887 -5.7245537549761636e-08 0 0.013572900232927709 5.3532376031660206e-08 0 0.013454770528302622 4.2934280119214214e-05 0 0.013481530391642306 -3.3023194535784858e-07 0 0.013436911974654773 -0.00035716657156763959 0 0.013436911974654773 -0.00035716657156763959 0 0.014170312316282184 -0.00056379473696036313 0 0.015330189358718683 -0.00074892306031404735 0 0.014810021266350922 -0.0012355346365509694 0 0.01525094676375263 -0.0012373441489138394 0 0.016057677003835379 -0.00063794673421339952 0 0.014170312316282184 -0.00056379473696036313 0 0.013260088826078658 -0.00070629639639360829 0 0.013485876699457517 -0.0007039269355749296 0 0.013438761498189499 -0.00085294550734019549 0 0.014170312316282184 -0.00056379473696036313 0 0.014408186989158718 -0.00095797054751418345 0 0.0092697630449349293 -0.00090842035135137004 0 0.00953525729911954 -0.0017386407247498732 0 0.010819843482175136 -0.0010410340272902891 0 0.013436911974654773 -0.00035716657156763959 0 0.011635414702518908 -0.00082841483213646637 0 0.012794513361062783 -0.00011267081140062477 0 0.012595008727862416 -6.0599072058527433e-05 0 0.012739892544660522 6.3256654171334065e-05 0 0.012794513361062783 -0.00011267081140062477 0 0.012739892544660522 6.3256654171334065e-05 0 0.012997805959089516 -1.0321968494335602e-07 0 0.011635414702518908 -0.00082841483213646637 0 0.011773087257143511 -0.0003713686024409145 0 0.012739892544660522 6.3256654171334065e-05 0 0.01253087310708972 8.9227656302527233e-08 0 0.012997805959089516 -1.0321968494335602e-07 0 0.011773087257143511 -0.0003713686024409145 0 0.012528732740843431 -8.743151851475135e-07 0 0.013480593146592126 -1.4068244433692785e-09 0 0.013359153418179084 -8.608177417681698e-07 0 0.01300037443204702 -2.9551889851418757e-10 0 0.013436911974654773 -0.00035716657156763959 0 0.012999599361693155 -2.2068062042554018e-07 0 0.012598359756014558 -0.0010422537194274574 0 0.012277731774017506 -0.00094082446389373987 0 0.012456908211585321 -0.00085153727527239947 0 0.0097984838412513119 -0.00091002909964931422 0 0.0101572671761135 -0.0011412628202822461 0 0.012277731774017506 -0.00094082446389373987 0 0.012456908211585321 -0.00085153727527239947 0 0.012234363269014208 -0.00068427659818408608 0 0.0092697630449349293 -0.00090842035135137004 0 0.00953525729911954 -0.0017386407247498732 0 0.0082182542216963674 -0.0012832094058727243 0 0.011635414702518908 -0.00082841483213646637 0 0.0101572671761135 -0.0011412628202822461 0 0.011954203247687742 -0.00083554400686422926 0 0.012277731774017506 -0.00094082446389373987 0 0.012234363269014208 -0.00068427659818408608 0 0.011635414702518908 -0.00082841483213646637 0 0.014310025982763975 -0.00096925303604768545 0 0.015330189358718683 -0.00074892306031404735 0 0.01525094676375263 -0.0012373441489138394 0 0.015685979397911616 -0.0012355813403565137 0 0.013485876699457517 -0.0007039269355749296 0 0.013438761498189499 -0.00085294550734019549 0 0.013724707250535059 -0.00070364358836026903 0 0.014408186989158718 -0.00095797054751418345 0 0.014310025982763975 -0.00096925303604768545 0 0.012456908211585321 -0.00085153727527239947 0 0.012234363269014208 -0.00068427659818408608 0 0.01249527005255696 -0.00068360131417681005 0 0.015685979397911616 -0.0012355813403565137 0 0.016065944524561334 -0.0010278367459465101 0 0.015715662521354503 -0.000932026102779784 0 0.014310025982763975 -0.00096925303604768545 0 0.016269424123828542 -0.00086187992798290002 0 0.014310025982763975 -0.00096925303604768545 0 0.014191811690022781 -0.000973329469050036 0 0.015600761385819515 -0.0012699875915220943 0 0.016174083629942659 -0.0012567874370724144 0 0.016065944524561334 -0.0010278367459465101 0 0.016065944524561334 -0.0010278367459465101 0 0.016212177773785145 -0.00075060027137104448 0 0.015772799845669996 -0.00071418225313026886 0 0.016212177773785145 -0.00075060027137104448 0 0.015772799845669996 -0.00071418225313026886 0 0.01585057394372863 -0.00026701465904207145 0 0.016065944524561334 -0.0010278367459465101 0 0.015715662521354503 -0.000932026102779784 0 0.015772799845669996 -0.00071418225313026886 0 0.015330189358718683 -0.00074892306031404735 0 0.015715662521354503 -0.000932026102779784 0 0.015772799845669996 -0.00071418225313026886 0 0.015330189358718683 -0.00074892306031404735 0 0.015772799845669996 -0.00071418225313026886 0 0.01585057394372863 -0.00026701465904207145 0 0.015330189358718683 -0.00074892306031404735 0 0.015685979397911616 -0.0012355813403565137 0 0.015715662521354503 -0.000932026102779784 0 0.016491502921467723 -0.00012686903155703565 0 0.016530801476605038 -0.00057383845647010045 0 0.017914863126150347 -0.00053002651801898866 0 0.016057677003835379 -0.00063794673421339952 0 0.01688973922074586 -0.00036734553102155544 0 0.016212177773785145 -0.00075060027137104448 0 0.01585057394372863 -0.00026701465904207145 0 0.016443702268393194 -0.00039745296491140622 0 0.01585057394372863 -0.00026701465904207145 0 0.016443702268393194 -0.00039745296491140622 0 0.016374522880294385 0.00020814817768354164 0 0.016443702268393194 -0.00039745296491140622 0 0.016845192406773287 -0.00068041830643472754 0 0.016893210021848806 -4.2461925451415817e-05 0 0.016845192406773287 -0.00068041830643472754 0 0.016675725963260429 -0.00090616020560230215 0 0.016548994799517821 -0.00073604956470448599 0 0.016845192406773287 -0.00068041830643472754 0 0.016675725963260429 -0.00090616020560230215 0 0.016865107672403859 -0.0010750071969642535 0 0.016845192406773287 -0.00068041830643472754 0 0.016865107672403859 -0.0010750071969642535 0 0.017181353068126667 -0.00099344005472694515 0 0.016212177773785145 -0.00075060027137104448 0 0.016443702268393194 -0.00039745296491140622 0 0.016548994799517821 -0.00073604956470448599 0 0.016443702268393194 -0.00039745296491140622 0 0.016845192406773287 -0.00068041830643472754 0 0.016548994799517821 -0.00073604956470448599 0 0.016675725963260429 -0.00090616020560230215 0 0.016548994799517821 -0.00073604956470448599 0 0.016485677900720346 -0.00090685768777232288 0 0.016675725963260429 -0.00090616020560230215 0 0.016485677900720346 -0.00090685768777232288 0 0.01661270237358637 -0.0010864622758189634 0 0.016212177773785145 -0.00075060027137104448 0 0.016548994799517821 -0.00073604956470448599 0 0.016485677900720346 -0.00090685768777232288 0 0.016065944524561334 -0.0010278367459465101 0 0.016212177773785145 -0.00075060027137104448 0 0.016375750674205988 -0.0010529833191187394 0 0.016212177773785145 -0.00075060027137104448 0 0.016485677900720346 -0.00090685768777232288 0 0.016375750674205988 -0.0010529833191187394 0 0.014191811690022781 -0.000973329469050036 0 0.015132696759899904 -0.00074190124114962707 0 0.01249527005255696 -0.00068360131417681005 0 0.012755058945288956 -0.00068409561836754349 0 0.012674985788609983 -0.00090234176977192033 0 0.016174083629942659 -0.0012567874370724144 0 0.016065944524561334 -0.0010278367459465101 0 0.016375750674205988 -0.0010529833191187394 0 0.016174083629942659 -0.0012567874370724144 0 0.016375750674205988 -0.0010529833191187394 0 0.016670824209156006 -0.00123998418973006 0 0.016485677900720346 -0.00090685768777232288 0 0.016375750674205988 -0.0010529833191187394 0 0.01661270237358637 -0.0010864622758189634 0 0.016375750674205988 -0.0010529833191187394 0 0.01661270237358637 -0.0010864622758189634 0 0.016670824209156006 -0.00123998418973006 0 0.016675725963260429 -0.00090616020560230215 0 0.01661270237358637 -0.0010864622758189634 0 0.016865107672403859 -0.0010750071969642535 0 0.015959809904395519 -0.0007470461858506038 0 0.015412822802050457 -0.00074403418753874449 0 0.015660939542611638 -0.0013731021802596281 0 0.01661270237358637 -0.0010864622758189634 0 0.016865107672403859 -0.0010750071969642535 0 0.016672169960686985 -0.0012381872333760233 0 0.01572546496339243 -0.0012402779632967773 0 0.015132696759899904 -0.00074190124114962707 0 0.016865107672403859 -0.0010750071969642535 0 0.017063988238276134 -0.0012392513052404313 0 0.017181353068126667 -0.00099344005472694515 0 0.016865107672403859 -0.0010750071969642535 0 0.017063988238276134 -0.0012392513052404313 0 0.016672169960686985 -0.0012381872333760233 0 0.017026135405138636 -0.00087363960122460184 0 0.015132696759899904 -0.00074190124114962707 0 0.015132696759899904 -0.00074190124114962707 0 0.014913589149743419 -0.0012221139061862 0 0.017026135405138636 -0.00087363960122460184 0 0.014913589149743419 -0.0012221139061862 0 0.012755058945288956 -0.00068409561836754349 0 0.01283402381824029 -0.00091676376782203828 0 0.012674985788609983 -0.00090234176977192033 0 0.012778100354507696 -0.0010111428481167342 0 0.01283402381824029 -0.00091676376782203828 0 0.012674985788609983 -0.00090234176977192033 0 0.01388182546608812 -0.0014220939071906743 0 0.014913589149743419 -0.0012221139061862 0 0.012598359756014558 -0.0010422537194274574 0 0.012778100354507696 -0.0010111428481167342 0 0.012674985788609983 -0.00090234176977192033 0 0.012598359756014558 -0.0010422537194274574 0 0.012456908211585321 -0.00085153727527239947 0 0.012674985788609983 -0.00090234176977192033 0 0.012456908211585321 -0.00085153727527239947 0 0.01249527005255696 -0.00068360131417681005 0 0.012674985788609983 -0.00090234176977192033 0 0.018196404674261511 -0.0013704253892525026 0 0.018028949407276937 -0.001377118001755588 0 0.018062616416318414 -0.001306791689743369 0 0.018028949407276937 -0.001377118001755588 0 0.018062616416318414 -0.001306791689743369 0 0.017959747509027083 -0.0013298856454434075 0 0.017915112177854551 -0.0013839239438603126 0 0.017828797490304315 -0.0013173754238490604 0 0.017959747509027083 -0.0013298856454434075 0 0.017828797490304315 -0.0013173754238490604 0 0.017959747509027083 -0.0013298856454434075 0 0.017968638988476622 -0.0012649018642158698 0 0.017902386413950571 -0.0012240910505335459 0 0.017828797490304315 -0.0013173754238490604 0 0.017968638988476622 -0.0012649018642158698 0 0.018062616416318414 -0.001306791689743369 0 0.017959747509027083 -0.0013298856454434075 0 0.017968638988476622 -0.0012649018642158698 0 0.017968638988476622 -0.0012649018642158698 0 0.017937744938228414 -0.0011742085356128541 0 0.018067567961670673 -0.001222072108945026 0 0.017937744938228414 -0.0011742085356128541 0 0.018067567961670673 -0.001222072108945026 0 0.018047523827044495 -0.0011384676828761874 0 0.017902386413950571 -0.0012240910505335459 0 0.017968638988476622 -0.0012649018642158698 0 0.017937744938228414 -0.0011742085356128541 0 0.017026135405138636 -0.00087363960122460184 0 0.017447615126704317 -0.0010162700885533525 0 0.018062616416318414 -0.001306791689743369 0 0.017968638988476622 -0.0012649018642158698 0 0.018067567961670673 -0.001222072108945026 0 0.018062616416318414 -0.001306791689743369 0 0.018067567961670673 -0.001222072108945026 0 0.01816313881402851 -0.0012895378670315109 0 0.018067567961670673 -0.001222072108945026 0 0.018135142703240247 -0.001147049891121516 0 0.018172131088129383 -0.0012179580734871741 0 0.018063718420546753 -0.0012049229098917836 0 0.017941058371216099 -0.00079658160230557909 0 0.018067567961670673 -0.001222072108945026 0 0.018135142703240247 -0.001147049891121516 0 0.018047523827044495 -0.0011384676828761874 0 0.018135142703240247 -0.001147049891121516 0 0.018047523827044495 -0.0011384676828761874 0 0.018116946562739347 -0.0010743885470232298 0 0.018135142703240247 -0.001147049891121516 0 0.018116946562739347 -0.0010743885470232298 0 0.018184038680214877 -0.0010778190401885799 0 0.016845192406773287 -0.00068041830643472754 0 0.017181353068126667 -0.00099344005472694515 0 0.017507281397914725 -0.00031393668712970796 0 0.017937744938228414 -0.0011742085356128541 0 0.018047523827044495 -0.0011384676828761874 0 0.018030796107825361 -0.00098730595983267597 0 0.017447615126704317 -0.0010162700885533525 0 0.017941058371216099 -0.00079658160230557909 0 0.016845192406773287 -0.00068041830643472754 0 0.017507281397914725 -0.00031393668712970796 0 0.016893210021848806 -4.2461925451415817e-05 0 0.018047523827044495 -0.0011384676828761874 0 0.018116946562739347 -0.0010743885470232298 0 0.018055817368431658 -0.0010119594165580947 0 0.018116946562739347 -0.0010743885470232298 0 0.018167243962559417 -0.00099237411617773808 0 0.018184038680214877 -0.0010778190401885799 0 0.018116946562739347 -0.0010743885470232298 0 0.018055817368431658 -0.0010119594165580947 0 0.018167243962559417 -0.00099237411617773808 0 0.017941058371216099 -0.00079658160230557909 0 0.018045516543566873 -0.00095102964831107588 0 0.018055817368431658 -0.0010119594165580947 0 0.018167243962559417 -0.00099237411617773808 0 0.018109175926631964 -0.00092405577537169861 0 0.018167243962559417 -0.00099237411617773808 0 0.018109175926631964 -0.00092405577537169861 0 0.018184777964929118 -0.0009017907131761275 0 0.018109175926631964 -0.00092405577537169861 0 0.018138018804341981 -0.0008350924942852339 0 0.018054226867708932 -0.00079884091206276547 0 0.018064988593096815 -0.0010105902474770675 0 0.018109175926631964 -0.00092405577537169861 0 0.018054226867708932 -0.00079884091206276547 0 0.018184777964929118 -0.0009017907131761275 0 0.018138018804341981 -0.0008350924942852339 0 0.018242997389701598 -0.00081162883706218563 0 0.018109175926631964 -0.00092405577537169861 0 0.018184777964929118 -0.0009017907131761275 0 0.018138018804341981 -0.0008350924942852339 0 0.018138018804341981 -0.0008350924942852339 0 0.018147326301953922 -0.00067331483388578881 0 0.018242997389701598 -0.00081162883706218563 0 0.018138018804341981 -0.0008350924942852339 0 0.018054226867708932 -0.00079884091206276547 0 0.018147326301953922 -0.00067331483388578881 0 0.017507281397914725 -0.00031393668712970796 0 0.01743940094608757 0.00041552887941805386 0 0.016893210021848806 -4.2461925451415817e-05 0 0.017941058371216099 -0.00079658160230557909 0 0.017540044507112797 -0.00013320785995208528 0 0.016443702268393194 -0.00039745296491140622 0 0.016893210021848806 -4.2461925451415817e-05 0 0.016374522880294385 0.00020814817768354164 0 0.019049538294538627 -0.00042266550124910079 0 0.019941656365528564 -0.00018515379897788347 0 0.019134984532806844 -4.0481952895646552e-05 0 0.017722963661672048 -9.0338177873137458e-05 0 0.01841931344113509 0.00031846905242624107 0 0.01743940094608757 0.00041552887941805386 0 0.016893210021848806 -4.2461925451415817e-05 0 0.01688715293012448 0.00067124360787846411 0 0.016893210021848806 -4.2461925451415817e-05 0 0.016374522880294385 0.00020814817768354164 0 0.01688715293012448 0.00067124360787846411 0 0.019941656365528564 -0.00018515379897788347 0 0.019516602351742393 0.00022323380400890219 0 0.020194255101622548 0.00025191744462358664 0 0.019941656365528564 -0.00018515379897788347 0 0.020194255101622548 0.00025191744462358664 0 0.020637783287289064 0.00010476212733758958 0 0.019941656365528564 -0.00018515379897788347 0 0.019134984532806844 -4.0481952895646552e-05 0 0.019516602351742393 0.00022323380400890219 0 0.019516602351742393 0.00022323380400890219 0 0.020194255101622548 0.00025191744462358664 0 0.019900726704923606 0.00047373102239544777 0 0.020194255101622548 0.00025191744462358664 0 0.020637783287289064 0.00010476212733758958 0 0.020744427276732556 0.00040612033932736996 0 0.021078182464502795 0.00022321113154812587 0 0.021382357304534132 0.00053759488411067558 0 0.021066370974759226 0.00048609475342676614 0 0.019147106227606226 0.00021478076036480324 0 0.020849007620059194 0.00042871413978944181 0 0.018147326301953922 -0.00067331483388578881 0 0.01831168498069425 -0.00057256130660024386 0 0.018201163253589229 -0.00039726114332669534 0 0.018041110608791076 -0.00055346344484947954 0 0.018147326301953922 -0.00067331483388578881 0 0.018201163253589229 -0.00039726114332669534 0 0.019147106227606226 0.00021478076036480324 0 0.019820403814693154 2.9206677383377232e-05 0 0.01743940094608757 0.00041552887941805386 0 0.01688715293012448 0.00067124360787846411 0 0.017384897738312904 0.0011261590957501167 0 0.017540044507112797 -0.00013320785995208528 0 0.019147106227606226 0.00021478076036480324 0 0.018054226867708932 -0.00079884091206276547 0 0.018041110608791076 -0.00055346344484947954 0 0.018147326301953922 -0.00067331483388578881 0 0.01841931344113509 0.00031846905242624107 0 0.019147106227606226 0.00021478076036480324 0 0.018458512441749494 -0.00064189434249271578 0 0.018584301707701187 -0.00069885063820725212 0 0.018403103117350477 -0.00077814061698360686 0 0.018458512441749494 -0.00064189434249271578 0 0.018314931966934789 -0.00070553906727463436 0 0.018403103117350477 -0.00077814061698360686 0 0.018147326301953922 -0.00067331483388578881 0 0.018314931966934789 -0.00070553906727463436 0 0.01831168498069425 -0.00057256130660024386 0 0.018458512441749494 -0.00064189434249271578 0 0.018314931966934789 -0.00070553906727463436 0 0.01831168498069425 -0.00057256130660024386 0 0.01831168498069425 -0.00057256130660024386 0 0.018438443140824743 -0.0004517013968879189 0 0.018201163253589229 -0.00039726114332669534 0 0.018458512441749494 -0.00064189434249271578 0 0.01831168498069425 -0.00057256130660024386 0 0.018438443140824743 -0.0004517013968879189 0 0.018458512441749494 -0.00064189434249271578 0 0.018438443140824743 -0.0004517013968879189 0 0.0186589274500116 -0.00057165488687971691 0 0.018672777388406139 -0.0005824791305254533 0 0.018881858629136012 -0.00069952074631389363 0 0.0186589274500116 -0.00057165488687971691 0 0.019068631625961174 -0.00079123802620934534 0 0.019060088340960867 -0.00046214079460157507 0 0.018700930091276526 -0.00062829950659846969 0 0.018584301707701187 -0.00069885063820725212 0 0.018703093920112185 -0.00072750364325441144 0 0.018458512441749494 -0.00064189434249271578 0 0.0186589274500116 -0.00057165488687971691 0 0.018584301707701187 -0.00069885063820725212 0 0.0186589274500116 -0.00057165488687971691 0 0.018700930091276526 -0.00062829950659846969 0 0.018584301707701187 -0.00069885063820725212 0 0.018584301707701187 -0.00069885063820725212 0 0.01861089318053839 -0.00081177517637602027 0 0.018489983999227907 -0.00084745296657761022 0 0.018584301707701187 -0.00069885063820725212 0 0.018489983999227907 -0.00084745296657761022 0 0.018403103117350477 -0.00077814061698360686 0 0.018584301707701187 -0.00069885063820725212 0 0.01861089318053839 -0.00081177517637602027 0 0.018703093920112185 -0.00072750364325441144 0 0.01861089318053839 -0.00081177517637602027 0 0.018703093920112185 -0.00072750364325441144 0 0.018743876602336479 -0.00084501609478825274 0 0.018558901650095723 -0.00094744164063401126 0 0.01868272826512404 -0.0010143227475351388 0 0.018743876602336479 -0.00084501609478825274 0 0.01861089318053839 -0.00081177517637602027 0 0.018558901650095723 -0.00094744164063401126 0 0.018743876602336479 -0.00084501609478825274 0 0.018558901650095723 -0.00094744164063401126 0 0.018489983999227907 -0.00084745296657761022 0 0.01841572217937635 -0.00097176735667836816 0 0.01861089318053839 -0.00081177517637602027 0 0.018558901650095723 -0.00094744164063401126 0 0.018489983999227907 -0.00084745296657761022 0 0.018368155851765305 -0.00088505469226621758 0 0.018272394543323623 -0.00093532849039864869 0 0.018283747208110337 -0.001016139603242352 0 0.018368155851765305 -0.00088505469226621758 0 0.018283747208110337 -0.001016139603242352 0 0.01841572217937635 -0.00097176735667836816 0 0.018489983999227907 -0.00084745296657761022 0 0.018368155851765305 -0.00088505469226621758 0 0.01841572217937635 -0.00097176735667836816 0 0.018368155851765305 -0.00088505469226621758 0 0.018403103117350477 -0.00077814061698360686 0 0.018242997389701598 -0.00081162883706218563 0 0.018489983999227907 -0.00084745296657761022 0 0.018368155851765305 -0.00088505469226621758 0 0.018403103117350477 -0.00077814061698360686 0 0.018147326301953922 -0.00067331483388578881 0 0.018314931966934789 -0.00070553906727463436 0 0.018242997389701598 -0.00081162883706218563 0 0.018314931966934789 -0.00070553906727463436 0 0.018403103117350477 -0.00077814061698360686 0 0.018242997389701598 -0.00081162883706218563 0 0.018184777964929118 -0.0009017907131761275 0 0.018242997389701598 -0.00081162883706218563 0 0.018272394543323623 -0.00093532849039864869 0 0.018368155851765305 -0.00088505469226621758 0 0.018242997389701598 -0.00081162883706218563 0 0.018272394543323623 -0.00093532849039864869 0 0.018167243962559417 -0.00099237411617773808 0 0.018184777964929118 -0.0009017907131761275 0 0.018272394543323623 -0.00093532849039864869 0 0.018167243962559417 -0.00099237411617773808 0 0.018283747208110337 -0.001016139603242352 0 0.018184038680214877 -0.0010778190401885799 0 0.018167243962559417 -0.00099237411617773808 0 0.018272394543323623 -0.00093532849039864869 0 0.018283747208110337 -0.001016139603242352 0 0.018283747208110337 -0.001016139603242352 0 0.018184038680214877 -0.0010778190401885799 0 0.018242029126304786 -0.0011516974050251835 0 0.018283747208110337 -0.001016139603242352 0 0.018350671485778115 -0.0010837546562660432 0 0.018242029126304786 -0.0011516974050251835 0 0.018283747208110337 -0.001016139603242352 0 0.01841572217937635 -0.00097176735667836816 0 0.018350671485778115 -0.0010837546562660432 0 0.018350671485778115 -0.0010837546562660432 0 0.018345086038725887 -0.0012099685681232367 0 0.018242029126304786 -0.0011516974050251835 0 0.018135142703240247 -0.001147049891121516 0 0.018184038680214877 -0.0010778190401885799 0 0.018242029126304786 -0.0011516974050251835 0 0.018135142703240247 -0.001147049891121516 0 0.018242029126304786 -0.0011516974050251835 0 0.018172131088129383 -0.0012179580734871741 0 0.018242029126304786 -0.0011516974050251835 0 0.018172131088129383 -0.0012179580734871741 0 0.018254454687526778 -0.0012893042032867631 0 0.018067567961670673 -0.001222072108945026 0 0.018172131088129383 -0.0012179580734871741 0 0.01816313881402851 -0.0012895378670315109 0 0.018172131088129383 -0.0012179580734871741 0 0.018254454687526778 -0.0012893042032867631 0 0.01816313881402851 -0.0012895378670315109 0 0.018345086038725887 -0.0012099685681232367 0 0.018254454687526778 -0.0012893042032867631 0 0.018358932084192342 -0.0013202196361687345 0 0.018345086038725887 -0.0012099685681232367 0 0.018242029126304786 -0.0011516974050251835 0 0.018254454687526778 -0.0012893042032867631 0 0.018254454687526778 -0.0012893042032867631 0 0.0182982225455386 -0.0013703335608629078 0 0.018358932084192342 -0.0013202196361687345 0 0.018196404674261511 -0.0013704253892525026 0 0.018254454687526778 -0.0012893042032867631 0 0.0182982225455386 -0.0013703335608629078 0 0.018196404674261511 -0.0013704253892525026 0 0.018254454687526778 -0.0012893042032867631 0 0.01816313881402851 -0.0012895378670315109 0 0.018196404674261511 -0.0013704253892525026 0 0.018062616416318414 -0.001306791689743369 0 0.01816313881402851 -0.0012895378670315109 0 0.018359443323976998 -0.0014523961354149357 0 0.018481001665818005 -0.0015049145343257848 0 0.018377971059882883 -0.0014307246112615071 0 0.018518259699381038 -0.0013226202266289856 0 0.018644342844245793 -0.0014968461735398707 0 0.018245267006276968 -0.0013994736656941945 0 0.018176136084410644 -0.001439221799872105 0 0.018191352831492112 -0.0014907928142004231 0 0.018245267006276968 -0.0013994736656941945 0 0.018377971059882883 -0.0014307246112615071 0 0.018191352831492112 -0.0014907928142004231 0 0.018310075845877495 -0.0013950945561945144 0 0.018245267006276968 -0.0013994736656941945 0 0.018377971059882883 -0.0014307246112615071 0 0.018377971059882883 -0.0014307246112615071 0 0.0182982225455386 -0.0013703335608629078 0 0.018358932084192342 -0.0013202196361687345 0 0.018310075845877495 -0.0013950945561945144 0 0.018377971059882883 -0.0014307246112615071 0 0.0182982225455386 -0.0013703335608629078 0 0.018358932084192342 -0.0013202196361687345 0 0.018518259699381038 -0.0013226202266289856 0 0.018482767407214995 -0.0012226035556235227 0 0.018345086038725887 -0.0012099685681232367 0 0.018358932084192342 -0.0013202196361687345 0 0.018482767407214995 -0.0012226035556235227 0 0.018518259699381038 -0.0013226202266289856 0 0.018618280005402926 -0.0012547576582332509 0 0.018482767407214995 -0.0012226035556235227 0 0.018377971059882883 -0.0014307246112615071 0 0.018358932084192342 -0.0013202196361687345 0 0.018518259699381038 -0.0013226202266289856 0 0.018518259699381038 -0.0013226202266289856 0 0.018687917946474588 -0.0013448691525161866 0 0.018644342844245793 -0.0014968461735398707 0 0.018518259699381038 -0.0013226202266289856 0 0.018618280005402926 -0.0012547576582332509 0 0.018687917946474588 -0.0013448691525161866 0 0.018618280005402926 -0.0012547576582332509 0 0.018482767407214995 -0.0012226035556235227 0 0.018639735786754888 -0.0011535196789851485 0 0.018482767407214995 -0.0012226035556235227 0 0.018639735786754888 -0.0011535196789851485 0 0.018488385514161362 -0.0010870582573224952 0 0.018350671485778115 -0.0010837546562660432 0 0.018345086038725887 -0.0012099685681232367 0 0.018488385514161362 -0.0010870582573224952 0 0.018345086038725887 -0.0012099685681232367 0 0.018482767407214995 -0.0012226035556235227 0 0.018488385514161362 -0.0010870582573224952 0 0.01841572217937635 -0.00097176735667836816 0 0.018350671485778115 -0.0010837546562660432 0 0.018488385514161362 -0.0010870582573224952 0 0.018558901650095723 -0.00094744164063401126 0 0.01841572217937635 -0.00097176735667836816 0 0.018488385514161362 -0.0010870582573224952 0 0.018558901650095723 -0.00094744164063401126 0 0.018488385514161362 -0.0010870582573224952 0 0.01868272826512404 -0.0010143227475351388 0 0.018639735786754888 -0.0011535196789851485 0 0.018488385514161362 -0.0010870582573224952 0 0.01868272826512404 -0.0010143227475351388 0 0.018639735786754888 -0.0011535196789851485 0 0.01868272826512404 -0.0010143227475351388 0 0.018826135386916056 -0.0011166602967128264 0 0.01868272826512404 -0.0010143227475351388 0 0.018826135386916056 -0.0011166602967128264 0 0.018834851429932645 -0.00096978206410527521 0 0.018826135386916056 -0.0011166602967128264 0 0.018980414762140206 -0.0010525531325505611 0 0.018834851429932645 -0.00096978206410527521 0 0.018826135386916056 -0.0011166602967128264 0 0.018980414762140206 -0.0010525531325505611 0 0.018988618772729535 -0.0011747065665456277 0 0.018826135386916056 -0.0011166602967128264 0 0.018988618772729535 -0.0011747065665456277 0 0.01888056404927246 -0.0012239883001816281 0 0.018988618772729535 -0.0011747065665456277 0 0.01888056404927246 -0.0012239883001816281 0 0.019025165986312542 -0.0012711304781580118 0 0.01888056404927246 -0.0012239883001816281 0 0.018922734530344622 -0.0013191747417105027 0 0.019025165986312542 -0.0012711304781580118 0 0.018639735786754888 -0.0011535196789851485 0 0.018826135386916056 -0.0011166602967128264 0 0.018750358653865474 -0.0012358181452336641 0 0.018826135386916056 -0.0011166602967128264 0 0.01888056404927246 -0.0012239883001816281 0 0.018750358653865474 -0.0012358181452336641 0 0.01888056404927246 -0.0012239883001816281 0 0.018750358653865474 -0.0012358181452336641 0 0.01881466072925211 -0.0013406784118718321 0 0.018618280005402926 -0.0012547576582332509 0 0.018639735786754888 -0.0011535196789851485 0 0.018750358653865474 -0.0012358181452336641 0 0.018618280005402926 -0.0012547576582332509 0 0.018750358653865474 -0.0012358181452336641 0 0.018687917946474588 -0.0013448691525161866 0 0.018687917946474588 -0.0013448691525161866 0 0.018644342844245793 -0.0014968461735398707 0 0.018741487652856666 -0.001436890298303633 0 0.01881466072925211 -0.0013406784118718321 0 0.018741487652856666 -0.001436890298303633 0 0.018826282369970634 -0.0014555333773987101 0 0.018687917946474588 -0.0013448691525161866 0 0.01881466072925211 -0.0013406784118718321 0 0.018741487652856666 -0.001436890298303633 0 0.018750358653865474 -0.0012358181452336641 0 0.018687917946474588 -0.0013448691525161866 0 0.01881466072925211 -0.0013406784118718321 0 0.018922734530344622 -0.0013191747417105027 0 0.018978851244812908 -0.0014158782668982561 0 0.019025165986312542 -0.0012711304781580118 0 0.01888056404927246 -0.0012239883001816281 0 0.01881466072925211 -0.0013406784118718321 0 0.018922734530344622 -0.0013191747417105027 0 0.018922734530344622 -0.0013191747417105027 0 0.018978851244812908 -0.0014158782668982561 0 0.018879267802926262 -0.0014067306067486439 0 0.01881466072925211 -0.0013406784118718321 0 0.018922734530344622 -0.0013191747417105027 0 0.018879267802926262 -0.0014067306067486439 0 0.01881466072925211 -0.0013406784118718321 0 0.018879267802926262 -0.0014067306067486439 0 0.018826282369970634 -0.0014555333773987101 0 0.017990820170261872 -0.0018111482427887848 0 0.017648811247665618 -0.0018715329159971091 0 0.018978851244812908 -0.0014158782668982561 0 0.018879267802926262 -0.0014067306067486439 0 0.01884737772810726 -0.0015059959322443388 0 0.018978851244812908 -0.0014158782668982561 0 0.01884737772810726 -0.0015059959322443388 0 0.019089439133426707 -0.0014950591945300858 0 0.018879267802926262 -0.0014067306067486439 0 0.01884737772810726 -0.0015059959322443388 0 0.018826282369970634 -0.0014555333773987101 0 0.016664560979223468 -0.0018408192140998353 0 0.016828015434221931 -0.0022874371044290503 0 0.016259184002782961 -0.0022354579113864222 0 0.017990820170261872 -0.0018111482427887848 0 0.018172743090497871 -0.0017146920076816254 0 0.018127361756124932 -0.0014108260743964473 0 0.018065918483760983 -0.0014954303129394309 0 0.018141835443071689 -0.0014572854784170549 0 0.018065918483760983 -0.0014954303129394309 0 0.018141835443071689 -0.0014572854784170549 0 0.018191352831492112 -0.0014907928142004231 0 0.018127361756124932 -0.0014108260743964473 0 0.018176136084410644 -0.001439221799872105 0 0.018141835443071689 -0.0014572854784170549 0 0.018176136084410644 -0.001439221799872105 0 0.018141835443071689 -0.0014572854784170549 0 0.018191352831492112 -0.0014907928142004231 0 0.017990820170261872 -0.0018111482427887848 0 0.018481001665818005 -0.0015049145343257848 0 0.018845707449178351 -0.001520049687893072 0 0.018741487652856666 -0.001436890298303633 0 0.018826282369970634 -0.0014555333773987101 0 0.018845707449178351 -0.001520049687893072 0 0.018644342844245793 -0.0014968461735398707 0 0.018741487652856666 -0.001436890298303633 0 0.019089439133426707 -0.0014950591945300858 0 0.019197142368603603 -0.0013969590963298732 0 0.019256845362426198 -0.0014655611473704563 0 0.015934160435013115 -0.00190455665181086 0 0.016259184002782961 -0.0022354579113864222 0 0.015706098812441685 -0.0021767112512897854 0 0.017648811247665618 -0.0018715329159971091 0 0.017441708223305236 -0.0018142976705407925 0 0.019197142368603603 -0.0013969590963298732 0 0.019290731411473392 -0.001349130322510625 0 0.019256845362426198 -0.0014655611473704563 0 0.019089439133426707 -0.0014950591945300858 0 0.019128568065065996 -0.0013206653742112984 0 0.019197142368603603 -0.0013969590963298732 0 0.018978851244812908 -0.0014158782668982561 0 0.019128568065065996 -0.0013206653742112984 0 0.019025165986312542 -0.0012711304781580118 0 0.018978851244812908 -0.0014158782668982561 0 0.019089439133426707 -0.0014950591945300858 0 0.019128568065065996 -0.0013206653742112984 0 0.019197142368603603 -0.0013969590963298732 0 0.019244143094559674 -0.0012707346369580997 0 0.019290731411473392 -0.001349130322510625 0 0.019128568065065996 -0.0013206653742112984 0 0.019197142368603603 -0.0013969590963298732 0 0.019244143094559674 -0.0012707346369580997 0 0.019244143094559674 -0.0012707346369580997 0 0.0191331921608551 -0.0011777792984364588 0 0.019357022714592869 -0.0011111956813034608 0 0.019244143094559674 -0.0012707346369580997 0 0.019357022714592869 -0.0011111956813034608 0 0.019330011473730018 -0.0012400867349388887 0 0.019128568065065996 -0.0013206653742112984 0 0.019244143094559674 -0.0012707346369580997 0 0.0191331921608551 -0.0011777792984364588 0 0.019128568065065996 -0.0013206653742112984 0 0.019025165986312542 -0.0012711304781580118 0 0.0191331921608551 -0.0011777792984364588 0 0.018988618772729535 -0.0011747065665456277 0 0.019025165986312542 -0.0012711304781580118 0 0.0191331921608551 -0.0011777792984364588 0 0.018980414762140206 -0.0010525531325505611 0 0.0191331921608551 -0.0011777792984364588 0 0.019155999164468862 -0.00098568205391035479 0 0.018980414762140206 -0.0010525531325505611 0 0.018988618772729535 -0.0011747065665456277 0 0.0191331921608551 -0.0011777792984364588 0 0.0191331921608551 -0.0011777792984364588 0 0.019357022714592869 -0.0011111956813034608 0 0.019155999164468862 -0.00098568205391035479 0 0.019357022714592869 -0.0011111956813034608 0 0.019426645193428307 -0.00090182234071339309 0 0.019155999164468862 -0.00098568205391035479 0 0.019357022714592869 -0.0011111956813034608 0 0.019426645193428307 -0.00090182234071339309 0 0.019525534483521043 -0.00098998831967820754 0 0.019426645193428307 -0.00090182234071339309 0 0.019550116386881301 -0.00084801440060294894 0 0.019531951822578174 -0.00088368424134302069 0 0.019426645193428307 -0.00090182234071339309 0 0.019550116386881301 -0.00084801440060294894 0 0.019503264591589228 -0.000883599567425013 0 0.019550116386881301 -0.00084801440060294894 0 0.019503264591589228 -0.000883599567425013 0 0.019549116558022675 -0.0007567755438876721 0 0.019086573389607613 -0.0007489691590072189 0 0.019155999164468862 -0.00098568205391035479 0 0.018922151912049431 -0.0008440051414359066 0 0.019426645193428307 -0.00090182234071339309 0 0.019086573389607613 -0.0007489691590072189 0 0.019155999164468862 -0.00098568205391035479 0 0.019423828119519891 -0.00089689220572055901 0 0.019294667686357875 -0.00082465770225662255 0 0.018980414762140206 -0.0010525531325505611 0 0.018922151912049431 -0.0008440051414359066 0 0.018834851429932645 -0.00096978206410527521 0 0.018980414762140206 -0.0010525531325505611 0 0.019155999164468862 -0.00098568205391035479 0 0.018922151912049431 -0.0008440051414359066 0 0.01868272826512404 -0.0010143227475351388 0 0.018743876602336479 -0.00084501609478825274 0 0.018834851429932645 -0.00096978206410527521 0 0.018922151912049431 -0.0008440051414359066 0 0.018743876602336479 -0.00084501609478825274 0 0.018834851429932645 -0.00096978206410527521 0 0.018922151912049431 -0.0008440051414359066 0 0.018743876602336479 -0.00084501609478825274 0 0.018857020480346664 -0.00067665255871634188 0 0.018703093920112185 -0.00072750364325441144 0 0.018743876602336479 -0.00084501609478825274 0 0.018857020480346664 -0.00067665255871634188 0 0.019294667686357875 -0.00082465770225662255 0 0.019106197789013676 -0.00077156736425418142 0 0.019086573389607613 -0.0007489691590072189 0 0.018922151912049431 -0.0008440051414359066 0 0.018857020480346664 -0.00067665255871634188 0 0.019503264591589228 -0.000883599567425013 0 0.019360060894720019 -0.00086862691634591609 0 0.019549116558022675 -0.0007567755438876721 0 0.019360060894720019 -0.00086862691634591609 0 0.019355556129841984 -0.00064197176561029421 0 0.019549116558022675 -0.0007567755438876721 0 0.019068631625961174 -0.00079123802620934534 0 0.019360060894720019 -0.00086862691634591609 0 0.019355556129841984 -0.00064197176561029421 0 0.018700930091276526 -0.00062829950659846969 0 0.018703093920112185 -0.00072750364325441144 0 0.018857020480346664 -0.00067665255871634188 0 0.018881858629136012 -0.00069952074631389363 0 0.019106197789013676 -0.00077156736425418142 0 0.019068631625961174 -0.00079123802620934534 0 0.019355556129841984 -0.00064197176561029421 0 0.019060088340960867 -0.00046214079460157507 0 0.019355556129841984 -0.00064197176561029421 0 0.019549116558022675 -0.0007567755438876721 0 0.019617847087963096 -0.00053468248359601119 0 0.019666008341970666 -0.0006070074251820403 0 0.019549116558022675 -0.0007567755438876721 0 0.019617847087963096 -0.00053468248359601119 0 0.019666008341970666 -0.0006070074251820403 0 0.019661544187086131 -0.00076819251104273028 0 0.019549116558022675 -0.0007567755438876721 0 0.019550116386881301 -0.00084801440060294894 0 0.019661544187086131 -0.00076819251104273028 0 0.019549116558022675 -0.0007567755438876721 0 0.019699814532093844 -0.00057145882755389504 0 0.019617847087963096 -0.00053468248359601119 0 0.019700062615541011 -0.00061667188856328096 0 0.019696988667243218 -0.00057035804838081756 0 0.019404376388799511 -0.00021697539583115689 0 0.019699814532093844 -0.00057145882755389504 0 0.019700062615541011 -0.00061667188856328096 0 0.01978272228537414 -0.00063900917475506161 0 0.01978272228537414 -0.00063900917475506161 0 0.020239266409072171 -0.0011404705080173677 0 0.020126927331708788 -0.00064660299002792002 0 0.019699814532093844 -0.00057145882755389504 0 0.01978272228537414 -0.00063900917475506161 0 0.019739111112913849 -0.00053908207097804232 0 0.019794304765786207 -0.00064949799282716485 0 0.019991500269400029 -0.00082695600532562362 0 0.019666008341970666 -0.0006070074251820403 0 0.019699814532093844 -0.00057145882755389504 0 0.019739111112913849 -0.00053908207097804232 0 0.019666008341970666 -0.0006070074251820403 0 0.019699814532093844 -0.00057145882755389504 0 0.019617847087963096 -0.00053468248359601119 0 0.019617847087963096 -0.00053468248359601119 0 0.019269237562674041 -0.00039310724352704246 0 0.01940440438272302 -0.00021010757752679325 0 0.019355556129841984 -0.00064197176561029421 0 0.019617847087963096 -0.00053468248359601119 0 0.019269237562674041 -0.00039310724352704246 0 0.019269237562674041 -0.00039310724352704246 0 0.019176992299485721 -0.0001675183780351887 0 0.019060088340960867 -0.00046214079460157507 0 0.019355556129841984 -0.00064197176561029421 0 0.019269237562674041 -0.00039310724352704246 0 0.019060088340960867 -0.00046214079460157507 0 0.019269237562674041 -0.00039310724352704246 0 0.019176992299485721 -0.0001675183780351887 0 0.01940440438272302 -0.00021010757752679325 0 0.019176992299485721 -0.0001675183780351887 0 0.01940440438272302 -0.00021010757752679325 0 0.019358261547658333 5.5202852850105463e-05 0 0.019617847087963096 -0.00053468248359601119 0 0.01940440438272302 -0.00021010757752679325 0 0.019620692472493258 -1.0193393067602296e-05 0 0.01940440438272302 -0.00021010757752679325 0 0.019620692472493258 -1.0193393067602296e-05 0 0.019358261547658333 5.5202852850105463e-05 0 0.019620692472493258 -1.0193393067602296e-05 0 0.019358261547658333 5.5202852850105463e-05 0 0.019456152313198458 0.00025416707506769693 0 0.019404376388799511 -0.00021697539583115689 0 0.021410631116417632 -0.00023874900550142051 0 0.019176992299485721 -0.0001675183780351887 0 0.019195917876851026 6.3174483242284948e-05 0 0.019358261547658333 5.5202852850105463e-05 0 0.019358261547658333 5.5202852850105463e-05 0 0.019358813131646724 0.00025317355509159187 0 0.019456152313198458 0.00025416707506769693 0 0.019358261547658333 5.5202852850105463e-05 0 0.019268601560792648 0.00017048283845843892 0 0.019358813131646724 0.00025317355509159187 0 0.019195917876851026 6.3174483242284948e-05 0 0.019358261547658333 5.5202852850105463e-05 0 0.019268601560792648 0.00017048283845843892 0 0.019268601560792648 0.00017048283845843892 0 0.019163822195511233 0.00019248410132389885 0 0.019266137248273661 0.00028661428237197886 0 0.019195917876851026 6.3174483242284948e-05 0 0.019268601560792648 0.00017048283845843892 0 0.019163822195511233 0.00019248410132389885 0 0.019186118349143327 0.00030902095271024004 0 0.019266137248273661 0.00028661428237197886 0 0.01925487978881563 0.00041134420122984747 0 0.019163822195511233 0.00019248410132389885 0 0.019186118349143327 0.00030902095271024004 0 0.019266137248273661 0.00028661428237197886 0 0.019266137248273661 0.00028661428237197886 0 0.019345839183158027 0.00033031345703085104 0 0.019358813131646724 0.00025317355509159187 0 0.019268601560792648 0.00017048283845843892 0 0.019266137248273661 0.00028661428237197886 0 0.019358813131646724 0.00025317355509159187 0 0.019345839183158027 0.00033031345703085104 0 0.019358813131646724 0.00025317355509159187 0 0.019456152313198458 0.00025416707506769693 0 0.019345839183158027 0.00033031345703085104 0 0.019396419424726644 0.00044481129334075087 0 0.01925487978881563 0.00041134420122984747 0 0.019345839183158027 0.00033031345703085104 0 0.019396419424726644 0.00044481129334075087 0 0.019456152313198458 0.00025416707506769693 0 0.019266137248273661 0.00028661428237197886 0 0.019345839183158027 0.00033031345703085104 0 0.01925487978881563 0.00041134420122984747 0 0.019186118349143327 0.00030902095271024004 0 0.01925487978881563 0.00041134420122984747 0 0.019144384736990431 0.0003621681210630784 0 0.019620692472493258 -1.0193393067602296e-05 0 0.019456152313198458 0.00025416707506769693 0 0.019605098449664762 0.00043111917237529583 0 0.019700062615541011 -0.00061667188856328096 0 0.019608410282952189 -0.00033831862111453209 0 0.019731198030681209 -0.00048295718155962655 0 0.019396419424726644 0.00044481129334075087 0 0.019456152313198458 0.00025416707506769693 0 0.019605098449664762 0.00043111917237529583 0 0.019608410282952189 -0.00033831862111453209 0 0.019731198030681209 -0.00048295718155962655 0 0.019971945201964731 -0.0001847438046114984 0 0.019700062615541011 -0.00061667188856328096 0 0.019731198030681209 -0.00048295718155962655 0 0.01978272228537414 -0.00063900917475506161 0 0.019731198030681209 -0.00048295718155962655 0 0.01978272228537414 -0.00063900917475506161 0 0.019936735887213387 -0.00045098742549012753 0 0.01978272228537414 -0.00063900917475506161 0 0.019936735887213387 -0.00045098742549012753 0 0.020126927331708788 -0.00064660299002792002 0 0.019936735887213387 -0.00045098742549012753 0 0.019971945201964731 -0.0001847438046114984 0 0.020422752336735076 -0.00044766144185248209 0 0.019731198030681209 -0.00048295718155962655 0 0.019936735887213387 -0.00045098742549012753 0 0.019971945201964731 -0.0001847438046114984 0 0.021410631116417632 -0.00023874900550142051 0 0.022633450871503112 -0.00028178676742507159 0 0.02458358451673098 -0.00040793857444237593 0 0.024822645604738784 -0.00034834028968461353 0 0.02477003113411241 -0.00020483844769543478 0 0.02477003113411241 -0.00020483844769543478 0 0.024911185269562482 -9.5199163322285879e-05 0 0.024905465194344969 -0.00022043009905125846 0 0.024822645604738784 -0.00034834028968461353 0 0.02477003113411241 -0.00020483844769543478 0 0.024905465194344969 -0.00022043009905125846 0 0.02477003113411241 -0.00020483844769543478 0 0.024911185269562482 -9.5199163322285879e-05 0 0.024769313879382696 -5.4469230398469803e-05 0 0.02477003113411241 -0.00020483844769543478 0 0.024769313879382696 -5.4469230398469803e-05 0 0.024581475456967764 -0.0001718156508660894 0 0.024996884967052935 -1.6745149950878512e-06 0 0.024999988016715245 2.7825125202738532e-09 0 0.025000006149477536 -1.8079514289169188e-09 0 0.024996884967052935 -1.6745149950878512e-06 0 0.024999988016715245 2.7825125202738532e-09 0 0.024991850828220627 -8.0917394443600339e-09 0 0.025095063264060333 -2.7259834166265211e-05 0 0.024999743617392531 -1.2755850012263274e-07 0 0.024911185269562482 -9.5199163322285879e-05 0 0.024769313879382696 -5.4469230398469803e-05 0 0.024999734331589304 8.5331949637799384e-08 0 0.024911185269562482 -9.5199163322285879e-05 0 0.024999734331589304 8.5331949637799384e-08 0 0.024971097313176975 -3.5745373175121525e-05 0 0.024983731145785247 -1.2553545784924214e-06 0 0.024999973693554032 2.5302538787603003e-10 0 0.024978586036999172 -2.4635086975850608e-06 0 0.024983731145785247 -1.2553545784924214e-06 0 0.024999973693554032 2.5302538787603003e-10 0 0.024999975632544934 -1.4942674771325106e-09 0 0.024999988016715245 2.7825125202738532e-09 0 0.024999973693554032 2.5302538787603003e-10 0 0.024991850828220627 -8.0917394443600339e-09 0 0.024999973693554032 2.5302538787603003e-10 0 0.024991850828220627 -8.0917394443600339e-09 0 0.024978586036999172 -2.4635086975850608e-06 0 0.024996884967052935 -1.6745149950878512e-06 0 0.024991850828220627 -8.0917394443600339e-09 0 0.024978586036999172 -2.4635086975850608e-06 0 0.024996884967052935 -1.6745149950878512e-06 0 0.024978586036999172 -2.4635086975850608e-06 0 0.024970930431635223 -1.1830664162704199e-05 0 0.025095063264060333 -2.7259834166265211e-05 0 0.023259526716126334 0.00036719874373742018 0 0.024978586036999172 -2.4635086975850608e-06 0 0.024964930875245601 -1.6675237424944359e-06 0 0.0249612083014326 -1.8446294917906418e-06 0 0.02475633845843557 -0.00019133252710101749 0 0.023259526716126334 0.00036719874373742018 0 0.024983731145785247 -1.2553545784924214e-06 0 0.024978586036999172 -2.4635086975850608e-06 0 0.024964930875245601 -1.6675237424944359e-06 0 0.024983731145785247 -1.2553545784924214e-06 0 0.024964930875245601 -1.6675237424944359e-06 0 0.024972051922857719 -1.1618326967375205e-06 0 0.024964930875245601 -1.6675237424944359e-06 0 0.024943633057141364 -1.2597147670829612e-06 0 0.024953537450144239 7.7590840562372187e-07 0 0.024964930875245601 -1.6675237424944359e-06 0 0.0249612083014326 -1.8446294917906418e-06 0 0.024943633057141364 -1.2597147670829612e-06 0 0.023259526716126334 0.00036719874373742018 0 0.022019495119120387 0.00027402200819764917 0 0.02458358451673098 -0.00040793857444237593 0 0.02477003113411241 -0.00020483844769543478 0 0.024581475456967764 -0.0001718156508660894 0 0.019605098449664762 0.00043111917237529583 0 0.019593342362343499 0.00090899290028416445 0 0.01930813151794156 0.00066624553333832477 0 0.021410631116417632 -0.00023874900550142051 0 0.023259526716126334 0.00036719874373742018 0 0.019396419424726644 0.00044481129334075087 0 0.01925487978881563 0.00041134420122984747 0 0.01930813151794156 0.00066624553333832477 0 0.01925487978881563 0.00041134420122984747 0 0.01930813151794156 0.00066624553333832477 0 0.019050060292452816 0.00042270472625842664 0 0.019396419424726644 0.00044481129334075087 0 0.019605098449664762 0.00043111917237529583 0 0.01930813151794156 0.00066624553333832477 0 0.024943633057141364 -1.2597147670829612e-06 0 0.024953537450144239 7.7590840562372187e-07 0 0.024929337998907355 7.2018637812589289e-06 0 0.022019495119120387 0.00027402200819764917 0 0.021789557103245052 0.00036624448503094461 0 0.024953537450144239 7.7590840562372187e-07 0 0.02495421214682321 5.0707451556951057e-06 0 0.024929337998907355 7.2018637812589289e-06 0 0.023941333157266553 1.745058824393654e-05 0 0.021789557103245052 0.00036624448503094461 0 0.022676738542744705 -0.00029099568904404567 0 0.022637297867527655 0.00037290892370142256 0 0.02123199311740389 0.00053108406136970654 0 0.024953537450144239 7.7590840562372187e-07 0 0.024976692987486396 -1.1949201750729298e-06 0 0.02495421214682321 5.0707451556951057e-06 0 0.024953537450144239 7.7590840562372187e-07 0 0.024972051922857719 -1.1618326967375205e-06 0 0.024976692987486396 -1.1949201750729298e-06 0 0.024964930875245601 -1.6675237424944359e-06 0 0.024953537450144239 7.7590840562372187e-07 0 0.024972051922857719 -1.1618326967375205e-06 0 0.024983731145785247 -1.2553545784924214e-06 0 0.024972051922857719 -1.1618326967375205e-06 0 0.024985895321776527 -1.0785769008980548e-06 0 0.024972051922857719 -1.1618326967375205e-06 0 0.024985895321776527 -1.0785769008980548e-06 0 0.024976692987486396 -1.1949201750729298e-06 0 0.024985895321776527 -1.0785769008980548e-06 0 0.024999979764990316 -1.5319163978872375e-09 0 0.024976692987486396 -1.1949201750729298e-06 0 0.024985895321776527 -1.0785769008980548e-06 0 0.024999975632544934 -1.4942674771325106e-09 0 0.024999979764990316 -1.5319163978872375e-09 0 0.024983731145785247 -1.2553545784924214e-06 0 0.024985895321776527 -1.0785769008980548e-06 0 0.024999975632544934 -1.4942674771325106e-09 0 0.024999959195627849 5.4514441818905502e-10 0 0.024989275022481872 7.4514787242589956e-06 0 0.024999991772160269 5.5526523104025979e-09 0 0.024999959195627849 5.4514441818905502e-10 0 0.024973123028981598 1.264389550452832e-05 0 0.024989275022481872 7.4514787242589956e-06 0 0.024999937934827979 1.370274515424216e-08 0 0.025087192862152666 1.6226871428624387e-06 0 0.024989275022481872 7.4514787242589956e-06 0 0.024980458723801672 2.347439427281824e-05 0 0.024991661674680133 1.0490054555084288e-05 0 0.024973123028981598 1.264389550452832e-05 0 0.024989275022481872 7.4514787242589956e-06 0 0.024980458723801672 2.347439427281824e-05 0 0.023724646414506473 0.00023874382486692452 0 0.023941333157266553 1.745058824393654e-05 0 0.024973123028981598 1.264389550452832e-05 0 0.024980458723801672 2.347439427281824e-05 0 0.024954681872472965 3.7491420677909646e-05 0 0.025087192862152666 1.6226871428624387e-06 0 0.023941333157266553 1.745058824393654e-05 0 0.021498297595171446 0.00098422818172816894 0 0.021437362883095258 0.00091259575452152381 0 0.021471431209006735 0.00097031892977336612 0 0.02250410882816543 0.00042911696050650262 0 0.022500050921241806 0.00046550690562530698 0 0.022573928517997454 0.00043814700869883658 0 0.021949446963847999 0.00055001891023508153 0 0.02201581520251375 0.00068648130519440736 0 0.023941333157266553 1.745058824393654e-05 0 0.021949446963847999 0.00055001891023508153 0 0.022571953288152004 0.00037624460226027884 0 0.02250410882816543 0.00042911696050650262 0 0.022573928517997454 0.00043814700869883658 0 0.021437362883095258 0.00091259575452152381 0 0.021483527327872107 0.00098936395730529455 0 0.021471431209006735 0.00097031892977336612 0 0.021483527327872107 0.00098936395730529455 0 0.021471431209006735 0.00097031892977336612 0 0.021486645092835727 0.00098697102218017838 0 0.021471431209006735 0.00097031892977336612 0 0.021486645092835727 0.00098697102218017838 0 0.021500514586679158 0.00096845212065648943 0 0.021483527327872107 0.00098936395730529455 0 0.021486645092835727 0.00098697102218017838 0 0.021483194255960569 0.0010176321109021836 0 0.021486645092835727 0.00098697102218017838 0 0.021478857991096969 0.00096649984858401589 0 0.021483194255960569 0.0010176321109021836 0 0.021478857991096969 0.00096649984858401589 0 0.021513377986504881 0.00094809748144164573 0 0.021545182518329035 0.00082992039858305095 0 0.021486645092835727 0.00098697102218017838 0 0.021478857991096969 0.00096649984858401589 0 0.021513377986504881 0.00094809748144164573 0 0.021513377986504881 0.00094809748144164573 0 0.021539161473738362 0.00094186886731853893 0 0.021545182518329035 0.00082992039858305095 0 0.021513377986504881 0.00094809748144164573 0 0.021500514586679158 0.00096845212065648943 0 0.021539161473738362 0.00094186886731853893 0 0.021498297595171446 0.00098422818172816894 0 0.021500514586679158 0.00096845212065648943 0 0.021539161473738362 0.00094186886731853893 0 0.021498297595171446 0.00098422818172816894 0 0.021471431209006735 0.00097031892977336612 0 0.021500514586679158 0.00096845212065648943 0 0.021949446963847999 0.00055001891023508153 0 0.019766325577932582 0.00042528452591459703 0 0.021486645092835727 0.00098697102218017838 0 0.021513377986504881 0.00094809748144164573 0 0.021500514586679158 0.00096845212065648943 0 0.020689408397318337 0.00029474551849514592 0 0.020536328082241196 0.00035796307749486061 0 0.020669437979800566 0.00049170668467967218 0 0.022637297867527655 0.00037290892370142256 0 0.02123199311740389 0.00053108406136970654 0 0.021548558986275959 0.00084295720158173934 0 0.021949446963847999 0.00055001891023508153 0 0.020207981928363372 0.00025740425171163177 0 0.01925487978881563 0.00041134420122984747 0 0.019144384736990431 0.0003621681210630784 0 0.019050060292452816 0.00042270472625842664 0 0.019144384736990431 0.0003621681210630784 0 0.019078252512327927 0.00039664252992740583 0 0.01910813681954189 0.00028578731347342942 0 0.019688621151285376 0.00094014122693061202 0 0.021789557103245052 0.00036624448503094461 0 0.019078252512327927 0.00039664252992740583 0 0.01902769088826357 0.00034207298023502825 0 0.01910813681954189 0.00028578731347342942 0 0.021789557103245052 0.00036624448503094461 0 0.020207981928363372 0.00025740425171163177 0 0.01891473171687557 0.0003692690403184153 0 0.01910813681954189 0.00028578731347342942 0 0.018949043675557043 0.00019248294146308886 0 0.020207981928363372 0.00025740425171163177 0 0.018948536543252716 0.00049209864132429234 0 0.019163822195511233 0.00019248410132389885 0 0.019186118349143327 0.00030902095271024004 0 0.01910813681954189 0.00028578731347342942 0 0.019186118349143327 0.00030902095271024004 0 0.019144384736990431 0.0003621681210630784 0 0.01910813681954189 0.00028578731347342942 0 0.019163822195511233 0.00019248410132389885 0 0.018949043675557043 0.00019248294146308886 0 0.018955073729978778 3.1566117837612561e-05 0 0.019163822195511233 0.00019248410132389885 0 0.01910813681954189 0.00028578731347342942 0 0.018949043675557043 0.00019248294146308886 0 0.019176992299485721 -0.0001675183780351887 0 0.019195917876851026 6.3174483242284948e-05 0 0.018955073729978778 3.1566117837612561e-05 0 0.019195917876851026 6.3174483242284948e-05 0 0.019163822195511233 0.00019248410132389885 0 0.018955073729978778 3.1566117837612561e-05 0 0.018949043675557043 0.00019248294146308886 0 0.018955073729978778 3.1566117837612561e-05 0 0.018623521369981473 9.088049079182146e-05 0 0.020207981928363372 0.00025740425171163177 0 0.019766325577932582 0.00042528452591459703 0 0.01891473171687557 0.0003692690403184153 0 0.018949043675557043 0.00019248294146308886 0 0.018623521369981473 9.088049079182146e-05 0 0.019766325577932582 0.00042528452591459703 0 0.018356953658048684 -0.00043291906958384805 0 0.018623521369981473 9.088049079182146e-05 0 0.018893108308749091 -0.00023091633400386353 0 0.018613096264975256 -0.00030988513907128479 0 0.018955073729978778 3.1566117837612561e-05 0 0.018623521369981473 9.088049079182146e-05 0 0.018893108308749091 -0.00023091633400386353 0 0.019176992299485721 -0.0001675183780351887 0 0.018955073729978778 3.1566117837612561e-05 0 0.018893108308749091 -0.00023091633400386353 0 0.019176992299485721 -0.0001675183780351887 0 0.018893108308749091 -0.00023091633400386353 0 0.019060088340960867 -0.00046214079460157507 0 0.0186589274500116 -0.00057165488687971691 0 0.018893108308749091 -0.00023091633400386353 0 0.019060088340960867 -0.00046214079460157507 0 0.0186589274500116 -0.00057165488687971691 0 0.018893108308749091 -0.00023091633400386353 0 0.018613096264975256 -0.00030988513907128479 0 0.018438443140824743 -0.0004517013968879189 0 0.018613096264975256 -0.00030988513907128479 0 0.01838800261414433 -0.00019542369124125723 0 0.018438443140824743 -0.0004517013968879189 0 0.0186589274500116 -0.00057165488687971691 0 0.018613096264975256 -0.00030988513907128479 0 0.018438443140824743 -0.0004517013968879189 0 0.01838800261414433 -0.00019542369124125723 0 0.018201163253589229 -0.00039726114332669534 0 0.020010209077562645 0.00034086861673598414 0 0.019820403814693154 2.9206677383377232e-05 0 0.021545182518329035 0.00082992039858305095 0 0.021371647907846167 0.00085242411344155764 0 0.021382357304534132 0.00053759488411067558 0 0.021478857991096969 0.00096649984858401589 0 0.021545182518329035 0.00082992039858305095 0 0.021371647907846167 0.00085242411344155764 0 0.018619580428237085 3.231172890416486e-05 0 0.018613096264975256 -0.00030988513907128479 0 0.01838800261414433 -0.00019542369124125723 0 0.019766325577932582 0.00042528452591459703 0 0.020010209077562645 0.00034086861673598414 0 0.021026208810842918 0.00071270647098279564 0 0.021371647907846167 0.00085242411344155764 0 0.021295724815222419 0.00097463790367640431 0 0.021026208810842918 0.00071270647098279564 0 0.020979215866185737 0.0010494359842157803 0 0.021295724815222419 0.00097463790367640431 0 0.021026208810842918 0.00071270647098279564 0 0.021371647907846167 0.00085242411344155764 0 0.021214810353671721 0.00063636934272456945 0 0.021371647907846167 0.00085242411344155764 0 0.021382357304534132 0.00053759488411067558 0 0.021214810353671721 0.00063636934272456945 0 0.021382357304534132 0.00053759488411067558 0 0.021214810353671721 0.00063636934272456945 0 0.021066370974759226 0.00048609475342676614 0 0.021026208810842918 0.00071270647098279564 0 0.021214810353671721 0.00063636934272456945 0 0.021066370974759226 0.00048609475342676614 0 0.02096433949575666 0.00070977432966958984 0 0.020849007620059194 0.00042871413978944181 0 0.021026208810842918 0.00071270647098279564 0 0.020744427276732556 0.00040612033932736996 0 0.020496970561282437 0.00049712382011489432 0 0.020496970561282437 0.00049712382011489432 0 0.019900726704923606 0.00047373102239544777 0 0.020462565756739406 0.00067859780833570888 0 0.020194255101622548 0.00025191744462358664 0 0.020744427276732556 0.00040612033932736996 0 0.020496970561282437 0.00049712382011489432 0 0.021026208810842918 0.00071270647098279564 0 0.020496970561282437 0.00049712382011489432 0 0.020462565756739406 0.00067859780833570888 0 0.020194255101622548 0.00025191744462358664 0 0.020496970561282437 0.00049712382011489432 0 0.019900726704923606 0.00047373102239544777 0 0.019900726704923606 0.00047373102239544777 0 0.020462565756739406 0.00067859780833570888 0 0.019967727760970517 0.0007319314712039114 0 0.020462565756739406 0.00067859780833570888 0 0.020979215866185737 0.0010494359842157803 0 0.019967727760970517 0.0007319314712039114 0 0.021026208810842918 0.00071270647098279564 0 0.020462565756739406 0.00067859780833570888 0 0.020979215866185737 0.0010494359842157803 0 0.020979215866185737 0.0010494359842157803 0 0.020140592246683853 0.00094107501962389863 0 0.019967727760970517 0.0007319314712039114 0 0.021152175280198238 0.00094169817878984093 0 0.021288186928813298 0.0010648717070567593 0 0.020979215866185737 0.0010494359842157803 0 0.021888389064554314 0.0010762535754642588 0 0.021505562238311168 0.0010937857374312809 0 0.020979215866185737 0.0010494359842157803 0 0.022703602812019046 0.0011528684333338172 0 0.021888389064554314 0.0010762535754642588 0 0.021888389064554314 0.0010762535754642588 0 0.021505562238311168 0.0010937857374312809 0 0.021576883072071614 0.0010034710372194054 0 0.020979215866185737 0.0010494359842157803 0 0.021505562238311168 0.0010937857374312809 0 0.021295724815222419 0.00097463790367640431 0 0.021505562238311168 0.0010937857374312809 0 0.021295724815222419 0.00097463790367640431 0 0.021466187387829162 0.0010464040426802696 0 0.021478857991096969 0.00096649984858401589 0 0.021371647907846167 0.00085242411344155764 0 0.021466187387829162 0.0010464040426802696 0 0.021371647907846167 0.00085242411344155764 0 0.021295724815222419 0.00097463790367640431 0 0.021466187387829162 0.0010464040426802696 0 0.021478857991096969 0.00096649984858401589 0 0.021466187387829162 0.0010464040426802696 0 0.021483194255960569 0.0010176321109021836 0 0.021505562238311168 0.0010937857374312809 0 0.021466187387829162 0.0010464040426802696 0 0.021576883072071614 0.0010034710372194054 0 0.021466187387829162 0.0010464040426802696 0 0.021483194255960569 0.0010176321109021836 0 0.021576883072071614 0.0010034710372194054 0 0.021483527327872107 0.00098936395730529455 0 0.021483194255960569 0.0010176321109021836 0 0.021576883072071614 0.0010034710372194054 0 0.02201581520251375 0.00068648130519440736 0 0.02222841147693062 0.0005336399775214462 0 0.021437362883095258 0.00091259575452152381 0 0.021576883072071614 0.0010034710372194054 0 0.021683033991614011 0.0006301952418287421 0 0.021437362883095258 0.00091259575452152381 0 0.021483527327872107 0.00098936395730529455 0 0.021576883072071614 0.0010034710372194054 0 0.021888389064554314 0.0010762535754642588 0 0.021576883072071614 0.0010034710372194054 0 0.021856724504087044 0.00090715526084853525 0 0.021576883072071614 0.0010034710372194054 0 0.021856724504087044 0.00090715526084853525 0 0.021683033991614011 0.0006301952418287421 0 0.021888389064554314 0.0010762535754642588 0 0.021856724504087044 0.00090715526084853525 0 0.022311729348672052 0.00076641917290244091 0 0.021856724504087044 0.00090715526084853525 0 0.021683033991614011 0.0006301952418287421 0 0.022311729348672052 0.00076641917290244091 0 0.02222841147693062 0.0005336399775214462 0 0.022886720123196716 0.00037115429710768145 0 0.022703023293805819 0.00041065794433348156 0 0.022686450945069981 0.00026212848601767688 0 0.022965039581810925 0.00038052666490268647 0 0.021683033991614011 0.0006301952418287421 0 0.022965039581810925 0.00038052666490268647 0 0.022311729348672052 0.00076641917290244091 0 0.023724646414506473 0.00023874382486692452 0 0.023858812078857546 0.00011781732321766739 0 0.022571953288152004 0.00037624460226027884 0 0.022703023293805819 0.00041065794433348156 0 0.022686450945069981 0.00026212848601767688 0 0.022571953288152004 0.00037624460226027884 0 0.022573928517997454 0.00043814700869883658 0 0.022703023293805819 0.00041065794433348156 0 0.023858812078857546 0.00011781732321766739 0 0.024072761388078373 2.9272186822878169e-05 0 0.022686450945069981 0.00026212848601767688 0 0.023142667698967504 -5.1554059649946327e-05 0 0.022965039581810925 0.00038052666490268647 0 0.024991661674680133 1.0490054555084288e-05 0 0.02499999129956056 4.245365845869884e-09 0 0.024999991772160269 5.5526523104025979e-09 0 0.024991661674680133 1.0490054555084288e-05 0 0.02499999129956056 4.245365845869884e-09 0 0.024996792904507278 3.5519544130923606e-06 0 0.024989275022481872 7.4514787242589956e-06 0 0.024991661674680133 1.0490054555084288e-05 0 0.024999991772160269 5.5526523104025979e-09 0 0.024999577748690948 -2.6960859908709079e-09 0 0.024072761388078373 2.9272186822878169e-05 0 0.024996865796014508 -1.0218236369022935e-06 0 0.023142667698967504 -5.1554059649946327e-05 0 0.024003736048791229 0.00015672129337924827 0 0.024996865796014508 -1.0218236369022935e-06 0 0.024003736048791229 0.00015672129337924827 0 0.024521225950861043 0.00012314933940227993 0 0.02499999129956056 4.245365845869884e-09 0 0.024999999757763836 -7.1537661940570599e-10 0 0.024996792904507278 3.5519544130923606e-06 0 0.023142667698967504 -5.1554059649946327e-05 0 0.024003736048791229 0.00015672129337924827 0 0.022965039581810925 0.00038052666490268647 0 0.024003736048791229 0.00015672129337924827 0 0.023866617536080197 0.00038257254257472611 0 0.022965039581810925 0.00038052666490268647 0 0.024003736048791229 0.00015672129337924827 0 0.023866617536080197 0.00038257254257472611 0 0.024521225950861043 0.00012314933940227993 0 0.023866617536080197 0.00038257254257472611 0 0.022949756629744557 0.00074967264124190327 0 0.023840819137766041 0.00065048648200923909 0 0.023866617536080197 0.00038257254257472611 0 0.022949756629744557 0.00074967264124190327 0 0.022965039581810925 0.00038052666490268647 0 0.022949756629744557 0.00074967264124190327 0 0.022965039581810925 0.00038052666490268647 0 0.022311729348672052 0.00076641917290244091 0 0.022703602812019046 0.0011528684333338172 0 0.021888389064554314 0.0010762535754642588 0 0.022949756629744557 0.00074967264124190327 0 0.021888389064554314 0.0010762535754642588 0 0.022949756629744557 0.00074967264124190327 0 0.022311729348672052 0.00076641917290244091 0 0.022703602812019046 0.0011528684333338172 0 0.022949756629744557 0.00074967264124190327 0 0.023840819137766041 0.00065048648200923909 0 0.021288186928813298 0.0010648717070567593 0 0.022776062206314174 0.00056354173086091051 0 0.020140592246683853 0.00094107501962389863 0 0.01984295151090068 0.00075048725052391985 0 0.019987748567114778 0.00092455902884110435 0 0.021666741574656864 0.00032211884131563194 0 0.022776062206314174 0.00056354173086091051 0 0.024113099256633325 0.00012880780011075008 0 0.024472915446461942 0.00021003972333164962 0 0.023749545404579773 0.00022193567945173458 0 0.023674088858723859 -3.8835902454627259e-05 0 0.024113099256633325 0.00012880780011075008 0 0.023749545404579773 0.00022193567945173458 0 0.024105473247970969 0.00061105889553171892 0 0.022776062206314174 0.00056354173086091051 0 0.023866617536080197 0.00038257254257472611 0 0.024330814916527187 0.00059673230726873909 0 0.024521225950861043 0.00012314933940227993 0 0.024330814916527187 0.00059673230726873909 0 0.024521225950861043 0.00012314933940227993 0 0.024472915446461942 0.00021003972333164962 0 0.022776062206314174 0.00056354173086091051 0 0.024873641632186156 3.3340211143223622e-05 0 0.024472915446461942 0.00021003972333164962 0 0.024999852053892099 4.5582571699291552e-07 0 0.024403782216190065 0.00020536792983582555 0 0.024521225950861043 0.00012314933940227993 0 0.024472915446461942 0.00021003972333164962 0 0.024999852053892099 4.5582571699291552e-07 0 0.024996865796014508 -1.0218236369022935e-06 0 0.024521225950861043 0.00012314933940227993 0 0.024999852053892099 4.5582571699291552e-07 0 0.024999726526651608 3.4594910385369052e-08 0 0.023659392516371058 1.261391855461139e-07 0 0.022225991464284202 -4.9829346653786245e-08 0 0.024999545053879187 7.7545251614391941e-08 0 0.023688844421312236 0.00013812662588336285 0 0.024998442162186097 2.2108738450992714e-07 0 0.024403782216190065 0.00020536792983582555 0 0.023742020610203619 0.00028699015210853854 0 0.024999726526651608 3.4594910385369052e-08 0 0.024999871434868603 -1.6158579369285001e-08 0 0.023659392516371058 1.261391855461139e-07 0 0.024999852053892099 4.5582571699291552e-07 0 0.024998442162186097 2.2108738450992714e-07 0 0.024403782216190065 0.00020536792983582555 0 0.024472915446461942 0.00021003972333164962 0 0.024403782216190065 0.00020536792983582555 0 0.023749545404579773 0.00022193567945173458 0 0.024403782216190065 0.00020536792983582555 0 0.023742020610203619 0.00028699015210853854 0 0.023749545404579773 0.00022193567945173458 0 0.023742020610203619 0.00028699015210853854 0 0.023749545404579773 0.00022193567945173458 0 0.022226146805801192 3.9006525496221496e-07 0 0.023688844421312236 0.00013812662588336285 0 0.022225842164486934 -7.5959753759156201e-09 0 0.023674088858723859 -3.8835902454627259e-05 0 0.023749545404579773 0.00022193567945173458 0 0.023035689536416722 -4.0699994691218564e-06 0 0.023674088858723859 -3.8835902454627259e-05 0 0.023035689536416722 -4.0699994691218564e-06 0 0.022533289156812217 -0.00019515243058826768 0 0.023749545404579773 0.00022193567945173458 0 0.023035689536416722 -4.0699994691218564e-06 0 0.022226146805801192 3.9006525496221496e-07 0 0.023035689536416722 -4.0699994691218564e-06 0 0.022226146805801192 3.9006525496221496e-07 0 0.022533289156812217 -0.00019515243058826768 0 0.022226146805801192 3.9006525496221496e-07 0 0.020721602520874016 -4.3917399724849784e-05 0 0.022533289156812217 -0.00019515243058826768 0 0.022226146805801192 3.9006525496221496e-07 0 0.020783254549516739 -4.34883545390977e-07 0 0.020721602520874016 -4.3917399724849784e-05 0 0.020891491439697558 3.1731772527547959e-05 0 0.021265311319174439 0.00015903088267657135 0 0.020721602520874016 -4.3917399724849784e-05 0 0.019916833205645527 0.00025763437870383274 0 0.019697506784258918 0.00023090661957054603 0 0.020783254549516739 -4.34883545390977e-07 0 0.020721602520874016 -4.3917399724849784e-05 0 0.019697506784258918 0.00023090661957054603 0 0.019916833205645527 0.00025763437870383274 0 0.019718798734914902 0.00040056457107685969 0 0.019697506784258918 0.00023090661957054603 0 0.020721602520874016 -4.3917399724849784e-05 0 0.019916833205645527 0.00025763437870383274 0 0.019822633301617675 0.00032310601955897513 0 0.019916833205645527 0.00025763437870383274 0 0.019822633301617675 0.00032310601955897513 0 0.019798019416385242 0.00054170756592081346 0 0.021666741574656864 0.00032211884131563194 0 0.021265311319174439 0.00015903088267657135 0 0.01984295151090068 0.00075048725052391985 0 0.019822633301617675 0.00032310601955897513 0 0.019798019416385242 0.00054170756592081346 0 0.020140592246683853 0.00094107501962389863 0 0.01984295151090068 0.00075048725052391985 0 0.019798019416385242 0.00054170756592081346 0 0.020140592246683853 0.00094107501962389863 0 0.019967727760970517 0.0007319314712039114 0 0.019798019416385242 0.00054170756592081346 0 0.019967727760970517 0.0007319314712039114 0 0.019798019416385242 0.00054170756592081346 0 0.019707291651374203 0.0005344736887637646 0 0.019916833205645527 0.00025763437870383274 0 0.019798019416385242 0.00054170756592081346 0 0.019718798734914902 0.00040056457107685969 0 0.019798019416385242 0.00054170756592081346 0 0.019707291651374203 0.0005344736887637646 0 0.019718798734914902 0.00040056457107685969 0 0.019707291651374203 0.0005344736887637646 0 0.019718798734914902 0.00040056457107685969 0 0.019440580529018561 0.00048180986402227612 0 0.019900726704923606 0.00047373102239544777 0 0.019967727760970517 0.0007319314712039114 0 0.019440580529018561 0.00048180986402227612 0 0.019967727760970517 0.0007319314712039114 0 0.019707291651374203 0.0005344736887637646 0 0.019440580529018561 0.00048180986402227612 0 0.019244440765620523 0.00033731162518860479 0 0.019900726704923606 0.00047373102239544777 0 0.019440580529018561 0.00048180986402227612 0 0.01887017785849671 0.00029839904413401299 0 0.019244440765620523 0.00033731162518860479 0 0.019440580529018561 0.00048180986402227612 0 0.01887017785849671 0.00029839904413401299 0 0.019440580529018561 0.00048180986402227612 0 0.019697506784258918 0.00023090661957054603 0 0.01887017785849671 0.00029839904413401299 0 0.019341261187030355 8.1512647184783427e-07 0 0.019697506784258918 0.00023090661957054603 0 0.020783254549516739 -4.34883545390977e-07 0 0.019341261187030355 8.1512647184783427e-07 0 0.019697506784258918 0.00023090661957054603 0 0.019718798734914902 0.00040056457107685969 0 0.019440580529018561 0.00048180986402227612 0 0.019697506784258918 0.00023090661957054603 0 0.017938718049880301 -8.5792706537181826e-06 0 0.017526758787800956 -0.00047248540513639083 0 0.017402371345596759 -7.6078698848728289e-05 0 0.017938718049880301 -8.5792706537181826e-06 0 0.017476800404535434 0.00032328684275969118 0 0.017402371345596759 -7.6078698848728289e-05 0 0.017063534150310051 -0.00059521243158225596 0 0.016683942482096835 -0.00033585432664659932 0 0.016364462003609512 -0.001219552265971432 0 0.015946427107585294 -0.0009166813313055851 0 0.016326998431661702 -0.00088689247195465723 0 0.016364462003609512 -0.001219552265971432 0 0.016702452809800088 -0.0011112213978580437 0 0.016326998431661702 -0.00088689247195465723 0 0.016702452809800088 -0.0011112213978580437 0 0.016326998431661702 -0.00088689247195465723 0 0.016606973587936023 -0.00070869812281135279 0 0.017828301952647185 -0.0009152135918159592 0 0.017763712571145659 -0.00064606399836174245 0 0.018983776183161528 -0.00062768238487912072 0 0.019060582330043842 -0.00063475223667203628 0 0.019017636609938899 -0.00058938674563224563 0 0.019060582330043842 -0.00063475223667203628 0 0.019017636609938899 -0.00058938674563224563 0 0.019079006051859967 -0.0005959126363470215 0 0.019060582330043842 -0.00063475223667203628 0 0.019072918821266008 -0.00071092725649676424 0 0.018989127336593328 -0.00074513521673015722 0 0.018983776183161528 -0.00062768238487912072 0 0.019060582330043842 -0.00063475223667203628 0 0.018989127336593328 -0.00074513521673015722 0 0.019060582330043842 -0.00063475223667203628 0 0.019072918821266008 -0.00071092725649676424 0 0.0191249862410671 -0.00066429642399473438 0 0.017063534150310051 -0.00059521243158225596 0 0.018109800460002885 -0.00089310607911825292 0 0.017828301952647185 -0.0009152135918159592 0 0.018109800460002885 -0.00089310607911825292 0 0.016364462003609512 -0.001219552265971432 0 0.016702452809800088 -0.0011112213978580437 0 0.016796787943392975 -0.0015215258996191317 0 0.017938718049880301 -8.5792706537181826e-06 0 0.018413339398237038 -0.00035296305509546804 0 0.017996155386199333 -0.00055932096948960782 0 0.018413339398237038 -0.00035296305509546804 0 0.018473065434037119 -0.00064521744028988985 0 0.017996155386199333 -0.00055932096948960782 0 0.019240252460411826 -0.0006215440901934248 0 0.018889715070715428 -7.3275167854206533e-05 0 0.019072918821266008 -0.00071092725649676424 0 0.018989127336593328 -0.00074513521673015722 0 0.019048373373674873 -0.00082078947484158136 0 0.018109800460002885 -0.00089310607911825292 0 0.01905586779487517 -0.0009910561613274394 0 0.018918354182994226 -0.00072705191250542597 0 0.019048373373674873 -0.00082078947484158136 0 0.018956200777945537 -0.00089883840309465087 0 0.018109800460002885 -0.00089310607911825292 0 0.019240252460411826 -0.0006215440901934248 0 0.019535876163473319 -0.00091449980007769489 0 0.019638528312867366 -0.0010141761972269133 0 0.019731214022261235 -0.00096795735251267517 0 0.020259114871523414 0.00018553200744775105 0 0.020034274476702762 -7.2080629999243137e-07 0 0.020312280306467881 -0.00016406347137130569 0 0.019240252460411826 -0.0006215440901934248 0 0.019485798316292321 -0.00098589468164546811 0 0.019240252460411826 -0.0006215440901934248 0 0.019918762425214447 -0.00056925128682612134 0 0.019535876163473319 -0.00091449980007769489 0 0.019638528312867366 -0.0010141761972269133 0 0.019559817898727665 -0.0010513253232963531 0 0.019048373373674873 -0.00082078947484158136 0 0.018956200777945537 -0.00089883840309465087 0 0.019214789865494929 -0.00096461514341348697 0 0.020259114871523414 0.00018553200744775105 0 0.020034274476702762 -7.2080629999243137e-07 0 0.019778136704630963 0.00034846596533287999 0 0.020034274476702762 -7.2080629999243137e-07 0 0.01977311847371448 2.3449320626400869e-05 0 0.019778136704630963 0.00034846596533287999 0 0.020034274476702762 -7.2080629999243137e-07 0 0.01977311847371448 2.3449320626400869e-05 0 0.019880814528709566 -0.00016350547519452155 0 0.01977311847371448 2.3449320626400869e-05 0 0.019598705654318805 -0.00012639869394506393 0 0.019880814528709566 -0.00016350547519452155 0 0.01977311847371448 2.3449320626400869e-05 0 0.019527098145733432 0.00011109649145595411 0 0.019598705654318805 -0.00012639869394506393 0 0.019527098145733432 0.00011109649145595411 0 0.019440112675850944 -1.9128297612891187e-05 0 0.019598705654318805 -0.00012639869394506393 0 0.01977311847371448 2.3449320626400869e-05 0 0.019527098145733432 0.00011109649145595411 0 0.019778136704630963 0.00034846596533287999 0 0.017938718049880301 -8.5792706537181826e-06 0 0.017996155386199333 -0.00055932096948960782 0 0.017526758787800956 -0.00047248540513639083 0 0.018889715070715428 -7.3275167854206533e-05 0 0.018000039683647412 3.3991697441970869e-05 0 0.019527098145733432 0.00011109649145595411 0 0.019778136704630963 0.00034846596533287999 0 0.018486347354049849 0.00056502096823331704 0 0.019527098145733432 0.00011109649145595411 0 0.018486347354049849 0.00056502096823331704 0 0.018016522372601308 0.00013774074312214305 0 0.019527098145733432 0.00011109649145595411 0 0.019279364342235972 7.765601250559983e-05 0 0.019100065131135369 0.00029702101337647057 0 0.019451717090497075 0.00011589614014139339 0 0.018558190077920231 0.0002297713034923717 0 0.019527098145733432 0.00011109649145595411 0 0.019440112675850944 -1.9128297612891187e-05 0 0.019279364342235972 7.765601250559983e-05 0 0.019440112675850944 -1.9128297612891187e-05 0 0.019279364342235972 7.765601250559983e-05 0 0.019340359850717814 -0.00016680210927395457 0 0.019279364342235972 7.765601250559983e-05 0 0.019071229492506094 -1.1401980735761745e-05 0 0.019340359850717814 -0.00016680210927395457 0 0.019100065131135369 0.00029702101337647057 0 0.018844736087742234 0.00017129602630593782 0 0.018330606389443411 0.00054818452035512158 0 0.019279364342235972 7.765601250559983e-05 0 0.019071229492506094 -1.1401980735761745e-05 0 0.019100065131135369 0.00029702101337647057 0 0.019071229492506094 -1.1401980735761745e-05 0 0.019100065131135369 0.00029702101337647057 0 0.018844736087742234 0.00017129602630593782 0 0.019071229492506094 -1.1401980735761745e-05 0 0.018844736087742234 0.00017129602630593782 0 0.018873015082592481 5.5933219423749913e-06 0 0.019071229492506094 -1.1401980735761745e-05 0 0.018873015082592481 5.5933219423749913e-06 0 0.018831692283223844 -0.0001893524697704098 0 0.018844736087742234 0.00017129602630593782 0 0.018873015082592481 5.5933219423749913e-06 0 0.018641262578092867 9.3174111712500212e-05 0 0.018873015082592481 5.5933219423749913e-06 0 0.018641262578092867 9.3174111712500212e-05 0 0.018831692283223844 -0.0001893524697704098 0 0.018844736087742234 0.00017129602630593782 0 0.018641262578092867 9.3174111712500212e-05 0 0.018330606389443411 0.00054818452035512158 0 0.018641262578092867 9.3174111712500212e-05 0 0.018454134928733133 -7.3812961702112725e-05 0 0.018831692283223844 -0.0001893524697704098 0 0.018641262578092867 9.3174111712500212e-05 0 0.018372577310088678 0.00019609214749895991 0 0.018454134928733133 -7.3812961702112725e-05 0 0.018308886019568243 5.774559553099388e-05 0 0.018170698433756204 -4.0323833464439555e-05 0 0.018454134928733133 -7.3812961702112725e-05 0 0.018308886019568243 5.774559553099388e-05 0 0.018372577310088678 0.00019609214749895991 0 0.018454134928733133 -7.3812961702112725e-05 0 0.018308886019568243 5.774559553099388e-05 0 0.018214761907878217 0.00018423537102440387 0 0.018372577310088678 0.00019609214749895991 0 0.018308886019568243 5.774559553099388e-05 0 0.018214761907878217 0.00018423537102440387 0 0.018170698433756204 -4.0323833464439555e-05 0 0.018233814700756346 0.00031158859863307346 0 0.018372577310088678 0.00019609214749895991 0 0.018330606389443411 0.00054818452035512158 0 0.018641262578092867 9.3174111712500212e-05 0 0.018372577310088678 0.00019609214749895991 0 0.018330606389443411 0.00054818452035512158 0 0.018214761907878217 0.00018423537102440387 0 0.018233814700756346 0.00031158859863307346 0 0.018372577310088678 0.00019609214749895991 0 0.018016522372601308 0.00013774074312214305 0 0.016952487635249796 0.00045756538623437684 0 0.016785561441623006 0.00035097441037519351 0 0.016952487635249796 0.00045756538623437684 0 0.017179683702536863 0.00052489587258546661 0 0.016973346805131816 0.0005519019492081674 0 0.016952487635249796 0.00045756538623437684 0 0.016785561441623006 0.00035097441037519351 0 0.016822946903299631 0.00051222211864116959 0 0.016952487635249796 0.00045756538623437684 0 0.016822946903299631 0.00051222211864116959 0 0.016973346805131816 0.0005519019492081674 0 0.017179683702536863 0.00052489587258546661 0 0.017124481108394242 0.0005798326152235215 0 0.016973346805131816 0.0005519019492081674 0 0.0171763514037028 0.00025129969493178938 0 0.01717860632601894 0.00017281494180889072 0 0.01717860632601894 0.00017281494180889072 0 0.017135866948002836 0.00020168930193362577 0 0.017526758787800956 -0.00047248540513639083 0 0.017068484681835104 -0.00038714413667389466 0 0.017402371345596759 -7.6078698848728289e-05 0 0.018000039683647412 3.3991697441970869e-05 0 0.01717860632601894 0.00017281494180889072 0 0.018558190077920231 0.0002297713034923717 0 0.017569888017164494 0.0004480681223455718 0 0.018486347354049849 0.00056502096823331704 0 0.018016522372601308 0.00013774074312214305 0 0.017171167356680415 0.0006629183022659296 0 0.018016522372601308 0.00013774074312214305 0 0.016952487635249796 0.00045756538623437684 0 0.017179683702536863 0.00052489587258546661 0 0.018016522372601308 0.00013774074312214305 0 0.017179683702536863 0.00052489587258546661 0 0.017171167356680415 0.0006629183022659296 0 0.017194024006759071 0.00056113012668656398 0 0.017329033082063183 0.00044919264625893954 0 0.017390850134736107 0.00053183926881752064 0 0.017329033082063183 0.00044919264625893954 0 0.01725029220119589 0.00033159049965098063 0 0.017486825161169929 0.0002990802546500155 0 0.017329033082063183 0.00044919264625893954 0 0.01725029220119589 0.00033159049965098063 0 0.017054353304323127 0.00048079502312067931 0 0.017329033082063183 0.00044919264625893954 0 0.017512781512829634 0.00042604742676752462 0 0.017486825161169929 0.0002990802546500155 0 0.017329033082063183 0.00044919264625893954 0 0.017512781512829634 0.00042604742676752462 0 0.017390850134736107 0.00053183926881752064 0 0.017512781512829634 0.00042604742676752462 0 0.017390850134736107 0.00053183926881752064 0 0.017585123938450631 0.000569858338411957 0 0.017391883013553135 0.00069085334244824745 0 0.018839617679350749 -4.8537062538014372e-05 0 0.017512781512829634 0.00042604742676752462 0 0.017585123938450631 0.000569858338411957 0 0.017681760545460532 0.00030130759107950035 0 0.018009933899327056 0.00032171435761402581 0 0.017585123938450631 0.000569858338411957 0 0.018089260847684412 -0.00013853179001770407 0 0.018330606389443411 0.00054818452035512158 0 0.018009933899327056 0.00032171435761402581 0 0.017585123938450631 0.000569858338411957 0 0.017512781512829634 0.00042604742676752462 0 0.017486825161169929 0.0002990802546500155 0 0.017681760545460532 0.00030130759107950035 0 0.018214761907878217 0.00018423537102440387 0 0.018170698433756204 -4.0323833464439555e-05 0 0.018009933899327056 0.00032171435761402581 0 0.018170698433756204 -4.0323833464439555e-05 0 0.018009933899327056 0.00032171435761402581 0 0.018089260847684412 -0.00013853179001770407 0 0.018711192332103686 -0.0001272544075418114 0 0.018839617679350749 -4.8537062538014372e-05 0 0.018233814700756346 0.00031158859863307346 0 0.018330606389443411 0.00054818452035512158 0 0.018009933899327056 0.00032171435761402581 0 0.018214761907878217 0.00018423537102440387 0 0.018233814700756346 0.00031158859863307346 0 0.018009933899327056 0.00032171435761402581 0 0.016785561441623006 0.00035097441037519351 0 0.016757780928814268 0.00048995263839686086 0 0.016729914471741276 0.00052587006890811609 0 0.018330606389443411 0.00054818452035512158 0 0.017585123938450631 0.000569858338411957 0 0.017364679761606959 0.00070882099172774223 0 0.017569888017164494 0.0004480681223455718 0 0.01706243220110891 0.00059791038633572003 0 0.016785561441623006 0.00035097441037519351 0 0.016822946903299631 0.00051222211864116959 0 0.016757780928814268 0.00048995263839686086 0 0.016822946903299631 0.00051222211864116959 0 0.016757780928814268 0.00048995263839686086 0 0.016767545010229534 0.0005203560441601273 0 0.016757780928814268 0.00048995263839686086 0 0.016744412971925592 0.00051301825787383065 0 0.016767545010229534 0.0005203560441601273 0 0.017390850134736107 0.00053183926881752064 0 0.017585123938450631 0.000569858338411957 0 0.017364679761606959 0.00070882099172774223 0 0.016729914471741276 0.00052587006890811609 0 0.016744412971925592 0.00051301825787383065 0 0.016766276662907843 0.00051693314072830891 0 0.016757780928814268 0.00048995263839686086 0 0.016729914471741276 0.00052587006890811609 0 0.016744412971925592 0.00051301825787383065 0 0.017194024006759071 0.00056113012668656398 0 0.017390850134736107 0.00053183926881752064 0 0.017364679761606959 0.00070882099172774223 0 0.016754583329328165 0.00051044342674485274 0 0.016744543518761944 0.0005199733284780596 0 0.016772017312420198 0.00049945571172278866 0 0.016744412971925592 0.00051301825787383065 0 0.016766276662907843 0.00051693314072830891 0 0.016754583329328165 0.00051044342674485274 0 0.016766276662907843 0.00051693314072830891 0 0.016754583329328165 0.00051044342674485274 0 0.016793549574487431 0.00050814342234465151 0 0.016744412971925592 0.00051301825787383065 0 0.016754583329328165 0.00051044342674485274 0 0.016752826891242398 0.00052554624326371375 0 0.016754583329328165 0.00051044342674485274 0 0.016752826891242398 0.00052554624326371375 0 0.016744543518761944 0.0005199733284780596 0 0.016752826891242398 0.00052554624326371375 0 0.016788817932870372 0.00054644371783640542 0 0.016748624285047656 0.00053043510979913886 0 0.016752826891242398 0.00052554624326371375 0 0.016767545010229534 0.0005203560441601273 0 0.016788817932870372 0.00054644371783640542 0 0.016744412971925592 0.00051301825787383065 0 0.016752826891242398 0.00052554624326371375 0 0.016767545010229534 0.0005203560441601273 0 0.016822946903299631 0.00051222211864116959 0 0.016767545010229534 0.0005203560441601273 0 0.016788817932870372 0.00054644371783640542 0 0.016788817932870372 0.00054644371783640542 0 0.016746633955629392 0.0005326944571131079 0 0.016748624285047656 0.00053043510979913886 0 0.016746633955629392 0.0005326944571131079 0 0.016748624285047656 0.00053043510979913886 0 0.016705517318584228 0.00052587430386655276 0 0.016748624285047656 0.00053043510979913886 0 0.016744543518761944 0.0005199733284780596 0 0.016705517318584228 0.00052587430386655276 0 0.016744543518761944 0.0005199733284780596 0 0.016705517318584228 0.00052587430386655276 0 0.016756896927443379 0.00051293469091880258 0 0.016752826891242398 0.00052554624326371375 0 0.016748624285047656 0.00053043510979913886 0 0.016744543518761944 0.0005199733284780596 0 0.016744543518761944 0.0005199733284780596 0 0.016772017312420198 0.00049945571172278866 0 0.016756896927443379 0.00051293469091880258 0 0.017068484681835104 -0.00038714413667389466 0 0.017402371345596759 -7.6078698848728289e-05 0 0.017050223691939037 0.00013505705052972109 0 0.016973346805131816 0.0005519019492081674 0 0.016788817932870372 0.00054644371783640542 0 0.016791964896100974 0.00054490901697196864 0 0.016973625771756828 0.00055174668529689723 0 0.016973346805131816 0.0005519019492081674 0 0.016791964896100974 0.00054490901697196864 0 0.01717860632601894 0.00017281494180889072 0 0.01694160983034005 0.00037545212304067376 0 0.016822946903299631 0.00051222211864116959 0 0.016973346805131816 0.0005519019492081674 0 0.016788817932870372 0.00054644371783640542 0 0.016746633955629392 0.0005326944571131079 0 0.016791964896100974 0.00054490901697196864 0 0.016737733115869822 0.00053389057996592996 0 0.016788817932870372 0.00054644371783640542 0 0.016746633955629392 0.0005326944571131079 0 0.016791964896100974 0.00054490901697196864 0 0.017476800404535434 0.00032328684275969118 0 0.017402371345596759 -7.6078698848728289e-05 0 0.017050223691939037 0.00013505705052972109 0 0.017476800404535434 0.00032328684275969118 0 0.017050223691939037 0.00013505705052972109 0 0.017028869806277824 0.00064875250203130558 0 0.016683942482096835 -0.00033585432664659932 0 0.016591314929649097 0.00029481640739079725 0 0.015946427107585294 -0.0009166813313055851 0 0.015541104095243964 -0.00061654832360810014 0 0.015861879684028093 -0.00045207990308356234 0 0.016791964896100974 0.00054490901697196864 0 0.016737733115869822 0.00053389057996592996 0 0.01673315383739106 0.00053431265676823843 0 0.01694160983034005 0.00037545212304067376 0 0.016591314929649097 0.00029481640739079725 0 0.016737733115869822 0.00053389057996592996 0 0.016730423140296959 0.00053637412136381185 0 0.016727399956617525 0.00053659317244156117 0 0.016737733115869822 0.00053389057996592996 0 0.01673315383739106 0.00053431265676823843 0 0.016730423140296959 0.00053637412136381185 0 0.016591314929649097 0.00029481640739079725 0 0.014643856929658869 -2.3273736622272618e-05 0 0.016730423140296959 0.00053637412136381185 0 0.01672232248971562 0.00054532168706103348 0 0.016719468397384751 0.0005472990410547514 0 0.016732279111273524 0.00053469988576280688 0 0.016730423140296959 0.00053637412136381185 0 0.016719468397384751 0.0005472990410547514 0 0.016591314929649097 0.00029481640739079725 0 0.01659908313504465 0.00032272343018867892 0 0.016730423140296959 0.00053637412136381185 0 0.016727399956617525 0.00053659317244156117 0 0.01672232248971562 0.00054532168706103348 0 0.016737733115869822 0.00053389057996592996 0 0.016727399956617525 0.00053659317244156117 0 0.01672001905292898 0.00053574495797163377 0 0.016727399956617525 0.00053659317244156117 0 0.01672232248971562 0.00054532168706103348 0 0.01672001905292898 0.00053574495797163377 0 0.016468397014409466 0.00052061068152800831 0 0.014643856929658869 -2.3273736622272618e-05 0 0.01672232248971562 0.00054532168706103348 0 0.016714291220661013 0.00055497262449076697 0 0.016719468397384751 0.0005472990410547514 0 0.015541104095243964 -0.00061654832360810014 0 0.015861879684028093 -0.00045207990308356234 0 0.015523368400283177 -0.00030216642341153704 0 0.016705517318584228 0.00052587430386655276 0 0.016629827926409185 0.00051315553664579383 0 0.016736157225684726 0.00053255116061313426 0 0.013696720767595009 0.00039448840070018768 0 0.013749002624852841 0.00062584207363969822 0 0.016705517318584228 0.00052587430386655276 0 0.016756896927443379 0.00051293469091880258 0 0.016736157225684726 0.00053255116061313426 0 0.016705517318584228 0.00052587430386655276 0 0.016685275469755227 0.00051952461168879764 0 0.016629827926409185 0.00051315553664579383 0 0.016746633955629392 0.0005326944571131079 0 0.016705517318584228 0.00052587430386655276 0 0.016713285876881753 0.00052537461560715748 0 0.016685275469755227 0.00051952461168879764 0 0.016713285876881753 0.00052537461560715748 0 0.01669371093637053 0.00052483278970562916 0 0.016705517318584228 0.00052587430386655276 0 0.016685275469755227 0.00051952461168879764 0 0.016713285876881753 0.00052537461560715748 0 0.016746633955629392 0.0005326944571131079 0 0.016737733115869822 0.00053389057996592996 0 0.016713285876881753 0.00052537461560715748 0 0.016737733115869822 0.00053389057996592996 0 0.016713285876881753 0.00052537461560715748 0 0.01672001905292898 0.00053574495797163377 0 0.016713285876881753 0.00052537461560715748 0 0.01672001905292898 0.00053574495797163377 0 0.01669371093637053 0.00052483278970562916 0 0.01672001905292898 0.00053574495797163377 0 0.016714291220661013 0.00055497262449076697 0 0.01669371093637053 0.00052483278970562916 0 0.01672232248971562 0.00054532168706103348 0 0.01672001905292898 0.00053574495797163377 0 0.016714291220661013 0.00055497262449076697 0 0.015820293252159643 0.00033547410792254405 0 0.016629827926409185 0.00051315553664579383 0 0.016256273247450805 0.00013110049245676725 0 0.016468397014409466 0.00052061068152800831 0 0.016501731433213575 0.00048866573728577377 0 0.016685275469755227 0.00051952461168879764 0 0.01669371093637053 0.00052483278970562916 0 0.016629827926409185 0.00051315553664579383 0 0.016714291220661013 0.00055497262449076697 0 0.01669371093637053 0.00052483278970562916 0 0.016629827926409185 0.00051315553664579383 0 0.016629827926409185 0.00051315553664579383 0 0.016713546007178125 0.00040284506798777555 0 0.016736157225684726 0.00053255116061313426 0 0.016629827926409185 0.00051315553664579383 0 0.016713546007178125 0.00040284506798777555 0 0.016256273247450805 0.00013110049245676725 0 0.010678940242974 0.00041244130755126038 0 0.010460955152248102 9.6022378436267319e-05 0 0.010764186734001303 0.00016289506153731889 0 0.016713546007178125 0.00040284506798777555 0 0.016256273247450805 0.00013110049245676725 0 0.016209954662040268 -0.00058659050693325211 0 0.013696720767595009 0.00039448840070018768 0 0.013306895040556948 -0.00025116367788063248 0 0.015830817102027373 -0.00018100430594045086 0 0.015647227230112162 -0.00084036480230534056 0 0.015862247501339011 -0.00010144813760707716 0 0.015738525067435227 -0.00084097531243669294 0 0.016209954662040268 -0.00058659050693325211 0 0.015862247501339011 -0.00010144813760707716 0 0.015711973867753318 -0.00080261989452313565 0 0.015436814924077441 -0.00051739319597948134 0 0.016256273247450805 0.00013110049245676725 0 0.015862247501339011 -0.00010144813760707716 0 0.016209954662040268 -0.00058659050693325211 0 0.015820293252159643 0.00033547410792254405 0 0.016256273247450805 0.00013110049245676725 0 0.015862247501339011 -0.00010144813760707716 0 0.013125653266381671 -0.00093234419991854091 0 0.015647227230112162 -0.00084036480230534056 0 0.013125653266381671 -0.00093234419991854091 0 0.013306895040556948 -0.00025116367788063248 0 0.015605789626181367 -0.0015973409579138405 0 0.015738525067435227 -0.00084097531243669294 0 0.016209954662040268 -0.00058659050693325211 0 0.010235566087510225 -0.00023948995418781983 0 0.010460955152248102 9.6022378436267319e-05 0 0.010695466123659854 -0.00012693837731552615 0 0.010460955152248102 9.6022378436267319e-05 0 0.010695466123659854 -0.00012693837731552615 0 0.010764186734001303 0.00016289506153731889 0 0.015861879684028093 -0.00045207990308356234 0 0.015523368400283177 -0.00030216642341153704 0 0.015968620880176879 -0.0001148335658126804 0 0.014643856929658869 -2.3273736622272618e-05 0 0.013330528182657047 -0.00036798505915539649 0 0.011994119281400234 -0.00037419714533078326 0 0.011967950892965972 -0.0007121722225403508 0 0.011654856962604576 -0.00052670284581997958 0 0.015862247501339011 -0.00010144813760707716 0 0.015085665510604558 2.4142236778863637e-05 0 0.015436814924077441 -0.00051739319597948134 0 0.015820293252159643 0.00033547410792254405 0 0.015862247501339011 -0.00010144813760707716 0 0.015085665510604558 2.4142236778863637e-05 0 0.014643856929658869 -2.3273736622272618e-05 0 0.013529031039919263 -0.001025148018214183 0 0.015579943842586976 -0.0014729524248957336 0 0.015711973867753318 -0.00080261989452313565 0 0.015099297681395042 -0.001174044417022518 0 0.015085665510604558 2.4142236778863637e-05 0 0.015436814924077441 -0.00051739319597948134 0 0.015099297681395042 -0.001174044417022518 0 0.015711973867753318 -0.00080261989452313565 0 0.015436814924077441 -0.00051739319597948134 0 0.015099297681395042 -0.001174044417022518 0 0.011700327240965125 -0.00073785765472264369 0 0.011967950892965972 -0.0007121722225403508 0 0.011654856962604576 -0.00052670284581997958 0 0.011529151226823029 -0.00078076252474809703 0 0.011700327240965125 -0.00073785765472264369 0 0.011654856962604576 -0.00052670284581997958 0 0.015454707284959445 -0.00082083525601676043 0 0.013330528182657047 -0.00036798505915539649 0 0.011529151226823029 -0.00078076252474809703 0 0.011412682018253708 -0.00067311988518330645 0 0.011654856962604576 -0.00052670284581997958 0 0.015968620880176879 -0.0001148335658126804 0 0.016203598554164197 -0.00056388616047675806 0 0.016511852921343939 -0.0003153826412664603 0 0.016420196969366755 7.2226094597380435e-05 0 0.015968620880176879 -0.0001148335658126804 0 0.016511852921343939 -0.0003153826412664603 0 0.015861879684028093 -0.00045207990308356234 0 0.015968620880176879 -0.0001148335658126804 0 0.016203598554164197 -0.00056388616047675806 0 0.016203598554164197 -0.00056388616047675806 0 0.016606973587936023 -0.00070869812281135279 0 0.016511852921343939 -0.0003153826412664603 0 0.016203598554164197 -0.00056388616047675806 0 0.016326998431661702 -0.00088689247195465723 0 0.016606973587936023 -0.00070869812281135279 0 0.015946427107585294 -0.0009166813313055851 0 0.016203598554164197 -0.00056388616047675806 0 0.016326998431661702 -0.00088689247195465723 0 0.015946427107585294 -0.0009166813313055851 0 0.015861879684028093 -0.00045207990308356234 0 0.016203598554164197 -0.00056388616047675806 0 0.019017636609938899 -0.00058938674563224563 0 0.018953275196774391 -0.00058030808778121261 0 0.018960523652694954 -0.0005590537969586653 0 0.018983776183161528 -0.00062768238487912072 0 0.019017636609938899 -0.00058938674563224563 0 0.018953275196774391 -0.00058030808778121261 0 0.017763712571145659 -0.00064606399836174245 0 0.017892521818596855 -0.00035907417122960078 0 0.018953275196774391 -0.00058030808778121261 0 0.018960523652694954 -0.0005590537969586653 0 0.018899979017903797 -0.000549220569211562 0 0.019017636609938899 -0.00058938674563224563 0 0.018960523652694954 -0.0005590537969586653 0 0.019056187108437928 -0.0005867185550388922 0 0.018960523652694954 -0.0005590537969586653 0 0.018899979017903797 -0.000549220569211562 0 0.018901147973667556 -0.00053229035167574597 0 0.018960523652694954 -0.0005590537969586653 0 0.018901147973667556 -0.00053229035167574597 0 0.01889212344928768 -0.00052694076191611022 0 0.015454707284959445 -0.00082083525601676043 0 0.017892521818596855 -0.00035907417122960078 0 0.018864933532835096 -0.00052795505501815028 0 0.018899979017903797 -0.000549220569211562 0 0.018901147973667556 -0.00053229035167574597 0 0.01887180266480723 -0.00051831824026829368 0 0.018864933532835096 -0.00052795505501815028 0 0.018901147973667556 -0.00053229035167574597 0 0.018053649372322796 -0.00097926790338700239 0 0.015454707284959445 -0.00082083525601676043 0 0.01887180266480723 -0.00051831824026829368 0 0.018901147973667556 -0.00053229035167574597 0 0.01889212344928768 -0.00052694076191611022 0 0.018960523652694954 -0.0005590537969586653 0 0.01889212344928768 -0.00052694076191611022 0 0.019011948578106948 -0.00058303170974782011 0 0.019011948578106948 -0.00058303170974782011 0 0.018957465022612675 -0.00055396261503825781 0 0.019112929181174215 -0.00062274489557270286 0 0.01889212344928768 -0.00052694076191611022 0 0.019011948578106948 -0.00058303170974782011 0 0.018957465022612675 -0.00055396261503825781 0 0.018957465022612675 -0.00055396261503825781 0 0.019201959506756225 -0.00054363233820229587 0 0.019112929181174215 -0.00062274489557270286 0 0.019104540172595139 -0.0024641149741797962 0 0.019085725445891991 -0.0014893632425625131 0 0.018660570050290062 -0.0044815531997609674 0 0.017276441667209808 -0.003412409041113903 0 0.019101969773914138 -0.002310967574779446 0 0.017118222035988936 -0.0048894285655443357 0 0.018660570050290062 -0.0044815531997609674 0 0.017276441667209808 -0.003412409041113903 0 0.017118222035988936 -0.0048894285655443357 0 0.017276441667209808 -0.003412409041113903 0 0.016358046241097119 -0.0044405189127775888 0 0.017276441667209808 -0.003412409041113903 0 0.018120808941863756 -0.0016830754542877544 0 0.019101969773914138 -0.002310967574779446 0 0.017276441667209808 -0.003412409041113903 0 0.018120808941863756 -0.0016830754542877544 0 0.016775670537167334 -0.0023534665017886872 0 0.018120808941863756 -0.0016830754542877544 0 0.016775670537167334 -0.0023534665017886872 0 0.016892922949911078 -0.0012975748905015765 0 0.019085725445891991 -0.0014893632425625131 0 0.019189571179824429 -0.00075207018835164187 0 0.019011948578106948 -0.00058303170974782011 0 0.019112929181174215 -0.00062274489557270286 0 0.01917746828103083 -0.00065682268033374392 0 0.018120808941863756 -0.0016830754542877544 0 0.019101969773914138 -0.002310967574779446 0 0.01917746828103083 -0.00065682268033374392 0 0.01917746828103083 -0.00065682268033374392 0 0.018523390907763716 -0.00057882489504324809 0 0.01898151995523828 -0.00053547468339294822 0 0.018120808941863756 -0.0016830754542877544 0 0.01917746828103083 -0.00065682268033374392 0 0.018523390907763716 -0.00057882489504324809 0 0.018523390907763716 -0.00057882489504324809 0 0.018883737477050522 -0.00059163210241651389 0 0.019017291001463734 -0.00051625246359048038 0 0.018120808941863756 -0.0016830754542877544 0 0.018523390907763716 -0.00057882489504324809 0 0.016892922949911078 -0.0012975748905015765 0 0.018883737477050522 -0.00059163210241651389 0 0.01898151995523828 -0.00053547468339294822 0 0.019137538232961018 -0.00056461649742447725 0 0.018883737477050522 -0.00059163210241651389 0 0.019063535148075527 -0.00062498464115014326 0 0.019137538232961018 -0.00056461649742447725 0 0.018523390907763716 -0.00057882489504324809 0 0.018883737477050522 -0.00059163210241651389 0 0.01898151995523828 -0.00053547468339294822 0 0.01898151995523828 -0.00053547468339294822 0 0.019154714893234427 -0.00057715120363643977 0 0.019137538232961018 -0.00056461649742447725 0 0.01917746828103083 -0.00065682268033374392 0 0.01898151995523828 -0.00053547468339294822 0 0.019154714893234427 -0.00057715120363643977 0 0.019154714893234427 -0.00057715120363643977 0 0.019056187108437928 -0.0005867185550388922 0 0.019092584459759549 -0.00061007249221819786 0 0.019154714893234427 -0.00057715120363643977 0 0.019056187108437928 -0.0005867185550388922 0 0.019132460698084466 -0.00058786473156028653 0 0.019017636609938899 -0.00058938674563224563 0 0.019056187108437928 -0.0005867185550388922 0 0.019079006051859967 -0.0005959126363470215 0 0.019056187108437928 -0.0005867185550388922 0 0.019079006051859967 -0.0005959126363470215 0 0.019132460698084466 -0.00058786473156028653 0 0.018960523652694954 -0.0005590537969586653 0 0.019011948578106948 -0.00058303170974782011 0 0.019056187108437928 -0.0005867185550388922 0 0.019011948578106948 -0.00058303170974782011 0 0.019056187108437928 -0.0005867185550388922 0 0.019092584459759549 -0.00061007249221819786 0 0.01917746828103083 -0.00065682268033374392 0 0.019154714893234427 -0.00057715120363643977 0 0.019092584459759549 -0.00061007249221819786 0 0.019011948578106948 -0.00058303170974782011 0 0.01917746828103083 -0.00065682268033374392 0 0.019092584459759549 -0.00061007249221819786 0 0.019337887256768403 -0.0013111953544271691 0 0.019290731411473392 -0.001349130322510625 0 0.019330011473730018 -0.0012400867349388887 0 0.019337887256768403 -0.0013111953544271691 0 0.019333563530091545 -0.0013542734070489417 0 0.019290731411473392 -0.001349130322510625 0 0.019333563530091545 -0.0013542734070489417 0 0.019290731411473392 -0.001349130322510625 0 0.01932673088803525 -0.0013956245658089284 0 0.019290731411473392 -0.001349130322510625 0 0.019256845362426198 -0.0014655611473704563 0 0.01932673088803525 -0.0013956245658089284 0 0.017441708223305236 -0.0018142976705407925 0 0.01747602727096342 -0.001851833032910556 0 0.019256845362426198 -0.0014655611473704563 0 0.01932673088803525 -0.0013956245658089284 0 0.019369959271394312 -0.0014590489073345537 0 0.019361931291733171 -0.0013206959905854997 0 0.017635067350355825 -0.0022527883163327503 0 0.01932673088803525 -0.0013956245658089284 0 0.019369959271394312 -0.0014590489073345537 0 0.019368197025669883 -0.001349993320520112 0 0.01747602727096342 -0.001851833032910556 0 0.019544722764678404 -0.0012617369462133456 0 0.019338888886342529 -0.0014853180158347803 0 0.01938156602447226 -0.0013748880188525514 0 0.019368197025669883 -0.001349993320520112 0 0.019338888886342529 -0.0014853180158347803 0 0.01938156602447226 -0.0013748880188525514 0 0.019380345741191688 -0.0014906361326532116 0 0.01747602727096342 -0.001851833032910556 0 0.017635067350355825 -0.0022527883163327503 0 0.01938156602447226 -0.0013748880188525514 0 0.019368197025669883 -0.001349993320520112 0 0.019360736797905297 -0.0012716652581984639 0 0.019332285394748197 -0.0013572609994792759 0 0.019374698148043202 -0.0012992013413487846 0 0.019360736797905297 -0.0012716652581984639 0 0.019361931291733171 -0.0013206959905854997 0 0.019358917496593759 -0.0013011641918848978 0 0.019333563530091545 -0.0013542734070489417 0 0.01932673088803525 -0.0013956245658089284 0 0.019368197025669883 -0.001349993320520112 0 0.019337887256768403 -0.0013111953544271691 0 0.019333563530091545 -0.0013542734070489417 0 0.019368197025669883 -0.001349993320520112 0 0.019337887256768403 -0.0013111953544271691 0 0.019368197025669883 -0.001349993320520112 0 0.019360736797905297 -0.0012716652581984639 0 0.019332285394748197 -0.0013572609994792759 0 0.019374698148043202 -0.0012992013413487846 0 0.01937084483485477 -0.0013423107128378387 0 0.019374698148043202 -0.0012992013413487846 0 0.019413762951830848 -0.001313971870921521 0 0.01937084483485477 -0.0013423107128378387 0 0.019413762951830848 -0.001313971870921521 0 0.01937084483485477 -0.0013423107128378387 0 0.019361716797686983 -0.0014030793558476176 0 0.019332285394748197 -0.0013572609994792759 0 0.01937084483485477 -0.0013423107128378387 0 0.019361716797686983 -0.0014030793558476176 0 0.019332285394748197 -0.0013572609994792759 0 0.019361716797686983 -0.0014030793558476176 0 0.019351816612568986 -0.0014329300057950405 0 0.014845481656349675 -0.0015134273723897817 0 0.013852825206328573 -0.0045600302631635921 0 0.014932267966145382 -0.0033550674077808301 0 0.019413762951830848 -0.001313971870921521 0 0.019361716797686983 -0.0014030793558476176 0 0.019359062703293833 -0.00146848695012358 0 0.019332285394748197 -0.0013572609994792759 0 0.019351816612568986 -0.0014329300057950405 0 0.019333766021705771 -0.0014668759245516228 0 0.016988425980335734 -0.0015916507735475882 0 0.016588776991524622 -0.0028647187420387291 0 0.019361716797686983 -0.0014030793558476176 0 0.019351816612568986 -0.0014329300057950405 0 0.019359062703293833 -0.00146848695012358 0 0.019351816612568986 -0.0014329300057950405 0 0.019359062703293833 -0.00146848695012358 0 0.019333766021705771 -0.0014668759245516228 0 0.016588776991524622 -0.0028647187420387291 0 0.017635067350355825 -0.0022527883163327503 0 0.015292770158917343 -0.0046963119972045402 0 0.013852825206328573 -0.0045600302631635921 0 0.015167178738603852 -0.0040224815713640078 0 0.013852825206328573 -0.0045600302631635921 0 0.014932267966145382 -0.0033550674077808301 0 0.015167178738603852 -0.0040224815713640078 0 0.014896476477843781 -0.0043243771318395669 0 0.016588776991524622 -0.0028647187420387291 0 0.014932267966145382 -0.0033550674077808301 0 0.015838362652147296 -0.003241944974174126 0 0.015167178738603852 -0.0040224815713640078 0 0.015838362652147296 -0.003241944974174126 0 0.015167178738603852 -0.0040224815713640078 0 0.015901306463184151 -0.0041113033474106352 0 0.015292770158917343 -0.0046963119972045402 0 0.015167178738603852 -0.0040224815713640078 0 0.015901306463184151 -0.0041113033474106352 0 0.015292770158917343 -0.0046963119972045402 0 0.015344013077153365 -0.0047531789747587549 0 0.015901306463184151 -0.0041113033474106352 0 0.017276441667209808 -0.003412409041113903 0 0.016358046241097119 -0.0044405189127775888 0 0.015901306463184151 -0.0041113033474106352 0 0.015344013077153365 -0.0047531789747587549 0 0.016358046241097119 -0.0044405189127775888 0 0.015901306463184151 -0.0041113033474106352 0 0.017276441667209808 -0.003412409041113903 0 0.015838362652147296 -0.003241944974174126 0 0.016775670537167334 -0.0023534665017886872 0 0.017276441667209808 -0.003412409041113903 0 0.015838362652147296 -0.003241944974174126 0 0.015901306463184151 -0.0041113033474106352 0 0.016988425980335734 -0.0015916507735475882 0 0.015677946252969793 -0.0027945119260886966 0 0.014845481656349675 -0.0015134273723897817 0 0.014932267966145382 -0.0033550674077808301 0 0.015838362652147296 -0.003241944974174126 0 0.015250791456505828 -0.0018103880356134031 0 0.015838362652147296 -0.003241944974174126 0 0.016775670537167334 -0.0023534665017886872 0 0.015250791456505828 -0.0018103880356134031 0 0.016775670537167334 -0.0023534665017886872 0 0.016892922949911078 -0.0012975748905015765 0 0.018523390907763716 -0.00057882489504324809 0 0.015927339395553193 0.00013630047696159593 0 0.016892922949911078 -0.0012975748905015765 0 0.015250791456505828 -0.0018103880356134031 0 0.015927339395553193 0.00013630047696159593 0 0.016892922949911078 -0.0012975748905015765 0 0.016988425980335734 -0.0015916507735475882 0 0.01861425783057382 -0.00091250271876179676 0 0.017977474899680598 -0.00035297265161586934 0 0.01861425783057382 -0.00091250271876179676 0 0.020230707469477732 -0.0010980891313555723 0 0.020224015079162851 -0.0010521798443154852 0 0.020264306026838094 -0.0010110251745858213 0 0.018883737477050522 -0.00059163210241651389 0 0.019017291001463734 -0.00051625246359048038 0 0.019063535148075527 -0.00062498464115014326 0 0.01861425783057382 -0.00091250271876179676 0 0.019786831674133365 -0.0007725149110860217 0 0.01861425783057382 -0.00091250271876179676 0 0.020037695960539906 -0.0011728111376868053 0 0.01861425783057382 -0.00091250271876179676 0 0.019353381439751603 -0.0012283702932083505 0 0.019229769881694728 -0.00087823714946875706 0 0.019442400832519292 -0.00091705221083414627 0 0.019473251822842128 -0.0011185374486454732 0 0.020230707469477732 -0.0010980891313555723 0 0.020224015079162851 -0.0010521798443154852 0 0.020165066846517248 -0.0010583355480653163 0 0.019374698148043202 -0.0012992013413487846 0 0.019413762951830848 -0.001313971870921521 0 0.019388552862351388 -0.0012291297157407818 0 0.018288007943883862 -0.0011429754139145772 0 0.018227216272199771 -0.0013494149203169788 0 0.018437002868037698 -0.0013895160218475012 0 0.016988425980335734 -0.0015916507735475882 0 0.019353381439751603 -0.0012283702932083505 0 0.019374698148043202 -0.0012992013413487846 0 0.019388552862351388 -0.0012291297157407818 0 0.019360736797905297 -0.0012716652581984639 0 0.019388552862351388 -0.0012291297157407818 0 0.019360736797905297 -0.0012716652581984639 0 0.019354447537309485 -0.0011976375688324125 0 0.019796087461614032 -0.0011657999767754844 0 0.01962082327637003 -0.0010294212027234216 0 0.019611896252079607 -0.0011339595874434547 0 0.019353381439751603 -0.0012283702932083505 0 0.019518687382560542 -0.0011674418245745685 0 0.019442400832519292 -0.00091705221083414627 0 0.019564547847317006 -0.0011330699119055717 0 0.019473251822842128 -0.0011185374486454732 0 0.019796087461614032 -0.0011657999767754844 0 0.01962082327637003 -0.0010294212027234216 0 0.019682471153642821 -0.00096346142697598949 0 0.019353381439751603 -0.0012283702932083505 0 0.019638022482003713 -0.0010399199959068206 0 0.019345741040215723 -0.0011182576735188127 0 0.019518687382560542 -0.0011674418245745685 0 0.019357022714592869 -0.0011111956813034608 0 0.019611896252079607 -0.0011339595874434547 0 0.019525534483521043 -0.00098998831967820754 0 0.019357022714592869 -0.0011111956813034608 0 0.019354447537309485 -0.0011976375688324125 0 0.019330011473730018 -0.0012400867349388887 0 0.01962082327637003 -0.0010294212027234216 0 0.019611896252079607 -0.0011339595874434547 0 0.019525534483521043 -0.00098998831967820754 0 0.019244143094559674 -0.0012707346369580997 0 0.019290731411473392 -0.001349130322510625 0 0.019330011473730018 -0.0012400867349388887 0 0.019360736797905297 -0.0012716652581984639 0 0.019354447537309485 -0.0011976375688324125 0 0.019330011473730018 -0.0012400867349388887 0 0.019337887256768403 -0.0013111953544271691 0 0.019360736797905297 -0.0012716652581984639 0 0.019330011473730018 -0.0012400867349388887 0 0.019550116386881301 -0.00084801440060294894 0 0.019661544187086131 -0.00076819251104273028 0 0.019590402870153689 -0.00083643524003667767 0 0.019550116386881301 -0.00084801440060294894 0 0.019590402870153689 -0.00083643524003667767 0 0.019531951822578174 -0.00088368424134302069 0 0.019590402870153689 -0.00083643524003667767 0 0.019531951822578174 -0.00088368424134302069 0 0.019591152222777405 -0.00093182203213086764 0 0.019531951822578174 -0.00088368424134302069 0 0.019525534483521043 -0.00098998831967820754 0 0.019591152222777405 -0.00093182203213086764 0 0.019426645193428307 -0.00090182234071339309 0 0.019531951822578174 -0.00088368424134302069 0 0.019525534483521043 -0.00098998831967820754 0 0.01962082327637003 -0.0010294212027234216 0 0.019525534483521043 -0.00098998831967820754 0 0.019591152222777405 -0.00093182203213086764 0 0.019683254188452945 -0.0013314842907347366 0 0.019564547847317006 -0.0011330699119055717 0 0.019473251822842128 -0.0011185374486454732 0 0.019698003010637254 -0.0010252595621136975 0 0.019638022482003713 -0.0010399199959068206 0 0.019590402870153689 -0.00083643524003667767 0 0.019591152222777405 -0.00093182203213086764 0 0.019682471153642821 -0.00096346142697598949 0 0.019698003010637254 -0.0010252595621136975 0 0.020037695960539906 -0.0011728111376868053 0 0.01962082327637003 -0.0010294212027234216 0 0.019591152222777405 -0.00093182203213086764 0 0.019682471153642821 -0.00096346142697598949 0 0.019918185719434916 -0.0009723752971056639 0 0.02016414546234303 -0.00098565604511263467 0 0.020276985201861508 -0.00090989936196055033 0 0.019918185719434916 -0.0009723752971056639 0 0.020165066846517248 -0.0010583355480653163 0 0.02016414546234303 -0.00098565604511263467 0 0.02016414546234303 -0.00098565604511263467 0 0.020233382905617252 -0.00097668899535454301 0 0.020276985201861508 -0.00090989936196055033 0 0.020165066846517248 -0.0010583355480653163 0 0.02016414546234303 -0.00098565604511263467 0 0.020233382905617252 -0.00097668899535454301 0 0.020224015079162851 -0.0010521798443154852 0 0.020165066846517248 -0.0010583355480653163 0 0.020233382905617252 -0.00097668899535454301 0 0.020224015079162851 -0.0010521798443154852 0 0.020233382905617252 -0.00097668899535454301 0 0.020264306026838094 -0.0010110251745858213 0 0.020233382905617252 -0.00097668899535454301 0 0.020276985201861508 -0.00090989936196055033 0 0.020235273598115871 -0.00087906582779310463 0 0.019786831674133365 -0.0007725149110860217 0 0.019845189847499684 -0.00081310859769434323 0 0.020233382905617252 -0.00097668899535454301 0 0.020264306026838094 -0.0010110251745858213 0 0.020235273598115871 -0.00087906582779310463 0 0.020337390003485445 -0.00098341914982367639 0 0.020276985201861508 -0.00090989936196055033 0 0.020235273598115871 -0.00087906582779310463 0 0.020337390003485445 -0.00098341914982367639 0 0.020457407203968797 -0.0011088259924110281 0 0.02051705881894882 -0.0011503685088421307 0 0.020337390003485445 -0.00098341914982367639 0 0.020276985201861508 -0.00090989936196055033 0 0.020457407203968797 -0.0011088259924110281 0 0.019918185719434916 -0.0009723752971056639 0 0.020276985201861508 -0.00090989936196055033 0 0.019964027308639182 -0.00064125905382517157 0 0.020277410064208027 -0.0009130622896391554 0 0.020202402076517682 -0.00088103693441482435 0 0.019666008341970666 -0.0006070074251820403 0 0.019661544187086131 -0.00076819251104273028 0 0.019964027308639182 -0.00064125905382517157 0 0.019661544187086131 -0.00076819251104273028 0 0.019918185719434916 -0.0009723752971056639 0 0.019964027308639182 -0.00064125905382517157 0 0.019660331889010632 -0.00073954647595470045 0 0.019698003010637254 -0.0010252595621136975 0 0.019327582164948797 -0.00063166366172307973 0 0.019218668133338699 -0.00064914924802230768 0 0.019205546334996524 -0.0005994645342558484 0 0.019327582164948797 -0.00063166366172307973 0 0.019218668133338699 -0.00064914924802230768 0 0.019336847202381161 -0.00071294421625994124 0 0.019218668133338699 -0.00064914924802230768 0 0.0191249862410671 -0.00066429642399473438 0 0.019180326939386344 -0.00074397565692593402 0 0.019218668133338699 -0.00064914924802230768 0 0.019336847202381161 -0.00071294421625994124 0 0.019180326939386344 -0.00074397565692593402 0 0.019072918821266008 -0.00071092725649676424 0 0.0191249862410671 -0.00066429642399473438 0 0.019180326939386344 -0.00074397565692593402 0 0.019060582330043842 -0.00063475223667203628 0 0.0191249862410671 -0.00066429642399473438 0 0.019134310668515401 -0.00061333981188618845 0 0.019218668133338699 -0.00064914924802230768 0 0.019134310668515401 -0.00061333981188618845 0 0.019205546334996524 -0.0005994645342558484 0 0.019218668133338699 -0.00064914924802230768 0 0.0191249862410671 -0.00066429642399473438 0 0.019134310668515401 -0.00061333981188618845 0 0.019134310668515401 -0.00061333981188618845 0 0.019132460698084466 -0.00058786473156028653 0 0.019205546334996524 -0.0005994645342558484 0 0.019060582330043842 -0.00063475223667203628 0 0.019134310668515401 -0.00061333981188618845 0 0.019079006051859967 -0.0005959126363470215 0 0.019134310668515401 -0.00061333981188618845 0 0.019079006051859967 -0.0005959126363470215 0 0.019132460698084466 -0.00058786473156028653 0 0.019154714893234427 -0.00057715120363643977 0 0.019132460698084466 -0.00058786473156028653 0 0.019205546334996524 -0.0005994645342558484 0 0.019154714893234427 -0.00057715120363643977 0 0.019205546334996524 -0.0005994645342558484 0 0.019242030012472676 -0.00058158095077794091 0 0.019327582164948797 -0.00063166366172307973 0 0.019205546334996524 -0.0005994645342558484 0 0.019242030012472676 -0.00058158095077794091 0 0.019154714893234427 -0.00057715120363643977 0 0.019137538232961018 -0.00056461649742447725 0 0.019242030012472676 -0.00058158095077794091 0 0.019137538232961018 -0.00056461649742447725 0 0.019242030012472676 -0.00058158095077794091 0 0.019277702022893538 -0.00059980748153222029 0 0.019063535148075527 -0.00062498464115014326 0 0.019137538232961018 -0.00056461649742447725 0 0.019277702022893538 -0.00059980748153222029 0 0.019277702022893538 -0.00059980748153222029 0 0.019499148349840633 -0.00062462457654786257 0 0.019389909391551798 -0.00062460287334202536 0 0.019063535148075527 -0.00062498464115014326 0 0.019277702022893538 -0.00059980748153222029 0 0.019499148349840633 -0.00062462457654786257 0 0.019242030012472676 -0.00058158095077794091 0 0.019277702022893538 -0.00059980748153222029 0 0.019389909391551798 -0.00062460287334202536 0 0.019499148349840633 -0.00062462457654786257 0 0.019389909391551798 -0.00062460287334202536 0 0.019576800246811469 -0.0007261253159487022 0 0.019327582164948797 -0.00063166366172307973 0 0.019242030012472676 -0.00058158095077794091 0 0.019389909391551798 -0.00062460287334202536 0 0.019327582164948797 -0.00063166366172307973 0 0.019389909391551798 -0.00062460287334202536 0 0.019576800246811469 -0.0007261253159487022 0 0.019845189847499684 -0.00081310859769434323 0 0.019984913122978367 -0.00093078964058745874 0 0.020337390003485445 -0.00098341914982367639 0 0.020235273598115871 -0.00087906582779310463 0 0.020032962520624566 -0.00092163638080789822 0 0.019499148349840633 -0.00062462457654786257 0 0.019576800246811469 -0.0007261253159487022 0 0.020032962520624566 -0.00092163638080789822 0 0.020032962520624566 -0.00092163638080789822 0 0.02004894914222289 -0.0010398742052184667 0 0.020333217205761672 -0.0010848257001028763 0 0.020337390003485445 -0.00098341914982367639 0 0.020032962520624566 -0.00092163638080789822 0 0.020333217205761672 -0.0010848257001028763 0 0.019576800246811469 -0.0007261253159487022 0 0.020032962520624566 -0.00092163638080789822 0 0.019762687872954338 -0.00099247061938606529 0 0.020032962520624566 -0.00092163638080789822 0 0.019762687872954338 -0.00099247061938606529 0 0.02004894914222289 -0.0010398742052184667 0 0.019730071434095275 -0.00098943541866322441 0 0.019485798316292321 -0.00098589468164546811 0 0.019762687872954338 -0.00099247061938606529 0 0.019424101204934433 -0.00081924543961895693 0 0.019214789865494929 -0.00096461514341348697 0 0.019762687872954338 -0.00099247061938606529 0 0.019731214022261235 -0.00096795735251267517 0 0.019783499165060003 -0.0010313551289663789 0 0.019576800246811469 -0.0007261253159487022 0 0.019762687872954338 -0.00099247061938606529 0 0.019424101204934433 -0.00081924543961895693 0 0.019576800246811469 -0.0007261253159487022 0 0.019424101204934433 -0.00081924543961895693 0 0.019336847202381161 -0.00071294421625994124 0 0.019327582164948797 -0.00063166366172307973 0 0.019576800246811469 -0.0007261253159487022 0 0.019336847202381161 -0.00071294421625994124 0 0.019424101204934433 -0.00081924543961895693 0 0.019336847202381161 -0.00071294421625994124 0 0.019180326939386344 -0.00074397565692593402 0 0.019424101204934433 -0.00081924543961895693 0 0.019180326939386344 -0.00074397565692593402 0 0.019214789865494929 -0.00096461514341348697 0 0.019048373373674873 -0.00082078947484158136 0 0.019180326939386344 -0.00074397565692593402 0 0.019214789865494929 -0.00096461514341348697 0 0.019072918821266008 -0.00071092725649676424 0 0.019048373373674873 -0.00082078947484158136 0 0.019180326939386344 -0.00074397565692593402 0 0.019731214022261235 -0.00096795735251267517 0 0.019706379188849942 -0.0010598586913018791 0 0.019783499165060003 -0.0010313551289663789 0 0.019638528312867366 -0.0010141761972269133 0 0.019731214022261235 -0.00096795735251267517 0 0.019706379188849942 -0.0010598586913018791 0 0.019638528312867366 -0.0010141761972269133 0 0.019706379188849942 -0.0010598586913018791 0 0.019631474235076194 -0.001092693730061549 0 0.019706379188849942 -0.0010598586913018791 0 0.019794972947875154 -0.0011476003848073988 0 0.019783499165060003 -0.0010313551289663789 0 0.019706379188849942 -0.0010598586913018791 0 0.019667019789261518 -0.0011771197731880925 0 0.019794972947875154 -0.0011476003848073988 0 0.019706379188849942 -0.0010598586913018791 0 0.019667019789261518 -0.0011771197731880925 0 0.019631474235076194 -0.001092693730061549 0 0.019667019789261518 -0.0011771197731880925 0 0.019714805913567321 -0.0012766104216591291 0 0.019569878117084834 -0.0011992260610991211 0 0.019714805913567321 -0.0012766104216591291 0 0.019844579076145421 -0.0012866596135907953 0 0.019794972947875154 -0.0011476003848073988 0 0.019667019789261518 -0.0011771197731880925 0 0.019714805913567321 -0.0012766104216591291 0 0.019794972947875154 -0.0011476003848073988 0 0.019714805913567321 -0.0012766104216591291 0 0.019844579076145421 -0.0012866596135907953 0 0.019849963818853601 -0.0014905723844944074 0 0.019844579076145421 -0.0012866596135907953 0 0.020020454854322956 -0.0012522325619399495 0 0.019849963818853601 -0.0014905723844944074 0 0.019844579076145421 -0.0012866596135907953 0 0.019794972947875154 -0.0011476003848073988 0 0.020020454854322956 -0.0012522325619399495 0 0.019794972947875154 -0.0011476003848073988 0 0.019926630823143287 -0.0010843824514374942 0 0.020020454854322956 -0.0012522325619399495 0 0.019794972947875154 -0.0011476003848073988 0 0.019783499165060003 -0.0010313551289663789 0 0.019926630823143287 -0.0010843824514374942 0 0.019762687872954338 -0.00099247061938606529 0 0.019783499165060003 -0.0010313551289663789 0 0.019926630823143287 -0.0010843824514374942 0 0.02004894914222289 -0.0010398742052184667 0 0.019926630823143287 -0.0010843824514374942 0 0.020327349094760454 -0.0011627278751682106 0 0.019762687872954338 -0.00099247061938606529 0 0.02004894914222289 -0.0010398742052184667 0 0.019926630823143287 -0.0010843824514374942 0 0.02004894914222289 -0.0010398742052184667 0 0.020333217205761672 -0.0010848257001028763 0 0.020327349094760454 -0.0011627278751682106 0 0.020327349094760454 -0.0011627278751682106 0 0.021055491972639385 -0.0013390331908009097 0 0.020712124597514054 -0.0012291298857801567 0 0.020333217205761672 -0.0010848257001028763 0 0.020327349094760454 -0.0011627278751682106 0 0.020712124597514054 -0.0012291298857801567 0 0.019926630823143287 -0.0010843824514374942 0 0.020327349094760454 -0.0011627278751682106 0 0.020020454854322956 -0.0012522325619399495 0 0.020327349094760454 -0.0011627278751682106 0 0.020020454854322956 -0.0012522325619399495 0 0.020225414805413795 -0.0015283508742490793 0 0.022612188995930187 -0.001401942295529052 0 0.021055491972639385 -0.0013390331908009097 0 0.022153386253773534 -0.00071253405766288946 0 0.020327349094760454 -0.0011627278751682106 0 0.020225414805413795 -0.0015283508742490793 0 0.021055491972639385 -0.0013390331908009097 0 0.021401634162021968 -0.0014279996040276193 0 0.021086799383091704 -0.0013774674925403577 0 0.022153386253773534 -0.00071253405766288946 0 0.021221646151756455 -0.00054995085126903292 0 0.022321696448982672 -0.0002045757412114842 0 0.021055491972639385 -0.0013390331908009097 0 0.022153386253773534 -0.00071253405766288946 0 0.021221646151756455 -0.00054995085126903292 0 0.022612188995930187 -0.001401942295529052 0 0.022153386253773534 -0.00071253405766288946 0 0.023011140704622245 -0.00085169709632177857 0 0.022153386253773534 -0.00071253405766288946 0 0.023011140704622245 -0.00085169709632177857 0 0.022928041702224389 -0.00034360242878455629 0 0.022153386253773534 -0.00071253405766288946 0 0.022928041702224389 -0.00034360242878455629 0 0.022321696448982672 -0.0002045757412114842 0 0.023011140704622245 -0.00085169709632177857 0 0.023327470720133584 -0.00053406609780023105 0 0.022928041702224389 -0.00034360242878455629 0 0.023011140704622245 -0.00085169709632177857 0 0.023354484074416575 -0.00081165090700101989 0 0.023470138867507151 -0.001166027303954551 0 0.023011140704622245 -0.00085169709632177857 0 0.023327470720133584 -0.00053406609780023105 0 0.023354484074416575 -0.00081165090700101989 0 0.023354484074416575 -0.00081165090700101989 0 0.023587262112635954 -0.0006951575966691639 0 0.023470138867507151 -0.001166027303954551 0 0.023327470720133584 -0.00053406609780023105 0 0.023354484074416575 -0.00081165090700101989 0 0.023587262112635954 -0.0006951575966691639 0 0.023327470720133584 -0.00053406609780023105 0 0.023587262112635954 -0.0006951575966691639 0 0.023628792457049925 -0.0004111251551409921 0 0.023796470259211958 -0.00059933993549947102 0 0.023587262112635954 -0.0006951575966691639 0 0.023628792457049925 -0.0004111251551409921 0 0.023796470259211958 -0.00059933993549947102 0 0.023893172576900386 -0.00038913038361868045 0 0.023628792457049925 -0.0004111251551409921 0 0.023796470259211958 -0.00059933993549947102 0 0.023962111828664697 -0.00066703310402922472 0 0.023893172576900386 -0.00038913038361868045 0 0.023796470259211958 -0.00059933993549947102 0 0.023962111828664697 -0.00066703310402922472 0 0.023836727829852689 -0.00086039656652901406 0 0.023962111828664697 -0.00066703310402922472 0 0.023836727829852689 -0.00086039656652901406 0 0.024014388833085595 -0.00085000777216313514 0 0.023796470259211958 -0.00059933993549947102 0 0.023836727829852689 -0.00086039656652901406 0 0.023587262112635954 -0.0006951575966691639 0 0.023836727829852689 -0.00086039656652901406 0 0.023587262112635954 -0.0006951575966691639 0 0.023470138867507151 -0.001166027303954551 0 0.02164588181267187 -0.0013534684666730069 0 0.021821405484662292 -0.00096516417673237355 0 0.023836727829852689 -0.00086039656652901406 0 0.023470138867507151 -0.001166027303954551 0 0.024008398145988572 -0.0010165026676872409 0 0.019714805913567321 -0.0012766104216591291 0 0.019849963818853601 -0.0014905723844944074 0 0.019613207141508687 -0.0014668345990346535 0 0.023836727829852689 -0.00086039656652901406 0 0.024014388833085595 -0.00085000777216313514 0 0.024008398145988572 -0.0010165026676872409 0 0.021401634162021968 -0.0014279996040276193 0 0.02164588181267187 -0.0013534684666730069 0 0.022612188995930187 -0.001401942295529052 0 0.023011140704622245 -0.00085169709632177857 0 0.023470138867507151 -0.001166027303954551 0 0.020020454854322956 -0.0012522325619399495 0 0.020225414805413795 -0.0015283508742490793 0 0.019849963818853601 -0.0014905723844944074 0 0.020351240037387162 -0.00094074730920794996 0 0.020239266409072171 -0.0011404705080173677 0 0.020126927331708788 -0.00064660299002792002 0 0.020351240037387162 -0.00094074730920794996 0 0.020239266409072171 -0.0011404705080173677 0 0.020387708461275956 -0.00109816528568374 0 0.019666008341970666 -0.0006070074251820403 0 0.019964027308639182 -0.00064125905382517157 0 0.019739111112913849 -0.00053908207097804232 0 0.020457407203968797 -0.0011088259924110281 0 0.020239266409072171 -0.0011404705080173677 0 0.020387708461275956 -0.00109816528568374 0 0.020202402076517682 -0.00088103693441482435 0 0.019991500269400029 -0.00082695600532562362 0 0.020457407203968797 -0.0011088259924110281 0 0.020490395727394754 -0.0011153597950180089 0 0.020387708461275956 -0.00109816528568374 0 0.020351240037387162 -0.00094074730920794996 0 0.020490395727394754 -0.0011153597950180089 0 0.020419286668328263 -0.00094852896704197527 0 0.020351240037387162 -0.00094074730920794996 0 0.020490395727394754 -0.0011153597950180089 0 0.020387708461275956 -0.00109816528568374 0 0.020490395727394754 -0.0011153597950180089 0 0.02051705881894882 -0.0011503685088421307 0 0.020631405674223932 -0.0010956662891060561 0 0.020490395727394754 -0.0011153597950180089 0 0.020631405674223932 -0.0010956662891060561 0 0.020419286668328263 -0.00094852896704197527 0 0.020457407203968797 -0.0011088259924110281 0 0.020490395727394754 -0.0011153597950180089 0 0.02051705881894882 -0.0011503685088421307 0 0.020333217205761672 -0.0010848257001028763 0 0.02051705881894882 -0.0011503685088421307 0 0.020712124597514054 -0.0012291298857801567 0 0.020337390003485445 -0.00098341914982367639 0 0.020333217205761672 -0.0010848257001028763 0 0.02051705881894882 -0.0011503685088421307 0 0.02051705881894882 -0.0011503685088421307 0 0.020712124597514054 -0.0012291298857801567 0 0.020631405674223932 -0.0010956662891060561 0 0.020712124597514054 -0.0012291298857801567 0 0.020877137245800089 -0.0010434808554976045 0 0.020631405674223932 -0.0010956662891060561 0 0.021055491972639385 -0.0013390331908009097 0 0.020712124597514054 -0.0012291298857801567 0 0.020877137245800089 -0.0010434808554976045 0 0.021055491972639385 -0.0013390331908009097 0 0.020877137245800089 -0.0010434808554976045 0 0.021221646151756455 -0.00054995085126903292 0 0.020877137245800089 -0.0010434808554976045 0 0.021221646151756455 -0.00054995085126903292 0 0.020571634544782447 -0.00072329352591498904 0 0.020571634544782447 -0.00072329352591498904 0 0.020631405674223932 -0.0010956662891060561 0 0.020419286668328263 -0.00094852896704197527 0 0.020877137245800089 -0.0010434808554976045 0 0.020571634544782447 -0.00072329352591498904 0 0.020631405674223932 -0.0010956662891060561 0 0.020351240037387162 -0.00094074730920794996 0 0.020419286668328263 -0.00094852896704197527 0 0.020231642098571399 -0.00076751701494124475 0 0.020571634544782447 -0.00072329352591498904 0 0.020231642098571399 -0.00076751701494124475 0 0.020197529556197472 -0.0001797371573554207 0 0.020571634544782447 -0.00072329352591498904 0 0.020419286668328263 -0.00094852896704197527 0 0.020231642098571399 -0.00076751701494124475 0 0.020175498186425944 -0.00064922130604830092 0 0.022314522685821066 -4.1556209199869287e-05 0 0.019936735887213387 -0.00045098742549012753 0 0.020422752336735076 -0.00044766144185248209 0 0.020126927331708788 -0.00064660299002792002 0 0.020365001557775524 -0.00088324656177517235 0 0.020175498186425944 -0.00064922130604830092 0 0.020351240037387162 -0.00094074730920794996 0 0.020422752336735076 -0.00044766144185248209 0 0.020126927331708788 -0.00064660299002792002 0 0.024905465194344969 -0.00022043009905125846 0 0.024999772171287148 -0.00028388087047973617 0 0.025032536264346279 -0.00011126521932097151 0 0.022633450871503112 -0.00028178676742507159 0 0.022314522685821066 -4.1556209199869287e-05 0 0.019971945201964731 -0.0001847438046114984 0 0.020422752336735076 -0.00044766144185248209 0 0.020498734040725716 -4.7523857436714992e-05 0 0.024822645604738784 -0.00034834028968461353 0 0.024905465194344969 -0.00022043009905125846 0 0.024999772171287148 -0.00028388087047973617 0 0.022314522685821066 -4.1556209199869287e-05 0 0.022089611181103131 6.7838818116880417e-05 0 0.020571634544782447 -0.00072329352591498904 0 0.020197529556197472 -0.0001797371573554207 0 0.020719954564167118 5.3826763057892767e-05 0 0.022314522685821066 -4.1556209199869287e-05 0 0.024726761870655093 -2.3842403295925599e-05 0 0.02347041646985602 6.5601887926558422e-05 0 0.023604669984658683 9.9785971171881922e-05 0 0.023510524696993117 0.00024147434543997042 0 0.023604669984658683 9.9785971171881922e-05 0 0.023666390560775592 0.00024129081463132235 0 0.023510524696993117 0.00024147434543997042 0 0.021221646151756455 -0.00054995085126903292 0 0.020571634544782447 -0.00072329352591498904 0 0.020719954564167118 5.3826763057892767e-05 0 0.021221646151756455 -0.00054995085126903292 0 0.020719954564167118 5.3826763057892767e-05 0 0.021580214867789615 0.00039894540566064093 0 0.023604669984658683 9.9785971171881922e-05 0 0.023837254057732168 0.00015400351010687227 0 0.023666390560775592 0.00024129081463132235 0 0.022089611181103131 6.7838818116880417e-05 0 0.022719050693158032 0.00027872819686703017 0 0.023837254057732168 0.00015400351010687227 0 0.023666390560775592 0.00024129081463132235 0 0.024012587618272786 8.1745446532001923e-06 0 0.025008858085857698 0.00010349415595497167 0 0.024999846905536638 -1.6055678229681218e-07 0 0.025013465260859735 3.8035260915585772e-05 0 0.025008858085857698 0.00010349415595497167 0 0.024999846905536638 -1.6055678229681218e-07 0 0.024790293694655987 -1.5923706809842198e-05 0 0.024999846905536638 -1.6055678229681218e-07 0 0.025013465260859735 3.8035260915585772e-05 0 0.025000178236143571 1.5733543802654027e-07 0 0.024219121414147463 0.00018237323619282552 0 0.024726761870655093 -2.3842403295925599e-05 0 0.025008858085857698 0.00010349415595497167 0 0.025013465260859735 3.8035260915585772e-05 0 0.025029791497608582 4.7091010114918045e-05 0 0.024726761870655093 -2.3842403295925599e-05 0 0.025000125757733409 5.6520110443305752e-08 0 0.025013465260859735 3.8035260915585772e-05 0 0.025029791497608582 4.7091010114918045e-05 0 0.025000178236143571 1.5733543802654027e-07 0 0.025026574005798382 -6.27374111135804e-05 0 0.025000056073723673 -7.1852895286089315e-09 0 0.025000022144071862 -3.5020282674415212e-08 0 0.025026574005798382 -6.27374111135804e-05 0 0.025000022144071862 -3.5020282674415212e-08 0 0.024971097313176975 -3.5745373175121525e-05 0 0.024999734331589304 8.5331949637799384e-08 0 0.025000022144071862 -3.5020282674415212e-08 0 0.024971097313176975 -3.5745373175121525e-05 0 0.024911185269562482 -9.5199163322285879e-05 0 0.025026574005798382 -6.27374111135804e-05 0 0.024971097313176975 -3.5745373175121525e-05 0 0.025042734556560434 -0.00010963442189139274 0 0.024726761870655093 -2.3842403295925599e-05 0 0.024911185269562482 -9.5199163322285879e-05 0 0.024905465194344969 -0.00022043009905125846 0 0.025032536264346279 -0.00011126521932097151 0 0.023373725095640438 0.00021653878700584681 0 0.023665507223249692 0.00021278378687018126 0 0.02337503741179681 0.00048309835500043535 0 0.023373725095640438 0.00021653878700584681 0 0.023240804592264457 0.00034691510779871656 0 0.02337503741179681 0.00048309835500043535 0 0.023542787197301938 6.0650019893150011e-05 0 0.023373725095640438 0.00021653878700584681 0 0.023665507223249692 0.00021278378687018126 0 0.023665507223249692 0.00021278378687018126 0 0.024039214398798924 0.00055576024439719072 0 0.024090209358606764 -3.5128435816912662e-05 0 0.023665507223249692 0.00021278378687018126 0 0.023697230232105317 -0.00010196654172893849 0 0.024090209358606764 -3.5128435816912662e-05 0 0.023542787197301938 6.0650019893150011e-05 0 0.023665507223249692 0.00021278378687018126 0 0.023697230232105317 -0.00010196654172893849 0 0.023697230232105317 -0.00010196654172893849 0 0.023893172576900386 -0.00038913038361868045 0 0.024090209358606764 -3.5128435816912662e-05 0 0.023697230232105317 -0.00010196654172893849 0 0.023893172576900386 -0.00038913038361868045 0 0.023628792457049925 -0.0004111251551409921 0 0.023327470720133584 -0.00053406609780023105 0 0.023628792457049925 -0.0004111251551409921 0 0.023380202862016336 -0.00012425678480015815 0 0.023697230232105317 -0.00010196654172893849 0 0.023628792457049925 -0.0004111251551409921 0 0.023380202862016336 -0.00012425678480015815 0 0.023542787197301938 6.0650019893150011e-05 0 0.023697230232105317 -0.00010196654172893849 0 0.023380202862016336 -0.00012425678480015815 0 0.023542787197301938 6.0650019893150011e-05 0 0.023373725095640438 0.00021653878700584681 0 0.023380202862016336 -0.00012425678480015815 0 0.023373725095640438 0.00021653878700584681 0 0.023380202862016336 -0.00012425678480015815 0 0.023085343654629834 0.00010049779096632125 0 0.023327470720133584 -0.00053406609780023105 0 0.023380202862016336 -0.00012425678480015815 0 0.022928041702224389 -0.00034360242878455629 0 0.022928041702224389 -0.00034360242878455629 0 0.023085343654629834 0.00010049779096632125 0 0.022321696448982672 -0.0002045757412114842 0 0.023085343654629834 0.00010049779096632125 0 0.022321696448982672 -0.0002045757412114842 0 0.022773530575250372 0.00015278861953942242 0 0.023380202862016336 -0.00012425678480015815 0 0.022928041702224389 -0.00034360242878455629 0 0.023085343654629834 0.00010049779096632125 0 0.021580214867789615 0.00039894540566064093 0 0.022321696448982672 -0.0002045757412114842 0 0.022773530575250372 0.00015278861953942242 0 0.021221646151756455 -0.00054995085126903292 0 0.021580214867789615 0.00039894540566064093 0 0.022321696448982672 -0.0002045757412114842 0 0.023837254057732168 0.00015400351010687227 0 0.023649562645731505 0.00024274052997187882 0 0.023258586393954572 0.00047145768718928626 0 0.021580214867789615 0.00039894540566064093 0 0.022773530575250372 0.00015278861953942242 0 0.023258586393954572 0.00047145768718928626 0 0.022719050693158032 0.00027872819686703017 0 0.02315457453738208 0.00043005014681298941 0 0.023837254057732168 0.00015400351010687227 0 0.023649562645731505 0.00024274052997187882 0 0.024012587618272786 8.1745446532001923e-06 0 0.023649562645731505 0.00024274052997187882 0 0.023314183234794592 0.00037710581182052197 0 0.024012587618272786 8.1745446532001923e-06 0 0.023314183234794592 0.00037710581182052197 0 0.023240804592264457 0.00034691510779871656 0 0.02337503741179681 0.00048309835500043535 0 0.023085343654629834 0.00010049779096632125 0 0.023116147496675885 0.00029430603693849402 0 0.023240804592264457 0.00034691510779871656 0 0.023373725095640438 0.00021653878700584681 0 0.023085343654629834 0.00010049779096632125 0 0.023240804592264457 0.00034691510779871656 0 0.023116147496675885 0.00029430603693849402 0 0.023258586393954572 0.00047145768718928626 0 0.023240804592264457 0.00034691510779871656 0 0.023085343654629834 0.00010049779096632125 0 0.022773530575250372 0.00015278861953942242 0 0.023116147496675885 0.00029430603693849402 0 0.022773530575250372 0.00015278861953942242 0 0.023116147496675885 0.00029430603693849402 0 0.023258586393954572 0.00047145768718928626 0 0.023258586393954572 0.00047145768718928626 0 0.023314183234794592 0.00037710581182052197 0 0.023240804592264457 0.00034691510779871656 0 0.023649562645731505 0.00024274052997187882 0 0.023258586393954572 0.00047145768718928626 0 0.023314183234794592 0.00037710581182052197 0 0.022880152659295085 0.00024467616515815325 0 0.023598714319326433 5.4525157203722103e-05 0 0.02427463384225835 4.0184599263130696e-05 0 0.024012587618272786 8.1745446532001923e-06 0 0.024953093202852251 -0.00011624194817351017 0 0.023831642650876842 -0.00011007794710740118 0 0.023598714319326433 5.4525157203722103e-05 0 0.023314183234794592 0.00037710581182052197 0 0.024012587618272786 8.1745446532001923e-06 0 0.021595148150551063 -0.00041057856096256978 0 0.02427463384225835 4.0184599263130696e-05 0 0.024763069071177968 4.927362565166039e-05 0 0.024953093202852251 -0.00011624194817351017 0 0.02427463384225835 4.0184599263130696e-05 0 0.024763069071177968 4.927362565166039e-05 0 0.024681780397636303 2.6291389594231912e-05 0 0.023666390560775592 0.00024129081463132235 0 0.02427463384225835 4.0184599263130696e-05 0 0.024012587618272786 8.1745446532001923e-06 0 0.025008858085857698 0.00010349415595497167 0 0.02427463384225835 4.0184599263130696e-05 0 0.024790293694655987 -1.5923706809842198e-05 0 0.024219121414147463 0.00018237323619282552 0 0.024322755461305634 5.6875409550281702e-05 0 0.02427463384225835 4.0184599263130696e-05 0 0.024790293694655987 -1.5923706809842198e-05 0 0.024681780397636303 2.6291389594231912e-05 0 0.024790293694655987 -1.5923706809842198e-05 0 0.024681780397636303 2.6291389594231912e-05 0 0.024999252807441887 1.1222364337268056e-07 0 0.024999846905536638 -1.6055678229681218e-07 0 0.024790293694655987 -1.5923706809842198e-05 0 0.024999252807441887 1.1222364337268056e-07 0 0.024763069071177968 4.927362565166039e-05 0 0.024999252807441887 1.1222364337268056e-07 0 0.024942420563464799 1.9868470560241052e-05 0 0.024763069071177968 4.927362565166039e-05 0 0.024681780397636303 2.6291389594231912e-05 0 0.024999252807441887 1.1222364337268056e-07 0 0.024999252807441887 1.1222364337268056e-07 0 0.024942420563464799 1.9868470560241052e-05 0 0.025000097623780981 2.2495645143644686e-08 0 0.024763069071177968 4.927362565166039e-05 0 0.024942420563464799 1.9868470560241052e-05 0 0.024953093202852251 -0.00011624194817351017 0 0.023598714319326433 5.4525157203722103e-05 0 0.024819313249027787 0.00013046713511589335 0 0.023906930067293958 4.7982227663851993e-05 0 0.024316067053203341 0.000214697530472973 0 0.024396175382055366 8.8227685634493497e-05 0 0.024942420563464799 1.9868470560241052e-05 0 0.024953093202852251 -0.00011624194817351017 0 0.025014231069228891 -7.3117806305459367e-06 0 0.023665507223249692 0.00021278378687018126 0 0.02337503741179681 0.00048309835500043535 0 0.024039214398798924 0.00055576024439719072 0 0.023598714319326433 5.4525157203722103e-05 0 0.024260512608897149 0.00038292946471710465 0 0.024942420563464799 1.9868470560241052e-05 0 0.025014231069228891 -7.3117806305459367e-06 0 0.025000097623780981 2.2495645143644686e-08 0 0.025014231069228891 -7.3117806305459367e-06 0 0.025000097623780981 2.2495645143644686e-08 0 0.024999971720214422 -1.8855590536320224e-08 0 0.024819313249027787 0.00013046713511589335 0 0.024874978620047738 7.2744554003593306e-05 0 0.025014231069228891 -7.3117806305459367e-06 0 0.024999971720214422 -1.8855590536320224e-08 0 0.024998665452511049 1.6359426753585766e-06 0 0.024316067053203341 0.000214697530472973 0 0.024706348617861945 0.00037032958676557279 0 0.024396175382055366 8.8227685634493497e-05 0 0.024999999128449999 2.576768151463325e-10 0 0.024999759784067797 2.1464784049752982e-07 0 0.024999999805273707 2.798275846714299e-10 0 0.024999919027479587 -1.6691957483728348e-08 0 0.024874978620047738 7.2744554003593306e-05 0 0.024874978620047738 7.2744554003593306e-05 0 0.025019847742778285 2.0466684332989636e-05 0 0.025006283733905524 4.2420345282918165e-06 0 0.025000005835830501 3.0755633763400259e-09 0 0.025001364453886 5.1147805807306345e-06 0 0.025006283733905524 4.2420345282918165e-06 0 0.025001364453886 5.1147805807306345e-06 0 0.025000707408134582 1.4326315452997548e-05 0 0.024874978620047738 7.2744554003593306e-05 0 0.02465165879002976 0.00010279029586171353 0 0.024260512608897149 0.00038292946471710465 0 0.02465165879002976 0.00010279029586171353 0 0.024706348617861945 0.00037032958676557279 0 0.024396175382055366 8.8227685634493497e-05 0 0.024860926451330104 0.00012372455334538291 0 0.024039214398798924 0.00055576024439719072 0 0.024725587576855921 0.00059110444031526652 0 0.024488024051646667 0.00020645632068996424 0 0.024986931103625386 5.0744586049038109e-06 0 0.024999984955476329 -5.4973913984249396e-10 0 0.024999975847619493 1.0836906616213751e-08 0 0.024986931103625386 5.0744586049038109e-06 0 0.024976537831138859 1.0207143669267137e-05 0 0.02497333870949869 1.031118141444179e-05 0 0.024986931103625386 5.0744586049038109e-06 0 0.02497333870949869 1.031118141444179e-05 0 0.024982046679021562 5.9552792102821782e-06 0 0.024986931103625386 5.0744586049038109e-06 0 0.024992981690694891 4.8636681227118989e-06 0 0.024999984955476329 -5.4973913984249396e-10 0 0.024986931103625386 5.0744586049038109e-06 0 0.024985053693682559 8.1920467491278526e-06 0 0.024992981690694891 4.8636681227118989e-06 0 0.024986931103625386 5.0744586049038109e-06 0 0.024985053693682559 8.1920467491278526e-06 0 0.024976537831138859 1.0207143669267137e-05 0 0.024985053693682559 8.1920467491278526e-06 0 0.024993664618360906 1.0107429306482577e-05 0 0.024992981690694891 4.8636681227118989e-06 0 0.024993664618360906 1.0107429306482577e-05 0 0.024992981690694891 4.8636681227118989e-06 0 0.024997462600880274 7.048724013950236e-06 0 0.024992981690694891 4.8636681227118989e-06 0 0.024998346115169066 2.9431256579012511e-06 0 0.024997462600880274 7.048724013950236e-06 0 0.024992981690694891 4.8636681227118989e-06 0 0.024999984955476329 -5.4973913984249396e-10 0 0.024998346115169066 2.9431256579012511e-06 0 0.024999984955476329 -5.4973913984249396e-10 0 0.024998346115169066 2.9431256579012511e-06 0 0.025000005835830501 3.0755633763400259e-09 0 0.024998346115169066 2.9431256579012511e-06 0 0.025000005835830501 3.0755633763400259e-09 0 0.025001364453886 5.1147805807306345e-06 0 0.025001364453886 5.1147805807306345e-06 0 0.024997462600880274 7.048724013950236e-06 0 0.025000707408134582 1.4326315452997548e-05 0 0.024998346115169066 2.9431256579012511e-06 0 0.025001364453886 5.1147805807306345e-06 0 0.024997462600880274 7.048724013950236e-06 0 0.024725587576855921 0.00059110444031526652 0 0.024927474140097963 0.00026261670816682414 0 0.024488024051646667 0.00020645632068996424 0 0.024993664618360906 1.0107429306482577e-05 0 0.024997462600880274 7.048724013950236e-06 0 0.025000707408134582 1.4326315452997548e-05 0 0.02465165879002976 0.00010279029586171353 0 0.022954979430003544 -0.00040944750044971017 0 0.024724421232151881 0.00019101316345080356 0 0.022954979430003544 -0.00040944750044971017 0 0.023992854082217189 1.7664209186993522e-05 0 0.024199369127409501 3.4149138202622368e-05 0 0.024100848844104877 -0.00016253491400582389 0 0.02496680718221414 1.1755012420978034e-05 0 0.024961103981803349 1.3180356029210353e-05 0 0.024952074742932491 1.4816937142296175e-05 0 0.02465165879002976 0.00010279029586171353 0 0.024724421232151881 0.00019101316345080356 0 0.024993664618360906 1.0107429306482577e-05 0 0.025000707408134582 1.4326315452997548e-05 0 0.024988846687416078 1.4953477009169669e-05 0 0.024985053693682559 8.1920467491278526e-06 0 0.024993664618360906 1.0107429306482577e-05 0 0.024988846687416078 1.4953477009169669e-05 0 0.024985053693682559 8.1920467491278526e-06 0 0.024970034899602804 1.1853089652786647e-05 0 0.024968693614402987 1.2235910464394131e-05 0 0.024818581548889211 9.1374808580487312e-05 0 0.024724421232151881 0.00019101316345080356 0 0.024985053693682559 8.1920467491278526e-06 0 0.024970034899602804 1.1853089652786647e-05 0 0.024976537831138859 1.0207143669267137e-05 0 0.024970034899602804 1.1853089652786647e-05 0 0.024965819362884844 1.2707221797531156e-05 0 0.024976537831138859 1.0207143669267137e-05 0 0.024970034899602804 1.1853089652786647e-05 0 0.02496680718221414 1.1755012420978034e-05 0 0.024961103981803349 1.3180356029210353e-05 0 0.024747573005456817 0.00018763340059379453 0 0.024724421232151881 0.00019101316345080356 0 0.024970034899602804 1.1853089652786647e-05 0 0.024961103981803349 1.3180356029210353e-05 0 0.024965819362884844 1.2707221797531156e-05 0 0.024965819362884844 1.2707221797531156e-05 0 0.02497333870949869 1.031118141444179e-05 0 0.02496068905519476 1.4525518456258399e-05 0 0.024965819362884844 1.2707221797531156e-05 0 0.024949814578599586 1.8833426400138543e-05 0 0.02496068905519476 1.4525518456258399e-05 0 0.024961103981803349 1.3180356029210353e-05 0 0.024965819362884844 1.2707221797531156e-05 0 0.024949814578599586 1.8833426400138543e-05 0 0.024965819362884844 1.2707221797531156e-05 0 0.024976537831138859 1.0207143669267137e-05 0 0.02497333870949869 1.031118141444179e-05 0 0.024949814578599586 1.8833426400138543e-05 0 0.024952074742932491 1.4816937142296175e-05 0 0.024928324866811583 3.1927970111460071e-05 0 0.022954979430003544 -0.00040944750044971017 0 0.022104728788638332 -0.00075611808664778851 0 0.024961103981803349 1.3180356029210353e-05 0 0.024949814578599586 1.8833426400138543e-05 0 0.024952074742932491 1.4816937142296175e-05 0 0.022954979430003544 -0.00040944750044971017 0 0.022254047536124071 -0.00098714597252228865 0 0.019737435346109486 -0.001796563527833939 0 0.019453274550417999 -0.0014356998201829807 0 0.019912409482306832 -0.001387584395998681 0 0.024949814578599586 1.8833426400138543e-05 0 0.024928324866811583 3.1927970111460071e-05 0 0.024931693857760708 2.8030274241373518e-05 0 0.024039214398798924 0.00055576024439719072 0 0.024488024051646667 0.00020645632068996424 0 0.024090209358606764 -3.5128435816912662e-05 0 0.024927474140097963 0.00026261670816682414 0 0.024488024051646667 0.00020645632068996424 0 0.02465738088863095 -0.00034939595140105539 0 0.024488024051646667 0.00020645632068996424 0 0.02465738088863095 -0.00034939595140105539 0 0.024090209358606764 -3.5128435816912662e-05 0 0.02465738088863095 -0.00034939595140105539 0 0.024090209358606764 -3.5128435816912662e-05 0 0.024170474155534256 -0.00050110831609524828 0 0.023893172576900386 -0.00038913038361868045 0 0.024090209358606764 -3.5128435816912662e-05 0 0.024170474155534256 -0.00050110831609524828 0 0.023962111828664697 -0.00066703310402922472 0 0.023893172576900386 -0.00038913038361868045 0 0.024170474155534256 -0.00050110831609524828 0 0.023962111828664697 -0.00066703310402922472 0 0.024170474155534256 -0.00050110831609524828 0 0.024122341187367273 -0.00075649525134881734 0 0.024170474155534256 -0.00050110831609524828 0 0.024122341187367273 -0.00075649525134881734 0 0.024374056410415724 -0.00098793141225490908 0 0.023962111828664697 -0.00066703310402922472 0 0.024122341187367273 -0.00075649525134881734 0 0.024014388833085595 -0.00085000777216313514 0 0.021179468876430831 -0.00079276720737805277 0 0.021322289200392541 -0.00078768610444418389 0 0.021210131571862179 -0.0010038143262792577 0 0.024014388833085595 -0.00085000777216313514 0 0.024008398145988572 -0.0010165026676872409 0 0.024374056410415724 -0.00098793141225490908 0 0.024122341187367273 -0.00075649525134881734 0 0.024014388833085595 -0.00085000777216313514 0 0.024374056410415724 -0.00098793141225490908 0 0.021821405484662292 -0.00096516417673237355 0 0.021702678490568832 -0.00074868159475851399 0 0.019943618707148884 -0.00095837151539897574 0 0.019802004285434043 -0.00077275949059143556 0 0.020049926224661355 -0.00075639006014700078 0 0.020135976285466147 -0.00095742048036901871 0 0.019943618707148884 -0.00095837151539897574 0 0.020049926224661355 -0.00075639006014700078 0 0.021702678490568832 -0.00074868159475851399 0 0.019895547882495587 -0.00089380073823208499 0 0.02465738088863095 -0.00034939595140105539 0 0.024170474155534256 -0.00050110831609524828 0 0.024374056410415724 -0.00098793141225490908 0 0.022254047536124071 -0.00098714597252228865 0 0.021702678490568832 -0.00074868159475851399 0 0.019912409482306832 -0.001387584395998681 0 0.020124655633963331 -0.000951577058548819 0 0.019943618707148884 -0.00095837151539897574 0 0.019453274550417999 -0.0014356998201829807 0 0.019912409482306832 -0.001387584395998681 0 0.019680665835428629 -0.0011561532850533377 0 0.019912409482306832 -0.001387584395998681 0 0.019943618707148884 -0.00095837151539897574 0 0.019680665835428629 -0.0011561532850533377 0 0.022104728788638332 -0.00075611808664778851 0 0.022136198322144161 -0.00049814921442096886 0 0.019453274550417999 -0.0014356998201829807 0 0.019680665835428629 -0.0011561532850533377 0 0.019139477563648533 -0.0010384895655179201 0 0.019680665835428629 -0.0011561532850533377 0 0.019523577129273807 -0.00088043370848379964 0 0.019139477563648533 -0.0010384895655179201 0 0.019523577129273807 -0.00088043370848379964 0 0.019334825476928736 -0.00072507026480908695 0 0.019139477563648533 -0.0010384895655179201 0 0.019943618707148884 -0.00095837151539897574 0 0.019680665835428629 -0.0011561532850533377 0 0.019721169284118937 -0.00095665966731173116 0 0.019680665835428629 -0.0011561532850533377 0 0.019523577129273807 -0.00088043370848379964 0 0.019721169284118937 -0.00095665966731173116 0 0.019523577129273807 -0.00088043370848379964 0 0.019721169284118937 -0.00095665966731173116 0 0.019802004285434043 -0.00077275949059143556 0 0.019523577129273807 -0.00088043370848379964 0 0.019802004285434043 -0.00077275949059143556 0 0.019587541110308127 -0.00064531901204696205 0 0.019943618707148884 -0.00095837151539897574 0 0.019721169284118937 -0.00095665966731173116 0 0.019802004285434043 -0.00077275949059143556 0 0.019802004285434043 -0.00077275949059143556 0 0.019587541110308127 -0.00064531901204696205 0 0.019807429393728881 -0.00056893227655052431 0 0.019587541110308127 -0.00064531901204696205 0 0.019663596338372519 -0.00045236547207917315 0 0.019385113289144974 -0.0004808169695638506 0 0.019663596338372519 -0.00045236547207917315 0 0.019807429393728881 -0.00056893227655052431 0 0.01991118463350449 -0.00039651423725325875 0 0.019587541110308127 -0.00064531901204696205 0 0.019663596338372519 -0.00045236547207917315 0 0.019807429393728881 -0.00056893227655052431 0 0.019587541110308127 -0.00064531901204696205 0 0.019334825476928736 -0.00072507026480908695 0 0.019385113289144974 -0.0004808169695638506 0 0.019523577129273807 -0.00088043370848379964 0 0.019587541110308127 -0.00064531901204696205 0 0.019334825476928736 -0.00072507026480908695 0 0.019334825476928736 -0.00072507026480908695 0 0.019385113289144974 -0.0004808169695638506 0 0.01910245468894543 -0.00057066664073028215 0 0.019385113289144974 -0.0004808169695638506 0 0.019115328705657714 -0.0003002177726420825 0 0.01910245468894543 -0.00057066664073028215 0 0.019385113289144974 -0.0004808169695638506 0 0.019340359850717814 -0.00016680210927395457 0 0.019115328705657714 -0.0003002177726420825 0 0.019385113289144974 -0.0004808169695638506 0 0.019340359850717814 -0.00016680210927395457 0 0.019513627266964512 -0.0003261003946078533 0 0.019440112675850944 -1.9128297612891187e-05 0 0.019340359850717814 -0.00016680210927395457 0 0.019598705654318805 -0.00012639869394506393 0 0.019340359850717814 -0.00016680210927395457 0 0.019513627266964512 -0.0003261003946078533 0 0.019598705654318805 -0.00012639869394506393 0 0.019071229492506094 -1.1401980735761745e-05 0 0.019340359850717814 -0.00016680210927395457 0 0.019115328705657714 -0.0003002177726420825 0 0.019663596338372519 -0.00045236547207917315 0 0.019741049993234814 -0.00029044966456380126 0 0.01991118463350449 -0.00039651423725325875 0 0.019663596338372519 -0.00045236547207917315 0 0.019741049993234814 -0.00029044966456380126 0 0.019513627266964512 -0.0003261003946078533 0 0.019663596338372519 -0.00045236547207917315 0 0.019385113289144974 -0.0004808169695638506 0 0.019513627266964512 -0.0003261003946078533 0 0.019741049993234814 -0.00029044966456380126 0 0.019513627266964512 -0.0003261003946078533 0 0.019598705654318805 -0.00012639869394506393 0 0.019741049993234814 -0.00029044966456380126 0 0.019598705654318805 -0.00012639869394506393 0 0.019880814528709566 -0.00016350547519452155 0 0.019880814528709566 -0.00016350547519452155 0 0.01991118463350449 -0.00039651423725325875 0 0.02005698965278218 -0.00023034938287801716 0 0.020034274476702762 -7.2080629999243137e-07 0 0.019880814528709566 -0.00016350547519452155 0 0.02005698965278218 -0.00023034938287801716 0 0.019741049993234814 -0.00029044966456380126 0 0.019880814528709566 -0.00016350547519452155 0 0.01991118463350449 -0.00039651423725325875 0 0.01991118463350449 -0.00039651423725325875 0 0.020141497116201543 -0.00041898987204669059 0 0.02005698965278218 -0.00023034938287801716 0 0.020141497116201543 -0.00041898987204669059 0 0.02005698965278218 -0.00023034938287801716 0 0.020312280306467881 -0.00016406347137130569 0 0.020034274476702762 -7.2080629999243137e-07 0 0.02005698965278218 -0.00023034938287801716 0 0.020312280306467881 -0.00016406347137130569 0 0.019559817898727665 -0.0010513253232963531 0 0.019631474235076194 -0.001092693730061549 0 0.019569878117084834 -0.0011992260610991211 0 0.019918762425214447 -0.00056925128682612134 0 0.020297066035189999 -0.00091730532946684561 0 0.020141497116201543 -0.00041898987204669059 0 0.020312280306467881 -0.00016406347137130569 0 0.020364005978997037 -0.00049988850552176581 0 0.019638528312867366 -0.0010141761972269133 0 0.019559817898727665 -0.0010513253232963531 0 0.019631474235076194 -0.001092693730061549 0 0.019667019789261518 -0.0011771197731880925 0 0.019631474235076194 -0.001092693730061549 0 0.019569878117084834 -0.0011992260610991211 0 0.019714805913567321 -0.0012766104216591291 0 0.019613207141508687 -0.0014668345990346535 0 0.019569878117084834 -0.0011992260610991211 0 0.021821405484662292 -0.00096516417673237355 0 0.020297066035189999 -0.00091730532946684561 0 0.020141497116201543 -0.00041898987204669059 0 0.020364005978997037 -0.00049988850552176581 0 0.020011510495246434 -0.00058795969282165539 0 0.021702678490568832 -0.00074868159475851399 0 0.020297066035189999 -0.00091730532946684561 0 0.020135976285466147 -0.00095742048036901871 0 0.020364005978997037 -0.00049988850552176581 0 0.020049926224661355 -0.00075639006014700078 0 0.020364005978997037 -0.00049988850552176581 0 0.020049926224661355 -0.00075639006014700078 0 0.020011510495246434 -0.00058795969282165539 0 0.019802004285434043 -0.00077275949059143556 0 0.020049926224661355 -0.00075639006014700078 0 0.020011510495246434 -0.00058795969282165539 0 0.019802004285434043 -0.00077275949059143556 0 0.019807429393728881 -0.00056893227655052431 0 0.020011510495246434 -0.00058795969282165539 0 0.019807429393728881 -0.00056893227655052431 0 0.01991118463350449 -0.00039651423725325875 0 0.020011510495246434 -0.00058795969282165539 0 0.01991118463350449 -0.00039651423725325875 0 0.020141497116201543 -0.00041898987204669059 0 0.020011510495246434 -0.00058795969282165539 0 0.023374784412254528 0.00024938404398603081 0 0.021039810785486262 -0.00044203634235415721 0 0.021119768004071698 0.00024646288125408682 0 0.020889034894492883 5.6992246558985792e-05 0 0.021493714687168403 -3.2881217427533185e-05 0 0.021119768004071698 0.00024646288125408682 0 0.020889034894492883 5.6992246558985792e-05 0 0.020427060495786863 3.4521148491246944e-05 0 0.020889034894492883 5.6992246558985792e-05 0 0.021353558571615777 2.6679905800997744e-06 0 0.020848848609568919 -0.00060731681815392774 0 0.021418482064458403 -4.0094237752482455e-06 0 0.020009512220644517 -4.8708466320363761e-05 0 0.021119768004071698 0.00024646288125408682 0 0.021493714687168403 -3.2881217427533185e-05 0 0.02194998683874249 0.00049297540504214239 0 0.020009512220644517 -4.8708466320363761e-05 0 0.018950919270013113 0.00020604282620236453 0 0.017410475914049379 1.3556004225250239e-06 0 0.01732716737546099 0.0001752816077040283 0 0.017131897063431881 4.3045585492813634e-05 0 0.02066447669814327 0.00037002944058819599 0 0.020899379991815865 0.00065784554793305613 0 0.020974391560922553 0.00049929692168830238 0 0.020009512220644517 -4.8708466320363761e-05 0 0.023133035353120893 0.00028775070321379587 0 0.017410475914049379 1.3556004225250239e-06 0 0.01732716737546099 0.0001752816077040283 0 0.017486825161169929 0.0002990802546500155 0 0.01732716737546099 0.0001752816077040283 0 0.01725029220119589 0.00033159049965098063 0 0.017486825161169929 0.0002990802546500155 0 0.01732716737546099 0.0001752816077040283 0 0.01725029220119589 0.00033159049965098063 0 0.017185004169370376 0.00022256512104141532 0 0.020009512220644517 -4.8708466320363761e-05 0 0.018839617679350749 -4.8537062538014372e-05 0 0.017410475914049379 1.3556004225250239e-06 0 0.017486825161169929 0.0002990802546500155 0 0.017681760545460532 0.00030130759107950035 0 0.018839617679350749 -4.8537062538014372e-05 0 0.021039810785486262 -0.00044203634235415721 0 0.018118295360865597 -0.00010910760888140021 0 0.018575459917372101 -0.00031880064586618453 0 0.018622529569607991 -0.00075907540603875059 0 0.018170698433756204 -4.0323833464439555e-05 0 0.018118295360865597 -0.00010910760888140021 0 0.018454134928733133 -7.3812961702112725e-05 0 0.018118295360865597 -0.00010910760888140021 0 0.018454134928733133 -7.3812961702112725e-05 0 0.018575459917372101 -0.00031880064586618453 0 0.018454134928733133 -7.3812961702112725e-05 0 0.018575459917372101 -0.00031880064586618453 0 0.018831692283223844 -0.0001893524697704098 0 0.019071229492506094 -1.1401980735761745e-05 0 0.018831692283223844 -0.0001893524697704098 0 0.019115328705657714 -0.0003002177726420825 0 0.018575459917372101 -0.00031880064586618453 0 0.018831692283223844 -0.0001893524697704098 0 0.018827946644411141 -0.00046096176051933351 0 0.018831692283223844 -0.0001893524697704098 0 0.018827946644411141 -0.00046096176051933351 0 0.019115328705657714 -0.0003002177726420825 0 0.018827946644411141 -0.00046096176051933351 0 0.019115328705657714 -0.0003002177726420825 0 0.01910245468894543 -0.00057066664073028215 0 0.018827946644411141 -0.00046096176051933351 0 0.01910245468894543 -0.00057066664073028215 0 0.018622529569607991 -0.00075907540603875059 0 0.01910245468894543 -0.00057066664073028215 0 0.018868366510561025 -0.00065153116072254747 0 0.019139477563648533 -0.0010384895655179201 0 0.018361604410973464 -0.00080741284983371607 0 0.021039810785486262 -0.00044203634235415721 0 0.020889034894492883 5.6992246558985792e-05 0 0.020848848609568919 -0.00060731681815392774 0 0.020427060495786863 3.4521148491246944e-05 0 0.018575459917372101 -0.00031880064586618453 0 0.018827946644411141 -0.00046096176051933351 0 0.018622529569607991 -0.00075907540603875059 0 0.024854731862792821 4.8192699810504645e-05 0 0.02488870023734277 4.7880733055655351e-05 0 0.024889808468787005 4.6718059462945787e-05 0 0.024869482247015337 4.6554989118291533e-05 0 0.024854731862792821 4.8192699810504645e-05 0 0.024889808468787005 4.6718059462945787e-05 0 0.019334825476928736 -0.00072507026480908695 0 0.01910245468894543 -0.00057066664073028215 0 0.019139477563648533 -0.0010384895655179201 0 0.021039810785486262 -0.00044203634235415721 0 0.022136198322144161 -0.00049814921442096886 0 0.024928324866811583 3.1927970111460071e-05 0 0.02488870023734277 4.7880733055655351e-05 0 0.024909341335241888 3.865322427987869e-05 0 0.02488870023734277 4.7880733055655351e-05 0 0.024889808468787005 4.6718059462945787e-05 0 0.024909341335241888 3.865322427987869e-05 0 0.024889808468787005 4.6718059462945787e-05 0 0.024886893658953437 4.7894472967293842e-05 0 0.024903703867124434 3.8480662911549355e-05 0 0.024869482247015337 4.6554989118291533e-05 0 0.024889808468787005 4.6718059462945787e-05 0 0.024886893658953437 4.7894472967293842e-05 0 0.024869482247015337 4.6554989118291533e-05 0 0.024886893658953437 4.7894472967293842e-05 0 0.02488123054406766 4.8399518423304152e-05 0 0.023374784412254528 0.00024938404398603081 0 0.023133035353120893 0.00028775070321379587 0 0.024886893658953437 4.7894472967293842e-05 0 0.024890472690045479 3.7331751533596198e-05 0 0.024890047483091291 4.9802436558286749e-05 0 0.024886893658953437 4.7894472967293842e-05 0 0.024890472690045479 3.7331751533596198e-05 0 0.024903703867124434 3.8480662911549355e-05 0 0.024889808468787005 4.6718059462945787e-05 0 0.024903703867124434 3.8480662911549355e-05 0 0.024923962840289859 3.1705686840914441e-05 0 0.024903703867124434 3.8480662911549355e-05 0 0.024923962840289859 3.1705686840914441e-05 0 0.024924917091984453 1.3422932850373029e-05 0 0.024964015606662889 2.9963939236591907e-05 0 0.024994406131053925 1.0667536951217118e-06 0 0.024971054759747733 7.9974906921225527e-06 0 0.024890472690045479 3.7331751533596198e-05 0 0.024903703867124434 3.8480662911549355e-05 0 0.024924917091984453 1.3422932850373029e-05 0 0.024926676759858282 3.1741427080028054e-05 0 0.024959684397635733 1.0092046225992095e-05 0 0.024931693857760708 2.8030274241373518e-05 0 0.024909341335241888 3.865322427987869e-05 0 0.024923962840289859 3.1705686840914441e-05 0 0.024928324866811583 3.1927970111460071e-05 0 0.024931693857760708 2.8030274241373518e-05 0 0.024909341335241888 3.865322427987869e-05 0 0.024889808468787005 4.6718059462945787e-05 0 0.024909341335241888 3.865322427987869e-05 0 0.024923962840289859 3.1705686840914441e-05 0 0.024923962840289859 3.1705686840914441e-05 0 0.024948011749616472 1.9945340286316245e-05 0 0.024956140446157422 1.1460683622664427e-05 0 0.024949814578599586 1.8833426400138543e-05 0 0.024948011749616472 1.9945340286316245e-05 0 0.02496068905519476 1.4525518456258399e-05 0 0.024949814578599586 1.8833426400138543e-05 0 0.024931693857760708 2.8030274241373518e-05 0 0.024948011749616472 1.9945340286316245e-05 0 0.024931693857760708 2.8030274241373518e-05 0 0.024923962840289859 3.1705686840914441e-05 0 0.024948011749616472 1.9945340286316245e-05 0 0.02497333870949869 1.031118141444179e-05 0 0.024967335019524469 1.0820566425930258e-05 0 0.024982046679021562 5.9552792102821782e-06 0 0.02497333870949869 1.031118141444179e-05 0 0.02496068905519476 1.4525518456258399e-05 0 0.024967335019524469 1.0820566425930258e-05 0 0.024948011749616472 1.9945340286316245e-05 0 0.02496068905519476 1.4525518456258399e-05 0 0.024967335019524469 1.0820566425930258e-05 0 0.024967335019524469 1.0820566425930258e-05 0 0.024956140446157422 1.1460683622664427e-05 0 0.024982451398029921 4.1826805585860644e-06 0 0.024948011749616472 1.9945340286316245e-05 0 0.024967335019524469 1.0820566425930258e-05 0 0.024956140446157422 1.1460683622664427e-05 0 0.024956140446157422 1.1460683622664427e-05 0 0.024999888722724042 -1.4669246698432277e-08 0 0.024982451398029921 4.1826805585860644e-06 0 0.024999888722724042 -1.4669246698432277e-08 0 0.024982451398029921 4.1826805585860644e-06 0 0.024999975847619493 1.0836906616213751e-08 0 0.024967335019524469 1.0820566425930258e-05 0 0.024982451398029921 4.1826805585860644e-06 0 0.024982046679021562 5.9552792102821782e-06 0 0.024982451398029921 4.1826805585860644e-06 0 0.024999975847619493 1.0836906616213751e-08 0 0.024982046679021562 5.9552792102821782e-06 0 0.024986931103625386 5.0744586049038109e-06 0 0.024999975847619493 1.0836906616213751e-08 0 0.024982046679021562 5.9552792102821782e-06 0 0.024994406131053925 1.0667536951217118e-06 0 0.02497972953779428 -2.5319755301929224e-06 0 0.024971054759747733 7.9974906921225527e-06 0 0.024923962840289859 3.1705686840914441e-05 0 0.024956140446157422 1.1460683622664427e-05 0 0.024924917091984453 1.3422932850373029e-05 0 0.025000003840840137 3.2416028390522813e-09 0 0.024994406131053925 1.0667536951217118e-06 0 0.024999987276786938 -5.7897598308995853e-09 0 0.024999982719230658 5.8152581201267889e-09 0 0.024959684397635733 1.0092046225992095e-05 0 0.024956140446157422 1.1460683622664427e-05 0 0.024999888722724042 -1.4669246698432277e-08 0 0.024924917091984453 1.3422932850373029e-05 0 0.024994406131053925 1.0667536951217118e-06 0 0.024999987276786938 -5.7897598308995853e-09 0 0.02497972953779428 -2.5319755301929224e-06 0 0.024999954478314965 -1.1148547104998542e-08 0 0.02497972953779428 -2.5319755301929224e-06 0 0.024973387380919039 -5.4753027579465971e-06 0 0.024999987276786938 -5.7897598308995853e-09 0 0.024999954478314965 -1.1148547104998542e-08 0 0.02497972953779428 -2.5319755301929224e-06 0 0.02497972953779428 -2.5319755301929224e-06 0 0.024971054759747733 7.9974906921225527e-06 0 0.024941588852138513 6.6829976431576178e-06 0 0.02497972953779428 -2.5319755301929224e-06 0 0.024973387380919039 -5.4753027579465971e-06 0 0.024941588852138513 6.6829976431576178e-06 0 0.024973387380919039 -5.4753027579465971e-06 0 0.024946624727134676 -9.1927144594094923e-06 0 0.024941588852138513 6.6829976431576178e-06 0 0.024999954478314965 -1.1148547104998542e-08 0 0.024973387380919039 -5.4753027579465971e-06 0 0.02499996681583419 8.706122596502197e-09 0 0.024973387380919039 -5.4753027579465971e-06 0 0.02499996681583419 8.706122596502197e-09 0 0.024946624727134676 -9.1927144594094923e-06 0 0.02499996681583419 8.706122596502197e-09 0 0.024982244437932611 -4.6764577684265067e-06 0 0.024946624727134676 -9.1927144594094923e-06 0 0.024982244437932611 -4.6764577684265067e-06 0 0.024999956363921425 -2.1093719411825894e-08 0 0.024985093272609213 -1.2855673467390414e-05 0 0.02499996681583419 8.706122596502197e-09 0 0.024982244437932611 -4.6764577684265067e-06 0 0.024999956363921425 -2.1093719411825894e-08 0 0.024982244437932611 -4.6764577684265067e-06 0 0.02497897925930638 -2.1640329951447911e-05 0 0.024952932181240711 -4.1515317238836706e-05 0 0.024982244437932611 -4.6764577684265067e-06 0 0.02497897925930638 -2.1640329951447911e-05 0 0.024985093272609213 -1.2855673467390414e-05 0 0.022949584856918358 -0.0003153824384950164 0 0.023422048492818148 -8.8128787611653462e-05 0 0.024982244437932611 -4.6764577684265067e-06 0 0.024946624727134676 -9.1927144594094923e-06 0 0.024952932181240711 -4.1515317238836706e-05 0 0.025036993371088046 -5.6678934675887494e-06 0 0.02414563010835254 -0.00020734248162560979 0 0.024946624727134676 -9.1927144594094923e-06 0 0.0248483354062323 4.9365832532788374e-05 0 0.024886903044770037 4.9878313145041919e-05 0 0.022949584856918358 -0.0003153824384950164 0 0.02414563010835254 -0.00020734248162560979 0 0.021853977038639859 -0.00081179569263222385 0 0.022510283184202895 -0.0003490496247088795 0 0.021961124133584319 -0.00030227266957940106 0 0.022949584856918358 -0.0003153824384950164 0 0.021412252130731217 -0.00035022582143331662 0 0.021853977038639859 -0.00081179569263222385 0 0.021961124133584319 -0.00030227266957940106 0 0.021754188252022463 -0.00045185899959338264 0 0.022083288008158949 -0.00031575196713523845 0 0.022134795204072612 -0.00052596368961991657 0 0.022214576246941148 -0.00022201988043692495 0 0.021744101773079894 -0.00024234091713048182 0 0.021412252130731217 -0.00035022582143331662 0 0.021961124133584319 -0.00030227266957940106 0 0.021743940307365442 -0.00045603721689646922 0 0.021545805161795429 0.00026732477006933446 0 0.022510283184202895 -0.0003490496247088795 0 0.02202045932570116 6.4264638184708374e-05 0 0.022063124143899559 0.00064156340573620586 0 0.021412252130731217 -0.00035022582143331662 0 0.020322582301850082 0.00027825667524848571 0 0.021961124133584319 -0.00030227266957940106 0 0.02202045932570116 6.4264638184708374e-05 0 0.021545805161795429 0.00026732477006933446 0 0.022510283184202895 -0.0003490496247088795 0 0.021961124133584319 -0.00030227266957940106 0 0.02202045932570116 6.4264638184708374e-05 0 0.02202045932570116 6.4264638184708374e-05 0 0.021545805161795429 0.00026732477006933446 0 0.022063124143899559 0.00064156340573620586 0 0.02414563010835254 -0.00020734248162560979 0 0.022810438412166435 0.00076769678671760621 0 0.02404623873445276 -0.00048578097156170728 0 0.024219186996572828 0.00021429391796533155 0 0.02347138248761698 0.00079516999313014667 0 0.02414563010835254 -0.00020734248162560979 0 0.024912558812265333 0.00013510614377659067 0 0.02404623873445276 -0.00048578097156170728 0 0.024219186996572828 0.00021429391796533155 0 0.024859959359592617 0.00013238057101726988 0 0.024219186996572828 0.00021429391796533155 0 0.024553694615066256 0.00037253511952047025 0 0.024189941210204149 0.00063896124725004938 0 0.024219186996572828 0.00021429391796533155 0 0.024553694615066256 0.00037253511952047025 0 0.024859959359592617 0.00013238057101726988 0 0.024859959359592617 0.00013238057101726988 0 0.024904611217308931 0.0001973411587607199 0 0.024941588852138513 6.6829976431576178e-06 0 0.025019030103356783 6.9616221649432944e-05 0 0.024913707469516121 3.9588386320327705e-05 0 0.0248483354062323 4.9365832532788374e-05 0 0.024859959359592617 0.00013238057101726988 0 0.024886903044770037 4.9878313145041919e-05 0 0.024553694615066256 0.00037253511952047025 0 0.024859959359592617 0.00013238057101726988 0 0.024904611217308931 0.0001973411587607199 0 0.024964015606662889 2.9963939236591907e-05 0 0.024902222365361815 4.8938575966412786e-05 0 0.024941588852138513 6.6829976431576178e-06 0 0.024964015606662889 2.9963939236591907e-05 0 0.024902222365361815 4.8938575966412786e-05 0 0.024890047483091291 4.9802436558286749e-05 0 0.024926676759858282 3.1741427080028054e-05 0 0.024895911926326827 4.7958466628384699e-05 0 0.024964015606662889 2.9963939236591907e-05 0 0.024971054759747733 7.9974906921225527e-06 0 0.024941588852138513 6.6829976431576178e-06 0 0.024946624727134676 -9.1927144594094923e-06 0 0.024941588852138513 6.6829976431576178e-06 0 0.024886903044770037 4.9878313145041919e-05 0 0.024859959359592617 0.00013238057101726988 0 0.024941588852138513 6.6829976431576178e-06 0 0.024886903044770037 4.9878313145041919e-05 0 0.021792200868763087 6.1338289080676444e-05 0 0.022713814117226165 5.1712704069519228e-05 0 0.024979731443782918 1.5499808202581518e-05 0 0.024999890355067771 4.2680702569319002e-08 0 0.024946993902921693 1.2292737380826745e-06 0 0.025000046941939691 8.497224099590837e-09 0 0.024999917906416518 -1.3008298468820528e-08 0 0.02498551551965468 -1.6946368202458838e-05 0 0.02500217052502051 1.0011607999949518e-06 0 0.022713814117226165 5.1712704069519228e-05 0 0.025000287186403639 2.4094024456602916e-07 0 0.024412705169533276 -9.3402075127920145e-05 0 0.024999917906416518 -1.3008298468820528e-08 0 0.02498551551965468 -1.6946368202458838e-05 0 0.024960796866762586 -1.226507019553087e-05 0 0.018898109494133269 7.511546430829708e-05 0 0.018994751680673209 -4.5539757289727236e-05 0 0.018955593356254095 2.4797602187066725e-05 0 0.022713814117226165 5.1712704069519228e-05 0 0.020419611976681035 -0.00025031655643051884 0 0.018994751680673209 -4.5539757289727236e-05 0 0.019092320124975155 -2.2672208981968943e-05 0 0.018955593356254095 2.4797602187066725e-05 0 0.022957257146329353 5.7878581891927848e-05 0 0.022543653071404452 -0.0002357431903668042 0 0.022729396316499475 0.00014487310399338216 0 0.024999998989146604 8.9539710745972216e-11 0 0.024998412885746408 -2.944198054213164e-07 0 0.024999995338510238 -4.3392298542870982e-10 0 0.022713814117226165 5.1712704069519228e-05 0 0.024412705169533276 -9.3402075127920145e-05 0 0.02498206373208435 -6.3916188309986864e-06 0 0.024999956363921425 -2.1093719411825894e-08 0 0.024985093272609213 -1.2855673467390414e-05 0 0.024998412885746408 -2.944198054213164e-07 0 0.024999995338510238 -4.3392298542870982e-10 0 0.025000000516378677 -1.3822374561464066e-10 0 0.024412705169533276 -9.3402075127920145e-05 0 0.025000782406612531 -1.4743360011362399e-07 0 0.024412705169533276 -9.3402075127920145e-05 0 0.023422048492818148 -8.8128787611653462e-05 0 0.022543653071404452 -0.0002357431903668042 0 0.022729396316499475 0.00014487310399338216 0 0.022214576246941148 -0.00022201988043692495 0 0.019237172515930084 3.7415547814594719e-05 0 0.019092320124975155 -2.2672208981968943e-05 0 0.019122747480210315 6.837660834938413e-05 0 0.021412252130731217 -0.00035022582143331662 0 0.020419611976681035 -0.00025031655643051884 0 0.022134795204072612 -0.00052596368961991657 0 0.022543653071404452 -0.0002357431903668042 0 0.022214576246941148 -0.00022201988043692495 0 0.019237172515930084 3.7415547814594719e-05 0 0.019122747480210315 6.837660834938413e-05 0 0.019214722233821997 0.00016630206280783931 0 0.019122747480210315 6.837660834938413e-05 0 0.019214722233821997 0.00016630206280783931 0 0.019048603412156511 0.00013210084967597057 0 0.019214722233821997 0.00016630206280783931 0 0.019048603412156511 0.00013210084967597057 0 0.019087491428100827 0.0002450786912691646 0 0.019122747480210315 6.837660834938413e-05 0 0.019048603412156511 0.00013210084967597057 0 0.019031718949997872 5.088040970271817e-05 0 0.019048603412156511 0.00013210084967597057 0 0.019031718949997872 5.088040970271817e-05 0 0.018927370086657718 6.8264721290576592e-05 0 0.019092320124975155 -2.2672208981968943e-05 0 0.019122747480210315 6.837660834938413e-05 0 0.019031718949997872 5.088040970271817e-05 0 0.019092320124975155 -2.2672208981968943e-05 0 0.019031718949997872 5.088040970271817e-05 0 0.018955593356254095 2.4797602187066725e-05 0 0.018955593356254095 2.4797602187066725e-05 0 0.018927370086657718 6.8264721290576592e-05 0 0.018882127623488447 5.4967432606162865e-05 0 0.019031718949997872 5.088040970271817e-05 0 0.018955593356254095 2.4797602187066725e-05 0 0.018927370086657718 6.8264721290576592e-05 0 0.018927370086657718 6.8264721290576592e-05 0 0.018879876874162996 0.00014289763916360636 0 0.018829818428528714 8.2483617942393953e-05 0 0.019048603412156511 0.00013210084967597057 0 0.018927370086657718 6.8264721290576592e-05 0 0.018879876874162996 0.00014289763916360636 0 0.018879876874162996 0.00014289763916360636 0 0.018829818428528714 8.2483617942393953e-05 0 0.018714893338192925 0.00014292719954416878 0 0.018829818428528714 8.2483617942393953e-05 0 0.018882127623488447 5.4967432606162865e-05 0 0.018875230974588045 3.4404519138996627e-05 0 0.018829818428528714 8.2483617942393953e-05 0 0.018714893338192925 0.00014292719954416878 0 0.018769554712253327 0.00012429203875891835 0 0.018927370086657718 6.8264721290576592e-05 0 0.018829818428528714 8.2483617942393953e-05 0 0.018882127623488447 5.4967432606162865e-05 0 0.018898109494133269 7.511546430829708e-05 0 0.018882127623488447 5.4967432606162865e-05 0 0.018875230974588045 3.4404519138996627e-05 0 0.018898109494133269 7.511546430829708e-05 0 0.018955593356254095 2.4797602187066725e-05 0 0.018882127623488447 5.4967432606162865e-05 0 0.018630993535878576 0.00042124816343668383 0 0.018463526507634245 0.00060688115748069448 0 0.018436298362490458 0.00046924648833015663 0 0.018630993535878576 0.00042124816343668383 0 0.018519115375016593 0.00033793118408770095 0 0.018436298362490458 0.00046924648833015663 0 0.018630993535878576 0.00042124816343668383 0 0.018848554116717674 0.0004161710080999819 0 0.018688311948559695 0.00055831986746675266 0 0.018630993535878576 0.00042124816343668383 0 0.018672538074413589 0.00029201667338382941 0 0.018792949302446741 0.00026489137296141794 0 0.018630993535878576 0.00042124816343668383 0 0.018519115375016593 0.00033793118408770095 0 0.018672538074413589 0.00029201667338382941 0 0.018519115375016593 0.00033793118408770095 0 0.018672538074413589 0.00029201667338382941 0 0.018714893338192925 0.00014292719954416878 0 0.018879876874162996 0.00014289763916360636 0 0.018714893338192925 0.00014292719954416878 0 0.018792949302446741 0.00026489137296141794 0 0.018672538074413589 0.00029201667338382941 0 0.018714893338192925 0.00014292719954416878 0 0.018792949302446741 0.00026489137296141794 0 0.019048603412156511 0.00013210084967597057 0 0.018879876874162996 0.00014289763916360636 0 0.01895242845414221 0.00026052627344569585 0 0.018879876874162996 0.00014289763916360636 0 0.018792949302446741 0.00026489137296141794 0 0.01895242845414221 0.00026052627344569585 0 0.018848554116717674 0.0004161710080999819 0 0.019041999939282146 0.00040652625360896552 0 0.018935925217869538 0.00064050845645462966 0 0.01895242845414221 0.00026052627344569585 0 0.018848554116717674 0.0004161710080999819 0 0.019041999939282146 0.00040652625360896552 0 0.018630993535878576 0.00042124816343668383 0 0.018792949302446741 0.00026489137296141794 0 0.018848554116717674 0.0004161710080999819 0 0.018792949302446741 0.00026489137296141794 0 0.01895242845414221 0.00026052627344569585 0 0.018848554116717674 0.0004161710080999819 0 0.019041999939282146 0.00040652625360896552 0 0.019087491428100827 0.0002450786912691646 0 0.019206215428066081 0.00033901240601233169 0 0.019048603412156511 0.00013210084967597057 0 0.01895242845414221 0.00026052627344569585 0 0.019087491428100827 0.0002450786912691646 0 0.01895242845414221 0.00026052627344569585 0 0.019041999939282146 0.00040652625360896552 0 0.019087491428100827 0.0002450786912691646 0 0.019214722233821997 0.00016630206280783931 0 0.019087491428100827 0.0002450786912691646 0 0.019206215428066081 0.00033901240601233169 0 0.020322582301850082 0.00027825667524848571 0 0.020299146674537583 0.00065895523660556979 0 0.020299146674537583 0.00065895523660556979 0 0.019758041155464548 0.0010433185227808109 0 0.021345281554216625 0.00098704308697395056 0 0.021611736395375544 0.00163145561898062 0 0.021145630478543169 0.0017081455785698605 0 0.019041999939282146 0.00040652625360896552 0 0.019206215428066081 0.00033901240601233169 0 0.019179097722270042 0.00057015841468836261 0 0.021047148069354066 0.0013210172497864247 0 0.019758041155464548 0.0010433185227808109 0 0.019293294335915555 0.00064839682191230675 0 0.019242035841234711 0.00082059602881782816 0 0.019405757533857107 0.00085031496099923778 0 0.019758041155464548 0.0010433185227808109 0 0.019464819155723449 0.00079866295328101923 0 0.021047148069354066 0.0013210172497864247 0 0.018422193168829312 0.00096073681751808655 0 0.019518910094126658 0.00061332099661931528 0 0.019293294335915555 0.00064839682191230675 0 0.019405757533857107 0.00085031496099923778 0 0.017194779852092428 0.00083877312324493662 0 0.017227740713256421 0.00079299328630384346 0 0.017138847073020137 0.0007691310676906448 0 0.017227740713256421 0.00079299328630384346 0 0.017138847073020137 0.0007691310676906448 0 0.017171722925079829 0.00071018663606703695 0 0.018422193168829312 0.00096073681751808655 0 0.017601820127870732 0.0010259709162725884 0 0.017184668465514679 0.00091410175522087234 0 0.017227740713256421 0.00079299328630384346 0 0.01730291987621551 0.00084286129699865416 0 0.018422193168829312 0.00096073681751808655 0 0.018207854520256125 0.0008985309734786134 0 0.019242035841234711 0.00082059602881782816 0 0.019405757533857107 0.00085031496099923778 0 0.019029768868007529 0.00088074094253777176 0 0.017184668465514679 0.00091410175522087234 0 0.01730291987621551 0.00084286129699865416 0 0.017424063564751759 0.00091724542517953645 0 0.01730291987621551 0.00084286129699865416 0 0.017424063564751759 0.00091724542517953645 0 0.017369497321769546 0.00075598304560694899 0 0.017227740713256421 0.00079299328630384346 0 0.01730291987621551 0.00084286129699865416 0 0.017369497321769546 0.00075598304560694899 0 0.017424063564751759 0.00091724542517953645 0 0.017535056629942064 0.00080986747550416949 0 0.017369497321769546 0.00075598304560694899 0 0.019041999939282146 0.00040652625360896552 0 0.019179097722270042 0.00057015841468836261 0 0.018935925217869538 0.00064050845645462966 0 0.019289980631209173 0.00064107061357553227 0 0.019242035841234711 0.00082059602881782816 0 0.018916518334616696 0.00069576509466275918 0 0.019758041155464548 0.0010433185227808109 0 0.018818780693818673 0.00065381234403678792 0 0.019242035841234711 0.00082059602881782816 0 0.019029768868007529 0.00088074094253777176 0 0.018916518334616696 0.00069576509466275918 0 0.018935925217869538 0.00064050845645462966 0 0.018544614753083478 0.00073299516077511952 0 0.018688311948559695 0.00055831986746675266 0 0.018916518334616696 0.00069576509466275918 0 0.018660559766781052 0.00091116764819370504 0 0.018544614753083478 0.00073299516077511952 0 0.018818780693818673 0.00065381234403678792 0 0.018610080399906217 0.00072582610530526543 0 0.018848554116717674 0.0004161710080999819 0 0.018935925217869538 0.00064050845645462966 0 0.018688311948559695 0.00055831986746675266 0 0.019029768868007529 0.00088074094253777176 0 0.018916518334616696 0.00069576509466275918 0 0.018660559766781052 0.00091116764819370504 0 0.017424063564751759 0.00091724542517953645 0 0.017535056629942064 0.00080986747550416949 0 0.017693857656609441 0.00094762825604299665 0 0.018207854520256125 0.0008985309734786134 0 0.018184323588315621 0.00091420620719106453 0 0.017535056629942064 0.00080986747550416949 0 0.017693857656609441 0.00094762825604299665 0 0.017678452506874099 0.00079210055403539461 0 0.017693857656609441 0.00094762825604299665 0 0.017842372836107592 0.00078384371000256574 0 0.018127776094415182 0.00085580060510049465 0 0.018660559766781052 0.00091116764819370504 0 0.018317320407570409 0.00075054440781566352 0 0.018127776094415182 0.00085580060510049465 0 0.018184323588315621 0.00091420620719106453 0 0.018135760793248887 0.00087679739541025327 0 0.017693857656609441 0.00094762825604299665 0 0.017842372836107592 0.00078384371000256574 0 0.017678452506874099 0.00079210055403539461 0 0.018660559766781052 0.00091116764819370504 0 0.018544614753083478 0.00073299516077511952 0 0.018317320407570409 0.00075054440781566352 0 0.018544614753083478 0.00073299516077511952 0 0.018463526507634245 0.00060688115748069448 0 0.018317320407570409 0.00075054440781566352 0 0.018544614753083478 0.00073299516077511952 0 0.018688311948559695 0.00055831986746675266 0 0.018463526507634245 0.00060688115748069448 0 0.018630993535878576 0.00042124816343668383 0 0.018688311948559695 0.00055831986746675266 0 0.018463526507634245 0.00060688115748069448 0 0.023577365409605915 0.00093973904015316344 0 0.024524862049715251 0.0012618154969054941 0 0.024679303910812172 0.0013266257796531722 0 0.024106614294439898 0.0011454678227730973 0 0.024322053145147474 0.001472987083342703 0 0.024679303910812172 0.0013266257796531722 0 0.024641723916653702 0.0016949695243288787 0 0.024322053145147474 0.001472987083342703 0 0.023577365409605915 0.00093973904015316344 0 0.02195590490026654 0.00063352274547837887 0 0.021303348601678991 0.00059098211701952123 0 0.021072085552984354 0.00065428805897357238 0 0.021157686529315434 0.00048980314398435669 0 0.02195590490026654 0.00063352274547837887 0 0.020957867211986437 0.00068329768471917245 0 0.021429987677278387 0.0008098034460118325 0 0.021456727515557762 0.0005865883828025018 0 0.021072085552984354 0.00065428805897357238 0 0.024870582338362545 4.1958637280873879e-05 0 0.024813784178884538 3.4736338903570586e-05 0 0.024891948365026645 4.8491266940768738e-05 0 0.023577365409605915 0.00093973904015316344 0 0.023133035353120893 0.00028775070321379587 0 0.021072085552984354 0.00065428805897357238 0 0.021157686529315434 0.00048980314398435669 0 0.020974391560922553 0.00049929692168830238 0 0.021429987677278387 0.0008098034460118325 0 0.021072085552984354 0.00065428805897357238 0 0.020899379991815865 0.00065784554793305613 0 0.021072085552984354 0.00065428805897357238 0 0.020899379991815865 0.00065784554793305613 0 0.020974391560922553 0.00049929692168830238 0 0.02488123054406766 4.8399518423304152e-05 0 0.024890047483091291 4.9802436558286749e-05 0 0.024891948365026645 4.8491266940768738e-05 0 0.024886893658953437 4.7894472967293842e-05 0 0.02488123054406766 4.8399518423304152e-05 0 0.024890047483091291 4.9802436558286749e-05 0 0.023133035353120893 0.00028775070321379587 0 0.025433084913010599 0.00010415801733806776 0 0.024902222365361815 4.8938575966412786e-05 0 0.024870582338362545 4.1958637280873879e-05 0 0.024891948365026645 4.8491266940768738e-05 0 0.024904611217308931 0.0001973411587607199 0 0.024805525559411939 0.0013475182497611031 0 0.024514323497567162 0.00073646603402129107 0 0.024902222365361815 4.8938575966412786e-05 0 0.024890047483091291 4.9802436558286749e-05 0 0.024891948365026645 4.8491266940768738e-05 0 0.025019030103356783 6.9616221649432944e-05 0 0.023577365409605915 0.00093973904015316344 0 0.024805525559411939 0.0013475182497611031 0 0.024514323497567162 0.00073646603402129107 0 0.024106614294439898 0.0011454678227730973 0 0.024553694615066256 0.00037253511952047025 0 0.024904611217308931 0.0001973411587607199 0 0.024514323497567162 0.00073646603402129107 0 0.024553694615066256 0.00037253511952047025 0 0.024514323497567162 0.00073646603402129107 0 0.024189941210204149 0.00063896124725004938 0 0.024219186996572828 0.00021429391796533155 0 0.024189941210204149 0.00063896124725004938 0 0.02347138248761698 0.00079516999313014667 0 0.024189941210204149 0.00063896124725004938 0 0.024106614294439898 0.0011454678227730973 0 0.02347138248761698 0.00079516999313014667 0 0.024514323497567162 0.00073646603402129107 0 0.024189941210204149 0.00063896124725004938 0 0.024106614294439898 0.0011454678227730973 0 0.021545805161795429 0.00026732477006933446 0 0.021345281554216625 0.00098704308697395056 0 0.022063124143899559 0.00064156340573620586 0 0.021345281554216625 0.00098704308697395056 0 0.021611736395375544 0.00163145561898062 0 0.022063124143899559 0.00064156340573620586 0 0.022911198352927067 0.002013269441094622 0 0.02347138248761698 0.00079516999313014667 0 0.023805787803324551 0.0018632233566169656 0 0.021047148069354066 0.0013210172497864247 0 0.022810438412166435 0.00076769678671760621 0 0.024641723916653702 0.0016949695243288787 0 0.024322053145147474 0.001472987083342703 0 0.023805787803324551 0.0018632233566169656 0 0.024106614294439898 0.0011454678227730973 0 0.02347138248761698 0.00079516999313014667 0 0.023805787803324551 0.0018632233566169656 0 0.02195590490026654 0.00063352274547837887 0 0.022133261149183823 0.0013176443071573148 0 0.024106614294439898 0.0011454678227730973 0 0.024322053145147474 0.001472987083342703 0 0.023805787803324551 0.0018632233566169656 0 0.020662061125024288 0.00067981341291144986 0 0.020165421381034648 0.00076739527261173053 0 0.020606832149671864 0.0010804310186262518 0 0.018498234883625907 0.0010173345963698031 0 0.018852887545777741 0.00063583813508948073 0 0.020165421381034648 0.00076739527261173053 0 0.02005801246281878 0.0011447125262542327 0 0.020606832149671864 0.0010804310186262518 0 0.021047148069354066 0.0013210172497864247 0 0.022133261149183823 0.0013176443071573148 0 0.019662888170084245 0.00085395798649372126 0 0.019501833132389547 0.0012076268596041238 0 0.02005801246281878 0.0011447125262542327 0 0.019662888170084245 0.00085395798649372126 0 0.020165421381034648 0.00076739527261173053 0 0.02005801246281878 0.0011447125262542327 0 0.01703092838196546 0.00082940565841448175 0 0.016956530767891186 0.00069095504621509668 0 0.017068737038962705 0.00067088900164478786 0 0.017194779852092428 0.00083877312324493662 0 0.01703092838196546 0.00082940565841448175 0 0.017138847073020137 0.0007691310676906448 0 0.01703092838196546 0.00082940565841448175 0 0.017138847073020137 0.0007691310676906448 0 0.017068737038962705 0.00067088900164478786 0 0.018422193168829312 0.00096073681751808655 0 0.018498234883625907 0.0010173345963698031 0 0.016956530767891186 0.00069095504621509668 0 0.016821624990099284 0.00085413546580812125 0 0.016843937568883565 0.00054498903932472605 0 0.01703092838196546 0.00082940565841448175 0 0.016956530767891186 0.00069095504621509668 0 0.016821624990099284 0.00085413546580812125 0 0.018852887545777741 0.00063583813508948073 0 0.01640592173795704 0.00051431981355477764 0 0.016850772522609612 9.3246028333846752e-05 0 0.017131897063431881 4.3045585492813634e-05 0 0.017026008869674533 0.00032612958986499456 0 0.016850772522609612 9.3246028333846752e-05 0 0.017026008869674533 0.00032612958986499456 0 0.016843937568883565 0.00054498903932472605 0 0.018852887545777741 0.00063583813508948073 0 0.018950919270013113 0.00020604282620236453 0 0.021323136128630328 0.00032934246132135042 0 0.021157686529315434 0.00048980314398435669 0 0.021015624776444791 0.00034596426666664264 0 0.021303348601678991 0.00059098211701952123 0 0.021323136128630328 0.00032934246132135042 0 0.021157686529315434 0.00048980314398435669 0 0.02195590490026654 0.00063352274547837887 0 0.018852887545777741 0.00063583813508948073 0 0.02066447669814327 0.00037002944058819599 0 0.020974391560922553 0.00049929692168830238 0 0.021015624776444791 0.00034596426666664264 0 0.021157686529315434 0.00048980314398435669 0 0.020974391560922553 0.00049929692168830238 0 0.021015624776444791 0.00034596426666664264 0 0.01732716737546099 0.0001752816077040283 0 0.017131897063431881 4.3045585492813634e-05 0 0.017185004169370376 0.00022256512104141532 0 0.017131897063431881 4.3045585492813634e-05 0 0.017185004169370376 0.00022256512104141532 0 0.017026008869674533 0.00032612958986499456 0 0.01725029220119589 0.00033159049965098063 0 0.017185004169370376 0.00022256512104141532 0 0.017026008869674533 0.00032612958986499456 0 0.01725029220119589 0.00033159049965098063 0 0.017026008869674533 0.00032612958986499456 0 0.017054353304323127 0.00048079502312067931 0 0.017194024006759071 0.00056113012668656398 0 0.017329033082063183 0.00044919264625893954 0 0.017054353304323127 0.00048079502312067931 0 0.017054353304323127 0.00048079502312067931 0 0.016843937568883565 0.00054498903932472605 0 0.016883084892316227 0.00057928690655442174 0 0.017026008869674533 0.00032612958986499456 0 0.017054353304323127 0.00048079502312067931 0 0.016843937568883565 0.00054498903932472605 0 0.016843937568883565 0.00054498903932472605 0 0.016862443890166556 0.00052640961589117924 0 0.016883084892316227 0.00057928690655442174 0 0.016862443890166556 0.00052640961589117924 0 0.016883084892316227 0.00057928690655442174 0 0.016844544706188663 0.00050988197497271401 0 0.016883084892316227 0.00057928690655442174 0 0.016812696077345087 0.0004952070163152945 0 0.016844544706188663 0.00050988197497271401 0 0.016862443890166556 0.00052640961589117924 0 0.016844544706188663 0.00050988197497271401 0 0.016839594434001185 0.00047609532609532349 0 0.01706243220110891 0.00059791038633572003 0 0.016904794923316653 0.00059159938138644385 0 0.016766276662907843 0.00051693314072830891 0 0.016883084892316227 0.00057928690655442174 0 0.016793549574487431 0.00050814342234465151 0 0.017194024006759071 0.00056113012668656398 0 0.017364679761606959 0.00070882099172774223 0 0.016883084892316227 0.00057928690655442174 0 0.016729914471741276 0.00052587006890811609 0 0.016766276662907843 0.00051693314072830891 0 0.016883084892316227 0.00057928690655442174 0 0.017194024006759071 0.00056113012668656398 0 0.017054353304323127 0.00048079502312067931 0 0.016883084892316227 0.00057928690655442174 0 0.016883084892316227 0.00057928690655442174 0 0.016793549574487431 0.00050814342234465151 0 0.016812696077345087 0.0004952070163152945 0 0.016793549574487431 0.00050814342234465151 0 0.016772017312420198 0.00049945571172278866 0 0.016812696077345087 0.0004952070163152945 0 0.016754583329328165 0.00051044342674485274 0 0.016793549574487431 0.00050814342234465151 0 0.016772017312420198 0.00049945571172278866 0 0.016772017312420198 0.00049945571172278866 0 0.016786894257084711 0.00048180632544973312 0 0.016756896927443379 0.00051293469091880258 0 0.016772017312420198 0.00049945571172278866 0 0.016786894257084711 0.00048180632544973312 0 0.016812696077345087 0.0004952070163152945 0 0.015141198966576725 0.00018943253013047282 0 0.01453929647742133 0.00055686458262161416 0 0.016786894257084711 0.00048180632544973312 0 0.016812696077345087 0.0004952070163152945 0 0.016812331347166531 0.00044880622171104194 0 0.016844544706188663 0.00050988197497271401 0 0.016812331347166531 0.00044880622171104194 0 0.016839594434001185 0.00047609532609532349 0 0.016812696077345087 0.0004952070163152945 0 0.016844544706188663 0.00050988197497271401 0 0.016812331347166531 0.00044880622171104194 0 0.016812331347166531 0.00044880622171104194 0 0.016839594434001185 0.00047609532609532349 0 0.016817320413483786 0.0004335895241518574 0 0.016812331347166531 0.00044880622171104194 0 0.016817320413483786 0.0004335895241518574 0 0.016721539083853335 0.0003784471560824952 0 0.016812331347166531 0.00044880622171104194 0 0.016836144682827035 0.00036086200122035421 0 0.016721539083853335 0.0003784471560824952 0 0.016786894257084711 0.00048180632544973312 0 0.016812331347166531 0.00044880622171104194 0 0.01678351154089542 0.00048100872174228437 0 0.01590030925224372 0.00094452620922060504 0 0.01453929647742133 0.00055686458262161416 0 0.01453929647742133 0.00055686458262161416 0 0.013812443953457612 0.00073986680794304259 0 0.011084660188589793 0.0010046564380647104 0 0.010886390762560986 0.00071486161886748299 0 0.011249416774491237 0.0007197809427410269 0 0.016836144682827035 0.00036086200122035421 0 0.016721539083853335 0.0003784471560824952 0 0.016568721599550168 0.00065909834366235064 0 0.01453929647742133 0.00055686458262161416 0 0.013749002624852841 0.00062584207363969822 0 0.016770764274147764 0.00049232713949054138 0 0.016756896927443379 0.00051293469091880258 0 0.016736157225684726 0.00053255116061313426 0 0.016786894257084711 0.00048180632544973312 0 0.016770764274147764 0.00049232713949054138 0 0.016756896927443379 0.00051293469091880258 0 0.017007377513006534 0.00027924814814905526 0 0.016990717546620578 0.00039275990942899138 0 0.017120314584280542 0.00029618538129401841 0 0.017007377513006534 0.00027924814814905526 0 0.017083691393745711 0.00019551504359033897 0 0.017120314584280542 0.00029618538129401841 0 0.017007377513006534 0.00027924814814905526 0 0.017083691393745711 0.00019551504359033897 0 0.016960794477346681 0.00013444911710871286 0 0.016721539083853335 0.0003784471560824952 0 0.016568721599550168 0.00065909834366235064 0 0.016027309052304543 0.00061354689125997519 0 0.017007377513006534 0.00027924814814905526 0 0.016896736798552133 0.00036500849586982827 0 0.016960794477346681 0.00013444911710871286 0 0.016721539083853335 0.0003784471560824952 0 0.016896736798552133 0.00036500849586982827 0 0.016960794477346681 0.00013444911710871286 0 0.016693904120342336 0.00036402662905537277 0 0.016480688144455441 0.00039390074262249798 0 0.016817320413483786 0.0004335895241518574 0 0.016721539083853335 0.0003784471560824952 0 0.016896736798552133 0.00036500849586982827 0 0.017007377513006534 0.00027924814814905526 0 0.016896736798552133 0.00036500849586982827 0 0.016990717546620578 0.00039275990942899138 0 0.016896736798552133 0.00036500849586982827 0 0.016892109299192132 0.00045377978106466685 0 0.016990717546620578 0.00039275990942899138 0 0.016817320413483786 0.0004335895241518574 0 0.016896736798552133 0.00036500849586982827 0 0.016892109299192132 0.00045377978106466685 0 0.016862443890166556 0.00052640961589117924 0 0.016839594434001185 0.00047609532609532349 0 0.016892109299192132 0.00045377978106466685 0 0.016839594434001185 0.00047609532609532349 0 0.016817320413483786 0.0004335895241518574 0 0.016892109299192132 0.00045377978106466685 0 0.016892109299192132 0.00045377978106466685 0 0.016990717546620578 0.00039275990942899138 0 0.016964819077125822 0.00049553422885309224 0 0.016990717546620578 0.00039275990942899138 0 0.01708131328596442 0.00044002789583892941 0 0.016964819077125822 0.00049553422885309224 0 0.016990717546620578 0.00039275990942899138 0 0.01708131328596442 0.00044002789583892941 0 0.017120314584280542 0.00029618538129401841 0 0.01708131328596442 0.00044002789583892941 0 0.017063099533917367 0.00054612738387126462 0 0.017166468749107391 0.00049960920597219333 0 0.01708131328596442 0.00044002789583892941 0 0.017063099533917367 0.00054612738387126462 0 0.016964819077125822 0.00049553422885309224 0 0.017063099533917367 0.00054612738387126462 0 0.016964819077125822 0.00049553422885309224 0 0.016953045499252094 0.00056081164938129443 0 0.016862443890166556 0.00052640961589117924 0 0.016964819077125822 0.00049553422885309224 0 0.016953045499252094 0.00056081164938129443 0 0.016862443890166556 0.00052640961589117924 0 0.016892109299192132 0.00045377978106466685 0 0.016964819077125822 0.00049553422885309224 0 0.016843937568883565 0.00054498903932472605 0 0.016862443890166556 0.00052640961589117924 0 0.016953045499252094 0.00056081164938129443 0 0.016956530767891186 0.00069095504621509668 0 0.016843937568883565 0.00054498903932472605 0 0.016953045499252094 0.00056081164938129443 0 0.016956530767891186 0.00069095504621509668 0 0.016953045499252094 0.00056081164938129443 0 0.017068737038962705 0.00067088900164478786 0 0.017063099533917367 0.00054612738387126462 0 0.017068737038962705 0.00067088900164478786 0 0.017169133299495033 0.00061488804418963715 0 0.017063099533917367 0.00054612738387126462 0 0.016953045499252094 0.00056081164938129443 0 0.017068737038962705 0.00067088900164478786 0 0.017138847073020137 0.0007691310676906448 0 0.017068737038962705 0.00067088900164478786 0 0.017171722925079829 0.00071018663606703695 0 0.017068737038962705 0.00067088900164478786 0 0.017171722925079829 0.00071018663606703695 0 0.017169133299495033 0.00061488804418963715 0 0.017171722925079829 0.00071018663606703695 0 0.017169133299495033 0.00061488804418963715 0 0.017254062566294578 0.0006894919408895983 0 0.017169133299495033 0.00061488804418963715 0 0.017254062566294578 0.0006894919408895983 0 0.017282786855417537 0.00057844055054798139 0 0.017227740713256421 0.00079299328630384346 0 0.017254062566294578 0.0006894919408895983 0 0.017369497321769546 0.00075598304560694899 0 0.017227740713256421 0.00079299328630384346 0 0.017171722925079829 0.00071018663606703695 0 0.017254062566294578 0.0006894919408895983 0 0.017254062566294578 0.0006894919408895983 0 0.017369497321769546 0.00075598304560694899 0 0.017342328922257448 0.00066810977415319951 0 0.017369497321769546 0.00075598304560694899 0 0.017458927659724326 0.00069784765657334975 0 0.017342328922257448 0.00066810977415319951 0 0.017535056629942064 0.00080986747550416949 0 0.017369497321769546 0.00075598304560694899 0 0.017458927659724326 0.00069784765657334975 0 0.017458927659724326 0.00069784765657334975 0 0.01739977734817685 0.00061402543244170769 0 0.017342328922257448 0.00066810977415319951 0 0.017458927659724326 0.00069784765657334975 0 0.01739977734817685 0.00061402543244170769 0 0.017536905681191331 0.00061546167817297793 0 0.01739977734817685 0.00061402543244170769 0 0.017342328922257448 0.00066810977415319951 0 0.017282786855417537 0.00057844055054798139 0 0.017254062566294578 0.0006894919408895983 0 0.017342328922257448 0.00066810977415319951 0 0.017282786855417537 0.00057844055054798139 0 0.01739977734817685 0.00061402543244170769 0 0.017397162369581009 0.00049802800235908002 0 0.017282786855417537 0.00057844055054798139 0 0.01739977734817685 0.00061402543244170769 0 0.017397162369581009 0.00049802800235908002 0 0.017536905681191331 0.00061546167817297793 0 0.017397162369581009 0.00049802800235908002 0 0.017275407801249951 0.00046734377530395878 0 0.017282786855417537 0.00057844055054798139 0 0.017275407801249951 0.00046734377530395878 0 0.017166468749107391 0.00049960920597219333 0 0.017282786855417537 0.00057844055054798139 0 0.017063099533917367 0.00054612738387126462 0 0.017169133299495033 0.00061488804418963715 0 0.017166468749107391 0.00049960920597219333 0 0.017169133299495033 0.00061488804418963715 0 0.017166468749107391 0.00049960920597219333 0 0.017282786855417537 0.00057844055054798139 0 0.017835604306964726 0.00068074641362258961 0 0.017842372836107592 0.00078384371000256574 0 0.017963903222784634 0.00077462461155667413 0 0.017835604306964726 0.00068074641362258961 0 0.017842372836107592 0.00078384371000256574 0 0.017698238499842811 0.000688274099203935 0 0.017842372836107592 0.00078384371000256574 0 0.017698238499842811 0.000688274099203935 0 0.017678452506874099 0.00079210055403539461 0 0.017835604306964726 0.00068074641362258961 0 0.017698238499842811 0.000688274099203935 0 0.017707102977141471 0.00057997039525234677 0 0.017698238499842811 0.000688274099203935 0 0.017589737530861186 0.00072893237605927146 0 0.017536905681191331 0.00061546167817297793 0 0.017698238499842811 0.000688274099203935 0 0.017536905681191331 0.00061546167817297793 0 0.017707102977141471 0.00057997039525234677 0 0.017698238499842811 0.000688274099203935 0 0.017589737530861186 0.00072893237605927146 0 0.017678452506874099 0.00079210055403539461 0 0.017535056629942064 0.00080986747550416949 0 0.017589737530861186 0.00072893237605927146 0 0.017678452506874099 0.00079210055403539461 0 0.017535056629942064 0.00080986747550416949 0 0.017458927659724326 0.00069784765657334975 0 0.017589737530861186 0.00072893237605927146 0 0.017458927659724326 0.00069784765657334975 0 0.017589737530861186 0.00072893237605927146 0 0.017536905681191331 0.00061546167817297793 0 0.017397162369581009 0.00049802800235908002 0 0.017536905681191331 0.00061546167817297793 0 0.017519313877350843 0.00050925633318836387 0 0.017397162369581009 0.00049802800235908002 0 0.017519313877350843 0.00050925633318836387 0 0.017514813125925455 0.00041139008849513914 0 0.017519313877350843 0.00050925633318836387 0 0.017629131097402891 0.00048404005940327313 0 0.017514813125925455 0.00041139008849513914 0 0.017519313877350843 0.00050925633318836387 0 0.017629131097402891 0.00048404005940327313 0 0.017707102977141471 0.00057997039525234677 0 0.017536905681191331 0.00061546167817297793 0 0.017519313877350843 0.00050925633318836387 0 0.017707102977141471 0.00057997039525234677 0 0.017629131097402891 0.00048404005940327313 0 0.017707102977141471 0.00057997039525234677 0 0.017788983770490353 0.0004679413302019568 0 0.017707102977141471 0.00057997039525234677 0 0.017788983770490353 0.0004679413302019568 0 0.017841951242704938 0.00058298379787507582 0 0.017835604306964726 0.00068074641362258961 0 0.017707102977141471 0.00057997039525234677 0 0.017841951242704938 0.00058298379787507582 0 0.017724504213952573 0.00035559322297844042 0 0.017726594343912539 0.00025455371587081486 0 0.017874263601460421 0.0003562993979041258 0 0.017724504213952573 0.00035559322297844042 0 0.017619191360184749 0.00027553173418423568 0 0.017726594343912539 0.00025455371587081486 0 0.017788983770490353 0.0004679413302019568 0 0.017724504213952573 0.00035559322297844042 0 0.017626994872408968 0.00038804081977766885 0 0.017788983770490353 0.0004679413302019568 0 0.017724504213952573 0.00035559322297844042 0 0.017874263601460421 0.0003562993979041258 0 0.017629131097402891 0.00048404005940327313 0 0.017788983770490353 0.0004679413302019568 0 0.017626994872408968 0.00038804081977766885 0 0.017724504213952573 0.00035559322297844042 0 0.017626994872408968 0.00038804081977766885 0 0.017619191360184749 0.00027553173418423568 0 0.017626994872408968 0.00038804081977766885 0 0.017514290985988168 0.00030235370653253945 0 0.017514813125925455 0.00041139008849513914 0 0.017626994872408968 0.00038804081977766885 0 0.017514290985988168 0.00030235370653253945 0 0.017619191360184749 0.00027553173418423568 0 0.017629131097402891 0.00048404005940327313 0 0.017626994872408968 0.00038804081977766885 0 0.017514813125925455 0.00041139008849513914 0 0.017514290985988168 0.00030235370653253945 0 0.017514813125925455 0.00041139008849513914 0 0.017414189343450886 0.00035453470111474172 0 0.017514290985988168 0.00030235370653253945 0 0.017522335500328654 0.00018659000564628218 0 0.017404832440622322 0.0002096380542497914 0 0.017514290985988168 0.00030235370653253945 0 0.017414189343450886 0.00035453470111474172 0 0.017404832440622322 0.0002096380542497914 0 0.017522335500328654 0.00018659000564628218 0 0.017404832440622322 0.0002096380542497914 0 0.017454004011923211 0.00011455080546384973 0 0.017522335500328654 0.00018659000564628218 0 0.017611468441167403 0.00016532876440865217 0 0.017528086277999576 5.6283906841957548e-05 0 0.017514290985988168 0.00030235370653253945 0 0.017522335500328654 0.00018659000564628218 0 0.017619191360184749 0.00027553173418423568 0 0.017611468441167403 0.00016532876440865217 0 0.017726594343912539 0.00025455371587081486 0 0.017667200250223027 7.8130036550233813e-05 0 0.017619191360184749 0.00027553173418423568 0 0.017611468441167403 0.00016532876440865217 0 0.017726594343912539 0.00025455371587081486 0 0.017522335500328654 0.00018659000564628218 0 0.017619191360184749 0.00027553173418423568 0 0.017611468441167403 0.00016532876440865217 0 0.017194129972601065 0.00037278175318720215 0 0.01730395606259896 0.00037249309164733561 0 0.017279941093316528 0.00026382371242443688 0 0.01708131328596442 0.00044002789583892941 0 0.017194129972601065 0.00037278175318720215 0 0.017120314584280542 0.00029618538129401841 0 0.01708131328596442 0.00044002789583892941 0 0.017166468749107391 0.00049960920597219333 0 0.017194129972601065 0.00037278175318720215 0 0.017275407801249951 0.00046734377530395878 0 0.017166468749107391 0.00049960920597219333 0 0.017194129972601065 0.00037278175318720215 0 0.017275407801249951 0.00046734377530395878 0 0.017194129972601065 0.00037278175318720215 0 0.01730395606259896 0.00037249309164733561 0 0.017397162369581009 0.00049802800235908002 0 0.017275407801249951 0.00046734377530395878 0 0.01730395606259896 0.00037249309164733561 0 0.017397162369581009 0.00049802800235908002 0 0.017414189343450886 0.00035453470111474172 0 0.01730395606259896 0.00037249309164733561 0 0.017397162369581009 0.00049802800235908002 0 0.017514813125925455 0.00041139008849513914 0 0.017414189343450886 0.00035453470111474172 0 0.017414189343450886 0.00035453470111474172 0 0.01730395606259896 0.00037249309164733561 0 0.017279941093316528 0.00026382371242443688 0 0.017414189343450886 0.00035453470111474172 0 0.017279941093316528 0.00026382371242443688 0 0.017404832440622322 0.0002096380542497914 0 0.017404832440622322 0.0002096380542497914 0 0.017291391632152969 0.00014777980830649811 0 0.017371785432921009 8.8199389523857533e-05 0 0.017279941093316528 0.00026382371242443688 0 0.017404832440622322 0.0002096380542497914 0 0.017291391632152969 0.00014777980830649811 0 0.017194129972601065 0.00037278175318720215 0 0.017279941093316528 0.00026382371242443688 0 0.017120314584280542 0.00029618538129401841 0 0.017279941093316528 0.00026382371242443688 0 0.017120314584280542 0.00029618538129401841 0 0.01718850904436315 0.00017342488186507254 0 0.017279941093316528 0.00026382371242443688 0 0.01718850904436315 0.00017342488186507254 0 0.017291391632152969 0.00014777980830649811 0 0.017083691393745711 0.00019551504359033897 0 0.017120314584280542 0.00029618538129401841 0 0.01718850904436315 0.00017342488186507254 0 0.01718850904436315 0.00017342488186507254 0 0.017129337923344441 9.9069797549503798e-05 0 0.017219645746685448 8.4178639140849938e-05 0 0.017083691393745711 0.00019551504359033897 0 0.01718850904436315 0.00017342488186507254 0 0.017129337923344441 9.9069797549503798e-05 0 0.017129337923344441 9.9069797549503798e-05 0 0.017188983748061444 4.1967665259625247e-05 0 0.017219645746685448 8.4178639140849938e-05 0 0.017129337923344441 9.9069797549503798e-05 0 0.017188983748061444 4.1967665259625247e-05 0 0.017156489902281299 -2.0816217957967645e-05 0 0.017188983748061444 4.1967665259625247e-05 0 0.017219645746685448 8.4178639140849938e-05 0 0.017248433159821885 6.3273752501555605e-06 0 0.017219645746685448 8.4178639140849938e-05 0 0.017306377686823339 5.1673207231205122e-05 0 0.017248433159821885 6.3273752501555605e-06 0 0.01718850904436315 0.00017342488186507254 0 0.017219645746685448 8.4178639140849938e-05 0 0.017291391632152969 0.00014777980830649811 0 0.017219645746685448 8.4178639140849938e-05 0 0.017291391632152969 0.00014777980830649811 0 0.017306377686823339 5.1673207231205122e-05 0 0.017291391632152969 0.00014777980830649811 0 0.017371785432921009 8.8199389523857533e-05 0 0.017306377686823339 5.1673207231205122e-05 0 0.017404832440622322 0.0002096380542497914 0 0.017371785432921009 8.8199389523857533e-05 0 0.017454004011923211 0.00011455080546384973 0 0.017371785432921009 8.8199389523857533e-05 0 0.017358246663909688 1.1035143139523268e-05 0 0.017427553297849053 3.6844186089278784e-06 0 0.017371785432921009 8.8199389523857533e-05 0 0.017358246663909688 1.1035143139523268e-05 0 0.017306377686823339 5.1673207231205122e-05 0 0.017306377686823339 5.1673207231205122e-05 0 0.017311054490292792 -2.1534335758485404e-05 0 0.017248433159821885 6.3273752501555605e-06 0 0.017358246663909688 1.1035143139523268e-05 0 0.017306377686823339 5.1673207231205122e-05 0 0.017311054490292792 -2.1534335758485404e-05 0 0.017311054490292792 -2.1534335758485404e-05 0 0.017284466101389829 -4.9939818217346176e-05 0 0.017371994784936545 -5.9957962499316795e-05 0 0.017311054490292792 -2.1534335758485404e-05 0 0.017284466101389829 -4.9939818217346176e-05 0 0.017248433159821885 6.3273752501555605e-06 0 0.017284466101389829 -4.9939818217346176e-05 0 0.017156489902281299 -2.0816217957967645e-05 0 0.017332453342238902 -0.0001528433657972308 0 0.017358246663909688 1.1035143139523268e-05 0 0.017371994784936545 -5.9957962499316795e-05 0 0.017427553297849053 3.6844186089278784e-06 0 0.017358246663909688 1.1035143139523268e-05 0 0.017311054490292792 -2.1534335758485404e-05 0 0.017371994784936545 -5.9957962499316795e-05 0 0.017284466101389829 -4.9939818217346176e-05 0 0.017371994784936545 -5.9957962499316795e-05 0 0.017332453342238902 -0.0001528433657972308 0 0.017371994784936545 -5.9957962499316795e-05 0 0.017469626137263185 -8.3134579091510632e-05 0 0.017332453342238902 -0.0001528433657972308 0 0.016233382290519311 0.00054725458556149746 0 0.015549763022761419 0.00067919146937190798 0 0.014909268694729041 0.0015200266357498513 0 0.015190228509528586 0.0011236465916138591 0 0.014467130754423267 0.0016567010657464189 0 0.014909268694729041 0.0015200266357498513 0 0.015114772290268178 0.0014099003784521901 0 0.015072081329620672 0.0016564120981445872 0 0.015114772290268178 0.0014099003784521901 0 0.015284635793579224 0.0013300808750820543 0 0.015072081329620672 0.0016564120981445872 0 0.014909268694729041 0.0015200266357498513 0 0.015114772290268178 0.0014099003784521901 0 0.015190228509528586 0.0011236465916138591 0 0.015114772290268178 0.0014099003784521901 0 0.015284635793579224 0.0013300808750820543 0 0.015190228509528586 0.0011236465916138591 0 0.015284635793579224 0.0013300808750820543 0 0.015190228509528586 0.0011236465916138591 0 0.015453246922445827 0.0012326482395581171 0 0.017284466101389829 -4.9939818217346176e-05 0 0.017156489902281299 -2.0816217957967645e-05 0 0.017248433159821885 6.3273752501555605e-06 0 0.017188983748061444 4.1967665259625247e-05 0 0.017156489902281299 -2.0816217957967645e-05 0 0.017248433159821885 6.3273752501555605e-06 0 0.017667200250223027 7.8130036550233813e-05 0 0.017539157010251057 -6.3326910675199879e-05 0 0.017700646099100714 -6.9390203685528565e-05 0 0.017611468441167403 0.00016532876440865217 0 0.017667200250223027 7.8130036550233813e-05 0 0.017528086277999576 5.6283906841957548e-05 0 0.017528086277999576 5.6283906841957548e-05 0 0.017494451608142957 -2.5607130261585095e-05 0 0.017539157010251057 -6.3326910675199879e-05 0 0.017667200250223027 7.8130036550233813e-05 0 0.017528086277999576 5.6283906841957548e-05 0 0.017539157010251057 -6.3326910675199879e-05 0 0.017528086277999576 5.6283906841957548e-05 0 0.017427553297849053 3.6844186089278784e-06 0 0.017494451608142957 -2.5607130261585095e-05 0 0.017522335500328654 0.00018659000564628218 0 0.017528086277999576 5.6283906841957548e-05 0 0.017454004011923211 0.00011455080546384973 0 0.017371785432921009 8.8199389523857533e-05 0 0.017454004011923211 0.00011455080546384973 0 0.017427553297849053 3.6844186089278784e-06 0 0.017528086277999576 5.6283906841957548e-05 0 0.017454004011923211 0.00011455080546384973 0 0.017427553297849053 3.6844186089278784e-06 0 0.017371994784936545 -5.9957962499316795e-05 0 0.017427553297849053 3.6844186089278784e-06 0 0.017469626137263185 -8.3134579091510632e-05 0 0.017420139518644205 -7.7200250965323385e-05 0 0.015549763022761419 0.00067919146937190798 0 0.017099124620709266 -0.00018091814648949064 0 0.017395159883649317 -0.00025813394550780569 0 0.017251229428634079 -0.00043537605577642901 0 0.017427553297849053 3.6844186089278784e-06 0 0.017469626137263185 -8.3134579091510632e-05 0 0.017494451608142957 -2.5607130261585095e-05 0 0.017469626137263185 -8.3134579091510632e-05 0 0.017494451608142957 -2.5607130261585095e-05 0 0.017539157010251057 -6.3326910675199879e-05 0 0.017420139518644205 -7.7200250965323385e-05 0 0.017455105640810417 -8.6046416056506409e-05 0 0.017099124620709266 -0.00018091814648949064 0 0.017395159883649317 -0.00025813394550780569 0 0.017539157010251057 -6.3326910675199879e-05 0 0.017395159883649317 -0.00025813394550780569 0 0.017539157010251057 -6.3326910675199879e-05 0 0.01758969745671651 -0.00021305698228165775 0 0.017395159883649317 -0.00025813394550780569 0 0.01748835204400305 -0.00036077796361550917 0 0.01758969745671651 -0.00021305698228165775 0 0.017539157010251057 -6.3326910675199879e-05 0 0.017700646099100714 -6.9390203685528565e-05 0 0.01758969745671651 -0.00021305698228165775 0 0.017417400733946691 -0.00039137407646202546 0 0.017603211687592449 -0.00035769622944578855 0 0.017609082152852 1.2255869465776349e-05 0 0.017417400733946691 -0.00039137407646202546 0 0.01748835204400305 -0.00036077796361550917 0 0.017603211687592449 -0.00035769622944578855 0 0.017395159883649317 -0.00025813394550780569 0 0.01748835204400305 -0.00036077796361550917 0 0.017251229428634079 -0.00043537605577642901 0 0.017288610462743804 -0.00039535201109158188 0 0.018050363886314983 -0.00020422743479502084 0 0.017603211687592449 -0.00035769622944578855 0 0.017609082152852 1.2255869465776349e-05 0 0.017836160931231759 -0.00029693991767641882 0 0.012214128500794884 0.0012640400017965901 0 0.012841357766195017 0.001086689899103788 0 0.017099124620709266 -0.00018091814648949064 0 0.016630027352102436 -0.00038207753287023354 0 0.016802004883801423 -0.00051181077038991985 0 0.018050363886314983 -0.00020422743479502084 0 0.012841357766195017 0.001086689899103788 0 0.017099124620709266 -0.00018091814648949064 0 0.017251229428634079 -0.00043537605577642901 0 0.016802004883801423 -0.00051181077038991985 0 0.0071458265091019005 0.0023260151802773159 0 0.006554985040294066 0.0027630974812303381 0 0.0066557222569036505 0.0019591010721343874 0 0.012214128500794884 0.0012640400017965901 0 0.012579352856075384 0.001259899464213359 0 0.017609082152852 1.2255869465776349e-05 0 0.01712786524880024 7.1623510665176759e-05 0 0.016882822992562076 0.0007938530129745397 0 0.017417400733946691 -0.00039137407646202546 0 0.017609082152852 1.2255869465776349e-05 0 0.01712786524880024 7.1623510665176759e-05 0 0.015284635793579224 0.0013300808750820543 0 0.015139945391857023 0.001946952599878096 0 0.015072081329620672 0.0016564120981445872 0 0.015284635793579224 0.0013300808750820543 0 0.015152002541936329 0.0020376790243043646 0 0.015406751328636364 0.0017197501063003838 0 0.015463996688785685 0.0014303540348598047 0 0.011347503267688198 0.0014087789423229957 0 0.011526561781953121 0.00010178064684320846 0 0.011525230205897198 0.00011525439207707392 0 0.011466100667908111 7.2972521939486441e-05 0 0.010094477775168127 0.0022239594788444816 0 0.0097084955182231182 0.0020222331705653089 0 0.0096892998967776089 0.0021579364406768705 0 0.010042282030983972 0.0016065575723523159 0 0.011347503267688198 0.0014087789423229957 0 0.010042282030983972 0.0016065575723523159 0 0.0092437338449971786 0.0016117241005680629 0 0.014978356334425003 0.0019216925132202159 0 0.015139945391857023 0.001946952599878096 0 0.015072081329620672 0.0016564120981445872 0 0.0092437338449971786 0.0016117241005680629 0 0.011347503267688198 0.0014087789423229957 0 0.014909268694729041 0.0015200266357498513 0 0.015072081329620672 0.0016564120981445872 0 0.014856903907067232 0.0016886958999725369 0 0.014978356334425003 0.0019216925132202159 0 0.015072081329620672 0.0016564120981445872 0 0.014856903907067232 0.0016886958999725369 0 0.010042282030983972 0.0016065575723523159 0 0.015549763022761419 0.00067919146937190798 0 0.014978356334425003 0.0019216925132202159 0 0.014856903907067232 0.0016886958999725369 0 0.014467130754423267 0.0016567010657464189 0 0.010907216104091634 0.00071651350847045953 0 0.013249021347187934 0.0019242155214592594 0 0.01415356764878087 0.001231891397409976 0 0.010042282030983972 0.0016065575723523159 0 0.012841357766195017 0.001086689899103788 0 0.0058430971643431895 0.0026453240826916054 0 0.006554985040294066 0.0027630974812303381 0 0.0060885138810170642 0.0021930151952589748 0 0.014909268694729041 0.0015200266357498513 0 0.014856903907067232 0.0016886958999725369 0 0.014467130754423267 0.0016567010657464189 0 0.015549763022761419 0.00067919146937190798 0 0.012841357766195017 0.001086689899103788 0 0.006554985040294066 0.0027630974812303381 0 0.0060885138810170642 0.0021930151952589748 0 0.0066557222569036505 0.0019591010721343874 0 0.0056853943983048334 0.002563728692179914 0 0.0060885138810170642 0.0021930151952589748 0 0.0057295962348007917 0.0017811380249055132 0 0.0092437338449971786 0.0016117241005680629 0 0.0051680001019170215 0.0016416165794612978 0 0.0058430971643431895 0.0026453240826916054 0 0.0056853943983048334 0.002563728692179914 0 0.0060885138810170642 0.0021930151952589748 0 0.011526561781953121 0.00010178064684320846 0 0.011466100667908111 7.2972521939486441e-05 0 0.011334751325106172 -5.5155078629436176e-05 0 0.0092437338449971786 0.0016117241005680629 0 0.007910494450856875 0.00050589574684096735 0 0.0053493837316801124 0.0015966875188554949 0 0.0048908516057690433 0.0013646918334154572 0 0.0053670630748855535 0.0011774184024700622 0 0.011466100667908111 7.2972521939486441e-05 0 0.011458190942260593 8.875953641708143e-05 0 0.011334751325106172 -5.5155078629436176e-05 0 0.01269906094730463 0.00047729481413152843 0 0.013852372084523602 0.00093002175592015314 0 0.015510099491895208 0.0020916096164091155 0 0.015638319252028902 0.0014263143659196008 0 0.016067174948200584 0.0013290019679236945 0 0.015510099491895208 0.0020916096164091155 0 0.015406751328636364 0.0017197501063003838 0 0.015638319252028902 0.0014263143659196008 0 0.011347503267688198 0.0014087789423229957 0 0.01269906094730463 0.00047729481413152843 0 0.01269906094730463 0.00047729481413152843 0 0.010865923276116475 -2.8315473331934709e-05 0 0.011525230205897198 0.00011525439207707392 0 0.011466100667908111 7.2972521939486441e-05 0 0.011456016939767461 8.9908389095961404e-05 0 0.015152002541936329 0.0020376790243043646 0 0.015510099491895208 0.0020916096164091155 0 0.015406751328636364 0.0017197501063003838 0 0.012599209467268307 0.00049888357702888972 0 0.01269906094730463 0.00047729481413152843 0 0.011646445966161566 0.00011151338095166386 0 0.011289345352238888 6.2808377245301267e-05 0 0.011428778942394772 0.00042850450801380183 0 0.011289345352238888 6.2808377245301267e-05 0 0.011210919281808819 0.00031929179471974387 0 0.011428778942394772 0.00042850450801380183 0 0.011334751325106172 -5.5155078629436176e-05 0 0.011289345352238888 6.2808377245301267e-05 0 0.011045251992970564 5.7534236548623241e-05 0 0.011458190942260593 8.875953641708143e-05 0 0.011334751325106172 -5.5155078629436176e-05 0 0.011289345352238888 6.2808377245301267e-05 0 0.011334751325106172 -5.5155078629436176e-05 0 0.011045251992970564 5.7534236548623241e-05 0 0.010974339706959062 -0.00027574412901386157 0 0.010695466123659854 -0.00012693837731552615 0 0.011045251992970564 5.7534236548623241e-05 0 0.010764186734001303 0.00016289506153731889 0 0.010695466123659854 -0.00012693837731552615 0 0.011045251992970564 5.7534236548623241e-05 0 0.010974339706959062 -0.00027574412901386157 0 0.010678940242974 0.00041244130755126038 0 0.010764186734001303 0.00016289506153731889 0 0.010968607654945457 0.0003894141247594837 0 0.011045251992970564 5.7534236548623241e-05 0 0.010764186734001303 0.00016289506153731889 0 0.010968607654945457 0.0003894141247594837 0 0.011289345352238888 6.2808377245301267e-05 0 0.011045251992970564 5.7534236548623241e-05 0 0.011210919281808819 0.00031929179471974387 0 0.011045251992970564 5.7534236548623241e-05 0 0.011210919281808819 0.00031929179471974387 0 0.010968607654945457 0.0003894141247594837 0 0.011210919281808819 0.00031929179471974387 0 0.010968607654945457 0.0003894141247594837 0 0.011249416774491237 0.0007197809427410269 0 0.010678940242974 0.00041244130755126038 0 0.010968607654945457 0.0003894141247594837 0 0.010886390762560986 0.00071486161886748299 0 0.010968607654945457 0.0003894141247594837 0 0.010886390762560986 0.00071486161886748299 0 0.011249416774491237 0.0007197809427410269 0 0.013812443953457612 0.00073986680794304259 0 0.013852372084523602 0.00093002175592015314 0 0.016568721599550168 0.00065909834366235064 0 0.016027309052304543 0.00061354689125997519 0 0.016067174948200584 0.0013290019679236945 0 0.015190228509528586 0.0011236465916138591 0 0.016027309052304543 0.00061354689125997519 0 0.015698109397225518 0.0010491681835063922 0 0.016233382290519311 0.00054725458556149746 0 0.016480688144455441 0.00039390074262249798 0 0.017129337923344441 9.9069797549503798e-05 0 0.017156489902281299 -2.0816217957967645e-05 0 0.016960794477346681 0.00013444911710871286 0 0.016027309052304543 0.00061354689125997519 0 0.015698109397225518 0.0010491681835063922 0 0.016067174948200584 0.0013290019679236945 0 0.017083691393745711 0.00019551504359033897 0 0.017129337923344441 9.9069797549503798e-05 0 0.016960794477346681 0.00013444911710871286 0 0.015698109397225518 0.0010491681835063922 0 0.015638319252028902 0.0014263143659196008 0 0.016067174948200584 0.0013290019679236945 0 0.015698109397225518 0.0010491681835063922 0 0.015453246922445827 0.0012326482395581171 0 0.015638319252028902 0.0014263143659196008 0 0.015190228509528586 0.0011236465916138591 0 0.015698109397225518 0.0010491681835063922 0 0.015453246922445827 0.0012326482395581171 0 0.015284635793579224 0.0013300808750820543 0 0.015453246922445827 0.0012326482395581171 0 0.015638319252028902 0.0014263143659196008 0 0.015284635793579224 0.0013300808750820543 0 0.015406751328636364 0.0017197501063003838 0 0.015638319252028902 0.0014263143659196008 0 0.011210919281808819 0.00031929179471974387 0 0.011249416774491237 0.0007197809427410269 0 0.011428778942394772 0.00042850450801380183 0 0.018897964968721155 -0.00038341939996095018 0 0.019113374008738429 -0.00041195464209987172 0 0.018846637662163997 -0.00055525017988662022 0 0.018906571595862773 -6.8329641580931586e-05 0 0.018528614662400918 -0.00016430839415468 0 0.018897964968721155 -0.00038341939996095018 0 0.018985000291975005 -0.00019931677954990263 0 0.019113374008738429 -0.00041195464209987172 0 0.018897964968721155 -0.00038341939996095018 0 0.018649632838578456 -0.0003672196531309533 0 0.018985000291975005 -0.00019931677954990263 0 0.018897964968721155 -0.00038341939996095018 0 0.018649632838578456 -0.0003672196531309533 0 0.018846637662163997 -0.00055525017988662022 0 0.018671695478173336 -0.00035449510135574614 0 0.018694590568516335 4.6726302138797996e-05 0 0.018649632838578456 -0.0003672196531309533 0 0.018708526949071845 -3.1369578321862584e-05 0 0.018985000291975005 -0.00019931677954990263 0 0.018626205420575689 -0.00018399950484157036 0 0.018676949706972694 8.3332793319716283e-05 0 0.018523478485098072 -9.8089042814346143e-06 0 0.018985000291975005 -0.00019931677954990263 0 0.019224085311915724 -8.4166643011490699e-05 0 0.019113374008738429 -0.00041195464209987172 0 0.018708526949071845 -3.1369578321862584e-05 0 0.018985000291975005 -0.00019931677954990263 0 0.01898746190833852 3.8939474880660993e-05 0 0.018985000291975005 -0.00019931677954990263 0 0.019069536401217672 -7.7305590072600786e-05 0 0.01898746190833852 3.8939474880660993e-05 0 0.018985000291975005 -0.00019931677954990263 0 0.019069536401217672 -7.7305590072600786e-05 0 0.019224085311915724 -8.4166643011490699e-05 0 0.019224085311915724 -8.4166643011490699e-05 0 0.01929240801839896 -0.00016617993503594618 0 0.019277439022446177 -0.00021399443374039845 0 0.019247262241204603 -0.00016450651632291677 0 0.018906571595862773 -6.8329641580931586e-05 0 0.019224085311915724 -8.4166643011490699e-05 0 0.01942349490637834 -7.8852150928257912e-05 0 0.019245775771457325 6.3050669961562194e-05 0 0.019069536401217672 -7.7305590072600786e-05 0 0.019224085311915724 -8.4166643011490699e-05 0 0.019245775771457325 6.3050669961562194e-05 0 0.019224085311915724 -8.4166643011490699e-05 0 0.01929240801839896 -0.00016617993503594618 0 0.01942349490637834 -7.8852150928257912e-05 0 0.01929240801839896 -0.00016617993503594618 0 0.01942349490637834 -7.8852150928257912e-05 0 0.019376385957498594 -0.00022500722543612877 0 0.01942349490637834 -7.8852150928257912e-05 0 0.019376385957498594 -0.00022500722543612877 0 0.019458219290877855 -0.00020955747820126694 0 0.019376385957498594 -0.00022500722543612877 0 0.019380900238467887 -0.00027393073874472157 0 0.019409315182519538 -0.00036287994292173037 0 0.01929240801839896 -0.00016617993503594618 0 0.019376385957498594 -0.00022500722543612877 0 0.019322909677704215 -0.00022801855678952497 0 0.019376385957498594 -0.00022500722543612877 0 0.019322909677704215 -0.00022801855678952497 0 0.019380900238467887 -0.00027393073874472157 0 0.019224085311915724 -8.4166643011490699e-05 0 0.019277439022446177 -0.00021399443374039845 0 0.019270446333711146 -0.00022296337300359845 0 0.019277439022446177 -0.00021399443374039845 0 0.019297447558451922 -0.00020695978594676532 0 0.019299590494979757 -0.00021902612165613172 0 0.018961048349530142 -5.8154749700208563e-05 0 0.018906571595862773 -6.8329641580931586e-05 0 0.01929240801839896 -0.00016617993503594618 0 0.019297447558451922 -0.00020695978594676532 0 0.019322909677704215 -0.00022801855678952497 0 0.01929240801839896 -0.00016617993503594618 0 0.019277439022446177 -0.00021399443374039845 0 0.019297447558451922 -0.00020695978594676532 0 0.019322909677704215 -0.00022801855678952497 0 0.019305208047962309 -0.00022800287112004046 0 0.019299590494979757 -0.00021902612165613172 0 0.019322909677704215 -0.00022801855678952497 0 0.019305208047962309 -0.00022800287112004046 0 0.019341525071153599 -0.00024923480580910947 0 0.019297447558451922 -0.00020695978594676532 0 0.019322909677704215 -0.00022801855678952497 0 0.019299590494979757 -0.00021902612165613172 0 0.019277439022446177 -0.00021399443374039845 0 0.019305208047962309 -0.00022800287112004046 0 0.019299590494979757 -0.00021902612165613172 0 0.019277439022446177 -0.00021399443374039845 0 0.019305208047962309 -0.00022800287112004046 0 0.019285323648500791 -0.00021642586181376731 0 0.019305208047962309 -0.00022800287112004046 0 0.019285323648500791 -0.00021642586181376731 0 0.019306401992247733 -0.00024350445280880515 0 0.019305208047962309 -0.00022800287112004046 0 0.019341525071153599 -0.00024923480580910947 0 0.019306401992247733 -0.00024350445280880515 0 0.019322909677704215 -0.00022801855678952497 0 0.019341525071153599 -0.00024923480580910947 0 0.019380900238467887 -0.00027393073874472157 0 0.019341525071153599 -0.00024923480580910947 0 0.019382123900415684 -0.00025643003622635046 0 0.019348235997144927 -0.00025571812104345753 0 0.019341525071153599 -0.00024923480580910947 0 0.019348235997144927 -0.00025571812104345753 0 0.019306401992247733 -0.00024350445280880515 0 0.019380900238467887 -0.00027393073874472157 0 0.019401631318574461 -0.00025431407179667272 0 0.019409315182519538 -0.00036287994292173037 0 0.019341525071153599 -0.00024923480580910947 0 0.019380900238467887 -0.00027393073874472157 0 0.019382123900415684 -0.00025643003622635046 0 0.019380900238467887 -0.00027393073874472157 0 0.019382123900415684 -0.00025643003622635046 0 0.019401631318574461 -0.00025431407179667272 0 0.019382123900415684 -0.00025643003622635046 0 0.019401631318574461 -0.00025431407179667272 0 0.019413888557155364 -0.00025101740905404988 0 0.019447073406082167 -0.00010463593445433179 0 0.018342372502546118 0.00010873444080595453 0 0.019413888557155364 -0.00025101740905404988 0 0.019348235997144927 -0.00025571812104345753 0 0.019282468241523177 -0.00030044547484844538 0 0.019382123900415684 -0.00025643003622635046 0 0.019413888557155364 -0.00025101740905404988 0 0.019348235997144927 -0.00025571812104345753 0 0.018262906280413604 -0.00018253809236448479 0 0.018347340317440113 8.97146404481743e-05 0 0.018113540626213613 -5.0924016474543371e-07 0 0.019348235997144927 -0.00025571812104345753 0 0.019282468241523177 -0.00030044547484844538 0 0.019306401992247733 -0.00024350445280880515 0 0.018342372502546118 0.00010873444080595453 0 0.018826206706109534 -9.3264561201185356e-05 0 0.01843284207866119 0.00035907799273760839 0 0.018347340317440113 8.97146404481743e-05 0 0.018176036793790408 0.00021828485585268664 0 0.018906571595862773 -6.8329641580931586e-05 0 0.018826206706109534 -9.3264561201185356e-05 0 0.018347340317440113 8.97146404481743e-05 0 0.018176036793790408 0.00021828485585268664 0 0.018113540626213613 -5.0924016474543371e-07 0 0.018176036793790408 0.00021828485585268664 0 0.018113540626213613 -5.0924016474543371e-07 0 0.017917253219209887 7.5369359217171758e-05 0 0.018649632838578456 -0.0003672196531309533 0 0.018846637662163997 -0.00055525017988662022 0 0.018585797926220775 -0.00069766245428498034 0 0.018671695478173336 -0.00035449510135574614 0 0.017922608747422221 -0.00012145257572824248 0 0.018528614662400918 -0.00016430839415468 0 0.017922608747422221 -0.00012145257572824248 0 0.018262906280413604 -0.00018253809236448479 0 0.018113540626213613 -5.0924016474543371e-07 0 0.017862380666219313 -0.00020484779466236637 0 0.018342372502546118 0.00010873444080595453 0 0.016958499761218528 0.00028874480686139103 0 0.018113540626213613 -5.0924016474543371e-07 0 0.017862380666219313 -0.00020484779466236637 0 0.017917253219209887 7.5369359217171758e-05 0 0.016958499761218528 0.00028874480686139103 0 0.017922608747422221 -0.00012145257572824248 0 0.017535154803156466 -0.00010186399873391219 0 0.017922608747422221 -0.00012145257572824248 0 0.016715264135107384 0.00049051351714802247 0 0.016719501213968507 0.00048778817040429876 0 0.016725063775607823 0.00048100078993347739 0 0.016715264135107384 0.00049051351714802247 0 0.016712679364999518 0.00049480077359080111 0 0.016719501213968507 0.00048778817040429876 0 0.016958499761218528 0.00028874480686139103 0 0.016690142769172772 0.00040899808278538856 0 0.017535154803156466 -0.00010186399873391219 0 0.016823538662879983 0.00029734410759435774 0 0.016712679364999518 0.00049480077359080111 0 0.016719501213968507 0.00048778817040429876 0 0.016740343481016412 0.00050086323703298367 0 0.018302189015702738 -0.00065389476540300066 0 0.018031574202643591 -0.00056097261082568937 0 0.01800059263240714 -0.00083586487151267156 0 0.018302189015702738 -0.00065389476540300066 0 0.018292331001477206 -0.00041009489308864471 0 0.018031574202643591 -0.00056097261082568937 0 0.018292331001477206 -0.00041009489308864471 0 0.018031574202643591 -0.00056097261082568937 0 0.018098551645927392 -0.0002974653363337361 0 0.018292331001477206 -0.00041009489308864471 0 0.018577060172451303 -0.00048403045319712863 0 0.018443805586291478 -0.00027246213378599293 0 0.018302189015702738 -0.00065389476540300066 0 0.018292331001477206 -0.00041009489308864471 0 0.018577060172451303 -0.00048403045319712863 0 0.017417400733946691 -0.00039137407646202546 0 0.01712786524880024 7.1623510665176759e-05 0 0.016498555728576138 -3.5145431152952997e-05 0 0.01712786524880024 7.1623510665176759e-05 0 0.016498555728576138 -3.5145431152952997e-05 0 0.016882822992562076 0.0007938530129745397 0 0.016498555728576138 -3.5145431152952997e-05 0 0.016882822992562076 0.0007938530129745397 0 0.016229981395270335 0.0005871312425210967 0 0.017757543165165434 -0.00066146330954055187 0 0.018031574202643591 -0.00056097261082568937 0 0.017863527653298232 -0.00050460912383227825 0 0.017757543165165434 -0.00066146330954055187 0 0.018031574202643591 -0.00056097261082568937 0 0.01800059263240714 -0.00083586487151267156 0 0.016498555728576138 -3.5145431152952997e-05 0 0.016229981395270335 0.0005871312425210967 0 0.015512386776759786 0.00060212888115380992 0 0.017145859171044279 -0.00035451573877508745 0 0.016823538662879983 0.00029734410759435774 0 0.018031574202643591 -0.00056097261082568937 0 0.017891814772875065 -0.00034712982285377991 0 0.018098551645927392 -0.0002974653363337361 0 0.018031574202643591 -0.00056097261082568937 0 0.017891814772875065 -0.00034712982285377991 0 0.017863527653298232 -0.00050460912383227825 0 0.017757543165165434 -0.00066146330954055187 0 0.017863527653298232 -0.00050460912383227825 0 0.01768377687637078 -0.0004374591903070954 0 0.017891814772875065 -0.00034712982285377991 0 0.017863527653298232 -0.00050460912383227825 0 0.01768377687637078 -0.0004374591903070954 0 0.017891814772875065 -0.00034712982285377991 0 0.01767980789635033 -0.00032139656825655807 0 0.01768377687637078 -0.0004374591903070954 0 0.017417400733946691 -0.00039137407646202546 0 0.01748835204400305 -0.00036077796361550917 0 0.01768377687637078 -0.0004374591903070954 0 0.01748835204400305 -0.00036077796361550917 0 0.01767980789635033 -0.00032139656825655807 0 0.01768377687637078 -0.0004374591903070954 0 0.01748835204400305 -0.00036077796361550917 0 0.01767980789635033 -0.00032139656825655807 0 0.01758969745671651 -0.00021305698228165775 0 0.017417400733946691 -0.00039137407646202546 0 0.017757543165165434 -0.00066146330954055187 0 0.01768377687637078 -0.0004374591903070954 0 0.017342641121128793 -0.00038902463404445666 0 0.017145859171044279 -0.00035451573877508745 0 0.017700646099100714 -6.9390203685528565e-05 0 0.01758969745671651 -0.00021305698228165775 0 0.017761512819544426 -0.00021537153197896138 0 0.01767980789635033 -0.00032139656825655807 0 0.01758969745671651 -0.00021305698228165775 0 0.017761512819544426 -0.00021537153197896138 0 0.017891814772875065 -0.00034712982285377991 0 0.01767980789635033 -0.00032139656825655807 0 0.017761512819544426 -0.00021537153197896138 0 0.017700646099100714 -6.9390203685528565e-05 0 0.017761512819544426 -0.00021537153197896138 0 0.01783877729193745 -0.00010179111415761128 0 0.017761512819544426 -0.00021537153197896138 0 0.01783877729193745 -0.00010179111415761128 0 0.017952834810779039 -0.00018479650044159543 0 0.01783877729193745 -0.00010179111415761128 0 0.017952834810779039 -0.00018479650044159543 0 0.017970434084916973 -3.4858588242474944e-05 0 0.017891814772875065 -0.00034712982285377991 0 0.017952834810779039 -0.00018479650044159543 0 0.018098551645927392 -0.0002974653363337361 0 0.017891814772875065 -0.00034712982285377991 0 0.017761512819544426 -0.00021537153197896138 0 0.017952834810779039 -0.00018479650044159543 0 0.017952834810779039 -0.00018479650044159543 0 0.018098551645927392 -0.0002974653363337361 0 0.01811460597472702 -0.00012133578905353435 0 0.017952834810779039 -0.00018479650044159543 0 0.01811460597472702 -0.00012133578905353435 0 0.017970434084916973 -3.4858588242474944e-05 0 0.01811460597472702 -0.00012133578905353435 0 0.018121995055860082 3.7830924266824855e-05 0 0.017970434084916973 -3.4858588242474944e-05 0 0.017967296213380821 0.0001109016008282025 0 0.017970434084916973 -3.4858588242474944e-05 0 0.017830361628758562 2.9072250530936897e-05 0 0.018121995055860082 3.7830924266824855e-05 0 0.017967296213380821 0.0001109016008282025 0 0.017970434084916973 -3.4858588242474944e-05 0 0.017700646099100714 -6.9390203685528565e-05 0 0.01783877729193745 -0.00010179111415761128 0 0.017830361628758562 2.9072250530936897e-05 0 0.01783877729193745 -0.00010179111415761128 0 0.017970434084916973 -3.4858588242474944e-05 0 0.017830361628758562 2.9072250530936897e-05 0 0.017967296213380821 0.0001109016008282025 0 0.017830361628758562 2.9072250530936897e-05 0 0.017835272380775716 0.00018250174314295533 0 0.017667200250223027 7.8130036550233813e-05 0 0.017830361628758562 2.9072250530936897e-05 0 0.017835272380775716 0.00018250174314295533 0 0.017667200250223027 7.8130036550233813e-05 0 0.017700646099100714 -6.9390203685528565e-05 0 0.017830361628758562 2.9072250530936897e-05 0 0.018626205420575689 -0.00018399950484157036 0 0.018577060172451303 -0.00048403045319712863 0 0.018443805586291478 -0.00027246213378599293 0 0.018626205420575689 -0.00018399950484157036 0 0.018443805586291478 -0.00027246213378599293 0 0.018386437895312933 -0.00010015279193758846 0 0.018443805586291478 -0.00027246213378599293 0 0.018265973750577456 -0.0002034171807595372 0 0.018386437895312933 -0.00010015279193758846 0 0.018292331001477206 -0.00041009489308864471 0 0.018443805586291478 -0.00027246213378599293 0 0.018265973750577456 -0.0002034171807595372 0 0.018098551645927392 -0.0002974653363337361 0 0.01811460597472702 -0.00012133578905353435 0 0.018265973750577456 -0.0002034171807595372 0 0.018292331001477206 -0.00041009489308864471 0 0.018098551645927392 -0.0002974653363337361 0 0.018265973750577456 -0.0002034171807595372 0 0.01811460597472702 -0.00012133578905353435 0 0.018265973750577456 -0.0002034171807595372 0 0.018252663371256556 -3.5417842747041663e-05 0 0.018265973750577456 -0.0002034171807595372 0 0.018252663371256556 -3.5417842747041663e-05 0 0.018386437895312933 -0.00010015279193758846 0 0.018252663371256556 -3.5417842747041663e-05 0 0.018379444067999927 2.4111863717809385e-05 0 0.018386437895312933 -0.00010015279193758846 0 0.01811460597472702 -0.00012133578905353435 0 0.018121995055860082 3.7830924266824855e-05 0 0.018252663371256556 -3.5417842747041663e-05 0 0.018121995055860082 3.7830924266824855e-05 0 0.018252663371256556 -3.5417842747041663e-05 0 0.018271535237879059 0.00011000273761875332 0 0.018252663371256556 -3.5417842747041663e-05 0 0.018379444067999927 2.4111863717809385e-05 0 0.018271535237879059 0.00011000273761875332 0 0.018676949706972694 8.3332793319716283e-05 0 0.018523478485098072 -9.8089042814346143e-06 0 0.018458806720168155 0.00015101828366479762 0 0.018379444067999927 2.4111863717809385e-05 0 0.018523478485098072 -9.8089042814346143e-06 0 0.018458806720168155 0.00015101828366479762 0 0.018626205420575689 -0.00018399950484157036 0 0.018386437895312933 -0.00010015279193758846 0 0.018523478485098072 -9.8089042814346143e-06 0 0.018379444067999927 2.4111863717809385e-05 0 0.018386437895312933 -0.00010015279193758846 0 0.018523478485098072 -9.8089042814346143e-06 0 0.018676949706972694 8.3332793319716283e-05 0 0.018458806720168155 0.00015101828366479762 0 0.018599722818982187 0.00027889000513980667 0 0.018458806720168155 0.00015101828366479762 0 0.018599722818982187 0.00027889000513980667 0 0.018444492550774738 0.00031077559813794955 0 0.018458806720168155 0.00015101828366479762 0 0.018284526124779269 0.00025931003734479475 0 0.018444492550774738 0.00031077559813794955 0 0.018458806720168155 0.00015101828366479762 0 0.018271535237879059 0.00011000273761875332 0 0.018284526124779269 0.00025931003734479475 0 0.018379444067999927 2.4111863717809385e-05 0 0.018458806720168155 0.00015101828366479762 0 0.018271535237879059 0.00011000273761875332 0 0.018121995055860082 3.7830924266824855e-05 0 0.018271535237879059 0.00011000273761875332 0 0.018130071781413098 0.00018896338058424522 0 0.018271535237879059 0.00011000273761875332 0 0.018284526124779269 0.00025931003734479475 0 0.018130071781413098 0.00018896338058424522 0 0.018284526124779269 0.00025931003734479475 0 0.018130071781413098 0.00018896338058424522 0 0.018148241377334576 0.00034076879709686738 0 0.018284526124779269 0.00025931003734479475 0 0.018293384456581695 0.00040852622334345456 0 0.018444492550774738 0.00031077559813794955 0 0.018284526124779269 0.00025931003734479475 0 0.018293384456581695 0.00040852622334345456 0 0.018148241377334576 0.00034076879709686738 0 0.018293384456581695 0.00040852622334345456 0 0.018420591122592152 0.00046411675677823734 0 0.018444492550774738 0.00031077559813794955 0 0.018420591122592152 0.00046411675677823734 0 0.018444492550774738 0.00031077559813794955 0 0.018562618372383242 0.00046685427070702765 0 0.018599722818982187 0.00027889000513980667 0 0.018444492550774738 0.00031077559813794955 0 0.018562618372383242 0.00046685427070702765 0 0.017726594343912539 0.00025455371587081486 0 0.017667200250223027 7.8130036550233813e-05 0 0.017835272380775716 0.00018250174314295533 0 0.017835272380775716 0.00018250174314295533 0 0.017990056606143692 0.00026419931332067009 0 0.017874263601460421 0.0003562993979041258 0 0.017726594343912539 0.00025455371587081486 0 0.017835272380775716 0.00018250174314295533 0 0.017874263601460421 0.0003562993979041258 0 0.017967296213380821 0.0001109016008282025 0 0.017835272380775716 0.00018250174314295533 0 0.017990056606143692 0.00026419931332067009 0 0.017967296213380821 0.0001109016008282025 0 0.017990056606143692 0.00026419931332067009 0 0.018130071781413098 0.00018896338058424522 0 0.018121995055860082 3.7830924266824855e-05 0 0.017967296213380821 0.0001109016008282025 0 0.018130071781413098 0.00018896338058424522 0 0.017990056606143692 0.00026419931332067009 0 0.018130071781413098 0.00018896338058424522 0 0.018148241377334576 0.00034076879709686738 0 0.018148241377334576 0.00034076879709686738 0 0.018028348540693663 0.00041131188323158843 0 0.018151860693879151 0.00051365529433780436 0 0.018293384456581695 0.00040852622334345456 0 0.018148241377334576 0.00034076879709686738 0 0.018151860693879151 0.00051365529433780436 0 0.017990056606143692 0.00026419931332067009 0 0.018148241377334576 0.00034076879709686738 0 0.018028348540693663 0.00041131188323158843 0 0.017990056606143692 0.00026419931332067009 0 0.018028348540693663 0.00041131188323158843 0 0.017874263601460421 0.0003562993979041258 0 0.018028348540693663 0.00041131188323158843 0 0.017874263601460421 0.0003562993979041258 0 0.017969443318592414 0.0005313760403531148 0 0.017788983770490353 0.0004679413302019568 0 0.017874263601460421 0.0003562993979041258 0 0.017969443318592414 0.0005313760403531148 0 0.017841951242704938 0.00058298379787507582 0 0.017969443318592414 0.0005313760403531148 0 0.017952649060682738 0.00068628310998750531 0 0.017788983770490353 0.0004679413302019568 0 0.017841951242704938 0.00058298379787507582 0 0.017969443318592414 0.0005313760403531148 0 0.017969443318592414 0.0005313760403531148 0 0.018073435791842656 0.00068837184863610541 0 0.017952649060682738 0.00068628310998750531 0 0.017969443318592414 0.0005313760403531148 0 0.018151860693879151 0.00051365529433780436 0 0.018073435791842656 0.00068837184863610541 0 0.018028348540693663 0.00041131188323158843 0 0.017969443318592414 0.0005313760403531148 0 0.018151860693879151 0.00051365529433780436 0 0.018151860693879151 0.00051365529433780436 0 0.018212314574904014 0.00068131521371910344 0 0.018073435791842656 0.00068837184863610541 0 0.018212314574904014 0.00068131521371910344 0 0.018177421005277476 0.00081859642860337392 0 0.018073435791842656 0.00068837184863610541 0 0.018177421005277476 0.00081859642860337392 0 0.018073435791842656 0.00068837184863610541 0 0.018044201673999522 0.00084497110976022188 0 0.018073435791842656 0.00068837184863610541 0 0.018044201673999522 0.00084497110976022188 0 0.017952649060682738 0.00068628310998750531 0 0.018044201673999522 0.00084497110976022188 0 0.017963903222784634 0.00077462461155667413 0 0.017952649060682738 0.00068628310998750531 0 0.017835604306964726 0.00068074641362258961 0 0.017963903222784634 0.00077462461155667413 0 0.017952649060682738 0.00068628310998750531 0 0.017835604306964726 0.00068074641362258961 0 0.017841951242704938 0.00058298379787507582 0 0.017952649060682738 0.00068628310998750531 0 0.018462076641020442 0.00059393886362904373 0 0.018562618372383242 0.00046685427070702765 0 0.018600919303146207 0.00068989591872603486 0 0.018562618372383242 0.00046685427070702765 0 0.018600919303146207 0.00068989591872603486 0 0.018703921040525023 0.00053044971070727233 0 0.018420591122592152 0.00046411675677823734 0 0.018462076641020442 0.00059393886362904373 0 0.018562618372383242 0.00046685427070702765 0 0.018293384456581695 0.00040852622334345456 0 0.018420591122592152 0.00046411675677823734 0 0.018302386694571054 0.00057573396420171005 0 0.018420591122592152 0.00046411675677823734 0 0.018462076641020442 0.00059393886362904373 0 0.018302386694571054 0.00057573396420171005 0 0.018293384456581695 0.00040852622334345456 0 0.018151860693879151 0.00051365529433780436 0 0.018302386694571054 0.00057573396420171005 0 0.018151860693879151 0.00051365529433780436 0 0.018212314574904014 0.00068131521371910344 0 0.018302386694571054 0.00057573396420171005 0 0.018212314574904014 0.00068131521371910344 0 0.018177421005277476 0.00081859642860337392 0 0.018377155247964981 0.00079042727780741912 0 0.018462076641020442 0.00059393886362904373 0 0.018302386694571054 0.00057573396420171005 0 0.018377155247964981 0.00079042727780741912 0 0.018212314574904014 0.00068131521371910344 0 0.018302386694571054 0.00057573396420171005 0 0.018377155247964981 0.00079042727780741912 0 0.018377155247964981 0.00079042727780741912 0 0.018600919303146207 0.00068989591872603486 0 0.01867350996348319 0.0009194953659198066 0 0.018462076641020442 0.00059393886362904373 0 0.018377155247964981 0.00079042727780741912 0 0.018600919303146207 0.00068989591872603486 0 0.018600919303146207 0.00068989591872603486 0 0.018804419466437353 0.00065242030160328414 0 0.01867350996348319 0.0009194953659198066 0 0.018804419466437353 0.00065242030160328414 0 0.019024443878878885 0.0008505783762219047 0 0.01867350996348319 0.0009194953659198066 0 0.018804419466437353 0.00065242030160328414 0 0.019097514513439065 0.00057649417391976486 0 0.019024443878878885 0.0008505783762219047 0 0.018860744315796159 0.00043753415925004398 0 0.019086584565439445 0.00034229757189035173 0 0.019097514513439065 0.00057649417391976486 0 0.018804419466437353 0.00065242030160328414 0 0.018860744315796159 0.00043753415925004398 0 0.019097514513439065 0.00057649417391976486 0 0.018600919303146207 0.00068989591872603486 0 0.018804419466437353 0.00065242030160328414 0 0.018703921040525023 0.00053044971070727233 0 0.018804419466437353 0.00065242030160328414 0 0.018703921040525023 0.00053044971070727233 0 0.018860744315796159 0.00043753415925004398 0 0.018703921040525023 0.00053044971070727233 0 0.018698577832739007 0.00039924521778635623 0 0.018860744315796159 0.00043753415925004398 0 0.018562618372383242 0.00046685427070702765 0 0.018703921040525023 0.00053044971070727233 0 0.018698577832739007 0.00039924521778635623 0 0.018599722818982187 0.00027889000513980667 0 0.018562618372383242 0.00046685427070702765 0 0.018698577832739007 0.00039924521778635623 0 0.018599722818982187 0.00027889000513980667 0 0.018698577832739007 0.00039924521778635623 0 0.018754215119518095 0.00031527019118184703 0 0.018698577832739007 0.00039924521778635623 0 0.018754215119518095 0.00031527019118184703 0 0.018860744315796159 0.00043753415925004398 0 0.018860744315796159 0.00043753415925004398 0 0.018868403574692993 0.00028085642545056666 0 0.019086584565439445 0.00034229757189035173 0 0.018868403574692993 0.00028085642545056666 0 0.019147570690998334 0.00010539531802156708 0 0.019086584565439445 0.00034229757189035173 0 0.018754215119518095 0.00031527019118184703 0 0.018860744315796159 0.00043753415925004398 0 0.018868403574692993 0.00028085642545056666 0 0.018708526949071845 -3.1369578321862584e-05 0 0.018868403574692993 0.00028085642545056666 0 0.01898746190833852 3.8939474880660993e-05 0 0.018868403574692993 0.00028085642545056666 0 0.01898746190833852 3.8939474880660993e-05 0 0.019245775771457325 6.3050669961562194e-05 0 0.018890000640137673 0.00026535383293741882 0 0.019188045832451029 8.7699485875863918e-05 0 0.019069536401217672 -7.7305590072600786e-05 0 0.01898746190833852 3.8939474880660993e-05 0 0.019245775771457325 6.3050669961562194e-05 0 0.018708526949071845 -3.1369578321862584e-05 0 0.018754215119518095 0.00031527019118184703 0 0.018868403574692993 0.00028085642545056666 0 0.018676949706972694 8.3332793319716283e-05 0 0.018599722818982187 0.00027889000513980667 0 0.018754215119518095 0.00031527019118184703 0 0.018694590568516335 4.6726302138797996e-05 0 0.018747352034137767 0.00028970581159665329 0 0.019431224206580375 -6.8683094867315466e-05 0 0.019188045832451029 8.7699485875863918e-05 0 0.019433438431234122 -6.4772128390482974e-05 0 0.019147570690998334 0.00010539531802156708 0 0.019376311554915735 0.00025589408505856907 0 0.019147570690998334 0.00010539531802156708 0 0.019086584565439445 0.00034229757189035173 0 0.019376311554915735 0.00025589408505856907 0 0.019086584565439445 0.00034229757189035173 0 0.019376311554915735 0.00025589408505856907 0 0.019334907274855376 0.0004815314542334378 0 0.019334907274855376 0.0004815314542334378 0 0.019097514513439065 0.00057649417391976486 0 0.019456907144477478 0.00073917962974994454 0 0.019097514513439065 0.00057649417391976486 0 0.019024443878878885 0.0008505783762219047 0 0.019438057105093137 0.00072727077212877121 0 0.019086584565439445 0.00034229757189035173 0 0.019334907274855376 0.0004815314542334378 0 0.019097514513439065 0.00057649417391976486 0 0.018712299438525037 0.00061406014383003852 0 0.020475350235046885 0.00042410448541050049 0 0.019295099883156704 0.00095028561276057431 0 0.019024443878878885 0.0008505783762219047 0 0.019438057105093137 0.00072727077212877121 0 0.021128176296421726 0.0008605881785682468 0 0.020475350235046885 0.00042410448541050049 0 0.022815858536373836 0.00082112116590815566 0 0.023140222984064256 0.00084742838877674745 0 0.023003350452361584 0.00047042717673732344 0 0.022815858536373836 0.00082112116590815566 0 0.022997003513254802 0.001150372223328541 0 0.023140222984064256 0.00084742838877674745 0 0.022815858536373836 0.00082112116590815566 0 0.022997003513254802 0.001150372223328541 0 0.02263899491861638 0.0011479587344510396 0 0.019059467965771713 0.0010242474522556195 0 0.01915468821190127 0.0011539510268333316 0 0.018997290476804034 0.0011983472225549909 0 0.019295099883156704 0.00095028561276057431 0 0.019059467965771713 0.0010242474522556195 0 0.01915468821190127 0.0011539510268333316 0 0.021128176296421726 0.0008605881785682468 0 0.020836413906025922 0.0011749705705127781 0 0.019295099883156704 0.00095028561276057431 0 0.019059467965771713 0.0010242474522556195 0 0.019024443878878885 0.0008505783762219047 0 0.019024443878878885 0.0008505783762219047 0 0.01867350996348319 0.0009194953659198066 0 0.018888916388503232 0.00107529826049307 0 0.019059467965771713 0.0010242474522556195 0 0.019024443878878885 0.0008505783762219047 0 0.018888916388503232 0.00107529826049307 0 0.01867350996348319 0.0009194953659198066 0 0.018888916388503232 0.00107529826049307 0 0.018757823334669251 0.0011925911539084411 0 0.018888916388503232 0.00107529826049307 0 0.018897123361327359 0.0012105414848998404 0 0.018757823334669251 0.0011925911539084411 0 0.019059467965771713 0.0010242474522556195 0 0.018888916388503232 0.00107529826049307 0 0.018997290476804034 0.0011983472225549909 0 0.018888916388503232 0.00107529826049307 0 0.018997290476804034 0.0011983472225549909 0 0.018897123361327359 0.0012105414848998404 0 0.018997290476804034 0.0011983472225549909 0 0.018897123361327359 0.0012105414848998404 0 0.01895738070002646 0.0012683009348703324 0 0.018897123361327359 0.0012105414848998404 0 0.018906494894332528 0.0013168598902035622 0 0.01895738070002646 0.0012683009348703324 0 0.01971800894771009 0.00068284844641106979 0 0.019792598810274026 0.00053159647289118613 0 0.018997290476804034 0.0011983472225549909 0 0.01895738070002646 0.0012683009348703324 0 0.019029426824955013 0.0013479496871762152 0 0.018906494894332528 0.0013168598902035622 0 0.01895738070002646 0.0012683009348703324 0 0.019029426824955013 0.0013479496871762152 0 0.018757823334669251 0.0011925911539084411 0 0.018899349816443718 0.0013379945561853113 0 0.018645298808377432 0.0013079901597070696 0 0.018897123361327359 0.0012105414848998404 0 0.018906494894332528 0.0013168598902035622 0 0.018757823334669251 0.0011925911539084411 0 0.018906494894332528 0.0013168598902035622 0 0.018757823334669251 0.0011925911539084411 0 0.018899349816443718 0.0013379945561853113 0 0.019792598810274026 0.00053159647289118613 0 0.022611926117414943 0.00046476828085777948 0 0.019802353690002064 -0.00028379224356941068 0 0.020044353431312997 -0.00043862055499411753 0 0.019930505328893792 -3.5766815577760149e-05 0 0.019792598810274026 0.00053159647289118613 0 0.019083101341632991 0.00041994044956755326 0 0.019802353690002064 -0.00028379224356941068 0 0.020044353431312997 -0.00043862055499411753 0 0.019663509621914266 -0.0004568246660945802 0 0.021156097298472711 0.0013477095132657898 0 0.021649318106060245 0.0013607565696938167 0 0.021833171621724299 0.00025319029741803013 0 0.021304213094242509 0.0015087438629634053 0 0.023316809891687901 0.00070955682348764317 0 0.02262630301102745 0.0015014711346523564 0 0.022740469001912865 0.0016243808708293927 0 0.022534670047533092 0.0016728907011047765 0 0.021304213094242509 0.0015087438629634053 0 0.019792598810274026 0.00053159647289118613 0 0.018906494894332528 0.0013168598902035622 0 0.019029426824955013 0.0013479496871762152 0 0.018900545031554597 0.0013399192475776651 0 0.02262630301102745 0.0015014711346523564 0 0.022740469001912865 0.0016243808708293927 0 0.022812694420637637 0.0014805111982085048 0 0.021304213094242509 0.0015087438629634053 0 0.023233544947580429 0.0014940631993025028 0 0.023995227334156884 0.00095920545413109143 0 0.024069202422880989 0.00098387061604040898 0 0.022740469001912865 0.0016243808708293927 0 0.022812694420637637 0.0014805111982085048 0 0.023178928350719621 0.0015346550887356425 0 0.025048724193397039 0.00024637687220811121 0 0.025011506498174227 0.00028847687285693573 0 0.025011880372411477 0.00042882347081516561 0 0.022997003513254802 0.001150372223328541 0 0.022812694420637637 0.0014805111982085048 0 0.023178928350719621 0.0015346550887356425 0 0.022997003513254802 0.001150372223328541 0 0.02263899491861638 0.0011479587344510396 0 0.022812694420637637 0.0014805111982085048 0 0.01915468821190127 0.0011539510268333316 0 0.018997290476804034 0.0011983472225549909 0 0.019029426824955013 0.0013479496871762152 0 0.020836413906025922 0.0011749705705127781 0 0.021304213094242509 0.0015087438629634053 0 0.02263899491861638 0.0011479587344510396 0 0.022431996201322697 0.0014789937818562048 0 0.022812694420637637 0.0014805111982085048 0 0.018463526507634245 0.00060688115748069448 0 0.018202270018872285 0.00071257503325713252 0 0.018436298362490458 0.00046924648833015663 0 0.018202270018872285 0.00071257503325713252 0 0.018317320407570409 0.00075054440781566352 0 0.018127776094415182 0.00085580060510049465 0 0.018463526507634245 0.00060688115748069448 0 0.018202270018872285 0.00071257503325713252 0 0.018317320407570409 0.00075054440781566352 0 0.018044201673999522 0.00084497110976022188 0 0.018038382964854986 0.0010850673932840703 0 0.01813606200646966 0.00094984046144263917 0 0.018044201673999522 0.00084497110976022188 0 0.018202270018872285 0.00071257503325713252 0 0.018127776094415182 0.00085580060510049465 0 0.018069342023490902 0.00082490181801901348 0 0.018075592695561721 0.00098163080152093257 0 0.017842372836107592 0.00078384371000256574 0 0.017963903222784634 0.00077462461155667413 0 0.018127776094415182 0.00085580060510049465 0 0.018044201673999522 0.00084497110976022188 0 0.017963903222784634 0.00077462461155667413 0 0.018127776094415182 0.00085580060510049465 0 0.018177421005277476 0.00081859642860337392 0 0.018044201673999522 0.00084497110976022188 0 0.01813606200646966 0.00094984046144263917 0 0.018177421005277476 0.00081859642860337392 0 0.01813606200646966 0.00094984046144263917 0 0.018246546075248036 0.0009378718761983997 0 0.01813606200646966 0.00094984046144263917 0 0.018246546075248036 0.0009378718761983997 0 0.018204806966425176 0.0010582178153136824 0 0.018038382964854986 0.0010850673932840703 0 0.01813606200646966 0.00094984046144263917 0 0.018204806966425176 0.0010582178153136824 0 0.018038382964854986 0.0010850673932840703 0 0.018204806966425176 0.0010582178153136824 0 0.018204709341421238 0.0011951971148509515 0 0.018525505593671724 0.0010533610383097183 0 0.018541957645253408 0.0012018779291714803 0 0.018379320826057404 0.0011752262214412583 0 0.018204806966425176 0.0010582178153136824 0 0.018414595938115213 0.0010797863224106981 0 0.018204709341421238 0.0011951971148509515 0 0.018246546075248036 0.0009378718761983997 0 0.018204806966425176 0.0010582178153136824 0 0.018414595938115213 0.0010797863224106981 0 0.018494850096159164 0.0010459068992060118 0 0.01821067338171635 0.0012646675003871327 0 0.018177421005277476 0.00081859642860337392 0 0.018377155247964981 0.00079042727780741912 0 0.018246546075248036 0.0009378718761983997 0 0.018377155247964981 0.00079042727780741912 0 0.018246546075248036 0.0009378718761983997 0 0.018414595938115213 0.0010797863224106981 0 0.01865220402492284 0.00093553495972354664 0 0.018494850096159164 0.0010459068992060118 0 0.018377155247964981 0.00079042727780741912 0 0.01867350996348319 0.0009194953659198066 0 0.018414595938115213 0.0010797863224106981 0 0.018757823334669251 0.0011925911539084411 0 0.018525505593671724 0.0010533610383097183 0 0.018541957645253408 0.0012018779291714803 0 0.01867350996348319 0.0009194953659198066 0 0.018757823334669251 0.0011925911539084411 0 0.018525505593671724 0.0010533610383097183 0 0.018757823334669251 0.0011925911539084411 0 0.018645298808377432 0.0013079901597070696 0 0.018541957645253408 0.0012018779291714803 0 0.019802353690002064 -0.00028379224356941068 0 0.019663509621914266 -0.0004568246660945802 0 0.019484761851365096 -0.00021063634285202357 0 0.019663509621914266 -0.0004568246660945802 0 0.01927991236367449 -0.00046313874372650333 0 0.019484761851365096 -0.00021063634285202357 0 0.01927991236367449 -0.00046313874372650333 0 0.019218892728354083 -0.00027489031823430015 0 0.019484761851365096 -0.00021063634285202357 0 0.018645298808377432 0.0013079901597070696 0 0.018541957645253408 0.0012018779291714803 0 0.018433905972938935 0.0012785572519635883 0 0.019083101341632991 0.00041994044956755326 0 0.018898384497492048 0.00038221437452904577 0 0.018541957645253408 0.0012018779291714803 0 0.018433905972938935 0.0012785572519635883 0 0.018379320826057404 0.0011752262214412583 0 0.018898384497492048 0.00038221437452904577 0 0.018457895692592249 0.00069189427676096362 0 0.018433905972938935 0.0012785572519635883 0 0.018379320826057404 0.0011752262214412583 0 0.018255771285693209 0.0012601464885274585 0 0.018038382964854986 0.0010850673932840703 0 0.018204709341421238 0.0011951971148509515 0 0.018047194745209997 0.0012975595813456507 0 0.01821067338171635 0.0012646675003871327 0 0.018457895692592249 0.00069189427676096362 0 0.01898636382536769 -0.00032750280230527492 0 0.018881646122427948 -0.00021489680393378853 0 0.019132188617735361 -9.5991767568157711e-05 0 0.01927991236367449 -0.00046313874372650333 0 0.019218892728354083 -0.00027489031823430015 0 0.01898636382536769 -0.00032750280230527492 0 0.01927991236367449 -0.00046313874372650333 0 0.01898636382536769 -0.00032750280230527492 0 0.018912128520310878 -0.00046366061425867926 0 0.019218892728354083 -0.00027489031823430015 0 0.01898636382536769 -0.00032750280230527492 0 0.019132188617735361 -9.5991767568157711e-05 0 0.018831090060969877 -0.0001393598570473193 0 0.018576668648018522 0.0004305694779562996 0 0.01898636382536769 -0.00032750280230527492 0 0.018881646122427948 -0.00021489680393378853 0 0.018891197518640178 -0.0004483335122231887 0 0.01898636382536769 -0.00032750280230527492 0 0.018891197518640178 -0.0004483335122231887 0 0.018912128520310878 -0.00046366061425867926 0 0.018714893338192925 0.00014292719954416878 0 0.018769554712253327 0.00012429203875891835 0 0.018762294333896968 9.8217390026073719e-05 0 0.018712903148122486 0.00012872930659604305 0 0.018576668648018522 0.0004305694779562996 0 0.018519115375016593 0.00033793118408770095 0 0.018714893338192925 0.00014292719954416878 0 0.01833629275706351 0.00026536511287501857 0 0.018519115375016593 0.00033793118408770095 0 0.01833629275706351 0.00026536511287501857 0 0.018436298362490458 0.00046924648833015663 0 0.018075592695561721 0.00098163080152093257 0 0.018576668648018522 0.0004305694779562996 0 0.018202270018872285 0.00071257503325713252 0 0.01833629275706351 0.00026536511287501857 0 0.018436298362490458 0.00046924648833015663 0 0.018038382964854986 0.0010850673932840703 0 0.018035020205417172 0.001306350644567046 0 0.018047194745209997 0.0012975595813456507 0 0.018576668648018522 0.0004305694779562996 0 0.018457895692592249 0.00069189427676096362 0 0.018898109494133269 7.511546430829708e-05 0 0.018875230974588045 3.4404519138996627e-05 0 0.01909408978727014 0.00017244628749051532 0 0.018881646122427948 -0.00021489680393378853 0 0.018875230974588045 3.4404519138996627e-05 0 0.019132188617735361 -9.5991767568157711e-05 0 0.018831090060969877 -0.0001393598570473193 0 0.018852654519229826 6.0178815072321843e-05 0 0.018829818428528714 8.2483617942393953e-05 0 0.018769554712253327 0.00012429203875891835 0 0.018875230974588045 3.4404519138996627e-05 0 0.018875230974588045 3.4404519138996627e-05 0 0.019132188617735361 -9.5991767568157711e-05 0 0.01909408978727014 0.00017244628749051532 0 0.019132188617735361 -9.5991767568157711e-05 0 0.01909408978727014 0.00017244628749051532 0 0.019517938511732565 9.5427015912862533e-05 0 0.02207744269971099 0.0001037696051228267 0 0.022149728370749862 6.9283835748831909e-05 0 0.019218892728354083 -0.00027489031823430015 0 0.019132188617735361 -9.5991767568157711e-05 0 0.019484761851365096 -0.00021063634285202357 0 0.019132188617735361 -9.5991767568157711e-05 0 0.019484761851365096 -0.00021063634285202357 0 0.019517938511732565 9.5427015912862533e-05 0 0.019484761851365096 -0.00021063634285202357 0 0.019517938511732565 9.5427015912862533e-05 0 0.019930505328893792 -3.5766815577760149e-05 0 0.019802353690002064 -0.00028379224356941068 0 0.019484761851365096 -0.00021063634285202357 0 0.019930505328893792 -3.5766815577760149e-05 0 0.022149728370749862 6.9283835748831909e-05 0 0.022611926117414943 0.00046476828085777948 0 0.024893464376409758 0.00012738696240740185 0 0.024872866474187547 2.8924938718676324e-05 0 0.024755942374103151 0.00013329525027417697 0 0.024893464376409758 0.00012738696240740185 0 0.024872866474187547 2.8924938718676324e-05 0 0.024959289739328611 2.7490267052390685e-05 0 0.024964143396006656 2.9761815232157756e-05 0 0.024999950617775053 2.129575690335623e-08 0 0.02499535248931023 1.007785052267616e-05 0 0.024999976821787628 1.9025573635370995e-09 0 0.025000018892238029 -8.3176084152453135e-10 0 0.024999998086578497 2.4883259676701859e-08 0 0.025045130610485689 4.0272784850641038e-05 0 0.024872866474187547 2.8924938718676324e-05 0 0.024999796611559252 -2.1751657103398984e-08 0 0.024959289739328611 2.7490267052390685e-05 0 0.02499535248931023 1.007785052267616e-05 0 0.024999976821787628 1.9025573635370995e-09 0 0.024988054431869574 1.0229451432618858e-05 0 0.024999796611559252 -2.1751657103398984e-08 0 0.024959289739328611 2.7490267052390685e-05 0 0.025000037208418455 6.8551488951973351e-09 0 0.024968083970504668 5.1939407189577648e-05 0 0.024893464376409758 0.00012738696240740185 0 0.024959289739328611 2.7490267052390685e-05 0 0.024968083970504668 5.1939407189577648e-05 0 0.024959289739328611 2.7490267052390685e-05 0 0.025000037208418455 6.8551488951973351e-09 0 0.024979731443782918 1.5499808202581518e-05 0 0.024968083970504668 5.1939407189577648e-05 0 0.025000037208418455 6.8551488951973351e-09 0 0.024979731443782918 1.5499808202581518e-05 0 0.024999890355067771 4.2680702569319002e-08 0 0.025000037208418455 6.8551488951973351e-09 0 0.021792200868763087 6.1338289080676444e-05 0 0.02207744269971099 0.0001037696051228267 0 0.025029519239541342 0.00018080293062998741 0 0.025045030923512433 0.00017034843355427968 0 0.025028782898517742 0.00010585443012162031 0 0.025029519239541342 0.00018080293062998741 0 0.025005292327010636 7.4375501108511421e-05 0 0.024977940283690735 0.00018936557317878635 0 0.025029519239541342 0.00018080293062998741 0 0.025028782898517742 0.00010585443012162031 0 0.025005292327010636 7.4375501108511421e-05 0 0.025048724193397039 0.00024637687220811121 0 0.025029519239541342 0.00018080293062998741 0 0.025011506498174227 0.00028847687285693573 0 0.025048724193397039 0.00024637687220811121 0 0.025029519239541342 0.00018080293062998741 0 0.025045030923512433 0.00017034843355427968 0 0.025048724193397039 0.00024637687220811121 0 0.025045030923512433 0.00017034843355427968 0 0.025058317820061217 0.00016590475463645183 0 0.023995227334156884 0.00095920545413109143 0 0.023316809891687901 0.00070955682348764317 0 0.021649318106060245 0.0013607565696938167 0 0.021833171621724299 0.00025319029741803013 0 0.022019993510587612 0.0001826924181371073 0 0.023326617140185371 0.00093046282714319189 0 0.023701441672249947 0.00078826991914544863 0 0.023989180424974384 -0.00015556401453783108 0 0.023316809891687901 0.00070955682348764317 0 0.022611926117414943 0.00046476828085777948 0 0.024893464376409758 0.00012738696240740185 0 0.024723878237880227 0.00020650649608589254 0 0.024755942374103151 0.00013329525027417697 0 0.023316809891687901 0.00070955682348764317 0 0.024568797919282209 -1.9521518654602263e-05 0 0.025058317820061217 0.00016590475463645183 0 0.025067790409079197 0.0001278651495377609 0 0.02504813669641151 0.00013430132473630049 0 0.022611926117414943 0.00046476828085777948 0 0.024568797919282209 -1.9521518654602263e-05 0 0.02504813669641151 0.00013430132473630049 0 0.025036849970147698 8.3472267995272217e-05 0 0.025028782898517742 0.00010585443012162031 0 0.025045030923512433 0.00017034843355427968 0 0.02504813669641151 0.00013430132473630049 0 0.025028782898517742 0.00010585443012162031 0 0.025045030923512433 0.00017034843355427968 0 0.025058317820061217 0.00016590475463645183 0 0.02504813669641151 0.00013430132473630049 0 0.025067790409079197 0.0001278651495377609 0 0.02504813669641151 0.00013430132473630049 0 0.025036849970147698 8.3472267995272217e-05 0 0.025036849970147698 8.3472267995272217e-05 0 0.025000001002745697 4.7845630914275483e-08 0 0.025028782898517742 0.00010585443012162031 0 0.025000128097101126 2.7318161784576485e-08 0 0.025047021065208497 5.5267451575288039e-05 0 0.025000001002745697 4.7845630914275483e-08 0 0.02499535248931023 1.007785052267616e-05 0 0.024971645305795202 3.6522946030285949e-05 0 0.024988054431869574 1.0229451432618858e-05 0 0.024964143396006656 2.9761815232157756e-05 0 0.024568797919282209 -1.9521518654602263e-05 0 0.024568797919282209 -1.9521518654602263e-05 0 0.025045130610485689 4.0272784850641038e-05 0 0.025067790409079197 0.0001278651495377609 0 0.025036849970147698 8.3472267995272217e-05 0 0.025047021065208497 5.5267451575288039e-05 0 0.025036849970147698 8.3472267995272217e-05 0 0.025047021065208497 5.5267451575288039e-05 0 0.025000001002745697 4.7845630914275483e-08 0 0.025000001002745697 4.7845630914275483e-08 0 0.025005292327010636 7.4375501108511421e-05 0 0.025000147101346008 6.4997175019106478e-08 0 0.025000001002745697 4.7845630914275483e-08 0 0.025028782898517742 0.00010585443012162031 0 0.025005292327010636 7.4375501108511421e-05 0 0.025000147101346008 6.4997175019106478e-08 0 0.024947092835541407 7.5512157236740777e-05 0 0.024875227202685646 3.8996069172823533e-05 0 0.025005292327010636 7.4375501108511421e-05 0 0.025000147101346008 6.4997175019106478e-08 0 0.024947092835541407 7.5512157236740777e-05 0 0.025005292327010636 7.4375501108511421e-05 0 0.024947092835541407 7.5512157236740777e-05 0 0.024977940283690735 0.00018936557317878635 0 0.024947092835541407 7.5512157236740777e-05 0 0.024977940283690735 0.00018936557317878635 0 0.024856273991621731 0.00016883772126108097 0 0.024977940283690735 0.00018936557317878635 0 0.024906098981037374 0.00037216449434693955 0 0.024856273991621731 0.00016883772126108097 0 0.024977940283690735 0.00018936557317878635 0 0.024906098981037374 0.00037216449434693955 0 0.025011506498174227 0.00028847687285693573 0 0.025029519239541342 0.00018080293062998741 0 0.024977940283690735 0.00018936557317878635 0 0.025011506498174227 0.00028847687285693573 0 0.024629795566472854 0.00015436361853957364 0 0.024875227202685646 3.8996069172823533e-05 0 0.024490700928299459 4.0672740737470683e-05 0 0.024856273991621731 0.00016883772126108097 0 0.024629795566472854 0.00015436361853957364 0 0.024607274086835506 0.00042466528720766283 0 0.024629795566472854 0.00015436361853957364 0 0.024225191717166011 0.00032433293303272425 0 0.024607274086835506 0.00042466528720766283 0 0.024906098981037374 0.00037216449434693955 0 0.024856273991621731 0.00016883772126108097 0 0.024607274086835506 0.00042466528720766283 0 0.024856273991621731 0.00016883772126108097 0 0.024629795566472854 0.00015436361853957364 0 0.024875227202685646 3.8996069172823533e-05 0 0.025000147101346008 6.4997175019106478e-08 0 0.024875227202685646 3.8996069172823533e-05 0 0.024998920634623112 -5.5633814584706871e-08 0 0.024947092835541407 7.5512157236740777e-05 0 0.024856273991621731 0.00016883772126108097 0 0.024875227202685646 3.8996069172823533e-05 0 0.024998920634623112 -5.5633814584706871e-08 0 0.024667933369743725 -7.1024462923206837e-05 0 0.024998509002755701 -4.7506627272537017e-07 0 0.024875227202685646 3.8996069172823533e-05 0 0.024998920634623112 -5.5633814584706871e-08 0 0.024490700928299459 4.0672740737470683e-05 0 0.024998920634623112 -5.5633814584706871e-08 0 0.024667933369743725 -7.1024462923206837e-05 0 0.024490700928299459 4.0672740737470683e-05 0 0.024667933369743725 -7.1024462923206837e-05 0 0.023994474794417402 0.00013653338241267061 0 0.024490700928299459 4.0672740737470683e-05 0 0.024557773313256148 -7.7218293018812452e-05 0 0.024072142914772447 3.1106485897504012e-06 0 0.024667933369743725 -7.1024462923206837e-05 0 0.023994474794417402 0.00013653338241267061 0 0.023356184826687963 2.3622522841108257e-06 0 0.023994474794417402 0.00013653338241267061 0 0.023145050039554391 0.00046627776935247595 0 0.023356184826687963 2.3622522841108257e-06 0 0.023994474794417402 0.00013653338241267061 0 0.023806419998525959 0.00032324606317438577 0 0.024490700928299459 4.0672740737470683e-05 0 0.023994474794417402 0.00013653338241267061 0 0.023806419998525959 0.00032324606317438577 0 0.023145050039554391 0.00046627776935247595 0 0.023806419998525959 0.00032324606317438577 0 0.023145050039554391 0.00046627776935247595 0 0.023081250414428541 0.00065561174452560865 0 0.024629795566472854 0.00015436361853957364 0 0.024490700928299459 4.0672740737470683e-05 0 0.024225191717166011 0.00032433293303272425 0 0.023806419998525959 0.00032324606317438577 0 0.024490700928299459 4.0672740737470683e-05 0 0.024225191717166011 0.00032433293303272425 0 0.023806419998525959 0.00032324606317438577 0 0.024225191717166011 0.00032433293303272425 0 0.02370627096887187 0.00056710825206317652 0 0.024225191717166011 0.00032433293303272425 0 0.024271215647155491 0.00060067535273136024 0 0.024607274086835506 0.00042466528720766283 0 0.024271215647155491 0.00060067535273136024 0 0.02404855587916916 0.00087632722430360172 0 0.024401180293479326 0.00075587908924995345 0 0.024271215647155491 0.00060067535273136024 0 0.02370627096887187 0.00056710825206317652 0 0.02404855587916916 0.00087632722430360172 0 0.024225191717166011 0.00032433293303272425 0 0.024271215647155491 0.00060067535273136024 0 0.02370627096887187 0.00056710825206317652 0 0.022792886613599454 0.00095401511532881313 0 0.022697205476348559 0.001051050071621158 0 0.02370627096887187 0.00056710825206317652 0 0.02404855587916916 0.00087632722430360172 0 0.022858229623641535 0.00093959031351147841 0 0.02404855587916916 0.00087632722430360172 0 0.022858229623641535 0.00093959031351147841 0 0.024122026068939151 0.0012461390735355737 0 0.022858229623641535 0.00093959031351147841 0 0.022268377520583808 0.00067461033814465244 0 0.021301301434670586 0.00093949548311937181 0 0.02404855587916916 0.00087632722430360172 0 0.024162729861999594 0.0011637729969002305 0 0.024122026068939151 0.0012461390735355737 0 0.02404855587916916 0.00087632722430360172 0 0.024162729861999594 0.0011637729969002305 0 0.024401180293479326 0.00075587908924995345 0 0.023145050039554391 0.00046627776935247595 0 0.023081250414428541 0.00065561174452560865 0 0.022810231073272843 0.00062893490256434514 0 0.023806419998525959 0.00032324606317438577 0 0.02370627096887187 0.00056710825206317652 0 0.023081250414428541 0.00065561174452560865 0 0.02370627096887187 0.00056710825206317652 0 0.023081250414428541 0.00065561174452560865 0 0.022858229623641535 0.00093959031351147841 0 0.022858229623641535 0.00093959031351147841 0 0.022606480999366112 0.00071305283254486133 0 0.022268377520583808 0.00067461033814465244 0 0.023081250414428541 0.00065561174452560865 0 0.022858229623641535 0.00093959031351147841 0 0.022606480999366112 0.00071305283254486133 0 0.023081250414428541 0.00065561174452560865 0 0.022606480999366112 0.00071305283254486133 0 0.022810231073272843 0.00062893490256434514 0 0.022606480999366112 0.00071305283254486133 0 0.022201151930403014 0.00051344601444647709 0 0.022328696796530677 0.00046988951442118894 0 0.022606480999366112 0.00071305283254486133 0 0.022268377520583808 0.00067461033814465244 0 0.022201151930403014 0.00051344601444647709 0 0.022268377520583808 0.00067461033814465244 0 0.022201151930403014 0.00051344601444647709 0 0.021863728114076886 0.00044321885149886122 0 0.021829005196445445 0.00027874990943185557 0 0.022201151930403014 0.00051344601444647709 0 0.021863728114076886 0.00044321885149886122 0 0.021829005196445445 0.00027874990943185557 0 0.021863728114076886 0.00044321885149886122 0 0.021494971633388062 0.00018950782254560286 0 0.022201151930403014 0.00051344601444647709 0 0.022057753080039155 0.00033992647823143942 0 0.022328696796530677 0.00046988951442118894 0 0.021829005196445445 0.00027874990943185557 0 0.022201151930403014 0.00051344601444647709 0 0.022057753080039155 0.00033992647823143942 0 0.021301301434670586 0.00093949548311937181 0 0.020991305666268448 0.00053535121954516307 0 0.020538695201777608 0.00059691741710219694 0 0.021268894356844866 0.00060817402608278064 0 0.021301301434670586 0.00093949548311937181 0 0.021627143109280361 0.00059743247058613696 0 0.021268894356844866 0.00060817402608278064 0 0.021301301434670586 0.00093949548311937181 0 0.020991305666268448 0.00053535121954516307 0 0.021268894356844866 0.00060817402608278064 0 0.021627143109280361 0.00059743247058613696 0 0.021273058553616907 0.00040054144081739531 0 0.022268377520583808 0.00067461033814465244 0 0.021301301434670586 0.00093949548311937181 0 0.021627143109280361 0.00059743247058613696 0 0.022268377520583808 0.00067461033814465244 0 0.021627143109280361 0.00059743247058613696 0 0.021863728114076886 0.00044321885149886122 0 0.021627143109280361 0.00059743247058613696 0 0.021863728114076886 0.00044321885149886122 0 0.021273058553616907 0.00040054144081739531 0 0.021863728114076886 0.00044321885149886122 0 0.021273058553616907 0.00040054144081739531 0 0.021494971633388062 0.00018950782254560286 0 0.021273058553616907 0.00040054144081739531 0 0.020752445697030619 0.00021633096004239366 0 0.021078035051424488 4.9463547892934856e-05 0 0.021273058553616907 0.00040054144081739531 0 0.020991305666268448 0.00053535121954516307 0 0.020752445697030619 0.00021633096004239366 0 0.021268894356844866 0.00060817402608278064 0 0.021273058553616907 0.00040054144081739531 0 0.020991305666268448 0.00053535121954516307 0 0.020752445697030619 0.00021633096004239366 0 0.020538695201777608 0.00059691741710219694 0 0.020357775438075574 0.00019479155194141798 0 0.020991305666268448 0.00053535121954516307 0 0.020752445697030619 0.00021633096004239366 0 0.020538695201777608 0.00059691741710219694 0 0.022697205476348559 0.001051050071621158 0 0.022226407233759155 0.00077950692974893584 0 0.024162729861999594 0.0011637729969002305 0 0.024122026068939151 0.0012461390735355737 0 0.023990905563682718 0.0009637408597527057 0 0.024162729861999594 0.0011637729969002305 0 0.023990905563682718 0.0009637408597527057 0 0.02373612356468191 0.0013547413718091809 0 0.023990905563682718 0.0009637408597527057 0 0.023486417950606318 0.00069287444331449016 0 0.02340793123334671 0.0010946638759522986 0 0.023990905563682718 0.0009637408597527057 0 0.02340793123334671 0.0010946638759522986 0 0.02373612356468191 0.0013547413718091809 0 0.020538695201777608 0.00059691741710219694 0 0.020048892648961831 0.0003145136310687477 0 0.020357775438075574 0.00019479155194141798 0 0.022226407233759155 0.00077950692974893584 0 0.021937965651299657 0.00051827604100853199 0 0.023486417950606318 0.00069287444331449016 0 0.023140222984064256 0.00084742838877674745 0 0.02340793123334671 0.0010946638759522986 0 0.023486417950606318 0.00069287444331449016 0 0.023140222984064256 0.00084742838877674745 0 0.023003350452361584 0.00047042717673732344 0 0.022997003513254802 0.001150372223328541 0 0.023140222984064256 0.00084742838877674745 0 0.02340793123334671 0.0010946638759522986 0 0.02340793123334671 0.0010946638759522986 0 0.023178928350719621 0.0015346550887356425 0 0.02373612356468191 0.0013547413718091809 0 0.024069202422880989 0.00098387061604040898 0 0.024260108879879293 0.0010512340304004407 0 0.022997003513254802 0.001150372223328541 0 0.02340793123334671 0.0010946638759522986 0 0.023178928350719621 0.0015346550887356425 0 0.024906098981037374 0.00037216449434693955 0 0.025011506498174227 0.00028847687285693573 0 0.025011880372411477 0.00042882347081516561 0 0.024906098981037374 0.00037216449434693955 0 0.025011880372411477 0.00042882347081516561 0 0.024806692308043721 0.00074260140053455752 0 0.024906098981037374 0.00037216449434693955 0 0.024607274086835506 0.00042466528720766283 0 0.024806692308043721 0.00074260140053455752 0 0.024607274086835506 0.00042466528720766283 0 0.024401180293479326 0.00075587908924995345 0 0.024806692308043721 0.00074260140053455752 0 0.024271215647155491 0.00060067535273136024 0 0.024607274086835506 0.00042466528720766283 0 0.024401180293479326 0.00075587908924995345 0 0.024158610334085284 0.0011552541653747249 0 0.024260108879879293 0.0010512340304004407 0 0.024162729861999594 0.0011637729969002305 0 0.024401180293479326 0.00075587908924995345 0 0.024806692308043721 0.00074260140053455752 0 0.024997299278737357 -3.5482511012139926e-09 0 0.024013949323841929 -0.00018645516399861837 0 0.024998509002755701 -4.7506627272537017e-07 0 0.022249591881154985 -1.3372966542874699e-06 0 0.024013949323841929 -0.00018645516399861837 0 0.02295288457678513 -9.134082060748824e-07 0 0.022249591881154985 -1.3372966542874699e-06 0 0.024997299278737357 -3.5482511012139926e-09 0 0.024013949323841929 -0.00018645516399861837 0 0.024013949323841929 -0.00018645516399861837 0 0.023665749494816854 -4.6695352218863138e-05 0 0.024267271633540134 -9.0417530643407794e-05 0 0.024013949323841929 -0.00018645516399861837 0 0.02295288457678513 -9.134082060748824e-07 0 0.023665749494816854 -4.6695352218863138e-05 0 0.023665749494816854 -4.6695352218863138e-05 0 0.024267271633540134 -9.0417530643407794e-05 0 0.024126051939967547 0.00015983586790699038 0 0.024267271633540134 -9.0417530643407794e-05 0 0.02457678909772662 -1.2169479623861729e-05 0 0.024126051939967547 0.00015983586790699038 0 0.024013949323841929 -0.00018645516399861837 0 0.024267271633540134 -9.0417530643407794e-05 0 0.024998509002755701 -4.7506627272537017e-07 0 0.024667933369743725 -7.1024462923206837e-05 0 0.024998509002755701 -4.7506627272537017e-07 0 0.02476552438368779 -6.3346933755948037e-05 0 0.024267271633540134 -9.0417530643407794e-05 0 0.024998509002755701 -4.7506627272537017e-07 0 0.02457678909772662 -1.2169479623861729e-05 0 0.024998509002755701 -4.7506627272537017e-07 0 0.02476552438368779 -6.3346933755948037e-05 0 0.02457678909772662 -1.2169479623861729e-05 0 0.023145050039554391 0.00046627776935247595 0 0.023356184826687963 2.3622522841108257e-06 0 0.02279341604750873 0.00035111181479337625 0 0.024072142914772447 3.1106485897504012e-06 0 0.023695494101905273 0.00016747388014090464 0 0.02279341604750873 0.00035111181479337625 0 0.022694937657903654 0.00056156005615122593 0 0.022705287710877903 0.0005560734681500062 0 0.023695494101905273 0.00016747388014090464 0 0.023414870898326504 0.00032250676197284329 0 0.023145050039554391 0.00046627776935247595 0 0.02279341604750873 0.00035111181479337625 0 0.022694937657903654 0.00056156005615122593 0 0.023145050039554391 0.00046627776935247595 0 0.022810231073272843 0.00062893490256434514 0 0.022694937657903654 0.00056156005615122593 0 0.022694937657903654 0.00056156005615122593 0 0.022535476816816575 0.00051068329587383428 0 0.022689332770763095 0.00043736047891235723 0 0.022810231073272843 0.00062893490256434514 0 0.022694937657903654 0.00056156005615122593 0 0.022535476816816575 0.00051068329587383428 0 0.022606480999366112 0.00071305283254486133 0 0.022810231073272843 0.00062893490256434514 0 0.022535476816816575 0.00051068329587383428 0 0.022606480999366112 0.00071305283254486133 0 0.022328696796530677 0.00046988951442118894 0 0.022535476816816575 0.00051068329587383428 0 0.022328696796530677 0.00046988951442118894 0 0.022299820694345465 0.00035524267524934068 0 0.022535476816816575 0.00051068329587383428 0 0.022057753080039155 0.00033992647823143942 0 0.022328696796530677 0.00046988951442118894 0 0.022089753718854212 0.00027836713537846583 0 0.022328696796530677 0.00046988951442118894 0 0.022299820694345465 0.00035524267524934068 0 0.022089753718854212 0.00027836713537846583 0 0.022299820694345465 0.00035524267524934068 0 0.022535476816816575 0.00051068329587383428 0 0.022452342882039674 0.00037161380925152914 0 0.022299820694345465 0.00035524267524934068 0 0.022452342882039674 0.00037161380925152914 0 0.022280197107042963 0.00027368754632704312 0 0.022535476816816575 0.00051068329587383428 0 0.022612707230313927 0.00035310901615505423 0 0.022452342882039674 0.00037161380925152914 0 0.022535476816816575 0.00051068329587383428 0 0.022612707230313927 0.00035310901615505423 0 0.022689332770763095 0.00043736047891235723 0 0.022612707230313927 0.00035310901615505423 0 0.022452342882039674 0.00037161380925152914 0 0.022454837250154118 0.00036349204181225958 0 0.022612707230313927 0.00035310901615505423 0 0.022518461753686325 0.00031529683328068925 0 0.022454837250154118 0.00036349204181225958 0 0.022518461753686325 0.00031529683328068925 0 0.022397241710617823 0.00042700480316901229 0 0.022454837250154118 0.00036349204181225958 0 0.022612707230313927 0.00035310901615505423 0 0.023092702237153147 0.00029729420576597872 0 0.022518461753686325 0.00031529683328068925 0 0.022612707230313927 0.00035310901615505423 0 0.023092702237153147 0.00029729420576597872 0 0.022689332770763095 0.00043736047891235723 0 0.022694937657903654 0.00056156005615122593 0 0.022689332770763095 0.00043736047891235723 0 0.022705287710877903 0.0005560734681500062 0 0.023092702237153147 0.00029729420576597872 0 0.022689332770763095 0.00043736047891235723 0 0.022705287710877903 0.0005560734681500062 0 0.023665749494816854 -4.6695352218863138e-05 0 0.023092702237153147 0.00029729420576597872 0 0.024126051939967547 0.00015983586790699038 0 0.023161100470088812 0.00031117244420926054 0 0.023414870898326504 0.00032250676197284329 0 0.022249591881154985 -1.3372966542874699e-06 0 0.021846790727705484 -3.0486693028781222e-05 0 0.018690181553070385 3.1827464845304524e-06 0 0.02295288457678513 -9.134082060748824e-07 0 0.023092702237153147 0.00029729420576597872 0 0.021846790727705484 -3.0486693028781222e-05 0 0.023092702237153147 0.00029729420576597872 0 0.022137811187491849 0.00018510993605660943 0 0.021846790727705484 -3.0486693028781222e-05 0 0.02295288457678513 -9.134082060748824e-07 0 0.023665749494816854 -4.6695352218863138e-05 0 0.023092702237153147 0.00029729420576597872 0 0.023092702237153147 0.00029729420576597872 0 0.022518461753686325 0.00031529683328068925 0 0.022137811187491849 0.00018510993605660943 0 0.022518461753686325 0.00031529683328068925 0 0.021776545333180707 0.00045258798940089949 0 0.022397241710617823 0.00042700480316901229 0 0.021776545333180707 0.00045258798940089949 0 0.022137811187491849 0.00018510993605660943 0 0.020706174876387509 0.00026766957458286355 0 0.022518461753686325 0.00031529683328068925 0 0.021776545333180707 0.00045258798940089949 0 0.022137811187491849 0.00018510993605660943 0 0.022137811187491849 0.00018510993605660943 0 0.020706174876387509 0.00026766957458286355 0 0.021846790727705484 -3.0486693028781222e-05 0 0.020706174876387509 0.00026766957458286355 0 0.021846790727705484 -3.0486693028781222e-05 0 0.018690181553070385 3.1827464845304524e-06 0 0.021776545333180707 0.00045258798940089949 0 0.020706174876387509 0.00026766957458286355 0 0.021057435429695473 0.0010497987899241166 0 0.022249591881154985 -1.3372966542874699e-06 0 0.02295288457678513 -9.134082060748824e-07 0 0.021846790727705484 -3.0486693028781222e-05 0 0.015920978634426878 -4.455827244096069e-07 0 0.01516732122937087 0.00010849937873303886 0 0.014766409959382073 -8.7812266540720693e-05 0 0.015920978634426878 -4.455827244096069e-07 0 0.01516732122937087 0.00010849937873303886 0 0.015763592051951367 0.00034561671048432386 0 0.014597319440734955 2.5146021516973383e-05 0 0.01516732122937087 0.00010849937873303886 0 0.014766409959382073 -8.7812266540720693e-05 0 0.014597319440734955 2.5146021516973383e-05 0 0.01516732122937087 0.00010849937873303886 0 0.014703422014313192 0.00037055364438702353 0 0.017029619904462483 0.00025337384072200291 0 0.016562683192224981 0.00014206570534546685 0 0.018462253342500581 0.00031207110651306462 0 0.018605907532851528 0.00078008147587068722 0 0.018753692824109734 0.00073152151136581683 0 0.017029619904462483 0.00025337384072200291 0 0.018340463521684391 0.00041838557206680334 0 0.01516732122937087 0.00010849937873303886 0 0.014703422014313192 0.00037055364438702353 0 0.015763592051951367 0.00034561671048432386 0 0.01785509870663176 0.00030577217522308295 0 0.017624254782209088 0.00017610407068189079 0 0.017670798053664675 6.2032977085513491e-06 0 0.015920978634426878 -4.455827244096069e-07 0 0.015763592051951367 0.00034561671048432386 0 0.017329302230970296 1.759085620608799e-06 0 0.016562683192224981 0.00014206570534546685 0 0.017331111437857878 1.598628858488846e-07 0 0.018807201925441649 0.00048247586145495127 0 0.018340463521684391 0.00041838557206680334 0 0.018807201925441649 0.00048247586145495127 0 0.019952237873889261 0.001546045742977819 0 0.017624254782209088 0.00017610407068189079 0 0.017333673755798067 -3.5256547249785451e-08 0 0.017670798053664675 6.2032977085513491e-06 0 0.017333673755798067 -3.5256547249785451e-08 0 0.018137474014049169 -2.1130032288252475e-05 0 0.017670798053664675 6.2032977085513491e-06 0 0.020706174876387509 0.00026766957458286355 0 0.018690181553070385 3.1827464845304524e-06 0 0.019327758421121229 0.00090775248334630878 0 0.017333673755798067 -3.5256547249785451e-08 0 0.018545984349674808 4.3507730951745809e-08 0 0.018137474014049169 -2.1130032288252475e-05 0 0.018685305698569323 3.1541895751961578e-07 0 0.018807201925441649 0.00048247586145495127 0 0.018684664850734136 -1.3854900182393835e-08 0 0.018548887337547813 1.620822524768601e-08 0 0.018372814730042857 2.7130404294974245e-06 0 0.018548068437745226 3.496159830576458e-07 0 0.018807201925441649 0.00048247586145495127 0 0.020706174876387509 0.00026766957458286355 0 0.019327758421121229 0.00090775248334630878 0 0.021057435429695473 0.0010497987899241166 0 0.019327758421121229 0.00090775248334630878 0 0.021057435429695473 0.0010497987899241166 0 0.021018694007813848 0.0020777580199955697 0 0.01901812276703484 0.0010957092145499807 0 0.018605907532851528 0.00078008147587068722 0 0.018753692824109734 0.00073152151136581683 0 0.021018694007813848 0.0020777580199955697 0 0.021784556599589274 0.0020764238347952954 0 0.021937934696086327 0.0024993933398536066 0 0.021784556599589274 0.0020764238347952954 0 0.021979261879701801 0.0015060973391527995 0 0.022116362315542513 0.0023433647627166612 0 0.021018694007813848 0.0020777580199955697 0 0.021784556599589274 0.0020764238347952954 0 0.021979261879701801 0.0015060973391527995 0 0.021057435429695473 0.0010497987899241166 0 0.021018694007813848 0.0020777580199955697 0 0.021979261879701801 0.0015060973391527995 0 0.021776545333180707 0.00045258798940089949 0 0.021057435429695473 0.0010497987899241166 0 0.021979261879701801 0.0015060973391527995 0 0.021831704510370302 0.0004934867007952607 0 0.022054007028730303 0.0008261891238553051 0 0.021776545333180707 0.00045258798940089949 0 0.022317571711449255 0.00046203659151910109 0 0.022397241710617823 0.00042700480316901229 0 0.022317571711449255 0.00046203659151910109 0 0.022397241710617823 0.00042700480316901229 0 0.022397936280487536 0.00032361953801368122 0 0.022054007028730303 0.0008261891238553051 0 0.022687816331650859 0.0016858703149868783 0 0.022317571711449255 0.00046203659151910109 0 0.022411904551432976 0.00020757450205262674 0 0.022397936280487536 0.00032361953801368122 0 0.022317571711449255 0.00046203659151910109 0 0.022411904551432976 0.00020757450205262674 0 0.022509154584433939 0.00013818261379880311 0 0.022687816331650859 0.0016858703149868783 0 0.018914530103749438 -0.00051047930713405602 0 0.022509154584433939 0.00013818261379880311 0 0.022485945555770579 -0.00028615419841148955 0 0.022401276324700362 -2.5601868465316427e-05 0 0.022116362315542513 0.0023433647627166612 0 0.021937934696086327 0.0024993933398536066 0 0.0221708503007968 0.0026381103787916768 0 0.022411904551432976 0.00020757450205262674 0 0.022509154584433939 0.00013818261379880311 0 0.022401276324700362 -2.5601868465316427e-05 0 0.019952237873889261 0.001546045742977819 0 0.019666428317459631 0.0012903383815934051 0 0.021784556599589274 0.0020764238347952954 0 0.022116362315542513 0.0023433647627166612 0 0.021937934696086327 0.0024993933398536066 0 0.018462253342500581 0.00031207110651306462 0 0.018605907532851528 0.00078008147587068722 0 0.018141729849620692 0.00041401340303831482 0 0.018462253342500581 0.00031207110651306462 0 0.018141729849620692 0.00041401340303831482 0 0.018149528057976524 0.00013793798038951927 0 0.019666428317459631 0.0012903383815934051 0 0.016302562731859014 -0.0015438933545282704 0 0.017029619904462483 0.00025337384072200291 0 0.01434573824864804 -0.0020526989020569521 0 0.016803484289392778 -1.4065306623730721e-05 0 0.015214431366536075 -0.00086438045398524923 0 0.015297434635474031 -0.0021364013409127343 0 0.014597319440734955 2.5146021516973383e-05 0 0.014703422014313192 0.00037055364438702353 0 0.014121491417020206 -5.925186332127373e-06 0 0.017029619904462483 0.00025337384072200291 0 0.016302562731859014 -0.0015438933545282704 0 0.012635905723491584 -0.0050013534309639261 0 0.012770146964314385 -0.0044369574850105604 0 0.012576104789430258 -0.0044420223424422121 0 0.016302562731859014 -0.0015438933545282704 0 0.01434573824864804 -0.0020526989020569521 0 0.016302562731859014 -0.0015438933545282704 0 0.014441579918581089 -0.0042468054999071428 0 0.012635905723491584 -0.0050013534309639261 0 0.013788071174227038 -0.0044246556650772767 0 0.013194795003467385 -0.0043677094929277073 0 0.018714536019641854 -0.0011937595448506652 0 0.016167352352985668 -0.0014209780782289327 0 0.015508656936199804 -0.0029219585274799921 0 0.019666428317459631 0.0012903383815934051 0 0.018914530103749438 -0.00051047930713405602 0 0.018601394255701821 0.00055718472155539297 0 0.018714536019641854 -0.0011937595448506652 0 0.016167352352985668 -0.0014209780782289327 0 0.012635905723491584 -0.0050013534309639261 0 0.013194795003467385 -0.0043677094929277073 0 0.012770146964314385 -0.0044369574850105604 0 0.018914530103749438 -0.00051047930713405602 0 0.018133207478427435 -0.0026876509242130531 0 0.022485945555770579 -0.00028615419841148955 0 0.022223776538870605 -0.00040368225407169688 0 0.022164075137510612 -0.00067663305858791897 0 0.022204770984103523 -0.00028730777774554076 0 0.022347096846732049 -0.00019698251097854036 0 0.022145398661340049 -0.00014990186406594152 0 0.022204770984103523 -0.00028730777774554076 0 0.022347096846732049 -0.00019698251097854036 0 0.022223776538870605 -0.00040368225407169688 0 0.022485945555770579 -0.00028615419841148955 0 0.022347096846732049 -0.00019698251097854036 0 0.022401276324700362 -2.5601868465316427e-05 0 0.022485945555770579 -0.00028615419841148955 0 0.022347096846732049 -0.00019698251097854036 0 0.022223776538870605 -0.00040368225407169688 0 0.018914530103749438 -0.00051047930713405602 0 0.014441579918581089 -0.0042468054999071428 0 0.013978882044437193 -0.0043899424498929336 0 0.014217212820048343 -0.0041472811116928833 0 0.014102493580479814 -0.004190842396524088 0 0.022223776538870605 -0.00040368225407169688 0 0.022010003631377759 -0.00043186372716728206 0 0.022164075137510612 -0.00067663305858791897 0 0.022204770984103523 -0.00028730777774554076 0 0.022223776538870605 -0.00040368225407169688 0 0.022010003631377759 -0.00043186372716728206 0 0.022010003631377759 -0.00043186372716728206 0 0.022145398661340049 -0.00014990186406594152 0 0.021868659988330447 -0.00030571659698752526 0 0.022204770984103523 -0.00028730777774554076 0 0.022010003631377759 -0.00043186372716728206 0 0.022145398661340049 -0.00014990186406594152 0 0.022145398661340049 -0.00014990186406594152 0 0.022065665624874418 -5.7636469967362534e-05 0 0.021868659988330447 -0.00030571659698752526 0 0.022145398661340049 -0.00014990186406594152 0 0.022065665624874418 -5.7636469967362534e-05 0 0.022273469862343281 2.0481288767379487e-05 0 0.022065665624874418 -5.7636469967362534e-05 0 0.022273469862343281 2.0481288767379487e-05 0 0.022198880844685905 9.1096959176867215e-05 0 0.022347096846732049 -0.00019698251097854036 0 0.022145398661340049 -0.00014990186406594152 0 0.022273469862343281 2.0481288767379487e-05 0 0.022347096846732049 -0.00019698251097854036 0 0.022273469862343281 2.0481288767379487e-05 0 0.022401276324700362 -2.5601868465316427e-05 0 0.022411904551432976 0.00020757450205262674 0 0.022273469862343281 2.0481288767379487e-05 0 0.022401276324700362 -2.5601868465316427e-05 0 0.022326190827599728 0.00018408934970409976 0 0.022397936280487536 0.00032361953801368122 0 0.022306021468609164 0.00023383791221742782 0 0.022411904551432976 0.00020757450205262674 0 0.022273469862343281 2.0481288767379487e-05 0 0.022326190827599728 0.00018408934970409976 0 0.022411904551432976 0.00020757450205262674 0 0.022326190827599728 0.00018408934970409976 0 0.022397936280487536 0.00032361953801368122 0 0.022397241710617823 0.00042700480316901229 0 0.022397936280487536 0.00032361953801368122 0 0.022454837250154118 0.00036349204181225958 0 0.022397936280487536 0.00032361953801368122 0 0.022454837250154118 0.00036349204181225958 0 0.022306021468609164 0.00023383791221742782 0 0.022454837250154118 0.00036349204181225958 0 0.022306021468609164 0.00023383791221742782 0 0.022280197107042963 0.00027368754632704312 0 0.022452342882039674 0.00037161380925152914 0 0.022454837250154118 0.00036349204181225958 0 0.022280197107042963 0.00027368754632704312 0 0.022306021468609164 0.00023383791221742782 0 0.022088600903188239 9.5352850828436261e-05 0 0.022280197107042963 0.00027368754632704312 0 0.022326190827599728 0.00018408934970409976 0 0.022306021468609164 0.00023383791221742782 0 0.022198880844685905 9.1096959176867215e-05 0 0.022273469862343281 2.0481288767379487e-05 0 0.022326190827599728 0.00018408934970409976 0 0.022198880844685905 9.1096959176867215e-05 0 0.022306021468609164 0.00023383791221742782 0 0.022198880844685905 9.1096959176867215e-05 0 0.022088600903188239 9.5352850828436261e-05 0 0.022065665624874418 -5.7636469967362534e-05 0 0.022198880844685905 9.1096959176867215e-05 0 0.022088600903188239 9.5352850828436261e-05 0 0.022088600903188239 9.5352850828436261e-05 0 0.022280197107042963 0.00027368754632704312 0 0.022088695781483182 0.00019569416843818915 0 0.022088600903188239 9.5352850828436261e-05 0 0.021880399429959899 1.5628916253860751e-05 0 0.021816899655571299 -0.00013234293622416002 0 0.022088600903188239 9.5352850828436261e-05 0 0.022088695781483182 0.00019569416843818915 0 0.021880399429959899 1.5628916253860751e-05 0 0.022299820694345465 0.00035524267524934068 0 0.022280197107042963 0.00027368754632704312 0 0.022088695781483182 0.00019569416843818915 0 0.022088695781483182 0.00019569416843818915 0 0.022089753718854212 0.00027836713537846583 0 0.021831232226532347 7.1393533156809214e-05 0 0.022299820694345465 0.00035524267524934068 0 0.022088695781483182 0.00019569416843818915 0 0.022089753718854212 0.00027836713537846583 0 0.021831232226532347 7.1393533156809214e-05 0 0.021880399429959899 1.5628916253860751e-05 0 0.021575684082963113 -0.00017031822485619806 0 0.022088695781483182 0.00019569416843818915 0 0.021831232226532347 7.1393533156809214e-05 0 0.021880399429959899 1.5628916253860751e-05 0 0.021575684082963113 -0.00017031822485619806 0 0.021816899655571299 -0.00013234293622416002 0 0.021459706643195159 -0.00043003720122760693 0 0.021575684082963113 -0.00017031822485619806 0 0.021459706643195159 -0.00043003720122760693 0 0.021282655424123536 -0.00041349337977819166 0 0.021880399429959899 1.5628916253860751e-05 0 0.021575684082963113 -0.00017031822485619806 0 0.021816899655571299 -0.00013234293622416002 0 0.022065665624874418 -5.7636469967362534e-05 0 0.022088600903188239 9.5352850828436261e-05 0 0.021816899655571299 -0.00013234293622416002 0 0.022065665624874418 -5.7636469967362534e-05 0 0.021816899655571299 -0.00013234293622416002 0 0.021868659988330447 -0.00030571659698752526 0 0.021868659988330447 -0.00030571659698752526 0 0.021459706643195159 -0.00043003720122760693 0 0.021712552928643773 -0.00061992220219455794 0 0.021816899655571299 -0.00013234293622416002 0 0.021868659988330447 -0.00030571659698752526 0 0.021459706643195159 -0.00043003720122760693 0 0.022010003631377759 -0.00043186372716728206 0 0.021868659988330447 -0.00030571659698752526 0 0.021712552928643773 -0.00061992220219455794 0 0.021459706643195159 -0.00043003720122760693 0 0.021282655424123536 -0.00041349337977819166 0 0.020954336005221817 -0.00067987524208911886 0 0.021459706643195159 -0.00043003720122760693 0 0.021104701316248135 -0.00091764052500714513 0 0.020954336005221817 -0.00067987524208911886 0 0.021459706643195159 -0.00043003720122760693 0 0.021104701316248135 -0.00091764052500714513 0 0.021712552928643773 -0.00061992220219455794 0 0.021104701316248135 -0.00091764052500714513 0 0.021712552928643773 -0.00061992220219455794 0 0.021652937249946574 -0.0010793176621515556 0 0.01871827592626174 -0.0022753254253820663 0 0.019006192140917328 -0.0021322185900990108 0 0.015646106088454605 -0.0036168927061609188 0 0.017148200793058409 -0.0029682499457132487 0 0.01540367282926814 -0.0026262866397699087 0 0.021104701316248135 -0.00091764052500714513 0 0.021652937249946574 -0.0010793176621515556 0 0.020817554877758167 -0.0014074496720208707 0 0.021104701316248135 -0.00091764052500714513 0 0.020817554877758167 -0.0014074496720208707 0 0.020205931287348027 -0.0011096818194951201 0 0.017148200793058409 -0.0029682499457132487 0 0.015705706177776675 -0.0016477222744236896 0 0.017252917630952852 -0.00081714905219071733 0 0.017148200793058409 -0.0029682499457132487 0 0.01939413794712375 -0.0016486460161873214 0 0.017252917630952852 -0.00081714905219071733 0 0.017148200793058409 -0.0029682499457132487 0 0.015705706177776675 -0.0016477222744236896 0 0.01540367282926814 -0.0026262866397699087 0 0.01540367282926814 -0.0026262866397699087 0 0.014196837528914484 -0.0017926107729733184 0 0.014563945624479355 -0.0030519427890653488 0 0.015705706177776675 -0.0016477222744236896 0 0.01540367282926814 -0.0026262866397699087 0 0.014196837528914484 -0.0017926107729733184 0 0.015705706177776675 -0.0016477222744236896 0 0.014196837528914484 -0.0017926107729733184 0 0.014606808390215031 -0.00095638070726978858 0 0.014196837528914484 -0.0017926107729733184 0 0.013150616115166441 -0.0015493125269307711 0 0.013416454949653633 -0.0004635609839536273 0 0.014196837528914484 -0.0017926107729733184 0 0.013606431582528274 -0.0024850913236630066 0 0.014563945624479355 -0.0030519427890653488 0 0.014196837528914484 -0.0017926107729733184 0 0.013606431582528274 -0.0024850913236630066 0 0.013150616115166441 -0.0015493125269307711 0 0.013606431582528274 -0.0024850913236630066 0 0.014563945624479355 -0.0030519427890653488 0 0.013577766274052869 -0.003297624667706564 0 0.014563945624479355 -0.0030519427890653488 0 0.014112489702185704 -0.0038151886448928485 0 0.013577766274052869 -0.003297624667706564 0 0.014563945624479355 -0.0030519427890653488 0 0.014634075230634484 -0.0036470636210888061 0 0.014112489702185704 -0.0038151886448928485 0 0.015646106088454605 -0.0036168927061609188 0 0.014563945624479355 -0.0030519427890653488 0 0.014634075230634484 -0.0036470636210888061 0 0.015646106088454605 -0.0036168927061609188 0 0.01540367282926814 -0.0026262866397699087 0 0.014563945624479355 -0.0030519427890653488 0 0.021712552928643773 -0.00061992220219455794 0 0.021652937249946574 -0.0010793176621515556 0 0.022164075137510612 -0.00067663305858791897 0 0.015646106088454605 -0.0036168927061609188 0 0.014634075230634484 -0.0036470636210888061 0 0.014511018918087726 -0.0041254767541777093 0 0.022010003631377759 -0.00043186372716728206 0 0.021712552928643773 -0.00061992220219455794 0 0.022164075137510612 -0.00067663305858791897 0 0.01871827592626174 -0.0022753254253820663 0 0.018133207478427435 -0.0026876509242130531 0 0.014511018918087726 -0.0041254767541777093 0 0.014302963167351046 -0.0040231695196848568 0 0.014217212820048343 -0.0041472811116928833 0 0.013978882044437193 -0.0043899424498929336 0 0.014511018918087726 -0.0041254767541777093 0 0.014217212820048343 -0.0041472811116928833 0 0.014305683378201192 -0.0042686492743797535 0 0.014441579918581089 -0.0042468054999071428 0 0.014441579918581089 -0.0042468054999071428 0 0.014164717129607009 -0.003989329060476764 0 0.014217212820048343 -0.0041472811116928833 0 0.014090605656911752 -0.0042368711355294589 0 0.014112489702185704 -0.0038151886448928485 0 0.013788071174227038 -0.0044246556650772767 0 0.014112489702185704 -0.0038151886448928485 0 0.013597452881028888 -0.0039542014288537009 0 0.014112489702185704 -0.0038151886448928485 0 0.013597452881028888 -0.0039542014288537009 0 0.013577766274052869 -0.003297624667706564 0 0.014302963167351046 -0.0040231695196848568 0 0.014217212820048343 -0.0041472811116928833 0 0.014112489702185704 -0.0038151886448928485 0 0.014634075230634484 -0.0036470636210888061 0 0.014302963167351046 -0.0040231695196848568 0 0.014112489702185704 -0.0038151886448928485 0 0.014634075230634484 -0.0036470636210888061 0 0.014511018918087726 -0.0041254767541777093 0 0.014302963167351046 -0.0040231695196848568 0 0.012845435145752985 -0.0039299534717507738 0 0.013139965700920147 -0.0037095183335409251 0 0.013194795003467385 -0.0043677094929277073 0 0.013139965700920147 -0.0037095183335409251 0 0.013597452881028888 -0.0039542014288537009 0 0.013194795003467385 -0.0043677094929277073 0 0.013139965700920147 -0.0037095183335409251 0 0.013597452881028888 -0.0039542014288537009 0 0.013577766274052869 -0.003297624667706564 0 0.013788071174227038 -0.0044246556650772767 0 0.013597452881028888 -0.0039542014288537009 0 0.013194795003467385 -0.0043677094929277073 0 0.012845435145752985 -0.0039299534717507738 0 0.013194795003467385 -0.0043677094929277073 0 0.012770146964314385 -0.0044369574850105604 0 0.012845435145752985 -0.0039299534717507738 0 0.012576104789430258 -0.0044420223424422121 0 0.012378559274743156 -0.0027716187990459596 0 0.014597319440734955 2.5146021516973383e-05 0 0.014121491417020206 -5.925186332127373e-06 0 0.01422606051806076 -0.00011362178426563318 0 0.014121491417020206 -5.925186332127373e-06 0 0.013532947027684161 -0.00027639207972100208 0 0.01422606051806076 -0.00011362178426563318 0 0.012845435145752985 -0.0039299534717507738 0 0.012770146964314385 -0.0044369574850105604 0 0.012576104789430258 -0.0044420223424422121 0 0.01434573824864804 -0.0020526989020569521 0 0.012809575404363262 -0.0015953970444730118 0 0.013606431582528274 -0.0024850913236630066 0 0.012378559274743156 -0.0027716187990459596 0 0.013577766274052869 -0.003297624667706564 0 0.013139965700920147 -0.0037095183335409251 0 0.012378559274743156 -0.0027716187990459596 0 0.013577766274052869 -0.003297624667706564 0 0.012845435145752985 -0.0039299534717507738 0 0.013139965700920147 -0.0037095183335409251 0 0.012378559274743156 -0.0027716187990459596 0 0.013606431582528274 -0.0024850913236630066 0 0.012378559274743156 -0.0027716187990459596 0 0.013150616115166441 -0.0015493125269307711 0 0.013150616115166441 -0.0015493125269307711 0 0.012534056520682429 -0.00083527380779796587 0 0.012399679506650959 -0.00051324657216295978 0 0.012378559274743156 -0.0027716187990459596 0 0.013150616115166441 -0.0015493125269307711 0 0.012534056520682429 -0.00083527380779796587 0 0.013532947027684161 -0.00027639207972100208 0 0.012534056520682429 -0.00083527380779796587 0 0.013473443980514211 -0.00028461086589397943 0 0.012809575404363262 -0.0015953970444730118 0 0.012637881576568963 -0.00091561468483460366 0 0.012534056520682429 -0.00083527380779796587 0 0.013473443980514211 -0.00028461086589397943 0 0.01220362205805497 -0.00040492539556011704 0 0.013473443980514211 -0.00028461086589397943 0 0.013100747144002133 -5.5758626143031401e-07 0 0.01220362205805497 -0.00040492539556011704 0 0.013473443980514211 -0.00028461086589397943 0 0.013100747144002133 -5.5758626143031401e-07 0 0.014510591027962224 -2.843236936934015e-07 0 0.013473443980514211 -0.00028461086589397943 0 0.014510591027962224 -2.843236936934015e-07 0 0.014079684819064662 -0.00016368105554430914 0 0.014510591027962224 -2.843236936934015e-07 0 0.014079684819064662 -0.00016368105554430914 0 0.014766409959382073 -8.7812266540720693e-05 0 0.013532947027684161 -0.00027639207972100208 0 0.014079684819064662 -0.00016368105554430914 0 0.01422606051806076 -0.00011362178426563318 0 0.013532947027684161 -0.00027639207972100208 0 0.013473443980514211 -0.00028461086589397943 0 0.014079684819064662 -0.00016368105554430914 0 0.014079684819064662 -0.00016368105554430914 0 0.01422606051806076 -0.00011362178426563318 0 0.014766409959382073 -8.7812266540720693e-05 0 0.014597319440734955 2.5146021516973383e-05 0 0.01422606051806076 -0.00011362178426563318 0 0.014766409959382073 -8.7812266540720693e-05 0 0.015920978634426878 -4.455827244096069e-07 0 0.014510591027962224 -2.843236936934015e-07 0 0.014766409959382073 -8.7812266540720693e-05 0 0.020307248977781897 -0.00038688719375719229 0 0.020364655733907392 -0.00064232909499478197 0 0.020613291418511002 -0.00044461958347321657 0 0.020364655733907392 -0.00064232909499478197 0 0.020365282091771721 -0.00080155284914801652 0 0.020255555392015703 -0.00078079159966358666 0 0.020364655733907392 -0.00064232909499478197 0 0.020109099489910132 -0.00070391500226229164 0 0.020255555392015703 -0.00078079159966358666 0 0.020307248977781897 -0.00038688719375719229 0 0.020364655733907392 -0.00064232909499478197 0 0.020109099489910132 -0.00070391500226229164 0 0.019850294324244913 5.9602768022026079e-05 0 0.019598354426850855 0.00014106112640583854 0 0.019715828468576588 -0.00023717371405655122 0 0.019433438431234122 -6.4772128390482974e-05 0 0.019376311554915735 0.00025589408505856907 0 0.019598354426850855 0.00014106112640583854 0 0.019376311554915735 0.00025589408505856907 0 0.019334907274855376 0.0004815314542334378 0 0.01965176435368279 0.00040468117829873173 0 0.019376311554915735 0.00025589408505856907 0 0.019598354426850855 0.00014106112640583854 0 0.01965176435368279 0.00040468117829873173 0 0.019850294324244913 5.9602768022026079e-05 0 0.019598354426850855 0.00014106112640583854 0 0.01965176435368279 0.00040468117829873173 0 0.020007807022673966 -0.00033322641032356375 0 0.019616478018701995 7.0111431480605416e-05 0 0.020307248977781897 -0.00038688719375719229 0 0.020109099489910132 -0.00070391500226229164 0 0.019889963845207324 -0.00033501557860092881 0 0.020307248977781897 -0.00038688719375719229 0 0.019889963845207324 -0.00033501557860092881 0 0.020086357263871236 -5.2354206034158254e-05 0 0.019334907274855376 0.0004815314542334378 0 0.01965176435368279 0.00040468117829873173 0 0.019456907144477478 0.00073917962974994454 0 0.019616478018701995 7.0111431480605416e-05 0 0.020475350235046885 0.00042410448541050049 0 0.019889963845207324 -0.00033501557860092881 0 0.019633578912590204 9.3330836356744659e-05 0 0.020086357263871236 -5.2354206034158254e-05 0 0.021937965651299657 0.00051827604100853199 0 0.020475350235046885 0.00042410448541050049 0 0.020048892648961831 0.0003145136310687477 0 0.019633578912590204 9.3330836356744659e-05 0 0.020086357263871236 -5.2354206034158254e-05 0 0.020048892648961831 0.0003145136310687477 0 0.020086357263871236 -5.2354206034158254e-05 0 0.020357775438075574 0.00019479155194141798 0 0.020086357263871236 -5.2354206034158254e-05 0 0.020433659836837991 -4.8347302481918951e-05 0 0.020357775438075574 0.00019479155194141798 0 0.020307248977781897 -0.00038688719375719229 0 0.020086357263871236 -5.2354206034158254e-05 0 0.020433659836837991 -4.8347302481918951e-05 0 0.020307248977781897 -0.00038688719375719229 0 0.020433659836837991 -4.8347302481918951e-05 0 0.020714366977820399 -0.00015659538820484339 0 0.020307248977781897 -0.00038688719375719229 0 0.020714366977820399 -0.00015659538820484339 0 0.020613291418511002 -0.00044461958347321657 0 0.020752445697030619 0.00021633096004239366 0 0.020433659836837991 -4.8347302481918951e-05 0 0.020714366977820399 -0.00015659538820484339 0 0.020752445697030619 0.00021633096004239366 0 0.020433659836837991 -4.8347302481918951e-05 0 0.020357775438075574 0.00019479155194141798 0 0.020752445697030619 0.00021633096004239366 0 0.021078035051424488 4.9463547892934856e-05 0 0.020714366977820399 -0.00015659538820484339 0 0.021273058553616907 0.00040054144081739531 0 0.021078035051424488 4.9463547892934856e-05 0 0.021494971633388062 0.00018950782254560286 0 0.021494971633388062 0.00018950782254560286 0 0.021258443433835126 -1.9204422551930455e-05 0 0.021525004914368692 5.9296488807587732e-05 0 0.021078035051424488 4.9463547892934856e-05 0 0.021494971633388062 0.00018950782254560286 0 0.021258443433835126 -1.9204422551930455e-05 0 0.020959660759013676 -0.00019937302832459528 0 0.021208065660098689 -0.00016718153550218575 0 0.020834771472276508 -0.00044991113915746094 0 0.021078035051424488 4.9463547892934856e-05 0 0.021258443433835126 -1.9204422551930455e-05 0 0.020959660759013676 -0.00019937302832459528 0 0.021258443433835126 -1.9204422551930455e-05 0 0.020959660759013676 -0.00019937302832459528 0 0.021208065660098689 -0.00016718153550218575 0 0.020959660759013676 -0.00019937302832459528 0 0.020714366977820399 -0.00015659538820484339 0 0.020613291418511002 -0.00044461958347321657 0 0.021078035051424488 4.9463547892934856e-05 0 0.020959660759013676 -0.00019937302832459528 0 0.020714366977820399 -0.00015659538820484339 0 0.022057753080039155 0.00033992647823143942 0 0.022089753718854212 0.00027836713537846583 0 0.021773496543161412 0.00013962624639204493 0 0.022089753718854212 0.00027836713537846583 0 0.021831232226532347 7.1393533156809214e-05 0 0.021773496543161412 0.00013962624639204493 0 0.021829005196445445 0.00027874990943185557 0 0.022057753080039155 0.00033992647823143942 0 0.021773496543161412 0.00013962624639204493 0 0.021829005196445445 0.00027874990943185557 0 0.021773496543161412 0.00013962624639204493 0 0.021525004914368692 5.9296488807587732e-05 0 0.021829005196445445 0.00027874990943185557 0 0.021494971633388062 0.00018950782254560286 0 0.021525004914368692 5.9296488807587732e-05 0 0.021208065660098689 -0.00016718153550218575 0 0.021484249799258139 -9.3905691524973992e-05 0 0.021123334568700945 -0.00031708552245421492 0 0.021525004914368692 5.9296488807587732e-05 0 0.021208065660098689 -0.00016718153550218575 0 0.021484249799258139 -9.3905691524973992e-05 0 0.021258443433835126 -1.9204422551930455e-05 0 0.021525004914368692 5.9296488807587732e-05 0 0.021208065660098689 -0.00016718153550218575 0 0.021773496543161412 0.00013962624639204493 0 0.021525004914368692 5.9296488807587732e-05 0 0.021484249799258139 -9.3905691524973992e-05 0 0.021831232226532347 7.1393533156809214e-05 0 0.021575684082963113 -0.00017031822485619806 0 0.021484249799258139 -9.3905691524973992e-05 0 0.021831232226532347 7.1393533156809214e-05 0 0.021773496543161412 0.00013962624639204493 0 0.021484249799258139 -9.3905691524973992e-05 0 0.021575684082963113 -0.00017031822485619806 0 0.021484249799258139 -9.3905691524973992e-05 0 0.021258835071802186 -0.00031615694534852862 0 0.021575684082963113 -0.00017031822485619806 0 0.021258835071802186 -0.00031615694534852862 0 0.021282655424123536 -0.00041349337977819166 0 0.021258835071802186 -0.00031615694534852862 0 0.021123334568700945 -0.00031708552245421492 0 0.020824710694325125 -0.00060281700415069223 0 0.021123334568700945 -0.00031708552245421492 0 0.020824710694325125 -0.00060281700415069223 0 0.020834771472276508 -0.00044991113915746094 0 0.021484249799258139 -9.3905691524973992e-05 0 0.021258835071802186 -0.00031615694534852862 0 0.021123334568700945 -0.00031708552245421492 0 0.021258835071802186 -0.00031615694534852862 0 0.020824710694325125 -0.00060281700415069223 0 0.021282655424123536 -0.00041349337977819166 0 0.020824710694325125 -0.00060281700415069223 0 0.021282655424123536 -0.00041349337977819166 0 0.020954336005221817 -0.00067987524208911886 0 0.020959660759013676 -0.00019937302832459528 0 0.020613291418511002 -0.00044461958347321657 0 0.020834771472276508 -0.00044991113915746094 0 0.020613291418511002 -0.00044461958347321657 0 0.020834771472276508 -0.00044991113915746094 0 0.020530726506721792 -0.00064731093521091913 0 0.021208065660098689 -0.00016718153550218575 0 0.021123334568700945 -0.00031708552245421492 0 0.020834771472276508 -0.00044991113915746094 0 0.020834771472276508 -0.00044991113915746094 0 0.020603207529475052 -0.0006762535343319046 0 0.020530726506721792 -0.00064731093521091913 0 0.020824710694325125 -0.00060281700415069223 0 0.020834771472276508 -0.00044991113915746094 0 0.020603207529475052 -0.0006762535343319046 0 0.020603207529475052 -0.0006762535343319046 0 0.020530726506721792 -0.00064731093521091913 0 0.020432175078705317 -0.00079996163501134068 0 0.020364655733907392 -0.00064232909499478197 0 0.020613291418511002 -0.00044461958347321657 0 0.020530726506721792 -0.00064731093521091913 0 0.020364655733907392 -0.00064232909499478197 0 0.020530726506721792 -0.00064731093521091913 0 0.020365282091771721 -0.00080155284914801652 0 0.020530726506721792 -0.00064731093521091913 0 0.020365282091771721 -0.00080155284914801652 0 0.020432175078705317 -0.00079996163501134068 0 0.020432175078705317 -0.00079996163501134068 0 0.020354473205107266 -0.00090998421100981939 0 0.020207177773159262 -0.00095458694274697391 0 0.020365282091771721 -0.00080155284914801652 0 0.020432175078705317 -0.00079996163501134068 0 0.020207177773159262 -0.00095458694274697391 0 0.020603207529475052 -0.0006762535343319046 0 0.020432175078705317 -0.00079996163501134068 0 0.020354473205107266 -0.00090998421100981939 0 0.020824710694325125 -0.00060281700415069223 0 0.020603207529475052 -0.0006762535343319046 0 0.020354473205107266 -0.00090998421100981939 0 0.020354473205107266 -0.00090998421100981939 0 0.020146462499635354 -0.0010291308628516994 0 0.020205931287348027 -0.0011096818194951201 0 0.020354473205107266 -0.00090998421100981939 0 0.020146462499635354 -0.0010291308628516994 0 0.020207177773159262 -0.00095458694274697391 0 0.021104701316248135 -0.00091764052500714513 0 0.020954336005221817 -0.00067987524208911886 0 0.020205931287348027 -0.0011096818194951201 0 0.020954336005221817 -0.00067987524208911886 0 0.020505167100500515 -0.00085214800318531415 0 0.020205931287348027 -0.0011096818194951201 0 0.020824710694325125 -0.00060281700415069223 0 0.020954336005221817 -0.00067987524208911886 0 0.020505167100500515 -0.00085214800318531415 0 0.020354473205107266 -0.00090998421100981939 0 0.020505167100500515 -0.00085214800318531415 0 0.020205931287348027 -0.0011096818194951201 0 0.020824710694325125 -0.00060281700415069223 0 0.020354473205107266 -0.00090998421100981939 0 0.020505167100500515 -0.00085214800318531415 0 0.019006192140917328 -0.0021322185900990108 0 0.019433174596781923 -0.0016679122153078743 0 0.020817554877758167 -0.0014074496720208707 0 0.020205931287348027 -0.0011096818194951201 0 0.01939413794712375 -0.0016486460161873214 0 0.020205931287348027 -0.0011096818194951201 0 0.01939413794712375 -0.0016486460161873214 0 0.019947016308402635 -0.0011542792693227939 0 0.01939413794712375 -0.0016486460161873214 0 0.019947016308402635 -0.0011542792693227939 0 0.01969676384235397 -0.00089958857481413584 0 0.020146462499635354 -0.0010291308628516994 0 0.020207177773159262 -0.00095458694274697391 0 0.02012218832887136 -0.00085476023014745836 0 0.020146462499635354 -0.0010291308628516994 0 0.019947016308402635 -0.0011542792693227939 0 0.02012218832887136 -0.00085476023014745836 0 0.020146462499635354 -0.0010291308628516994 0 0.020205931287348027 -0.0011096818194951201 0 0.019947016308402635 -0.0011542792693227939 0 0.019947016308402635 -0.0011542792693227939 0 0.019960978005419065 -0.00087715834836245505 0 0.01969676384235397 -0.00089958857481413584 0 0.019947016308402635 -0.0011542792693227939 0 0.019960978005419065 -0.00087715834836245505 0 0.02012218832887136 -0.00085476023014745836 0 0.019960978005419065 -0.00087715834836245505 0 0.02012218832887136 -0.00085476023014745836 0 0.020025764215208852 -0.00077904215491727917 0 0.019996909117030167 -0.00075645338312536556 0 0.02012218832887136 -0.00085476023014745836 0 0.020025764215208852 -0.00077904215491727917 0 0.019996909117030167 -0.00075645338312536556 0 0.019987761762795229 -0.0007561400064977215 0 0.020025764215208852 -0.00077904215491727917 0 0.019931710489971565 -0.00075177938115147697 0 0.019996909117030167 -0.00075645338312536556 0 0.019987761762795229 -0.0007561400064977215 0 0.019931710489971565 -0.00075177938115147697 0 0.019815793486007316 -0.00080141834534080004 0 0.019987761762795229 -0.0007561400064977215 0 0.019931710489971565 -0.00075177938115147697 0 0.019996909117030167 -0.00075645338312536556 0 0.0198961770781373 -0.00068410914766895011 0 0.019996909117030167 -0.00075645338312536556 0 0.0198961770781373 -0.00068410914766895011 0 0.019954703211299545 -0.0006149597665826346 0 0.0198961770781373 -0.00068410914766895011 0 0.019954703211299545 -0.0006149597665826346 0 0.019758300646876358 -0.0004930896892292796 0 0.019954703211299545 -0.0006149597665826346 0 0.019839576107892498 -0.00042689381898014685 0 0.019758300646876358 -0.0004930896892292796 0 0.019954703211299545 -0.0006149597665826346 0 0.019998118834342861 -0.00043600290786468762 0 0.019839576107892498 -0.00042689381898014685 0 0.019954703211299545 -0.0006149597665826346 0 0.02012218832887136 -0.00085476023014745836 0 0.019998118834342861 -0.00043600290786468762 0 0.019996909117030167 -0.00075645338312536556 0 0.019954703211299545 -0.0006149597665826346 0 0.02012218832887136 -0.00085476023014745836 0 0.020138570762114009 -0.00082992315220084621 0 0.020129638510206427 -0.00061136416242729111 0 0.020207177773159262 -0.00095458694274697391 0 0.02012218832887136 -0.00085476023014745836 0 0.020249143326041517 -0.00092345410636251167 0 0.02012218832887136 -0.00085476023014745836 0 0.020050396841238997 -0.00030009011668305258 0 0.019998118834342861 -0.00043600290786468762 0 0.020207177773159262 -0.00095458694274697391 0 0.020249143326041517 -0.00092345410636251167 0 0.020276843957211698 -0.00087745393878737232 0 0.019979342812210255 -0.00041155248695673641 0 0.019686969642571061 -0.00021413206147361712 0 0.019998118834342861 -0.00043600290786468762 0 0.019839576107892498 -0.00042689381898014685 0 0.019649192137872279 -0.00016893150714317943 0 0.020050396841238997 -0.00030009011668305258 0 0.019998118834342861 -0.00043600290786468762 0 0.019715828468576588 -0.00023717371405655122 0 0.020007807022673966 -0.00033322641032356375 0 0.020129638510206427 -0.00061136416242729111 0 0.019850294324244913 5.9602768022026079e-05 0 0.020050396841238997 -0.00030009011668305258 0 0.019715828468576588 -0.00023717371405655122 0 0.020109099489910132 -0.00070391500226229164 0 0.020249143326041517 -0.00092345410636251167 0 0.020255555392015703 -0.00078079159966358666 0 0.020365282091771721 -0.00080155284914801652 0 0.020255555392015703 -0.00078079159966358666 0 0.020276843957211698 -0.00087745393878737232 0 0.020249143326041517 -0.00092345410636251167 0 0.020255555392015703 -0.00078079159966358666 0 0.020276843957211698 -0.00087745393878737232 0 0.020365282091771721 -0.00080155284914801652 0 0.020207177773159262 -0.00095458694274697391 0 0.020276843957211698 -0.00087745393878737232 0 0.019431224206580375 -6.8683094867315466e-05 0 0.019686969642571061 -0.00021413206147361712 0 0.019433438431234122 -6.4772128390482974e-05 0 0.019598354426850855 0.00014106112640583854 0 0.019715828468576588 -0.00023717371405655122 0 0.01942349490637834 -7.8852150928257912e-05 0 0.019649192137872279 -0.00016893150714317943 0 0.019458219290877855 -0.00020955747820126694 0 0.019649192137872279 -0.00016893150714317943 0 0.019409315182519538 -0.00036287994292173037 0 0.019758300646876358 -0.0004930896892292796 0 0.019839576107892498 -0.00042689381898014685 0 0.019649192137872279 -0.00016893150714317943 0 0.019758300646876358 -0.0004930896892292796 0 0.019376385957498594 -0.00022500722543612877 0 0.019458219290877855 -0.00020955747820126694 0 0.019409315182519538 -0.00036287994292173037 0 0.019649192137872279 -0.00016893150714317943 0 0.019458219290877855 -0.00020955747820126694 0 0.019409315182519538 -0.00036287994292173037 0 0.019401631318574461 -0.00025431407179667272 0 0.019409315182519538 -0.00036287994292173037 0 0.019245001222768961 -1.9774792416254187e-05 0 0.019414716530923522 -0.00036328634929645791 0 0.019501543273788863 -0.00037073173312946123 0 0.019409315182519538 -0.00036287994292173037 0 0.019758300646876358 -0.0004930896892292796 0 0.019815793486007316 -0.00080141834534080004 0 0.0198961770781373 -0.00068410914766895011 0 0.019758300646876358 -0.0004930896892292796 0 0.019815793486007316 -0.00080141834534080004 0 0.019409315182519538 -0.00036287994292173037 0 0.019245001222768961 -1.9774792416254187e-05 0 0.019161798596771033 3.7080887680270697e-05 0 0.019931710489971565 -0.00075177938115147697 0 0.0198961770781373 -0.00068410914766895011 0 0.019815793486007316 -0.00080141834534080004 0 0.019245001222768961 -1.9774792416254187e-05 0 0.019161798596771033 3.7080887680270697e-05 0 0.019208607304551418 3.861998746297544e-05 0 0.019150491568245227 8.4317591004730722e-05 0 0.019245001222768961 -1.9774792416254187e-05 0 0.019215363944555308 2.5324663136692433e-05 0 0.019447073406082167 -0.00010463593445433179 0 0.019153742366663722 -2.6475027099094151e-05 0 0.019401631318574461 -0.00025431407179667272 0 0.019413888557155364 -0.00025101740905404988 0 0.019245001222768961 -1.9774792416254187e-05 0 0.019245001222768961 -1.9774792416254187e-05 0 0.019215363944555308 2.5324663136692433e-05 0 0.019208607304551418 3.861998746297544e-05 0 0.019215363944555308 2.5324663136692433e-05 0 0.019185268401004211 7.8354691640593582e-05 0 0.019201848627989827 -5.4222861000199634e-06 0 0.019171908002837749 7.8181262103265689e-05 0 0.01894537398003154 5.1795736044430783e-05 0 0.019215363944555308 2.5324663136692433e-05 0 0.019208607304551418 3.861998746297544e-05 0 0.019185268401004211 7.8354691640593582e-05 0 0.019161798596771033 3.7080887680270697e-05 0 0.019185268401004211 7.8354691640593582e-05 0 0.019421301246283912 6.8270451390389011e-05 0 0.019185268401004211 7.8354691640593582e-05 0 0.019228041494562954 -4.2896733449674026e-05 0 0.019421301246283912 6.8270451390389011e-05 0 0.019161798596771033 3.7080887680270697e-05 0 0.019208607304551418 3.861998746297544e-05 0 0.019185268401004211 7.8354691640593582e-05 0 0.019185268401004211 7.8354691640593582e-05 0 0.019228041494562954 -4.2896733449674026e-05 0 0.018979831139471912 -0.00014793459368818437 0 0.019228041494562954 -4.2896733449674026e-05 0 0.018979831139471912 -0.00014793459368818437 0 0.01931809240773193 -0.00020613013914138375 0 0.019185268401004211 7.8354691640593582e-05 0 0.018979831139471912 -0.00014793459368818437 0 0.018760832349538206 0.00011627020702342792 0 0.018979831139471912 -0.00014793459368818437 0 0.018811724800817182 -0.00050246154014033768 0 0.018569448607434112 -0.00037281872521878468 0 0.018979831139471912 -0.00014793459368818437 0 0.019072269639811616 -0.00046479085175956422 0 0.018811724800817182 -0.00050246154014033768 0 0.018979831139471912 -0.00014793459368818437 0 0.019072269639811616 -0.00046479085175956422 0 0.01931809240773193 -0.00020613013914138375 0 0.019072269639811616 -0.00046479085175956422 0 0.019159805453101843 -0.00064530841597368479 0 0.018937062566153819 -0.00070610258480023776 0 0.019052959799541792 -0.00045726246574818828 0 0.019343739627143062 -0.00080708110331489263 0 0.019072269639811616 -0.00046479085175956422 0 0.018811724800817182 -0.00050246154014033768 0 0.018937062566153819 -0.00070610258480023776 0 0.019997209115440964 0.00012704726080014868 0 0.019843732712725957 -0.00027079437535819861 0 0.019824701327283631 -0.00015368816045923647 0 0.019879603460843557 -0.00027077513937459537 0 0.019854193345110391 -0.00027133514471642953 0 0.019750844169027837 -0.00071605391578217169 0 0.019488838280011432 -0.00045805612894594722 0 0.019843732712725957 -0.00027079437535819861 0 0.019997209115440964 0.00012704726080014868 0 0.019824701327283631 -0.00015368816045923647 0 0.019754026523284129 2.2441248269454803e-05 0 0.019997209115440964 0.00012704726080014868 0 0.019754026523284129 2.2441248269454803e-05 0 0.019861600373728191 0.00029641526566837815 0 0.019750844169027837 -0.00071605391578217169 0 0.019378067003578921 -0.00079450551255574506 0 0.019488838280011432 -0.00045805612894594722 0 0.019072269639811616 -0.00046479085175956422 0 0.019378067003578921 -0.00079450551255574506 0 0.019488838280011432 -0.00045805612894594722 0 0.019072269639811616 -0.00046479085175956422 0 0.019488838280011432 -0.00045805612894594722 0 0.01931809240773193 -0.00020613013914138375 0 0.019488838280011432 -0.00045805612894594722 0 0.019599558227998342 -0.0002126105358218692 0 0.019843732712725957 -0.00027079437535819861 0 0.019488838280011432 -0.00045805612894594722 0 0.01931809240773193 -0.00020613013914138375 0 0.019599558227998342 -0.0002126105358218692 0 0.019599558227998342 -0.0002126105358218692 0 0.019843732712725957 -0.00027079437535819861 0 0.019895216109347514 -0.00024944305837446213 0 0.019824701327283631 -0.00015368816045923647 0 0.019895216109347514 -0.00024944305837446213 0 0.019763207190183693 -0.0002065318840826851 0 0.019843732712725957 -0.00027079437535819861 0 0.019824701327283631 -0.00015368816045923647 0 0.019895216109347514 -0.00024944305837446213 0 0.019895216109347514 -0.00024944305837446213 0 0.019915808375234139 -0.0005571149314170606 0 0.020086814594605679 -0.00069044065056771055 0 0.019599558227998342 -0.0002126105358218692 0 0.019895216109347514 -0.00024944305837446213 0 0.019421301246283912 6.8270451390389011e-05 0 0.01987913069986327 -0.00026545743346727691 0 0.019746652718585233 -0.00031431170455569374 0 0.019895216109347514 -0.00024944305837446213 0 0.019915808375234139 -0.0005571149314170606 0 0.019820194308926502 -0.00035783568572105793 0 0.01931809240773193 -0.00020613013914138375 0 0.019599558227998342 -0.0002126105358218692 0 0.019421301246283912 6.8270451390389011e-05 0 0.019228041494562954 -4.2896733449674026e-05 0 0.01931809240773193 -0.00020613013914138375 0 0.019421301246283912 6.8270451390389011e-05 0 0.020086814594605679 -0.00069044065056771055 0 0.019987761762795229 -0.0007561400064977215 0 0.020025764215208852 -0.00077904215491727917 0 0.019501543273788863 -0.00037073173312946123 0 0.019746652718585233 -0.00031431170455569374 0 0.019815793486007316 -0.00080141834534080004 0 0.020086814594605679 -0.00069044065056771055 0 0.019987761762795229 -0.0007561400064977215 0 0.019915808375234139 -0.0005571149314170606 0 0.020086814594605679 -0.00069044065056771055 0 0.020025764215208852 -0.00077904215491727917 0 0.019915808375234139 -0.0005571149314170606 0 0.020025764215208852 -0.00077904215491727917 0 0.019863446664453482 -0.00067996464235077372 0 0.019960978005419065 -0.00087715834836245505 0 0.020025764215208852 -0.00077904215491727917 0 0.019863446664453482 -0.00067996464235077372 0 0.019960978005419065 -0.00087715834836245505 0 0.019863446664453482 -0.00067996464235077372 0 0.01969676384235397 -0.00089958857481413584 0 0.019863446664453482 -0.00067996464235077372 0 0.01969676384235397 -0.00089958857481413584 0 0.019383506566455534 -0.00041529604322501038 0 0.019863446664453482 -0.00067996464235077372 0 0.01960208771964379 -0.00038639764629129524 0 0.019383506566455534 -0.00041529604322501038 0 0.01960208771964379 -0.00038639764629129524 0 0.019383506566455534 -0.00041529604322501038 0 0.019357828717872509 -0.00019745545523536815 0 0.01960208771964379 -0.00038639764629129524 0 0.019791914104463144 -0.00045662093321459802 0 0.019638469878726719 -0.00022852088525250136 0 0.019915808375234139 -0.0005571149314170606 0 0.019820194308926502 -0.00035783568572105793 0 0.019791914104463144 -0.00045662093321459802 0 0.019820194308926502 -0.00035783568572105793 0 0.019791914104463144 -0.00045662093321459802 0 0.019638469878726719 -0.00022852088525250136 0 0.019915808375234139 -0.0005571149314170606 0 0.019863446664453482 -0.00067996464235077372 0 0.019791914104463144 -0.00045662093321459802 0 0.019863446664453482 -0.00067996464235077372 0 0.01960208771964379 -0.00038639764629129524 0 0.019791914104463144 -0.00045662093321459802 0 0.01939413794712375 -0.0016486460161873214 0 0.018953796166215425 -0.00040378295957197005 0 0.017252917630952852 -0.00081714905219071733 0 0.01939413794712375 -0.0016486460161873214 0 0.018953796166215425 -0.00040378295957197005 0 0.01969676384235397 -0.00089958857481413584 0 0.018953796166215425 -0.00040378295957197005 0 0.01969676384235397 -0.00089958857481413584 0 0.019383506566455534 -0.00041529604322501038 0 0.018953796166215425 -0.00040378295957197005 0 0.019383506566455534 -0.00041529604322501038 0 0.019020288350805027 -9.2079046998316938e-05 0 0.018953796166215425 -0.00040378295957197005 0 0.019020288350805027 -9.2079046998316938e-05 0 0.018587876966607075 -0.00016549400940891502 0 0.018877956110635377 -0.00036709421406687208 0 0.018029707345645851 0.00064625333508652283 0 0.019020288350805027 -9.2079046998316938e-05 0 0.018560001096505085 0.00035460409463729226 0 0.018587876966607075 -0.00016549400940891502 0 0.019383506566455534 -0.00041529604322501038 0 0.019020288350805027 -9.2079046998316938e-05 0 0.019357828717872509 -0.00019745545523536815 0 0.019020288350805027 -9.2079046998316938e-05 0 0.019357828717872509 -0.00019745545523536815 0 0.019384662563932651 6.4434196176978972e-05 0 0.019020288350805027 -9.2079046998316938e-05 0 0.019384662563932651 6.4434196176978972e-05 0 0.018950687867681226 0.00030644689420941711 0 0.019020288350805027 -9.2079046998316938e-05 0 0.018560001096505085 0.00035460409463729226 0 0.018950687867681226 0.00030644689420941711 0 0.019638469878726719 -0.00022852088525250136 0 0.019384662563932651 6.4434196176978972e-05 0 0.019620145228869578 -1.9566461876919668e-05 0 0.019763207190183693 -0.0002065318840826851 0 0.019638469878726719 -0.00022852088525250136 0 0.019620145228869578 -1.9566461876919668e-05 0 0.019824701327283631 -0.00015368816045923647 0 0.019763207190183693 -0.0002065318840826851 0 0.019754026523284129 2.2441248269454803e-05 0 0.019895216109347514 -0.00024944305837446213 0 0.019820194308926502 -0.00035783568572105793 0 0.019763207190183693 -0.0002065318840826851 0 0.019820194308926502 -0.00035783568572105793 0 0.019763207190183693 -0.0002065318840826851 0 0.019638469878726719 -0.00022852088525250136 0 0.019638469878726719 -0.00022852088525250136 0 0.019357828717872509 -0.00019745545523536815 0 0.019384662563932651 6.4434196176978972e-05 0 0.01960208771964379 -0.00038639764629129524 0 0.019638469878726719 -0.00022852088525250136 0 0.019357828717872509 -0.00019745545523536815 0 0.019384662563932651 6.4434196176978972e-05 0 0.019205119155312051 0.0004561689991012083 0 0.018950687867681226 0.00030644689420941711 0 0.019620145228869578 -1.9566461876919668e-05 0 0.019754026523284129 2.2441248269454803e-05 0 0.01955377762975934 0.00027865690895060598 0 0.019754026523284129 2.2441248269454803e-05 0 0.01955377762975934 0.00027865690895060598 0 0.019861600373728191 0.00029641526566837815 0 0.019384662563932651 6.4434196176978972e-05 0 0.019620145228869578 -1.9566461876919668e-05 0 0.01955377762975934 0.00027865690895060598 0 0.019763207190183693 -0.0002065318840826851 0 0.019620145228869578 -1.9566461876919668e-05 0 0.019754026523284129 2.2441248269454803e-05 0 0.01955377762975934 0.00027865690895060598 0 0.019357269954435458 0.00063903472284959303 0 0.019623511297756021 0.0006912199014603523 0 0.019992971375959796 0.00040650728234747544 0 0.018767279868239305 0.00056407741012501551 0 0.01955377762975934 0.00027865690895060598 0 0.019623511297756021 0.0006912199014603523 0 0.019933380329132028 0.00063333109438659988 0 0.01955377762975934 0.00027865690895060598 0 0.019205119155312051 0.0004561689991012083 0 0.019357269954435458 0.00063903472284959303 0 0.019384662563932651 6.4434196176978972e-05 0 0.01955377762975934 0.00027865690895060598 0 0.019205119155312051 0.0004561689991012083 0 0.019205119155312051 0.0004561689991012083 0 0.019357269954435458 0.00063903472284959303 0 0.019097248424659728 0.00081607708098305914 0 0.019357269954435458 0.00063903472284959303 0 0.019097248424659728 0.00081607708098305914 0 0.019309052746501357 0.00095541023599648946 0 0.019623511297756021 0.0006912199014603523 0 0.019577340170854936 0.0010130104914300578 0 0.019309052746501357 0.00095541023599648946 0 0.019623511297756021 0.0006912199014603523 0 0.019596861625250182 0.00098474446848884805 0 0.019933380329132028 0.00063333109438659988 0 0.019357269954435458 0.00063903472284959303 0 0.019623511297756021 0.0006912199014603523 0 0.019309052746501357 0.00095541023599648946 0 0.019531030696699769 0.00067905181824535262 0 0.018763810886081204 0.0011177325900588394 0 0.018560001096505085 0.00035460409463729226 0 0.018817871370887126 0.00061804338683810179 0 0.018470050705369938 0.000657839137409895 0 0.018560001096505085 0.00035460409463729226 0 0.018950687867681226 0.00030644689420941711 0 0.018817871370887126 0.00061804338683810179 0 0.019205119155312051 0.0004561689991012083 0 0.018950687867681226 0.00030644689420941711 0 0.018817871370887126 0.00061804338683810179 0 0.019205119155312051 0.0004561689991012083 0 0.019097248424659728 0.00081607708098305914 0 0.018817871370887126 0.00061804338683810179 0 0.019097248424659728 0.00081607708098305914 0 0.018817871370887126 0.00061804338683810179 0 0.01877236425465726 0.00095464472803662517 0 0.018817871370887126 0.00061804338683810179 0 0.018593908627984657 0.00084466388009222712 0 0.018470050705369938 0.000657839137409895 0 0.018817871370887126 0.00061804338683810179 0 0.018593908627984657 0.00084466388009222712 0 0.01877236425465726 0.00095464472803662517 0 0.018593908627984657 0.00084466388009222712 0 0.018470050705369938 0.000657839137409895 0 0.018305445788834796 0.00093168455704064192 0 0.018505221776779032 0.0010543906663069908 0 0.018592246625236092 0.0012506895204046455 0 0.018271108527827245 0.0012795879802799891 0 0.018593908627984657 0.00084466388009222712 0 0.018505221776779032 0.0010543906663069908 0 0.018305445788834796 0.00093168455704064192 0 0.018593908627984657 0.00084466388009222712 0 0.018505221776779032 0.0010543906663069908 0 0.01877236425465726 0.00095464472803662517 0 0.018505221776779032 0.0010543906663069908 0 0.01877236425465726 0.00095464472803662517 0 0.018592246625236092 0.0012506895204046455 0 0.01877236425465726 0.00095464472803662517 0 0.018950644270133762 0.0011754508489954249 0 0.018592246625236092 0.0012506895204046455 0 0.019097248424659728 0.00081607708098305914 0 0.01877236425465726 0.00095464472803662517 0 0.018950644270133762 0.0011754508489954249 0 0.018950644270133762 0.0011754508489954249 0 0.018709825810792863 0.0014296502356734915 0 0.018592246625236092 0.0012506895204046455 0 0.018950644270133762 0.0011754508489954249 0 0.018709825810792863 0.0014296502356734915 0 0.018912510669853683 0.0015072199375855625 0 0.018709825810792863 0.0014296502356734915 0 0.018592246625236092 0.0012506895204046455 0 0.018438957698753981 0.0015325567390621336 0 0.018592246625236092 0.0012506895204046455 0 0.018271108527827245 0.0012795879802799891 0 0.018438957698753981 0.0015325567390621336 0 0.018763810886081204 0.0011177325900588394 0 0.0191955203317563 0.0012703144169520868 0 0.019577340170854936 0.0010130104914300578 0 0.019309052746501357 0.00095541023599648946 0 0.019278181695849717 0.0012735506312037588 0 0.019097248424659728 0.00081607708098305914 0 0.018950644270133762 0.0011754508489954249 0 0.019309052746501357 0.00095541023599648946 0 0.018950644270133762 0.0011754508489954249 0 0.019309052746501357 0.00095541023599648946 0 0.019278181695849717 0.0012735506312037588 0 0.018950644270133762 0.0011754508489954249 0 0.019278181695849717 0.0012735506312037588 0 0.018912510669853683 0.0015072199375855625 0 0.0191955203317563 0.0012703144169520868 0 0.018939555337082633 0.0015032861492634286 0 0.019028051017118863 0.0013795451577842178 0 0.018912510669853683 0.0015072199375855625 0 0.019023087385838695 0.0014940213816594251 0 0.019028051017118863 0.0013795451577842178 0 0.019023087385838695 0.0014940213816594251 0 0.019143336952724934 0.0014799472603598918 0 0.019023087385838695 0.0014940213816594251 0 0.019143336952724934 0.0014799472603598918 0 0.019019109867267417 0.001615359696002247 0 0.019150406844075599 0.0012439762852352919 0 0.019028051017118863 0.0013795451577842178 0 0.019143336952724934 0.0014799472603598918 0 0.016843903291412346 0.00088396482496749481 0 0.016820210054944457 0.0010493981404600258 0 0.016925452299831632 0.00097302557577783088 0 0.018763810886081204 0.0011177325900588394 0 0.018026833772957218 0.0012421985699210068 0 0.016925452299831632 0.00097302557577783088 0 0.017018137021582235 0.0010246737369226312 0 0.01691089984254306 0.0011198221003675926 0 0.016925452299831632 0.00097302557577783088 0 0.017016900541152662 0.00090354385888676133 0 0.017018137021582235 0.0010246737369226312 0 0.016820210054944457 0.0010493981404600258 0 0.016925452299831632 0.00097302557577783088 0 0.01691089984254306 0.0011198221003675926 0 0.01403419605959772 0.00048344507028548288 0 0.014779577164276029 0.00086061945419845583 0 0.01694747745609191 0.00085586115945559507 0 0.017016900541152662 0.00090354385888676133 0 0.017014673632587296 0.00077908624276659981 0 0.016925452299831632 0.00097302557577783088 0 0.01694747745609191 0.00085586115945559507 0 0.017016900541152662 0.00090354385888676133 0 0.016843903291412346 0.00088396482496749481 0 0.016925452299831632 0.00097302557577783088 0 0.01694747745609191 0.00085586115945559507 0 0.015396787858720378 -0.00018002694481289615 0 0.018019057641143699 0.00023065605659665833 0 0.016059296335186539 0.00038431676883996749 0 0.015998845263311249 6.6074246183010532e-05 0 0.01565009128962444 0.00035266702884723209 0 0.016059296335186539 0.00038431676883996749 0 0.01565009128962444 0.00035266702884723209 0 0.016119853577134156 0.00070539478571321479 0 0.011677486482891889 -0.00028474355657439189 0 0.01211160436092759 -0.00063854673633571607 0 0.011787912539790368 -9.9831575351434925e-05 0 0.01403419605959772 0.00048344507028548288 0 0.015396787858720378 -0.00018002694481289615 0 0.016539116675282746 0.00075851999524149927 0 0.01403419605959772 0.00048344507028548288 0 0.01403419605959772 0.00048344507028548288 0 0.0098173963230363016 -0.00024271247458708238 0 0.011677486482891889 -0.00028474355657439189 0 0.011787912539790368 -9.9831575351434925e-05 0 0.011702513743520592 -3.309136837063197e-05 0 0.012296889082828484 -0.000487656648721232 0 0.01211160436092759 -0.00063854673633571607 0 0.011787912539790368 -9.9831575351434925e-05 0 0.0099952304213457403 -0.00092131059556563603 0 0.0090157921383020121 -0.00064992934168265259 0 0.0074075877168537424 -0.00080095702710028104 0 0.0073725892097789639 -0.00093766898201794397 0 0.0076390821437165267 -0.00095464546030130559 0 0.007958733483965556 -0.0006453189246904416 0 0.0075171657511303013 -0.00094861637738636727 0 0.0074164403578295514 -0.00066914027172442934 0 0.0099952304213457403 -0.00092131059556563603 0 0.0069304458730441929 -0.0010580829786426939 0 0.0074075877168537424 -0.00080095702710028104 0 0.0073725892097789639 -0.00093766898201794397 0 0.0072121874768035386 -0.0009915108353248383 0 0.013110735304921864 -0.00066073650914555047 0 0.012957059296831769 -0.00032895777402015293 0 0.012847503350652947 -0.00046293533275363816 0 0.015396787858720378 -0.00018002694481289615 0 0.016035594050973212 -0.00078073752575985621 0 0.0099952304213457403 -0.00092131059556563603 0 0.010118167585019574 -0.00034269676116631935 0 0.007958733483965556 -0.0006453189246904416 0 0.0075746914053812526 -0.00036619716910812422 0 0.0074164403578295514 -0.00066914027172442934 0 0.013110735304921864 -0.00066073650914555047 0 0.013246508429267889 -0.00056298490515535853 0 0.012957059296831769 -0.00032895777402015293 0 0.0099952304213457403 -0.00092131059556563603 0 0.015396787858720378 -0.00018002694481289615 0 0.018984826752513288 -0.001104040980089519 0 0.018774638012484527 -0.00093947437622030744 0 0.019107003855747765 -0.00082836984842785447 0 0.012957059296831769 -0.00032895777402015293 0 0.012968966608781198 -0.00033189270247042105 0 0.012847503350652947 -0.00046293533275363816 0 0.018774638012484527 -0.00093947437622030744 0 0.018937062566153819 -0.00070610258480023776 0 0.018507389328131733 -0.00076923510432633712 0 0.018811724800817182 -0.00050246154014033768 0 0.018937062566153819 -0.00070610258480023776 0 0.018507389328131733 -0.00076923510432633712 0 0.018774638012484527 -0.00093947437622030744 0 0.018937062566153819 -0.00070610258480023776 0 0.019107003855747765 -0.00082836984842785447 0 0.019159805453101843 -0.00064530841597368479 0 0.018937062566153819 -0.00070610258480023776 0 0.019107003855747765 -0.00082836984842785447 0 0.019159805453101843 -0.00064530841597368479 0 0.019286260605695417 -0.00080321398362140177 0 0.019107003855747765 -0.00082836984842785447 0 0.019750844169027837 -0.00071605391578217169 0 0.019378067003578921 -0.00079450551255574506 0 0.019684474084239213 -0.0011083831926540523 0 0.019343739627143062 -0.00080708110331489263 0 0.019234121900329117 -0.00033419611908298602 0 0.01955377762975934 0.00027865690895060598 0 0.019861600373728191 0.00029641526566837815 0 0.019960960585888005 0.00055845597346661712 0 0.019997209115440964 0.00012704726080014868 0 0.019861600373728191 0.00029641526566837815 0 0.020038831149056132 0.00047836154970806418 0 0.019879603460843557 -0.00027077513937459537 0 0.019234121900329117 -0.00033419611908298602 0 0.019861600373728191 0.00029641526566837815 0 0.020038831149056132 0.00047836154970806418 0 0.019960960585888005 0.00055845597346661712 0 0.016843903291412346 0.00088396482496749481 0 0.01694747745609191 0.00085586115945559507 0 0.016977033577882571 0.00074658782242391852 0 0.019234121900329117 -0.00033419611908298602 0 0.018767279868239305 0.00056407741012501551 0 0.018763810886081204 0.0011177325900588394 0 0.018767279868239305 0.00056407741012501551 0 0.018645424060750083 0.00022905402082862698 0 0.018630532983573561 0.00024471275808406044 0 0.018646223734875123 0.00025835734409875277 0 0.019234121900329117 -0.00033419611908298602 0 0.018019057641143699 0.00023065605659665833 0 0.018767279868239305 0.00056407741012501551 0 0.018019057641143699 0.00023065605659665833 0 0.01694747745609191 0.00085586115945559507 0 0.016977033577882571 0.00074658782242391852 0 0.017014673632587296 0.00077908624276659981 0 0.016539116675282746 0.00075851999524149927 0 0.018019057641143699 0.00023065605659665833 0 0.018984826752513288 -0.001104040980089519 0 0.019268300786167553 -0.00089774661978153354 0 0.019107003855747765 -0.00082836984842785447 0 0.019286260605695417 -0.00080321398362140177 0 0.019268300786167553 -0.00089774661978153354 0 0.019107003855747765 -0.00082836984842785447 0 0.010439821301654398 8.2313012742582769e-05 0 0.010280616285243379 -8.736725325826185e-08 0 0.0088706056508604161 3.7289600897322358e-07 0 0.010439821301654398 8.2313012742582769e-05 0 0.011450089329776411 -0.00020258426917332025 0 0.010280616285243379 -8.736725325826185e-08 0 0.011450089329776411 -0.00020258426917332025 0 0.010280616285243379 -8.736725325826185e-08 0 0.01169038772041592 -6.2525459086914124e-07 0 0.013100747144002133 -5.5758626143031401e-07 0 0.01169038772041592 -6.2525459086914124e-07 0 0.01220362205805497 -0.00040492539556011704 0 0.011450089329776411 -0.00020258426917332025 0 0.01169038772041592 -6.2525459086914124e-07 0 0.01220362205805497 -0.00040492539556011704 0 0.011450089329776411 -0.00020258426917332025 0 0.012399679506650959 -0.00051324657216295978 0 0.012495838139364526 0.00011230141885747587 0 0.011450089329776411 -0.00020258426917332025 0 0.01220362205805497 -0.00040492539556011704 0 0.012399679506650959 -0.00051324657216295978 0 0.012534056520682429 -0.00083527380779796587 0 0.01220362205805497 -0.00040492539556011704 0 0.012399679506650959 -0.00051324657216295978 0 0.013150616115166441 -0.0015493125269307711 0 0.012399679506650959 -0.00051324657216295978 0 0.013416454949653633 -0.0004635609839536273 0 0.012399679506650959 -0.00051324657216295978 0 0.012495838139364526 0.00011230141885747587 0 0.013416454949653633 -0.0004635609839536273 0 0.011450089329776411 -0.00020258426917332025 0 0.012495838139364526 0.00011230141885747587 0 0.011533996470046734 0.00027650145790156694 0 0.010439821301654398 8.2313012742582769e-05 0 0.011533996470046734 0.00027650145790156694 0 0.010602910110873319 0.00040248809164241029 0 0.010439821301654398 8.2313012742582769e-05 0 0.011450089329776411 -0.00020258426917332025 0 0.011533996470046734 0.00027650145790156694 0 0.012495838139364526 0.00011230141885747587 0 0.011533996470046734 0.00027650145790156694 0 0.012426382926770939 0.00071772826056320811 0 0.013178944183007734 0.00052180965362656295 0 0.012886025013611095 0.00093258483410830258 0 0.012426382926770939 0.00071772826056320811 0 0.012495838139364526 0.00011230141885747587 0 0.013178944183007734 0.00052180965362656295 0 0.012426382926770939 0.00071772826056320811 0 0.013178944183007734 0.00052180965362656295 0 0.013460852553007264 0.00078863384824674819 0 0.014225966515416603 0.00035989318540047348 0 0.013178944183007734 0.00052180965362656295 0 0.013460852553007264 0.00078863384824674819 0 0.012886025013611095 0.00093258483410830258 0 0.014359359765005377 0.0018203952079137182 0 0.014796295438582272 0.00096231313602155959 0 0.013178944183007734 0.00052180965362656295 0 0.013596448776186553 0.00013450814373281515 0 0.014225966515416603 0.00035989318540047348 0 0.012495838139364526 0.00011230141885747587 0 0.013178944183007734 0.00052180965362656295 0 0.013596448776186553 0.00013450814373281515 0 0.012495838139364526 0.00011230141885747587 0 0.013596448776186553 0.00013450814373281515 0 0.013416454949653633 -0.0004635609839536273 0 0.014196837528914484 -0.0017926107729733184 0 0.013416454949653633 -0.0004635609839536273 0 0.014606808390215031 -0.00095638070726978858 0 0.013416454949653633 -0.0004635609839536273 0 0.014606808390215031 -0.00095638070726978858 0 0.015425526367842042 -5.6576307040276134e-05 0 0.013596448776186553 0.00013450814373281515 0 0.013416454949653633 -0.0004635609839536273 0 0.015425526367842042 -5.6576307040276134e-05 0 0.013596448776186553 0.00013450814373281515 0 0.015425526367842042 -5.6576307040276134e-05 0 0.014225966515416603 0.00035989318540047348 0 0.015425526367842042 -5.6576307040276134e-05 0 0.017252917630952852 -0.00081714905219071733 0 0.017422250140908431 0.0014956679448415648 0 0.015326350316982693 -6.739559586525788e-05 0 0.014796295438582272 0.00096231313602155959 0 0.018953796166215425 -0.00040378295957197005 0 0.017252917630952852 -0.00081714905219071733 0 0.017422250140908431 0.0014956679448415648 0 0.015425526367842042 -5.6576307040276134e-05 0 0.017422250140908431 0.0014956679448415648 0 0.015273672344091757 0.0017023269693438893 0 0.015705706177776675 -0.0016477222744236896 0 0.014606808390215031 -0.00095638070726978858 0 0.015425526367842042 -5.6576307040276134e-05 0 0.015705706177776675 -0.0016477222744236896 0 0.015425526367842042 -5.6576307040276134e-05 0 0.017252917630952852 -0.00081714905219071733 0 0.017422250140908431 0.0014956679448415648 0 0.015273672344091757 0.0017023269693438893 0 0.016191643625982081 0.0029594585856281539 0 0.015200837515961971 0.0030229055652955402 0 0.015273672344091757 0.0017023269693438893 0 0.016191643625982081 0.0029594585856281539 0 0.018560001096505085 0.00035460409463729226 0 0.018587876966607075 -0.00016549400940891502 0 0.018150090570580278 0.00025387661923745265 0 0.018029707345645851 0.00064625333508652283 0 0.017148774824063101 0.0015977788754438123 0 0.018560001096505085 0.00035460409463729226 0 0.018150090570580278 0.00025387661923745265 0 0.01828965325920489 0.00051969301951041856 0 0.018150090570580278 0.00025387661923745265 0 0.01828965325920489 0.00051969301951041856 0 0.018046134394443206 0.00062514864517704673 0 0.01828965325920489 0.00051969301951041856 0 0.018046134394443206 0.00062514864517704673 0 0.018197695097066268 0.00071714629697761806 0 0.018560001096505085 0.00035460409463729226 0 0.018470050705369938 0.000657839137409895 0 0.01828965325920489 0.00051969301951041856 0 0.018150090570580278 0.00025387661923745265 0 0.018046134394443206 0.00062514864517704673 0 0.017771728672352095 0.0007220489778727978 0 0.015200837515961971 0.0030229055652955402 0 0.016191643625982081 0.0029594585856281539 0 0.015397470709042287 0.0038561114410269985 0 0.017148774824063101 0.0015977788754438123 0 0.016816734714837009 0.0023486697153286403 0 0.018004375818372869 0.00087070586719635459 0 0.017821171783707967 0.0010849912488122575 0 0.017771728672352095 0.0007220489778727978 0 0.018046134394443206 0.00062514864517704673 0 0.018004375818372869 0.00087070586719635459 0 0.018197695097066268 0.00071714629697761806 0 0.018046134394443206 0.00062514864517704673 0 0.018004375818372869 0.00087070586719635459 0 0.017771728672352095 0.0007220489778727978 0 0.018004375818372869 0.00087070586719635459 0 0.018197695097066268 0.00071714629697761806 0 0.018305445788834796 0.00093168455704064192 0 0.018470050705369938 0.000657839137409895 0 0.018197695097066268 0.00071714629697761806 0 0.018305445788834796 0.00093168455704064192 0 0.018470050705369938 0.000657839137409895 0 0.01828965325920489 0.00051969301951041856 0 0.018197695097066268 0.00071714629697761806 0 0.018505221776779032 0.0010543906663069908 0 0.018305445788834796 0.00093168455704064192 0 0.018271108527827245 0.0012795879802799891 0 0.018305445788834796 0.00093168455704064192 0 0.018084828029884207 0.0010899333323160566 0 0.018271108527827245 0.0012795879802799891 0 0.018004375818372869 0.00087070586719635459 0 0.018305445788834796 0.00093168455704064192 0 0.018084828029884207 0.0010899333323160566 0 0.018084828029884207 0.0010899333323160566 0 0.018271108527827245 0.0012795879802799891 0 0.018005144946705774 0.0013461787391763369 0 0.018271108527827245 0.0012795879802799891 0 0.018005144946705774 0.0013461787391763369 0 0.018166095952846066 0.0015323558187355945 0 0.018271108527827245 0.0012795879802799891 0 0.018166095952846066 0.0015323558187355945 0 0.018438957698753981 0.0015325567390621336 0 0.018005144946705774 0.0013461787391763369 0 0.017821171783707967 0.0010849912488122575 0 0.017704986166049281 0.001426091399290954 0 0.018005144946705774 0.0013461787391763369 0 0.017704986166049281 0.001426091399290954 0 0.017931082360335988 0.0016993860387871944 0 0.018084828029884207 0.0010899333323160566 0 0.018005144946705774 0.0013461787391763369 0 0.017821171783707967 0.0010849912488122575 0 0.018004375818372869 0.00087070586719635459 0 0.018084828029884207 0.0010899333323160566 0 0.017821171783707967 0.0010849912488122575 0 0.017821171783707967 0.0010849912488122575 0 0.017469525420387204 0.0011698747548896549 0 0.017771728672352095 0.0007220489778727978 0 0.014567888563462084 0.0020781518461451013 0 0.016816734714837009 0.0023486697153286403 0 0.014567888563462084 0.0020781518461451013 0 0.013920196885798267 0.0028073395647143602 0 0.017821171783707967 0.0010849912488122575 0 0.017469525420387204 0.0011698747548896549 0 0.017704986166049281 0.001426091399290954 0 0.017469525420387204 0.0011698747548896549 0 0.017704986166049281 0.001426091399290954 0 0.017361972514699359 0.0015969419803829022 0 0.01249547032621807 0.0019043059378992002 0 0.011617213538281294 0.0019785204049488124 0 0.01182121898593436 0.0023621695266592695 0 0.014567888563462084 0.0020781518461451013 0 0.015601703290311943 0.0014986355549487867 0 0.014567888563462084 0.0020781518461451013 0 0.012467259886789947 0.0021294465631425822 0 0.013347123406622642 0.0012756482114571095 0 0.01324455032040078 0.0015414658212002498 0 0.013137666718625445 0.0015201139367168916 0 0.01249547032621807 0.0019043059378992002 0 0.011888513412053657 0.001576860479001398 0 0.011617213538281294 0.0019785204049488124 0 0.01249547032621807 0.0019043059378992002 0 0.012403145553212489 0.0012624709066883265 0 0.011888513412053657 0.001576860479001398 0 0.01249547032621807 0.0019043059378992002 0 0.012403145553212489 0.0012624709066883265 0 0.012930636639716404 0.0013198672133631682 0 0.012403145553212489 0.0012624709066883265 0 0.012930636639716404 0.0013198672133631682 0 0.012886025013611095 0.00093258483410830258 0 0.014949761459901408 0.0043788308601344977 0 0.015397470709042287 0.0038561114410269985 0 0.015110020497693161 0.0038721426490128151 0 0.013460852553007264 0.00078863384824674819 0 0.012930636639716404 0.0013198672133631682 0 0.012886025013611095 0.00093258483410830258 0 0.014359359765005377 0.0018203952079137182 0 0.013920196885798267 0.0028073395647143602 0 0.015200837515961971 0.0030229055652955402 0 0.015397470709042287 0.0038561114410269985 0 0.015110020497693161 0.0038721426490128151 0 0.012403145553212489 0.0012624709066883265 0 0.012886025013611095 0.00093258483410830258 0 0.012426382926770939 0.00071772826056320811 0 0.011533996470046734 0.00027650145790156694 0 0.012426382926770939 0.00071772826056320811 0 0.011747842642452046 0.0010168196851463875 0 0.012403145553212489 0.0012624709066883265 0 0.012426382926770939 0.00071772826056320811 0 0.011747842642452046 0.0010168196851463875 0 0.011533996470046734 0.00027650145790156694 0 0.011747842642452046 0.0010168196851463875 0 0.010602910110873319 0.00040248809164241029 0 0.011747842642452046 0.0010168196851463875 0 0.010602910110873319 0.00040248809164241029 0 0.011054226075471039 0.0016254861658404442 0 0.010498115589367318 0.00033602234060488593 0 0.010214055831797825 0.00073977630525996513 0 0.011747842642452046 0.0010168196851463875 0 0.011054226075471039 0.0016254861658404442 0 0.011888513412053657 0.001576860479001398 0 0.012403145553212489 0.0012624709066883265 0 0.011747842642452046 0.0010168196851463875 0 0.011888513412053657 0.001576860479001398 0 0.011054226075471039 0.0016254861658404442 0 0.011888513412053657 0.001576860479001398 0 0.011617213538281294 0.0019785204049488124 0 0.011617213538281294 0.0019785204049488124 0 0.011047835517333359 0.0021123419775681569 0 0.011153185478788843 0.0023553942165539187 0 0.011617213538281294 0.0019785204049488124 0 0.011153185478788843 0.0023553942165539187 0 0.01182121898593436 0.0023621695266592695 0 0.0092584756724872225 -3.070339719017804e-05 0 0.009448168961084755 0.00037395533516394139 0 0.008428948692568267 5.5878486700478555e-06 0 0.010214055831797825 0.00073977630525996513 0 0.010242109788079315 0.0013419377291048753 0 0.011054226075471039 0.0016254861658404442 0 0.011617213538281294 0.0019785204049488124 0 0.011047835517333359 0.0021123419775681569 0 0.0092584756724872225 -3.070339719017804e-05 0 0.008428948692568267 5.5878486700478555e-06 0 0.0093147006913846912 9.9173652489445972e-05 0 0.009448168961084755 0.00037395533516394139 0 0.008428948692568267 5.5878486700478555e-06 0 0.0082150344385764629 0.00084509197796532804 0 0.008428948692568267 5.5878486700478555e-06 0 0.0074333318889230008 9.144519172478167e-05 0 0.0082150344385764629 0.00084509197796532804 0 0.0074333318889230008 9.144519172478167e-05 0 0.0074604338325960475 -1.0641976999160025e-06 0 0.0060517224900094669 3.8624876665404128e-06 0 0.0074333318889230008 9.144519172478167e-05 0 0.0060517224900094669 3.8624876665404128e-06 0 0.0082150344385764629 0.00084509197796532804 0 0.008428948692568267 5.5878486700478555e-06 0 0.0074333318889230008 9.144519172478167e-05 0 0.0074604338325960475 -1.0641976999160025e-06 0 0.008428948692568267 5.5878486700478555e-06 0 0.0074604338325960475 -1.0641976999160025e-06 0 0.0093147006913846912 9.9173652489445972e-05 0 0.0074604338325960475 -1.0641976999160025e-06 0 0.0093147006913846912 9.9173652489445972e-05 0 0.0088706056508604161 3.7289600897322358e-07 0 0.010602910110873319 0.00040248809164241029 0 0.0092584756724872225 -3.070339719017804e-05 0 0.0093147006913846912 9.9173652489445972e-05 0 0.010439821301654398 8.2313012742582769e-05 0 0.010602910110873319 0.00040248809164241029 0 0.0093147006913846912 9.9173652489445972e-05 0 0.010439821301654398 8.2313012742582769e-05 0 0.0093147006913846912 9.9173652489445972e-05 0 0.0088706056508604161 3.7289600897322358e-07 0 0.0037415901887961458 2.8471763616962679e-07 0 0.0025954210622783527 0.0001685120491277726 0 0.002378871057785155 -2.9702987840598145e-07 0 0.0025954210622783527 0.0001685120491277726 0 0.0019980745148345798 0.00052546555203471755 0 0.0022877420424894314 0.0012884542032549386 0 0.0025954210622783527 0.0001685120491277726 0 0.0017462281284452181 0.00012104367670377627 0 0.0019980745148345798 0.00052546555203471755 0 0.0019980745148345798 0.00052546555203471755 0 0.0022877420424894314 0.0012884542032549386 0 0.0014479805726895303 0.00061247309786371647 0 0.0025954210622783527 0.0001685120491277726 0 0.0022877420424894314 0.0012884542032549386 0 0.0032819669204551525 0.0020000958244537031 0 0.0045053090318692866 0.0012517588831207484 0 0.0050467489346106131 -3.3597931377155633e-05 0 0.0045053090318692866 0.0012517588831207484 0 0.004528324207786827 0.0006867732031315861 0 0.0025141836742394422 0.00019681214351428098 0 0.004528324207786827 0.0006867732031315861 0 0.0037415901887961458 2.8471763616962679e-07 0 0.0042545871232665348 0.000128074745895215 0 0.0051039731363777142 6.5780875549879268e-07 0 0.0037415901887961458 2.8471763616962679e-07 0 0.0025954210622783527 0.0001685120491277726 0 0.0042545871232665348 0.000128074745895215 0 0.004528324207786827 0.0006867732031315861 0 0.0060177033897026938 0.00055804154923155141 0 0.0052937904651527484 0.00014677979726559679 0 0.0051061282747261374 1.2846720353267852e-08 0 0.0052490149886247218 -5.4787012062591339e-05 0 0.004528324207786827 0.0006867732031315861 0 0.0051046631215462381 2.7872682966921081e-07 0 0.0059392183336206706 0.00066268494124340773 0 0.0057451142593236745 0.000123311578946282 0 0.0067925046795969599 0.00032951188410770685 0 0.0051061282747261374 1.2846720353267852e-08 0 0.0052490149886247218 -5.4787012062591339e-05 0 0.0054150185311723723 -4.4329780594188272e-09 0 0.0060177033897026938 0.00055804154923155141 0 0.0054162039356664285 8.3940290216453753e-07 0 0.0060177033897026938 0.00055804154923155141 0 0.0060494360576864806 5.4677010574062695e-07 0 0.0066372746154876022 0.0020849297483589483 0 0.0060517224900094669 3.8624876665404128e-06 0 0.0082150344385764629 0.00084509197796532804 0 0.0053682329563044511 9.4680366672181929e-07 0 0.0054166867209837497 5.8372913031362245e-09 0 0.0060487467202778025 -2.4831622334593551e-09 0 0.0066372746154876022 0.0020849297483589483 0 0.0082150344385764629 0.00084509197796532804 0 0.0091705099034391398 0.0028546611332232168 0 0.0082150344385764629 0.00084509197796532804 0 0.0091705099034391398 0.0028546611332232168 0 0.0093105774245890571 0.0016442791974929914 0 0.009448168961084755 0.00037395533516394139 0 0.0082150344385764629 0.00084509197796532804 0 0.0093105774245890571 0.0016442791974929914 0 0.0065632085291691062 0.0011180495081069962 0 0.0059392183336206706 0.00066268494124340773 0 0.0067925046795969599 0.00032951188410770685 0 0.0060177033897026938 0.00055804154923155141 0 0.0078911041371997875 0.0016946194364536077 0 0.0065632085291691062 0.0011180495081069962 0 0.0067925046795969599 0.00032951188410770685 0 0.0078501430846383106 0.00053888065692105384 0 0.010347593075678856 0.0026736594097555252 0 0.011153185478788843 0.0023553942165539187 0 0.011249167271644425 0.0031844573286320694 0 0.0078911041371997875 0.0016946194364536077 0 0.010345247235234551 0.00099069943840994924 0 0.0091705099034391398 0.0028546611332232168 0 0.010347593075678856 0.0026736594097555252 0 0.011249167271644425 0.0031844573286320694 0 0.0091705099034391398 0.0028546611332232168 0 0.010347593075678856 0.0026736594097555252 0 0.0093105774245890571 0.0016442791974929914 0 0.010242109788079315 0.0013419377291048753 0 0.010348762583806955 0.0026577771734457327 0 0.009448168961084755 0.00037395533516394139 0 0.010347593075678856 0.0026736594097555252 0 0.0093105774245890571 0.0016442791974929914 0 0.011047835517333359 0.0021123419775681569 0 0.010347593075678856 0.0026736594097555252 0 0.011153185478788843 0.0023553942165539187 0 0.010345247235234551 0.00099069943840994924 0 0.012467259886789947 0.0021294465631425822 0 0.011153185478788843 0.0023553942165539187 0 0.011249167271644425 0.0031844573286320694 0 0.01182121898593436 0.0023621695266592695 0 0.012928259972950841 0.0017977286438403983 0 0.013155664716796195 0.0018409874995965957 0 0.013137666718625445 0.0015201139367168916 0 0.010345247235234551 0.00099069943840994924 0 0.013449419600389111 0.0011501560608625583 0 0.0094205741255235197 -0.00087762937349936435 0 0.0093787835112977801 -0.00094564179722785035 0 0.0093484330192768594 -0.00090785511328183752 0 0.0094205741255235197 -0.00087762937349936435 0 0.0093787835112977801 -0.00094564179722785035 0 0.0094043417298388995 -0.0010094284523231114 0 0.0090384249996817469 -0.00086157273749065775 0 0.010619784574910324 9.5735600937763897e-05 0 0.0093787835112977801 -0.00094564179722785035 0 0.0094043417298388995 -0.0010094284523231114 0 0.0093560110448346837 -0.00097959331003337111 0 0.0094043417298388995 -0.0010094284523231114 0 0.0093715002718299609 -0.0011117070903195322 0 0.0092651432465276507 -0.0010354543004229193 0 0.0094205741255235197 -0.00087762937349936435 0 0.0094043417298388995 -0.0010094284523231114 0 0.0094944280086028104 -0.0010673608388688191 0 0.010345247235234551 0.00099069943840994924 0 0.0050467489346106131 -3.3597931377155633e-05 0 0.0065632085291691062 0.0011180495081069962 0 0.0078501430846383106 0.00053888065692105384 0 0.0071900872702389037 0.0015727828407084091 0 0.0017462281284452181 0.00012104367670377627 0 0.0015334109857704661 0.00035169495667601255 0 0.0013417442576181403 1.6823140194099458e-05 0 0.0015334109857704661 0.00035169495667601255 0 0.0012495240783763704 4.3118114280327365e-05 0 0.0013417442576181403 1.6823140194099458e-05 0 0.0050467489346106131 -3.3597931377155633e-05 0 0.0053738255713007875 -0.00058456056547295462 0 0.0017462281284452181 0.00012104367670377627 0 0.0019980745148345798 0.00052546555203471755 0 0.0014479805726895303 0.00061247309786371647 0 0.0020277346947655118 0.00092979126195659261 0 0.0050467489346106131 -3.3597931377155633e-05 0 0.0094043417298388995 -0.0010094284523231114 0 0.0094944280086028104 -0.0010673608388688191 0 0.0093715002718299609 -0.0011117070903195322 0 0.0092910671061755667 -0.0011536337146801942 0 0.0092450639232837424 -0.0012408915741663326 0 0.009352293094700535 -0.0012197449019075348 0 0.0094944280086028104 -0.0010673608388688191 0 0.0093715002718299609 -0.0011117070903195322 0 0.009352293094700535 -0.0012197449019075348 0 0.0093715002718299609 -0.0011117070903195322 0 0.0092910671061755667 -0.0011536337146801942 0 0.009352293094700535 -0.0012197449019075348 0 0.0093715002718299609 -0.0011117070903195322 0 0.0092910671061755667 -0.0011536337146801942 0 0.0092651432465276507 -0.0010354543004229193 0 0.0099404449872709678 -0.0010478329394877431 0 0.010619784574910324 9.5735600937763897e-05 0 0.0092910671061755667 -0.0011536337146801942 0 0.009211914524677808 -0.0011989479320083573 0 0.0092911739566737955 -0.0011077089667248065 0 0.0092910671061755667 -0.0011536337146801942 0 0.009211914524677808 -0.0011989479320083573 0 0.0092450639232837424 -0.0012408915741663326 0 0.009211914524677808 -0.0011989479320083573 0 0.009131271219815898 -0.0011497842582765478 0 0.0092911739566737955 -0.0011077089667248065 0 0.009211914524677808 -0.0011989479320083573 0 0.0091286907497816466 -0.0012451162543708465 0 0.009131271219815898 -0.0011497842582765478 0 0.015510607593676617 0.0024062326148646916 0 0.013159331695842758 0.00091179911712956465 0 0.01576193643659661 0.0014772297565955373 0 0.012354162438449886 0.00066983100970454594 0 0.010619784574910324 9.5735600937763897e-05 0 0.013449419600389111 0.0011501560608625583 0 0.017173961402993987 0.0018759483827025913 0 0.015510607593676617 0.0024062326148646916 0 0.012845333651961341 0.0022297592423051586 0 0.013159331695842758 0.00091179911712956465 0 0.0093787835112977801 -0.00094564179722785035 0 0.0093560110448346837 -0.00097959331003337111 0 0.0093484330192768594 -0.00090785511328183752 0 0.010619784574910324 9.5735600937763897e-05 0 0.013449419600389111 0.0011501560608625583 0 0.017236267016152829 0.0020226000000349419 0 0.017361972514699359 0.0015969419803829022 0 0.017541274600464753 0.00189832892197831 0 0.013449419600389111 0.0011501560608625583 0 0.015601703290311943 0.0014986355549487867 0 0.013155664716796195 0.0018409874995965957 0 0.01324455032040078 0.0015414658212002498 0 0.013137666718625445 0.0015201139367168916 0 0.017361972514699359 0.0015969419803829022 0 0.017666369609368782 0.0017155198674145917 0 0.017541274600464753 0.00189832892197831 0 0.017704986166049281 0.001426091399290954 0 0.017361972514699359 0.0015969419803829022 0 0.017666369609368782 0.0017155198674145917 0 0.017666369609368782 0.0017155198674145917 0 0.017541274600464753 0.00189832892197831 0 0.017756803738566303 0.0018716646465693828 0 0.017236267016152829 0.0020226000000349419 0 0.017541274600464753 0.00189832892197831 0 0.017755458038405773 0.0021002972266253341 0 0.017541274600464753 0.00189832892197831 0 0.017756803738566303 0.0018716646465693828 0 0.017755458038405773 0.0021002972266253341 0 0.017889163533409413 0.0019342106791410425 0 0.017756803738566303 0.0018716646465693828 0 0.017755458038405773 0.0021002972266253341 0 0.017889163533409413 0.0019342106791410425 0 0.017756803738566303 0.0018716646465693828 0 0.017931082360335988 0.0016993860387871944 0 0.017889163533409413 0.0019342106791410425 0 0.017931082360335988 0.0016993860387871944 0 0.018040795501279835 0.001900724249835077 0 0.017704986166049281 0.001426091399290954 0 0.017666369609368782 0.0017155198674145917 0 0.017931082360335988 0.0016993860387871944 0 0.017666369609368782 0.0017155198674145917 0 0.017756803738566303 0.0018716646465693828 0 0.017931082360335988 0.0016993860387871944 0 0.018005144946705774 0.0013461787391763369 0 0.017931082360335988 0.0016993860387871944 0 0.018166095952846066 0.0015323558187355945 0 0.017931082360335988 0.0016993860387871944 0 0.018166095952846066 0.0015323558187355945 0 0.018222980363299678 0.0017754090405199228 0 0.018166095952846066 0.0015323558187355945 0 0.018222980363299678 0.0017754090405199228 0 0.018438957698753981 0.0015325567390621336 0 0.018222980363299678 0.0017754090405199228 0 0.018040795501279835 0.001900724249835077 0 0.01814645993152348 0.0019689767595260942 0 0.017931082360335988 0.0016993860387871944 0 0.018222980363299678 0.0017754090405199228 0 0.018040795501279835 0.001900724249835077 0 0.018040795501279835 0.001900724249835077 0 0.01814645993152348 0.0019689767595260942 0 0.017996314201346432 0.0020300724409085839 0 0.017889163533409413 0.0019342106791410425 0 0.018040795501279835 0.001900724249835077 0 0.017996314201346432 0.0020300724409085839 0 0.01814645993152348 0.0019689767595260942 0 0.018109574334297225 0.0020520251895795906 0 0.018250273982937333 0.0020487073609900689 0 0.018109574334297225 0.0020520251895795906 0 0.018087950697375326 0.002136231452275129 0 0.017996314201346432 0.0020300724409085839 0 0.01814645993152348 0.0019689767595260942 0 0.018109574334297225 0.0020520251895795906 0 0.017996314201346432 0.0020300724409085839 0 0.018087950697375326 0.002136231452275129 0 0.01576193643659661 0.0014772297565955373 0 0.017980615327467298 0.0025071961283071932 0 0.018087950697375326 0.002136231452275129 0 0.017996314201346432 0.0020300724409085839 0 0.017755458038405773 0.0021002972266253341 0 0.018109574334297225 0.0020520251895795906 0 0.018087950697375326 0.002136231452275129 0 0.018250273982937333 0.0020487073609900689 0 0.017889163533409413 0.0019342106791410425 0 0.017996314201346432 0.0020300724409085839 0 0.017755458038405773 0.0021002972266253341 0 0.015510607593676617 0.0024062326148646916 0 0.01576193643659661 0.0014772297565955373 0 0.017980615327467298 0.0025071961283071932 0 0.017835801285295022 0.0020717066484202025 0 0.017173961402993987 0.0018759483827025913 0 0.012354162438449886 0.00066983100970454594 0 0.013789148388213844 0.00075751361922956229 0 0.009131271219815898 -0.0011497842582765478 0 0.0090326446185979865 -0.0012539450507867062 0 0.0089950122883373142 -0.001227206372703106 0 0.0091286907497816466 -0.0012451162543708465 0 0.009131271219815898 -0.0011497842582765478 0 0.0090326446185979865 -0.0012539450507867062 0 0.0089950122883373142 -0.001227206372703106 0 0.0089618193283086591 -0.0012779200278823972 0 0.0089613154675339066 -0.001296212440042832 0 0.0090326446185979865 -0.0012539450507867062 0 0.0089950122883373142 -0.001227206372703106 0 0.0089618193283086591 -0.0012779200278823972 0 0.0089801697515736988 -0.0013183651718363875 0 0.0088683133799818941 -0.0012926643992351456 0 0.008911434847168942 -0.0014314764472096481 0 0.0089801697515736988 -0.0013183651718363875 0 0.0088683133799818941 -0.0012926643992351456 0 0.0089618193283086591 -0.0012779200278823972 0 0.0089801697515736988 -0.0013183651718363875 0 0.0090245294895979229 -0.0014067846880867203 0 0.008911434847168942 -0.0014314764472096481 0 0.0088683133799818941 -0.0012926643992351456 0 0.0089618193283086591 -0.0012779200278823972 0 0.0089613154675339066 -0.001296212440042832 0 0.0090326446185979865 -0.0012539450507867062 0 0.0089801697515736988 -0.0013183651718363875 0 0.0089618193283086591 -0.0012779200278823972 0 0.0090326446185979865 -0.0012539450507867062 0 0.0089801697515736988 -0.0013183651718363875 0 0.009090566647075117 -0.0013186948179216859 0 0.0091286907497816466 -0.0012451162543708465 0 0.0090326446185979865 -0.0012539450507867062 0 0.009090566647075117 -0.0013186948179216859 0 0.009090566647075117 -0.0013186948179216859 0 0.0090245294895979229 -0.0014067846880867203 0 0.0090985879720092578 -0.0013938511168668291 0 0.009090566647075117 -0.0013186948179216859 0 0.0090985879720092578 -0.0013938511168668291 0 0.0091344380916719183 -0.0013516052669267182 0 0.0089801697515736988 -0.0013183651718363875 0 0.009090566647075117 -0.0013186948179216859 0 0.0090245294895979229 -0.0014067846880867203 0 0.0090245294895979229 -0.0014067846880867203 0 0.0090843276898129668 -0.0014917393796818597 0 0.0089702400061421102 -0.0015564578647445039 0 0.0090245294895979229 -0.0014067846880867203 0 0.0090985879720092578 -0.0013938511168668291 0 0.0090843276898129668 -0.0014917393796818597 0 0.0090985879720092578 -0.0013938511168668291 0 0.0090843276898129668 -0.0014917393796818597 0 0.009146125749599044 -0.0014158780713349611 0 0.0073074562380264496 -0.0010802239032866058 0 0.0060213909457508237 -0.0010850924624420525 0 0.0090843276898129668 -0.0014917393796818597 0 0.009067262166726665 -0.0016433406999166607 0 0.0091699882824216629 -0.0014850472631113775 0 0.0090843276898129668 -0.0014917393796818597 0 0.0089702400061421102 -0.0015564578647445039 0 0.009067262166726665 -0.0016433406999166607 0 0.0089702400061421102 -0.0015564578647445039 0 0.008911434847168942 -0.0014314764472096481 0 0.0088256975993458286 -0.0016135711984119091 0 0.0090245294895979229 -0.0014067846880867203 0 0.0089702400061421102 -0.0015564578647445039 0 0.008911434847168942 -0.0014314764472096481 0 0.0088683133799818941 -0.0012926643992351456 0 0.008911434847168942 -0.0014314764472096481 0 0.0087162130329551182 -0.0015193409383155365 0 0.008911434847168942 -0.0014314764472096481 0 0.0088256975993458286 -0.0016135711984119091 0 0.0087162130329551182 -0.0015193409383155365 0 0.0088256975993458286 -0.0016135711984119091 0 0.0087162130329551182 -0.0015193409383155365 0 0.0086488812821545781 -0.0017629375414815395 0 0.0049223424773679773 -0.0013442972052643961 0 0.005551972639702871 -0.0017068591960459742 0 0.0089702400061421102 -0.0015564578647445039 0 0.0088256975993458286 -0.0016135711984119091 0 0.0088865879732236974 -0.0018478168305120087 0 0.0088865879732236974 -0.0018478168305120087 0 0.0086488812821545781 -0.0017629375414815395 0 0.0085657823365362547 -0.002008633888548684 0 0.0088256975993458286 -0.0016135711984119091 0 0.0088865879732236974 -0.0018478168305120087 0 0.0086488812821545781 -0.0017629375414815395 0 0.0049223424773679773 -0.0013442972052643961 0 0.0024710945604462398 -0.0019318490458740043 0 0.0025302613015579555 -0.001342410601926938 0 0.0024528036243357202 -0.0014178448998926492 0 0.0023988473896401903 -0.0014369708738586251 0 0.0025108759131266963 -0.001341192916022868 0 0.0024528036243357202 -0.0014178448998926492 0 0.0025156557509578331 -0.0014262335544362168 0 0.0025156557509578331 -0.0014262335544362168 0 0.0024591372718898445 -0.0014902480445530642 0 0.0025593631097567695 -0.0014922032053041813 0 0.0024528036243357202 -0.0014178448998926492 0 0.0025156557509578331 -0.0014262335544362168 0 0.0024591372718898445 -0.0014902480445530642 0 0.0024528036243357202 -0.0014178448998926492 0 0.0024591372718898445 -0.0014902480445530642 0 0.002414778388382042 -0.0014778924057684956 0 0.0026594483969884807 -0.0014720679788043794 0 0.0025593631097567695 -0.0014922032053041813 0 0.0026227827504003102 -0.001392781889848886 0 0.0025156557509578331 -0.0014262335544362168 0 0.0025593631097567695 -0.0014922032053041813 0 0.0026227827504003102 -0.001392781889848886 0 0.0025108759131266963 -0.001341192916022868 0 0.0025156557509578331 -0.0014262335544362168 0 0.0026227827504003102 -0.001392781889848886 0 0.0089702400061421102 -0.0015564578647445039 0 0.0088865879732236974 -0.0018478168305120087 0 0.009067262166726665 -0.0016433406999166607 0 0.0025108759131266963 -0.001341192916022868 0 0.0026227827504003102 -0.001392781889848886 0 0.0027399153331372278 -0.0012284002246583179 0 0.0049223424773679773 -0.0013442972052643961 0 0.0025551050991783181 -0.0005289536568852674 0 0.0051820184903217017 -0.00099792414707670441 0 0.0050872863124280772 -0.0010574653503376626 0 0.0049752416815242902 -0.0010560930909094886 0 0.0049223424773679773 -0.0013442972052643961 0 0.0073074562380264496 -0.0010802239032866058 0 0.0026227827504003102 -0.001392781889848886 0 0.0027399153331372278 -0.0012284002246583179 0 0.002779535220971584 -0.0014114424337556789 0 0.00039733666415244455 -0.00026648949510977774 0 0.00045000056152368583 -0.00032254457565774995 0 0.00044978454286868734 -0.00029241941175218414 0 0.0025551050991783181 -0.0005289536568852674 0 0.0015579610868068125 -0.00086157260168619849 0 0.0026594483969884807 -0.0014720679788043794 0 0.0026227827504003102 -0.001392781889848886 0 0.002779535220971584 -0.0014114424337556789 0 0.00028956613363114695 -0.0002463754011801386 0 0.0003886227287735577 -0.00026998794502184806 0 0.00047721612437174671 -0.00034481738631865244 0 0.00045000056152368583 -0.00032254457565774995 0 0.0003886227287735577 -0.00026998794502184806 0 0.00047721612437174671 -0.00034481738631865244 0 0.00039733666415244455 -0.00026648949510977774 0 0.00044978454286868734 -0.00029241941175218414 0 0.00052172506999736143 -0.00014776341535979796 0 0.00047721612437174671 -0.00034481738631865244 0 0.00044978454286868734 -0.00029241941175218414 0 0.00052172506999736143 -0.00014776341535979796 0 0.00045000056152368583 -0.00032254457565774995 0 0.00047721612437174671 -0.00034481738631865244 0 0.00044978454286868734 -0.00029241941175218414 0 0.0017080763406519407 0.00028174617195955102 0 0.0013440072638722905 0.00013768640767088176 0 0.0015391593538464771 0.00011800456196013896 0 0.0025551050991783181 -0.0005289536568852674 0 0.00067242734598143335 -2.3690263588195272e-05 0 0.0013440072638722905 0.00013768640767088176 0 0.0014226282826416273 -3.2372553848335962e-05 0 0.0012662196991542393 -4.1364886983160182e-06 0 0.0013440072638722905 0.00013768640767088176 0 0.0015391593538464771 0.00011800456196013896 0 0.0014226282826416273 -3.2372553848335962e-05 0 0.0017080763406519407 0.00028174617195955102 0 0.0015391593538464771 0.00011800456196013896 0 0.0017480047435834405 0.00013012646975790499 0 0.0091450915898183428 -0.0014474703149352684 0 0.009146125749599044 -0.0014158780713349611 0 0.0092337684491092097 -0.0013374211776545901 0 0.0015391593538464771 0.00011800456196013896 0 0.0017480047435834405 0.00013012646975790499 0 0.0014226282826416273 -3.2372553848335962e-05 0 0.0060213909457508237 -0.0010850924624420525 0 0.0052667255120904168 -0.00066825561086706101 0 0.0050872863124280772 -0.0010574653503376626 0 0.0049752416815242902 -0.0010560930909094886 0 0.0049934918545457303 -0.0011192635961709567 0 0.0025551050991783181 -0.0005289536568852674 0 0.0060213909457508237 -0.0010850924624420525 0 0.0090843276898129668 -0.0014917393796818597 0 0.0091699882824216629 -0.0014850472631113775 0 0.009146125749599044 -0.0014158780713349611 0 0.0060213909457508237 -0.0010850924624420525 0 0.0068815725551500291 -0.0015679130733293753 0 0.0090985879720092578 -0.0013938511168668291 0 0.009146125749599044 -0.0014158780713349611 0 0.0091344380916719183 -0.0013516052669267182 0 0.009146125749599044 -0.0014158780713349611 0 0.0091734082683069384 -0.0013114378123949128 0 0.0092337684491092097 -0.0013374211776545901 0 0.009090566647075117 -0.0013186948179216859 0 0.0091734082683069384 -0.0013114378123949128 0 0.0091344380916719183 -0.0013516052669267182 0 0.009146125749599044 -0.0014158780713349611 0 0.0091734082683069384 -0.0013114378123949128 0 0.0091344380916719183 -0.0013516052669267182 0 0.0091286907497816466 -0.0012451162543708465 0 0.009090566647075117 -0.0013186948179216859 0 0.0091734082683069384 -0.0013114378123949128 0 0.009211914524677808 -0.0011989479320083573 0 0.0091286907497816466 -0.0012451162543708465 0 0.0091734082683069384 -0.0013114378123949128 0 0.0052667255120904168 -0.00066825561086706101 0 0.0053738255713007875 -0.00058456056547295462 0 0.009211914524677808 -0.0011989479320083573 0 0.0091734082683069384 -0.0013114378123949128 0 0.0092450639232837424 -0.0012408915741663326 0 0.0091734082683069384 -0.0013114378123949128 0 0.0092450639232837424 -0.0012408915741663326 0 0.0092337684491092097 -0.0013374211776545901 0 0.0092450639232837424 -0.0012408915741663326 0 0.0092337684491092097 -0.0013374211776545901 0 0.009352293094700535 -0.0012197449019075348 0 0.0014226282826416273 -3.2372553848335962e-05 0 0.0012662196991542393 -4.1364886983160182e-06 0 0.0012495240783763704 4.3118114280327365e-05 0 0.0012662196991542393 -4.1364886983160182e-06 0 0.0013417442576181403 1.6823140194099458e-05 0 0.001144056097016856 -3.1574300685533336e-05 0 0.0012662196991542393 -4.1364886983160182e-06 0 0.0012495240783763704 4.3118114280327365e-05 0 0.0013417442576181403 1.6823140194099458e-05 0 0.0017462281284452181 0.00012104367670377627 0 0.0013417442576181403 1.6823140194099458e-05 0 0.0014606995015472922 -6.1685022971878648e-05 0 0.0013417442576181403 1.6823140194099458e-05 0 0.001144056097016856 -3.1574300685533336e-05 0 0.0014606995015472922 -6.1685022971878648e-05 0 0.001144056097016856 -3.1574300685533336e-05 0 0.0010753878944713788 -0.00020868146265631287 0 0.0014606995015472922 -6.1685022971878648e-05 0 0.001144056097016856 -3.1574300685533336e-05 0 0.0010753878944713788 -0.00020868146265631287 0 0.00071640714134254277 -0.00030151238133166425 0 0.00067242734598143335 -2.3690263588195272e-05 0 0.0012226716720626486 7.0326963365317688e-06 0 0.0013440072638722905 0.00013768640767088176 0 0.0012662196991542393 -4.1364886983160182e-06 0 0.001144056097016856 -3.1574300685533336e-05 0 0.00052172506999736143 -0.00014776341535979796 0 0.001144056097016856 -3.1574300685533336e-05 0 0.00071640714134254277 -0.00030151238133166425 0 0.00047721612437174671 -0.00034481738631865244 0 0.00052172506999736143 -0.00014776341535979796 0 0.00071640714134254277 -0.00030151238133166425 0 0.00047721612437174671 -0.00034481738631865244 0 0.00071640714134254277 -0.00030151238133166425 0 0.00049896228639544212 -0.00034566437642042139 0 0.00024148634425602837 -0.00026155806247631709 0 0.00044189260346717352 -0.00033316502053588491 0 0.00043062903275344939 -0.00032030139631554467 0 0.00047721612437174671 -0.00034481738631865244 0 0.00049896228639544212 -0.00034566437642042139 0 0.00028956613363114695 -0.0002463754011801386 0 6.815272111116642e-05 -0.00020382475111761203 0 0.00047721612437174671 -0.00034481738631865244 0 0.00071640714134254277 -0.00030151238133166425 0 0.00049896228639544212 -0.00034566437642042139 0 0.00054072647488216663 -0.00032826105563516411 0 0.00043062903275344939 -0.00032030139631554467 0 0.00049896228639544212 -0.00034566437642042139 0 0.00042429394164209732 -0.0003415353979607605 0 0.00049896228639544212 -0.00034566437642042139 0 0.00042429394164209732 -0.0003415353979607605 0 0.00054072647488216663 -0.00032826105563516411 0 0.0002130158187672319 -0.0002987879148757734 0 0.00039162796005384574 -0.00032360923689949095 0 0.00034632292372159561 -0.0002786887468635889 0 0.00039162796005384574 -0.00032360923689949095 0 0.00068872188883084919 -0.0002889659476303008 0 0.00034632292372159561 -0.0002786887468635889 0 0.00039162796005384574 -0.00032360923689949095 0 0.00042429394164209732 -0.0003415353979607605 0 0.00054072647488216663 -0.00032826105563516411 0 0.00039162796005384574 -0.00032360923689949095 0 0.00054072647488216663 -0.00032826105563516411 0 0.00068872188883084919 -0.0002889659476303008 0 0.00071640714134254277 -0.00030151238133166425 0 0.00054072647488216663 -0.00032826105563516411 0 0.00068872188883084919 -0.0002889659476303008 0 0.0010753878944713788 -0.00020868146265631287 0 0.00071640714134254277 -0.00030151238133166425 0 0.00068872188883084919 -0.0002889659476303008 0 0.0010753878944713788 -0.00020868146265631287 0 0.00080255378704964465 -0.00020849905045144737 0 0.0014516661370378506 -0.00015864024594019834 0 0.0010753878944713788 -0.00020868146265631287 0 0.00068872188883084919 -0.0002889659476303008 0 0.00080255378704964465 -0.00020849905045144737 0 0.00014184575576865299 -0.00018740934554590619 0 0.00080255378704964465 -0.00020849905045144737 0 0.00034632292372159561 -0.0002786887468635889 0 0.00068872188883084919 -0.0002889659476303008 0 0.00080255378704964465 -0.00020849905045144737 0 0.00034632292372159561 -0.0002786887468635889 0 0.00014184575576865299 -0.00018740934554590619 0 0.00080255378704964465 -0.00020849905045144737 0 0.0010160430859107717 -4.3963606785601241e-07 0 -0.00034657307234406935 -2.6013891423922575e-07 0 0.00014184575576865299 -0.00018740934554590619 0 0.0010160430859107717 -4.3963606785601241e-07 0 0.00080255378704964465 -0.00020849905045144737 0 0.0010160430859107717 -4.3963606785601241e-07 0 0.0014516661370378506 -0.00015864024594019834 0 0.0014516661370378506 -0.00015864024594019834 0 0.0019773430372914897 -1.9731888909218766e-05 0 0.002378871057785155 -2.9702987840598145e-07 0 0.0010160430859107717 -4.3963606785601241e-07 0 0.0014516661370378506 -0.00015864024594019834 0 0.002378871057785155 -2.9702987840598145e-07 0 0.0010753878944713788 -0.00020868146265631287 0 0.0014516661370378506 -0.00015864024594019834 0 0.0014606995015472922 -6.1685022971878648e-05 0 0.0014516661370378506 -0.00015864024594019834 0 0.0019773430372914897 -1.9731888909218766e-05 0 0.0014606995015472922 -6.1685022971878648e-05 0 0.0025954210622783527 0.0001685120491277726 0 0.0017462281284452181 0.00012104367670377627 0 0.0019773430372914897 -1.9731888909218766e-05 0 0.0017462281284452181 0.00012104367670377627 0 0.0019773430372914897 -1.9731888909218766e-05 0 0.0014606995015472922 -6.1685022971878648e-05 0 0.0025954210622783527 0.0001685120491277726 0 0.0019773430372914897 -1.9731888909218766e-05 0 0.002378871057785155 -2.9702987840598145e-07 0 0.0078409859247077322 -0.0012049655069382961 0 0.008174621819596127 -0.0010743330254369919 0 0.0076866890625555103 -0.00058587739319596629 0 0.0078409859247077322 -0.0012049655069382961 0 0.0075433288525161559 -0.0013384057754681621 0 0.0076866890625555103 -0.00058587739319596629 0 0.0075433288525161559 -0.0013384057754681621 0 0.0074421718412936841 -0.0012310737938323649 0 0.0076329738384062389 -0.00097488929348081294 0 0.0075940987355792543 -0.0012832862763810455 0 0.0074617532866240342 -0.0008160633187629285 0 0.008174621819596127 -0.0010743330254369919 0 0.0076866890625555103 -0.00058587739319596629 0 0.0082985046388320948 -0.0006744715859735396 0 0.008174621819596127 -0.0010743330254369919 0 0.0082985046388320948 -0.0006744715859735396 0 0.0085418915453583499 -0.0010175302097681189 0 0.008174621819596127 -0.0010743330254369919 0 0.0085418915453583499 -0.0010175302097681189 0 0.0085172196913284558 -0.0013621867493174224 0 0.0078409859247077322 -0.0012049655069382961 0 0.008174621819596127 -0.0010743330254369919 0 0.0082078450154974454 -0.0015870469687671316 0 0.0082078450154974454 -0.0015870469687671316 0 0.0085172196913284558 -0.0013621867493174224 0 0.0087400268500889972 -0.0016486201047563932 0 0.008174621819596127 -0.0010743330254369919 0 0.0082078450154974454 -0.0015870469687671316 0 0.0085172196913284558 -0.0013621867493174224 0 0.0079948483044245573 -0.001515722818995999 0 0.0084835354174060944 -0.0014296175615852737 0 0.007816739126811599 -0.0014697817084410984 0 0.0076700781070178836 -0.0015101316696435228 0 0.0076290548455942306 -0.0014409535818578846 0 0.0078409859247077322 -0.0012049655069382961 0 0.0082078450154974454 -0.0015870469687671316 0 0.0076290548455942306 -0.0014409535818578846 0 0.0079948483044245573 -0.001515722818995999 0 0.0076848410329200872 -0.0014537632638235659 0 0.0076700781070178836 -0.0015101316696435228 0 0.0075591902248373271 -0.0014974091405789989 0 0.0076094001609921863 -0.0015560399002428097 0 0.0078409859247077322 -0.0012049655069382961 0 0.0075433288525161559 -0.0013384057754681621 0 0.0076290548455942306 -0.0014409535818578846 0 0.0075433288525161559 -0.0013384057754681621 0 0.0076290548455942306 -0.0014409535818578846 0 0.0075299913277230967 -0.0014254526409429047 0 0.0075433288525161559 -0.0013384057754681621 0 0.0075299913277230967 -0.0014254526409429047 0 0.0074479025894916961 -0.0013837996798966362 0 0.0075299913277230967 -0.0014254526409429047 0 0.0075591902248373271 -0.0014974091405789989 0 0.0074675190767356028 -0.0014586993192959594 0 0.0076290548455942306 -0.0014409535818578846 0 0.0075299913277230967 -0.0014254526409429047 0 0.0075591902248373271 -0.0014974091405789989 0 0.0076700781070178836 -0.0015101316696435228 0 0.0076290548455942306 -0.0014409535818578846 0 0.0075591902248373271 -0.0014974091405789989 0 0.0074675190767356028 -0.0014586993192959594 0 0.0073743966719510105 -0.0014723182411534596 0 0.007419270378028169 -0.0015421529584189403 0 0.0075591902248373271 -0.0014974091405789989 0 0.0074675190767356028 -0.0014586993192959594 0 0.007419270378028169 -0.0015421529584189403 0 0.0075299913277230967 -0.0014254526409429047 0 0.0074675190767356028 -0.0014586993192959594 0 0.0074479025894916961 -0.0013837996798966362 0 0.0074675190767356028 -0.0014586993192959594 0 0.0073743966719510105 -0.0014723182411534596 0 0.0074479025894916961 -0.0013837996798966362 0 0.0073743966719510105 -0.0014723182411534596 0 0.0073424836359987488 -0.0013829751580133297 0 0.0072272568432670417 -0.0015062777702029588 0 0.0073424836359987488 -0.0013829751580133297 0 0.0074479025894916961 -0.0013837996798966362 0 0.0074421718412936841 -0.0012310737938323649 0 0.0073743966719510105 -0.0014723182411534596 0 0.0073424836359987488 -0.0013829751580133297 0 0.0074479025894916961 -0.0013837996798966362 0 0.0075433288525161559 -0.0013384057754681621 0 0.0074479025894916961 -0.0013837996798966362 0 0.0074421718412936841 -0.0012310737938323649 0 0.0073103309471161063 -0.0014081773658298723 0 0.0069531639846861252 -0.0016847830068152099 0 0.0073424836359987488 -0.0013829751580133297 0 0.0070654337244550388 -0.0012588332068984621 0 0.006988195884878032 -0.0018445265779210515 0 0.0073424836359987488 -0.0013829751580133297 0 0.0072272568432670417 -0.0015062777702029588 0 0.0069272708967038042 -0.0015209887538764418 0 0.0071419297583936951 -0.0015071551060946162 0 0.0071325318923706046 -0.0012621208153707495 0 0.0069304857409381148 -0.0013661039156807424 0 0.0073424836359987488 -0.0013829751580133297 0 0.0070654337244550388 -0.0012588332068984621 0 0.0073072325274221132 -0.0011846443029304408 0 0.0070654337244550388 -0.0012588332068984621 0 0.0073072325274221132 -0.0011846443029304408 0 0.0073464612544712595 -0.00088155267957293554 0 0.0071459716504885034 -0.0013577990257379094 0 0.0071741774550916591 -0.0011171899554238982 0 0.0074421718412936841 -0.0012310737938323649 0 0.0074312890593925766 -0.001084161680500404 0 0.0076329738384062389 -0.00097488929348081294 0 0.0073072325274221132 -0.0011846443029304408 0 0.0074312890593925766 -0.001084161680500404 0 0.0073464612544712595 -0.00088155267957293554 0 0.0073424836359987488 -0.0013829751580133297 0 0.0074421718412936841 -0.0012310737938323649 0 0.0073072325274221132 -0.0011846443029304408 0 0.0074421718412936841 -0.0012310737938323649 0 0.0073072325274221132 -0.0011846443029304408 0 0.0074312890593925766 -0.001084161680500404 0 0.0074312890593925766 -0.001084161680500404 0 0.0073464612544712595 -0.00088155267957293554 0 0.0076329738384062389 -0.00097488929348081294 0 0.0074465968487221071 -0.0011901139008300909 0 0.0071325318923706046 -0.0012621208153707495 0 0.0073066321565209398 -0.001054465781715825 0 0.0071419297583936951 -0.0015071551060946162 0 0.0074465968487221071 -0.0011901139008300909 0 0.0071325318923706046 -0.0012621208153707495 0 0.0073725892097789639 -0.00093766898201794397 0 0.0073066321565209398 -0.001054465781715825 0 0.0072121874768035386 -0.0009915108353248383 0 0.0073725892097789639 -0.00093766898201794397 0 0.0073066321565209398 -0.001054465781715825 0 0.0074408550240817285 -0.001032090634331416 0 0.0074465968487221071 -0.0011901139008300909 0 0.0074408550240817285 -0.001032090634331416 0 0.0076390821437165267 -0.00095464546030130559 0 0.0073725892097789639 -0.00093766898201794397 0 0.0074408550240817285 -0.001032090634331416 0 0.0076390821437165267 -0.00095464546030130559 0 0.0071741774550916591 -0.0011171899554238982 0 0.0090157921383020121 -0.00064992934168265259 0 0.0074465968487221071 -0.0011901139008300909 0 0.0073066321565209398 -0.001054465781715825 0 0.0074408550240817285 -0.001032090634331416 0 0.0098173963230363016 -0.00024271247458708238 0 0.0074617532866240342 -0.0008160633187629285 0 0.0073464612544712595 -0.00088155267957293554 0 0.0076539892218926804 -0.00050204148275079729 0 0.0077162624269723973 -0.00055272176155139827 0 0.0078243904533839767 0.00014939409660949345 0 0.0076866890625555103 -0.00058587739319596629 0 0.0083254266846941802 -0.00023570386091797046 0 0.0090157921383020121 -0.00064992934168265259 0 0.0098173963230363016 -0.00024271247458708238 0 0.0073464612544712595 -0.00088155267957293554 0 0.0077162624269723973 -0.00055272176155139827 0 0.0076329738384062389 -0.00097488929348081294 0 0.0082985046388320948 -0.0006744715859735396 0 0.0083254266846941802 -0.00023570386091797046 0 0.0088465397713078583 -0.00062995280521427202 0 0.0076866890625555103 -0.00058587739319596629 0 0.0082985046388320948 -0.0006744715859735396 0 0.0083254266846941802 -0.00023570386091797046 0 0.01253643554151224 0.00056469170586982513 0 0.012804354835445245 0.00036750602847702697 0 0.012817180308831366 0.0005428426440887413 0 0.012569862564567821 0.00073869944700032716 0 0.01253643554151224 0.00056469170586982513 0 0.012817180308831366 0.0005428426440887413 0 0.0098173963230363016 -0.00024271247458708238 0 0.01047318453293325 0.00013170797610020064 0 0.019143336952724934 0.0014799472603598918 0 0.019019109867267417 0.001615359696002247 0 0.019139347094646257 0.0017742897906405169 0 0.018026833772957218 0.0012421985699210068 0 0.016594887066298681 0.0015458171337791441 0 0.016820210054944457 0.0010493981404600258 0 0.01691089984254306 0.0011198221003675926 0 0.016799940072381229 0.0012159332667563475 0 0.012804354835445245 0.00036750602847702697 0 0.012817180308831366 0.0005428426440887413 0 0.013071709824844747 0.00034511433200297675 0 0.014779577164276029 0.00086061945419845583 0 0.016594887066298681 0.0015458171337791441 0 0.018912510669853683 0.0015072199375855625 0 0.019023087385838695 0.0014940213816594251 0 0.019019109867267417 0.001615359696002247 0 0.018912510669853683 0.0015072199375855625 0 0.019019109867267417 0.001615359696002247 0 0.018851008573281366 0.001700179423023053 0 0.019019109867267417 0.001615359696002247 0 0.018851008573281366 0.001700179423023053 0 0.0189485854111466 0.0017865045813841465 0 0.019019109867267417 0.001615359696002247 0 0.0189485854111466 0.0017865045813841465 0 0.019139347094646257 0.0017742897906405169 0 0.0189485854111466 0.0017865045813841465 0 0.018917202530717228 0.0019908644966492015 0 0.019139347094646257 0.0017742897906405169 0 0.018851008573281366 0.001700179423023053 0 0.0189485854111466 0.0017865045813841465 0 0.018799925890016306 0.0018679476051907022 0 0.0189485854111466 0.0017865045813841465 0 0.018917202530717228 0.0019908644966492015 0 0.018799925890016306 0.0018679476051907022 0 0.018917202530717228 0.0019908644966492015 0 0.018799925890016306 0.0018679476051907022 0 0.018693188892648843 0.0020102267057132335 0 0.018732269277897597 0.0021511893085433709 0 0.016594887066298681 0.0015458171337791441 0 0.018201703887394789 0.0024608195077677223 0 0.01775540098819664 0.0024856830263392032 0 0.017726379056883422 0.0028028833737158017 0 0.012804354835445245 0.00036750602847702697 0 0.013077561509343418 0.00016536069658970972 0 0.013071709824844747 0.00034511433200297675 0 0.01047318453293325 0.00013170797610020064 0 0.011849067143376579 6.0640264098852558e-05 0 0.011849067143376579 6.0640264098852558e-05 0 0.016594887066298681 0.0015458171337791441 0 0.018222980363299678 0.0017754090405199228 0 0.018438957698753981 0.0015325567390621336 0 0.018453228162996289 0.0017882540486274642 0 0.018438957698753981 0.0015325567390621336 0 0.018650269479911927 0.0016280896640560182 0 0.018453228162996289 0.0017882540486274642 0 0.018709825810792863 0.0014296502356734915 0 0.018438957698753981 0.0015325567390621336 0 0.018650269479911927 0.0016280896640560182 0 0.018650269479911927 0.0016280896640560182 0 0.018647910143004879 0.0018086877352844158 0 0.018453228162996289 0.0017882540486274642 0 0.018709825810792863 0.0014296502356734915 0 0.018912510669853683 0.0015072199375855625 0 0.018650269479911927 0.0016280896640560182 0 0.018912510669853683 0.0015072199375855625 0 0.018851008573281366 0.001700179423023053 0 0.018650269479911927 0.0016280896640560182 0 0.018851008573281366 0.001700179423023053 0 0.018650269479911927 0.0016280896640560182 0 0.018647910143004879 0.0018086877352844158 0 0.018851008573281366 0.001700179423023053 0 0.018799925890016306 0.0018679476051907022 0 0.018647910143004879 0.0018086877352844158 0 0.018799925890016306 0.0018679476051907022 0 0.01864643618257323 0.0019361053803281182 0 0.018647910143004879 0.0018086877352844158 0 0.018799925890016306 0.0018679476051907022 0 0.018693188892648843 0.0020102267057132335 0 0.01864643618257323 0.0019361053803281182 0 0.01864643618257323 0.0019361053803281182 0 0.01850009875446661 0.0019291857558068372 0 0.018544982989656348 0.0020534552927392214 0 0.01864643618257323 0.0019361053803281182 0 0.018647910143004879 0.0018086877352844158 0 0.01850009875446661 0.0019291857558068372 0 0.018693188892648843 0.0020102267057132335 0 0.01864643618257323 0.0019361053803281182 0 0.018544982989656348 0.0020534552927392214 0 0.018647910143004879 0.0018086877352844158 0 0.018453228162996289 0.0017882540486274642 0 0.01850009875446661 0.0019291857558068372 0 0.018453228162996289 0.0017882540486274642 0 0.01850009875446661 0.0019291857558068372 0 0.018328181931900046 0.0019245569613576877 0 0.01850009875446661 0.0019291857558068372 0 0.018328181931900046 0.0019245569613576877 0 0.018404316247052147 0.0020377478626768899 0 0.01850009875446661 0.0019291857558068372 0 0.018404316247052147 0.0020377478626768899 0 0.018544982989656348 0.0020534552927392214 0 0.018222980363299678 0.0017754090405199228 0 0.01814645993152348 0.0019689767595260942 0 0.018328181931900046 0.0019245569613576877 0 0.01814645993152348 0.0019689767595260942 0 0.018328181931900046 0.0019245569613576877 0 0.018250273982937333 0.0020487073609900689 0 0.018328181931900046 0.0019245569613576877 0 0.018250273982937333 0.0020487073609900689 0 0.018404316247052147 0.0020377478626768899 0 0.018222980363299678 0.0017754090405199228 0 0.018453228162996289 0.0017882540486274642 0 0.018328181931900046 0.0019245569613576877 0 0.017980615327467298 0.0025071961283071932 0 0.018377136397595899 0.0021572338670145029 0 0.018581564571841423 0.0022161741140587134 0 0.018087950697375326 0.002136231452275129 0 0.017980615327467298 0.0025071961283071932 0 0.018377136397595899 0.0021572338670145029 0 0.018087950697375326 0.002136231452275129 0 0.018250273982937333 0.0020487073609900689 0 0.018377136397595899 0.0021572338670145029 0 0.018404316247052147 0.0020377478626768899 0 0.018377136397595899 0.0021572338670145029 0 0.018544982989656348 0.0020534552927392214 0 0.018250273982937333 0.0020487073609900689 0 0.018404316247052147 0.0020377478626768899 0 0.018377136397595899 0.0021572338670145029 0 0.018377136397595899 0.0021572338670145029 0 0.018562877182771369 0.0022109932549018562 0 0.018581564571841423 0.0022161741140587134 0 0.018693188892648843 0.0020102267057132335 0 0.018562877182771369 0.0022109932549018562 0 0.018544982989656348 0.0020534552927392214 0 0.018377136397595899 0.0021572338670145029 0 0.018562877182771369 0.0022109932549018562 0 0.018544982989656348 0.0020534552927392214 0 0.018732269277897597 0.0021511893085433709 0 0.018517168303132235 0.0022475246248365791 0 0.018917202530717228 0.0019908644966492015 0 0.018693188892648843 0.0020102267057132335 0 0.018562877182771369 0.0022109932549018562 0 0.012255938486543575 -0.00049077461167806879 0 0.013883939092846737 0.00041718143991470333 0 0.009293047838345319 -0.0013816624824645972 0 0.0093358343896178912 -0.0013801762635762681 0 0.0091158305487176669 -0.0011683081198482134 0 0.009293047838345319 -0.0013816624824645972 0 0.0092869958964540492 -0.0013836248567404082 0 0.0091158305487176669 -0.0011683081198482134 0 0.018562877182771369 0.0022109932549018562 0 0.018581564571841423 0.0022161741140587134 0 0.018216839935754122 0.0022289318970307383 0 0.0092869958964540492 -0.0013836248567404082 0 0.0092629803176819455 -0.0013976291205393177 0 0.0092533570230577383 -0.0012377249109321185 0 0.0092629803176819455 -0.0013976291205393177 0 0.0089613154675339066 -0.001296212440042832 0 0.0092533570230577383 -0.0012377249109321185 0 0.009293047838345319 -0.0013816624824645972 0 0.0092869958964540492 -0.0013836248567404082 0 0.0092629803176819455 -0.0013976291205393177 0 0.011638449563291051 -0.0005710865826416547 0 0.012255938486543575 -0.00049077461167806879 0 0.0089950122883373142 -0.001227206372703106 0 0.0090171336690394316 -0.0012513805068884464 0 0.0089613154675339066 -0.001296212440042832 0 0.012255938486543575 -0.00049077461167806879 0 0.0079329488020776964 -0.0012699271564203566 0 0.013789148388213844 0.00075751361922956229 0 0.012255938486543575 -0.00049077461167806879 0 0.0088465397713078583 -0.00062995280521427202 0 0.0085418915453583499 -0.0010175302097681189 0 0.0088546282061715987 -0.0013752744725840048 0 0.0082985046388320948 -0.0006744715859735396 0 0.0088465397713078583 -0.00062995280521427202 0 0.0085418915453583499 -0.0010175302097681189 0 0.011849067143376579 6.0640264098852558e-05 0 0.0084025080211555889 -0.0016276691152777153 0 0.0088794026588996256 -0.00096415627172317042 0 0.0089666062000818142 -0.0012169652080015285 0 0.0088546282061715987 -0.0013752744725840048 0 0.0088794026588996256 -0.00096415627172317042 0 0.0091158305487176669 -0.0011683081198482134 0 0.0089666062000818142 -0.0012169652080015285 0 0.018201703887394789 0.0024608195077677223 0 0.01775540098819664 0.0024856830263392032 0 0.018216839935754122 0.0022289318970307383 0 0.011849067143376579 6.0640264098852558e-05 0 0.013883939092846737 0.00041718143991470333 0 0.018201703887394789 0.0024608195077677223 0 0.018562877182771369 0.0022109932549018562 0 0.018216839935754122 0.0022289318970307383 0 0.0092869958964540492 -0.0013836248567404082 0 0.0091158305487176669 -0.0011683081198482134 0 0.0090187913620669406 -0.0013636293648208275 0 0.0091158305487176669 -0.0011683081198482134 0 0.0089666062000818142 -0.0012169652080015285 0 0.0090187913620669406 -0.0013636293648208275 0 0.0092869958964540492 -0.0013836248567404082 0 0.0094642461242015335 -0.0012986835768303824 0 0.0092533570230577383 -0.0012377249109321185 0 0.0089666062000818142 -0.0012169652080015285 0 0.0090187913620669406 -0.0013636293648208275 0 0.0088546282061715987 -0.0013752744725840048 0 0.0095331407074995961 -0.0013713609032125274 0 0.0084835354174060944 -0.0014296175615852737 0 0.0092869958964540492 -0.0013836248567404082 0 0.0090187913620669406 -0.0013636293648208275 0 0.0087400268500889972 -0.0016486201047563932 0 0.0090187913620669406 -0.0013636293648208275 0 0.0088546282061715987 -0.0013752744725840048 0 0.0087400268500889972 -0.0016486201047563932 0 0.0085418915453583499 -0.0010175302097681189 0 0.0088546282061715987 -0.0013752744725840048 0 0.0085172196913284558 -0.0013621867493174224 0 0.0088546282061715987 -0.0013752744725840048 0 0.0085172196913284558 -0.0013621867493174224 0 0.0087400268500889972 -0.0016486201047563932 0 0.0077489898137683257 -0.0012878782652749046 0 0.0077608637601591108 -0.0014414622883365381 0 0.0076516084220226701 -0.0014979837071442638 0 0.0077608637601591108 -0.0014414622883365381 0 0.0077528251624179537 -0.0015465440486650691 0 0.0076516084220226701 -0.0014979837071442638 0 0.0077608637601591108 -0.0014414622883365381 0 0.0078963621915831197 -0.0014332674089943421 0 0.0077528251624179537 -0.0015465440486650691 0 0.0077489898137683257 -0.0012878782652749046 0 0.0077608637601591108 -0.0014414622883365381 0 0.0078963621915831197 -0.0014332674089943421 0 0.0078963621915831197 -0.0014332674089943421 0 0.0080528365335638171 -0.0014936490217818143 0 0.0081996973345272797 -0.0012632581935097514 0 0.0077489898137683257 -0.0012878782652749046 0 0.0078963621915831197 -0.0014332674089943421 0 0.0081996973345272797 -0.0012632581935097514 0 0.0084835354174060944 -0.0014296175615852737 0 0.0087623231972069858 -0.0012400741854688394 0 0.0078963621915831197 -0.0014332674089943421 0 0.0078740086555524284 -0.0016033147106507097 0 0.0080528365335638171 -0.0014936490217818143 0 0.0078740086555524284 -0.0016033147106507097 0 0.0080528365335638171 -0.0014936490217818143 0 0.0080562897920536357 -0.0016439915501696013 0 0.0078740086555524284 -0.0016033147106507097 0 0.0080562897920536357 -0.0016439915501696013 0 0.0078560753746233988 -0.0017810112547295216 0 0.0078740086555524284 -0.0016033147106507097 0 0.0077162680192493305 -0.0016900836339455107 0 0.0078560753746233988 -0.0017810112547295216 0 0.0077162680192493305 -0.0016900836339455107 0 0.007681357963923832 -0.0018008370929101243 0 0.0075596844576261476 -0.0017291880182355368 0 0.0077528251624179537 -0.0015465440486650691 0 0.0076310972196215058 -0.001629917299394475 0 0.0076516084220226701 -0.0014979837071442638 0 0.0077162680192493305 -0.0016900836339455107 0 0.0077528251624179537 -0.0015465440486650691 0 0.0076310972196215058 -0.001629917299394475 0 0.0078963621915831197 -0.0014332674089943421 0 0.0078740086555524284 -0.0016033147106507097 0 0.0077528251624179537 -0.0015465440486650691 0 0.0078740086555524284 -0.0016033147106507097 0 0.0077162680192493305 -0.0016900836339455107 0 0.0077528251624179537 -0.0015465440486650691 0 0.0088683133799818941 -0.0012926643992351456 0 0.0089613154675339066 -0.001296212440042832 0 0.0092533570230577383 -0.0012377249109321185 0 0.0088683133799818941 -0.0012926643992351456 0 0.0081996973345272797 -0.0012632581935097514 0 0.0085056154044240162 -0.0014426438946273286 0 0.0088625934211221408 -0.0012951879187953587 0 0.0087623231972069858 -0.0012400741854688394 0 0.0081996973345272797 -0.0012632581935097514 0 0.0082650997514918407 -0.0015259297596161789 0 0.0085056154044240162 -0.0014426438946273286 0 0.0080528365335638171 -0.0014936490217818143 0 0.0081996973345272797 -0.0012632581935097514 0 0.0082650997514918407 -0.0015259297596161789 0 0.0080528365335638171 -0.0014936490217818143 0 0.0080562897920536357 -0.0016439915501696013 0 0.0082650997514918407 -0.0015259297596161789 0 0.0080562897920536357 -0.0016439915501696013 0 0.0082650997514918407 -0.0015259297596161789 0 0.0082536677384964091 -0.0017755408817154642 0 0.0082650997514918407 -0.0015259297596161789 0 0.0084844668245653773 -0.0016248750654777734 0 0.0082536677384964091 -0.0017755408817154642 0 0.0082650997514918407 -0.0015259297596161789 0 0.0085056154044240162 -0.0014426438946273286 0 0.0084844668245653773 -0.0016248750654777734 0 0.0085056154044240162 -0.0014426438946273286 0 0.0084844668245653773 -0.0016248750654777734 0 0.0087162130329551182 -0.0015193409383155365 0 0.0084844668245653773 -0.0016248750654777734 0 0.0087162130329551182 -0.0015193409383155365 0 0.0086488812821545781 -0.0017629375414815395 0 0.0088683133799818941 -0.0012926643992351456 0 0.0085056154044240162 -0.0014426438946273286 0 0.0087162130329551182 -0.0015193409383155365 0 0.0086488812821545781 -0.0017629375414815395 0 0.0084498074345157551 -0.0018198158205083256 0 0.0085657823365362547 -0.002008633888548684 0 0.0084844668245653773 -0.0016248750654777734 0 0.0086488812821545781 -0.0017629375414815395 0 0.0084498074345157551 -0.0018198158205083256 0 0.0084498074345157551 -0.0018198158205083256 0 0.0082974876347746002 -0.0019323058396782397 0 0.0085657823365362547 -0.002008633888548684 0 0.0084498074345157551 -0.0018198158205083256 0 0.0082974876347746002 -0.0019323058396782397 0 0.0082536677384964091 -0.0017755408817154642 0 0.0084844668245653773 -0.0016248750654777734 0 0.0084498074345157551 -0.0018198158205083256 0 0.0082536677384964091 -0.0017755408817154642 0 0.0082536677384964091 -0.0017755408817154642 0 0.0081704099460906798 -0.001873807486481027 0 0.0080427418126284931 -0.0018052412154372275 0 0.0080562897920536357 -0.0016439915501696013 0 0.0082536677384964091 -0.0017755408817154642 0 0.0080427418126284931 -0.0018052412154372275 0 0.0082974876347746002 -0.0019323058396782397 0 0.0081704099460906798 -0.001873807486481027 0 0.0081330566225105531 -0.0019906739636426328 0 0.0082974876347746002 -0.0019323058396782397 0 0.0082536677384964091 -0.0017755408817154642 0 0.0081704099460906798 -0.001873807486481027 0 0.0081704099460906798 -0.001873807486481027 0 0.0081330566225105531 -0.0019906739636426328 0 0.0080427418126284931 -0.0018052412154372275 0 0.0082974876347746002 -0.0019323058396782397 0 0.0082389105042392635 -0.0021299713857705505 0 0.0085657823365362547 -0.002008633888548684 0 0.0081330566225105531 -0.0019906739636426328 0 0.008397965975264151 -0.0022688373159122782 0 0.0079004851667279878 -0.0019647732307618393 0 0.0082974876347746002 -0.0019323058396782397 0 0.0081330566225105531 -0.0019906739636426328 0 0.0082389105042392635 -0.0021299713857705505 0 0.0079146093727920121 -0.0026613060904760871 0 0.0055715383884219613 -0.0017237352012243006 0 0.0055715383884219613 -0.0017237352012243006 0 0.005551972639702871 -0.0017068591960459742 0 0.0023715761337112853 -0.0014821385372039808 0 0.0023878661712474028 -0.0014971950351901704 0 0.0023988473896401903 -0.0014369708738586251 0 0.0023878661712474028 -0.0014971950351901704 0 0.002414778388382042 -0.0014778924057684956 0 0.0023988473896401903 -0.0014369708738586251 0 0.0024528036243357202 -0.0014178448998926492 0 0.002414778388382042 -0.0014778924057684956 0 0.0023988473896401903 -0.0014369708738586251 0 0.007792094817553755 -0.0019244732062881989 0 0.0077121608397852223 -0.0019072397918400274 0 0.0078560753746233988 -0.0017810112547295216 0 0.0077121608397852223 -0.0019072397918400274 0 0.007681357963923832 -0.0018008370929101243 0 0.0075887599576415091 -0.0018649541134429948 0 0.0077162680192493305 -0.0016900836339455107 0 0.007681357963923832 -0.0018008370929101243 0 0.0078560753746233988 -0.0017810112547295216 0 0.0077121608397852223 -0.0019072397918400274 0 0.007681357963923832 -0.0018008370929101243 0 0.0078560753746233988 -0.0017810112547295216 0 0.0078560753746233988 -0.0017810112547295216 0 0.0080427418126284931 -0.0018052412154372275 0 0.0078904819786333596 -0.0018737965308484757 0 0.0080562897920536357 -0.0016439915501696013 0 0.0078560753746233988 -0.0017810112547295216 0 0.0080427418126284931 -0.0018052412154372275 0 0.0081330566225105531 -0.0019906739636426328 0 0.0080427418126284931 -0.0018052412154372275 0 0.0079004851667279878 -0.0019647732307618393 0 0.0080427418126284931 -0.0018052412154372275 0 0.0078904819786333596 -0.0018737965308484757 0 0.0079004851667279878 -0.0019647732307618393 0 0.007792094817553755 -0.0019244732062881989 0 0.0078904819786333596 -0.0018737965308484757 0 0.0079004851667279878 -0.0019647732307618393 0 0.007792094817553755 -0.0019244732062881989 0 0.0078560753746233988 -0.0017810112547295216 0 0.0078904819786333596 -0.0018737965308484757 0 0.007331510490663138 -0.0026949627109568177 0 0.008397965975264151 -0.0022688373159122782 0 0.0079004851667279878 -0.0019647732307618393 0 0.0056286670936555212 -0.0020962977809884263 0 0.0055715383884219613 -0.0017237352012243006 0 0.0077880764626276277 -0.001984533636689685 0 0.0073333656734799781 -0.0021920555374852833 0 0.007792094817553755 -0.0019244732062881989 0 0.0077121608397852223 -0.0019072397918400274 0 0.0076093580285058922 -0.0020546067156572726 0 0.007792094817553755 -0.0019244732062881989 0 0.0079004851667279878 -0.0019647732307618393 0 0.0076093580285058922 -0.0020546067156572726 0 0.007331510490663138 -0.0026949627109568177 0 0.0079004851667279878 -0.0019647732307618393 0 0.006694209364138384 -0.0023565283742196593 0 0.0076093580285058922 -0.0020546067156572726 0 0.0075093997677939039 -0.0019366434466717036 0 0.0074062198877411318 -0.0020130647989320669 0 0.0076093580285058922 -0.0020546067156572726 0 0.0075093997677939039 -0.0019366434466717036 0 0.0076047494789646779 -0.0019413205449760787 0 0.0077121608397852223 -0.0019072397918400274 0 0.0076093580285058922 -0.0020546067156572726 0 0.0076047494789646779 -0.0019413205449760787 0 0.0074062198877411318 -0.0020130647989320669 0 0.0073737513330958231 -0.0018959036891659619 0 0.0072422495883766634 -0.0019791424119398643 0 0.0073126536504807375 -0.0021678044183998549 0 0.0076093580285058922 -0.0020546067156572726 0 0.0074062198877411318 -0.0020130647989320669 0 0.0073126536504807375 -0.0021678044183998549 0 0.0074062198877411318 -0.0020130647989320669 0 0.0072422495883766634 -0.0019791424119398643 0 0.0075093997677939039 -0.0019366434466717036 0 0.0074062198877411318 -0.0020130647989320669 0 0.0073737513330958231 -0.0018959036891659619 0 0.0075093997677939039 -0.0019366434466717036 0 0.0073737513330958231 -0.0018959036891659619 0 0.0074583566896533095 -0.0018384581470137407 0 0.0074583566896533095 -0.0018384581470137407 0 0.0074580105126780104 -0.0017556300340022548 0 0.0073647633227547074 -0.0017755029554142271 0 0.0073737513330958231 -0.0018959036891659619 0 0.0073647633227547074 -0.0017755029554142271 0 0.0072857823310070631 -0.0018643325826283152 0 0.0073737513330958231 -0.0018959036891659619 0 0.0074583566896533095 -0.0018384581470137407 0 0.0073647633227547074 -0.0017755029554142271 0 0.0075093997677939039 -0.0019366434466717036 0 0.0076047494789646779 -0.0019413205449760787 0 0.0075887599576415091 -0.0018649541134429948 0 0.0077121608397852223 -0.0019072397918400274 0 0.0076047494789646779 -0.0019413205449760787 0 0.0075887599576415091 -0.0018649541134429948 0 0.0075093997677939039 -0.0019366434466717036 0 0.0074583566896533095 -0.0018384581470137407 0 0.0075887599576415091 -0.0018649541134429948 0 0.0074583566896533095 -0.0018384581470137407 0 0.0075596844576261476 -0.0017291880182355368 0 0.0074580105126780104 -0.0017556300340022548 0 0.0074583566896533095 -0.0018384581470137407 0 0.0075887599576415091 -0.0018649541134429948 0 0.0075596844576261476 -0.0017291880182355368 0 0.007681357963923832 -0.0018008370929101243 0 0.0075887599576415091 -0.0018649541134429948 0 0.0075596844576261476 -0.0017291880182355368 0 0.0077162680192493305 -0.0016900836339455107 0 0.0075596844576261476 -0.0017291880182355368 0 0.0076310972196215058 -0.001629917299394475 0 0.0075596844576261476 -0.0017291880182355368 0 0.0076310972196215058 -0.001629917299394475 0 0.0075487694507428505 -0.0016040696562165326 0 0.0076310972196215058 -0.001629917299394475 0 0.0075487694507428505 -0.0016040696562165326 0 0.0076516084220226701 -0.0014979837071442638 0 0.0075487694507428505 -0.0016040696562165326 0 0.0074553748987527717 -0.001679342673085587 0 0.0074640197708656045 -0.0014987528416828464 0 0.0075596844576261476 -0.0017291880182355368 0 0.0074580105126780104 -0.0017556300340022548 0 0.0074553748987527717 -0.001679342673085587 0 0.0075596844576261476 -0.0017291880182355368 0 0.0075487694507428505 -0.0016040696562165326 0 0.0074553748987527717 -0.001679342673085587 0 0.0074580105126780104 -0.0017556300340022548 0 0.0073647633227547074 -0.0017755029554142271 0 0.0074553748987527717 -0.001679342673085587 0 0.0073647633227547074 -0.0017755029554142271 0 0.0073799353858051428 -0.0016836691349057737 0 0.0073258905902682768 -0.0017321521569223289 0 0.0073647633227547074 -0.0017755029554142271 0 0.0073799353858051428 -0.0016836691349057737 0 0.0074553748987527717 -0.001679342673085587 0 0.0073799353858051428 -0.0016836691349057737 0 0.0074553748987527717 -0.001679342673085587 0 0.0074640197708656045 -0.0014987528416828464 0 0.0077184622636311115 -0.0016457926823406376 0 0.0075244864609874595 -0.0015816524498001175 0 0.0073940970462485845 -0.0016439990264156921 0 0.0077184622636311115 -0.0016457926823406376 0 0.0073940970462485845 -0.0016439990264156921 0 0.007307970012099472 -0.0017181729497286167 0 0.0074728658599227992 -0.0015899724219845938 0 0.0073845884984108569 -0.0016874328606772875 0 0.0073799353858051428 -0.0016836691349057737 0 0.0074640197708656045 -0.0014987528416828464 0 0.007307970012099472 -0.0017181729497286167 0 0.0075591902248373271 -0.0014974091405789989 0 0.0075244864609874595 -0.0015816524498001175 0 0.0076094001609921863 -0.0015560399002428097 0 0.0075591902248373271 -0.0014974091405789989 0 0.0075244864609874595 -0.0015816524498001175 0 0.007419270378028169 -0.0015421529584189403 0 0.0076700781070178836 -0.0015101316696435228 0 0.0077184622636311115 -0.0016457926823406376 0 0.0076094001609921863 -0.0015560399002428097 0 0.0077184622636311115 -0.0016457926823406376 0 0.0075244864609874595 -0.0015816524498001175 0 0.0076094001609921863 -0.0015560399002428097 0 0.0077489898137683257 -0.0012878782652749046 0 0.0074640197708656045 -0.0014987528416828464 0 0.0076516084220226701 -0.0014979837071442638 0 0.007816739126811599 -0.0014697817084410984 0 0.0076700781070178836 -0.0015101316696435228 0 0.0077184622636311115 -0.0016457926823406376 0 0.0084835354174060944 -0.0014296175615852737 0 0.0074728658599227992 -0.0015899724219845938 0 0.007816739126811599 -0.0014697817084410984 0 0.0080439045629198663 -0.0015187710002399842 0 0.0077184622636311115 -0.0016457926823406376 0 0.0075487694507428505 -0.0016040696562165326 0 0.0074640197708656045 -0.0014987528416828464 0 0.0076516084220226701 -0.0014979837071442638 0 0.0071719546117946361 -0.0015936219654301541 0 0.0072272568432670417 -0.0015062777702029588 0 0.0069272708967038042 -0.0015209887538764418 0 0.0071719546117946361 -0.0015936219654301541 0 0.0071954868791649501 -0.0017220119679255829 0 0.0070443482610351195 -0.0017171824591065798 0 0.0071719546117946361 -0.0015936219654301541 0 0.0070443482610351195 -0.0017171824591065798 0 0.0069272708967038042 -0.0015209887538764418 0 0.0071719546117946361 -0.0015936219654301541 0 0.0072272568432670417 -0.0015062777702029588 0 0.007311117859160097 -0.0015681504527745029 0 0.0073743966719510105 -0.0014723182411534596 0 0.0072272568432670417 -0.0015062777702029588 0 0.007311117859160097 -0.0015681504527745029 0 0.0075244864609874595 -0.0015816524498001175 0 0.007419270378028169 -0.0015421529584189403 0 0.0073940970462485845 -0.0016439990264156921 0 0.007311117859160097 -0.0015681504527745029 0 0.007419270378028169 -0.0015421529584189403 0 0.0073940970462485845 -0.0016439990264156921 0 0.0073743966719510105 -0.0014723182411534596 0 0.007311117859160097 -0.0015681504527745029 0 0.007419270378028169 -0.0015421529584189403 0 0.0073940970462485845 -0.0016439990264156921 0 0.0072758081578589004 -0.001649238893871447 0 0.007307970012099472 -0.0017181729497286167 0 0.0071719546117946361 -0.0015936219654301541 0 0.0072758081578589004 -0.001649238893871447 0 0.0071954868791649501 -0.0017220119679255829 0 0.0072758081578589004 -0.001649238893871447 0 0.007307970012099472 -0.0017181729497286167 0 0.0071954868791649501 -0.0017220119679255829 0 0.0071719546117946361 -0.0015936219654301541 0 0.007311117859160097 -0.0015681504527745029 0 0.0072758081578589004 -0.001649238893871447 0 0.007311117859160097 -0.0015681504527745029 0 0.0073940970462485845 -0.0016439990264156921 0 0.0072758081578589004 -0.001649238893871447 0 0.0073258905902682768 -0.0017321521569223289 0 0.0072026241477400011 -0.0018352336396380094 0 0.0070806665624639402 -0.0021701179495363624 0 0.007307970012099472 -0.0017181729497286167 0 0.0072627806254587151 -0.0017540423603609708 0 0.0071954868791649501 -0.0017220119679255829 0 0.0072624135216850525 -0.0018015436151708232 0 0.0071883064970519181 -0.0019147143888741535 0 0.0072627806254587151 -0.0017540423603609708 0 0.0073258905902682768 -0.0017321521569223289 0 0.0072026241477400011 -0.0018352336396380094 0 0.007307970012099472 -0.0017181729497286167 0 0.0072627806254587151 -0.0017540423603609708 0 0.0073258905902682768 -0.0017321521569223289 0 0.0072627806254587151 -0.0017540423603609708 0 0.0072026241477400011 -0.0018352336396380094 0 0.0071954868791649501 -0.0017220119679255829 0 0.0073799353858051428 -0.0016836691349057737 0 0.007307970012099472 -0.0017181729497286167 0 0.0073258905902682768 -0.0017321521569223289 0 0.0073647633227547074 -0.0017755029554142271 0 0.0073258905902682768 -0.0017321521569223289 0 0.007271171981550046 -0.0018067143901864394 0 0.0072026241477400011 -0.0018352336396380094 0 0.0070607250680643262 -0.0018496083568509188 0 0.0070806665624639402 -0.0021701179495363624 0 0.0070607250680643262 -0.0018496083568509188 0 0.0070806665624639402 -0.0021701179495363624 0 0.0068282739700152697 -0.0019194581417210723 0 0.0070443482610351195 -0.0017171824591065798 0 0.0068282739700152697 -0.0019194581417210723 0 0.0069272708967038042 -0.0015209887538764418 0 0.0072026241477400011 -0.0018352336396380094 0 0.0071954868791649501 -0.0017220119679255829 0 0.0070607250680643262 -0.0018496083568509188 0 0.0071954868791649501 -0.0017220119679255829 0 0.0070443482610351195 -0.0017171824591065798 0 0.0070607250680643262 -0.0018496083568509188 0 0.0070443482610351195 -0.0017171824591065798 0 0.0070607250680643262 -0.0018496083568509188 0 0.0068282739700152697 -0.0019194581417210723 0 0.0071883064970519181 -0.0019147143888741535 0 0.0053961020006651353 -0.0020700036864073172 0 0.0070901259056450868 -0.0018535602840916955 0 0.007271171981550046 -0.0018067143901864394 0 0.0072857823310070631 -0.0018643325826283152 0 0.0073258905902682768 -0.0017321521569223289 0 0.0070901259056450868 -0.0018535602840916955 0 0.007271171981550046 -0.0018067143901864394 0 0.0070901259056450868 -0.0018535602840916955 0 0.0072857823310070631 -0.0018643325826283152 0 0.0072422495883766634 -0.0019791424119398643 0 0.0073647633227547074 -0.0017755029554142271 0 0.007271171981550046 -0.0018067143901864394 0 0.0072857823310070631 -0.0018643325826283152 0 0.0073737513330958231 -0.0018959036891659619 0 0.0072857823310070631 -0.0018643325826283152 0 0.0072422495883766634 -0.0019791424119398643 0 0.0073126536504807375 -0.0021678044183998549 0 0.0072422495883766634 -0.0019791424119398643 0 0.0071351088381511963 -0.0020810494674377844 0 0.0070713576463886313 -0.0019778960564333157 0 0.0071351088381511963 -0.0020810494674377844 0 0.0069320937803932 -0.0019895241473556649 0 0.0037932081211261314 -0.0018974513676039231 0 0.0033411232196024054 -0.0019029079343823097 0 0.0032366926517816462 -0.001646723321195327 0 0.0054296644965365556 -0.0019518442996570744 0 0.0053961020006651353 -0.0020700036864073172 0 0.0070901259056450868 -0.0018535602840916955 0 0.0072422495883766634 -0.0019791424119398643 0 0.0070713576463886313 -0.0019778960564333157 0 0.0072422495883766634 -0.0019791424119398643 0 0.0070713576463886313 -0.0019778960564333157 0 0.0071351088381511963 -0.0020810494674377844 0 0.0070901259056450868 -0.0018535602840916955 0 0.0070713576463886313 -0.0019778960564333157 0 0.0069320937803932 -0.0019895241473556649 0 0.0033411232196024054 -0.0019029079343823097 0 0.0032366926517816462 -0.001646723321195327 0 0.0030657142843643682 -0.0018216643781220087 0 0.0032073368798904442 -0.0020639931980574655 0 0.0033411232196024054 -0.0019029079343823097 0 0.0030657142843643682 -0.0018216643781220087 0 0.0053961020006651353 -0.0020700036864073172 0 0.0049474698434822852 -0.0022515360732773275 0 0.0068020267499007327 -0.002481345883203897 0 0.0066683024203722466 -0.0026197343904846237 0 0.0067179499830070811 -0.0022717409093318923 0 0.0066683024203722466 -0.0026197343904846237 0 0.0064780576889651364 -0.0024676974717523724 0 0.0067179499830070811 -0.0022717409093318923 0 0.0063616736790154524 -0.0026853534242203226 0 0.0062699949177471006 -0.0025387263581895794 0 0.0064780576889651364 -0.0024676974717523724 0 0.0066683024203722466 -0.0026197343904846237 0 0.0063616736790154524 -0.0026853534242203226 0 0.0064780576889651364 -0.0024676974717523724 0 0.0061594853631773026 -0.0027440354629840657 0 0.0063616736790154524 -0.0026853534242203226 0 0.0062699949177471006 -0.0025387263581895794 0 0.0061594853631773026 -0.0027440354629840657 0 0.0062699949177471006 -0.0025387263581895794 0 0.0061192353546192374 -0.002479752599915448 0 0.0063242352631087823 -0.0023705780275132316 0 0.0062699949177471006 -0.0025387263581895794 0 0.0061192353546192374 -0.002479752599915448 0 0.0063242352631087823 -0.0023705780275132316 0 0.0062699949177471006 -0.0025387263581895794 0 0.0064780576889651364 -0.0024676974717523724 0 0.0065218202010845026 -0.0022039631410711463 0 0.0062442414940322502 -0.0021816117244626426 0 0.0064291805909494886 -0.0018068897496977059 0 0.0063242352631087823 -0.0023705780275132316 0 0.0064780576889651364 -0.0024676974717523724 0 0.0065218202010845026 -0.0022039631410711463 0 0.0063242352631087823 -0.0023705780275132316 0 0.0062442414940322502 -0.0021816117244626426 0 0.0061192353546192374 -0.002479752599915448 0 0.0063242352631087823 -0.0023705780275132316 0 0.0065218202010845026 -0.0022039631410711463 0 0.0062442414940322502 -0.0021816117244626426 0 0.0070806665624639402 -0.0021701179495363624 0 0.0068020267499007327 -0.002481345883203897 0 0.0067179499830070811 -0.0022717409093318923 0 0.0070806665624639402 -0.0021701179495363624 0 0.0067179499830070811 -0.0022717409093318923 0 0.0068282739700152697 -0.0019194581417210723 0 0.0065218202010845026 -0.0022039631410711463 0 0.0067179499830070811 -0.0022717409093318923 0 0.0068282739700152697 -0.0019194581417210723 0 0.0064780576889651364 -0.0024676974717523724 0 0.0065218202010845026 -0.0022039631410711463 0 0.0067179499830070811 -0.0022717409093318923 0 0.0060969263555984534 -0.0027725911894668112 0 0.0058941190171729885 -0.0026057368706843905 0 0.0061164066674792078 -0.0024301980381725898 0 0.0061126987303852277 -0.0027817119995627916 0 0.0061050252718597387 -0.0023615533114125196 0 0.0058459841137916482 -0.0028302676818624914 0 0.0061192353546192374 -0.002479752599915448 0 0.0059054353875317191 -0.0021762989316665804 0 0.0061594853631773026 -0.0027440354629840657 0 0.0058459841137916482 -0.0028302676818624914 0 0.0061192353546192374 -0.002479752599915448 0 0.00623418164056091 -0.0023601481334854036 0 0.0062276020172817356 -0.0024491824651096854 0 0.0066155499018909032 -0.0021729393993669592 0 0.0062442414940322502 -0.0021816117244626426 0 0.0059054353875317191 -0.0021762989316665804 0 0.0064291805909494886 -0.0018068897496977059 0 0.0062442414940322502 -0.0021816117244626426 0 0.0061192353546192374 -0.002479752599915448 0 0.0059054353875317191 -0.0021762989316665804 0 0.00623418164056091 -0.0023601481334854036 0 0.0062200073971885959 -0.0024348583472248433 0 0.0060822367276317166 -0.0023817102958535751 0 0.0061332967201579687 -0.0023736648426314288 0 0.0061050252718597387 -0.0023615533114125196 0 0.0058941190171729885 -0.0026057368706843905 0 0.0060822367276317166 -0.0023817102958535751 0 0.0059393335983106577 -0.0023695186826347874 0 0.0058941190171729885 -0.0026057368706843905 0 0.0062200073971885959 -0.0024348583472248433 0 0.0060822367276317166 -0.0023817102958535751 0 0.0059311659889532773 -0.0026064725955674394 0 0.0061050252718597387 -0.0023615533114125196 0 0.0060822367276317166 -0.0023817102958535751 0 0.0059393335983106577 -0.0023695186826347874 0 0.0060991586488309104 -0.0022262638313636936 0 0.00623418164056091 -0.0023601481334854036 0 0.0060822367276317166 -0.0023817102958535751 0 0.0061660889430185098 -0.0022996132369742972 0 0.0060991586488309104 -0.0022262638313636936 0 0.0060568326649334649 -0.0020085686159525508 0 0.005916818759397556 -0.0022166496360104017 0 0.0059393335983106577 -0.0023695186826347874 0 0.0060991586488309104 -0.0022262638313636936 0 0.005916818759397556 -0.0022166496360104017 0 0.0060822367276317166 -0.0023817102958535751 0 0.0060991586488309104 -0.0022262638313636936 0 0.0061660889430185098 -0.0022996132369742972 0 0.0060991586488309104 -0.0022262638313636936 0 0.0061660889430185098 -0.0022996132369742972 0 0.0062527942729870912 -0.0022289670833848156 0 0.0060991586488309104 -0.0022262638313636936 0 0.0062948788096662631 -0.0020952047913180517 0 0.0060568326649334649 -0.0020085686159525508 0 0.0061050252718597387 -0.0023615533114125196 0 0.0065148790488619339 -0.0019862460577437006 0 0.0062948788096662631 -0.0020952047913180517 0 0.0062527942729870912 -0.0022289670833848156 0 0.0066155499018909032 -0.0021729393993669592 0 0.00623418164056091 -0.0023601481334854036 0 0.0062527942729870912 -0.0022289670833848156 0 0.0066155499018909032 -0.0021729393993669592 0 0.0060991586488309104 -0.0022262638313636936 0 0.0062948788096662631 -0.0020952047913180517 0 0.0062527942729870912 -0.0022289670833848156 0 0.00623418164056091 -0.0023601481334854036 0 0.0061660889430185098 -0.0022996132369742972 0 0.0062527942729870912 -0.0022289670833848156 0 0.0062948788096662631 -0.0020952047913180517 0 0.006251639927220819 -0.0019492882018400019 0 0.0064733312152431763 -0.002011243690742081 0 0.00642680197034271 -0.0018344124691275967 0 0.006251639927220819 -0.0019492882018400019 0 0.0064733312152431763 -0.002011243690742081 0 0.00642680197034271 -0.0018344124691275967 0 0.006251639927220819 -0.0019492882018400019 0 0.0061825464238281945 -0.0017526773609150082 0 0.0062948788096662631 -0.0020952047913180517 0 0.006251639927220819 -0.0019492882018400019 0 0.0060568326649334649 -0.0020085686159525508 0 0.006251639927220819 -0.0019492882018400019 0 0.0060568326649334649 -0.0020085686159525508 0 0.0061825464238281945 -0.0017526773609150082 0 0.0065218202010845026 -0.0022039631410711463 0 0.0068282739700152697 -0.0019194581417210723 0 0.0064291805909494886 -0.0018068897496977059 0 0.0068282739700152697 -0.0019194581417210723 0 0.0064291805909494886 -0.0018068897496977059 0 0.0069272708967038042 -0.0015209887538764418 0 0.0062948788096662631 -0.0020952047913180517 0 0.0066155499018909032 -0.0021729393993669592 0 0.0064733312152431763 -0.002011243690742081 0 0.0066155499018909032 -0.0021729393993669592 0 0.0064733312152431763 -0.002011243690742081 0 0.006590770831762436 -0.0018982379454608889 0 0.0066155499018909032 -0.0021729393993669592 0 0.006590770831762436 -0.0018982379454608889 0 0.0067986975992945691 -0.0017902685970422952 0 0.00642680197034271 -0.0018344124691275967 0 0.0064733312152431763 -0.002011243690742081 0 0.006590770831762436 -0.0018982379454608889 0 0.00642680197034271 -0.0018344124691275967 0 0.006590770831762436 -0.0018982379454608889 0 0.0066208604126696061 -0.0016960691945090563 0 0.006590770831762436 -0.0018982379454608889 0 0.0067986975992945691 -0.0017902685970422952 0 0.0066208604126696061 -0.0016960691945090563 0 0.0066155499018909032 -0.0021729393993669592 0 0.0067986975992945691 -0.0017902685970422952 0 0.006988195884878032 -0.0018445265779210515 0 0.0065148790488619339 -0.0019862460577437006 0 0.0069531639846861252 -0.0016847830068152099 0 0.0070654337244550388 -0.0012588332068984621 0 0.0067986975992945691 -0.0017902685970422952 0 0.006988195884878032 -0.0018445265779210515 0 0.0071459716504885034 -0.0013577990257379094 0 0.0068066642271629937 -0.0017707325659840495 0 0.0071419297583936951 -0.0015071551060946162 0 0.0067986975992945691 -0.0017902685970422952 0 0.0068374974010989402 -0.001627072943741393 0 0.0067986975992945691 -0.0017902685970422952 0 0.0068374974010989402 -0.001627072943741393 0 0.0066208604126696061 -0.0016960691945090563 0 0.0071419297583936951 -0.0015071551060946162 0 0.0068374974010989402 -0.001627072943741393 0 0.006796363072812262 -0.0015173521398091667 0 0.0071419297583936951 -0.0015071551060946162 0 0.006796363072812262 -0.0015173521398091667 0 0.0069304857409381148 -0.0013661039156807424 0 0.006796363072812262 -0.0015173521398091667 0 0.0069304857409381148 -0.0013661039156807424 0 0.0066834398796913165 -0.0014071642654365614 0 0.0069304857409381148 -0.0013661039156807424 0 0.0066834398796913165 -0.0014071642654365614 0 0.006789492486959591 -0.0011965980501867177 0 0.0066834398796913165 -0.0014071642654365614 0 0.006318486293148037 -0.0014229240924593374 0 0.006789492486959591 -0.0011965980501867177 0 0.0066834398796913165 -0.0014071642654365614 0 0.0065821698017252805 -0.0015307298971812113 0 0.006318486293148037 -0.0014229240924593374 0 0.0065729652757358379 -0.0014794004370344504 0 0.0069743030496558682 -0.0012341762437809408 0 0.006796363072812262 -0.0015173521398091667 0 0.0066834398796913165 -0.0014071642654365614 0 0.0065821698017252805 -0.0015307298971812113 0 0.0065821698017252805 -0.0015307298971812113 0 0.0066208604126696061 -0.0016960691945090563 0 0.0064235662035541782 -0.0016450132404356413 0 0.0068374974010989402 -0.001627072943741393 0 0.006796363072812262 -0.0015173521398091667 0 0.0066208604126696061 -0.0016960691945090563 0 0.006796363072812262 -0.0015173521398091667 0 0.0065821698017252805 -0.0015307298971812113 0 0.0066208604126696061 -0.0016960691945090563 0 0.00642680197034271 -0.0018344124691275967 0 0.0066208604126696061 -0.0016960691945090563 0 0.0064235662035541782 -0.0016450132404356413 0 0.00642680197034271 -0.0018344124691275967 0 0.0064235662035541782 -0.0016450132404356413 0 0.0061825464238281945 -0.0017526773609150082 0 0.0064235662035541782 -0.0016450132404356413 0 0.0061825464238281945 -0.0017526773609150082 0 0.006318486293148037 -0.0014229240924593374 0 0.0061825464238281945 -0.0017526773609150082 0 0.006318486293148037 -0.0014229240924593374 0 0.005889265582910694 -0.0016966268435974841 0 0.0060568326649334649 -0.0020085686159525508 0 0.0061825464238281945 -0.0017526773609150082 0 0.005889265582910694 -0.0016966268435974841 0 0.0065729652757358379 -0.0014794004370344504 0 0.0061395930986457266 -0.0017385663558014859 0 0.0068339417259448611 -0.0015349926421490624 0 0.0063526516758967934 -0.0013604673325178201 0 0.0063795505097090522 -0.0017844606965196387 0 0.0065821698017252805 -0.0015307298971812113 0 0.0064235662035541782 -0.0016450132404356413 0 0.006318486293148037 -0.0014229240924593374 0 0.0068339417259448611 -0.0015349926421490624 0 0.0067821778201138348 -0.0012137039792816584 0 0.0070620618945191295 -0.0011919253161465795 0 0.0067821778201138348 -0.0012137039792816584 0 0.0065298122535063542 -0.0010573005197009411 0 0.0063526516758967934 -0.0013604673325178201 0 0.0068339417259448611 -0.0015349926421490624 0 0.0067821778201138348 -0.0012137039792816584 0 0.0063526516758967934 -0.0013604673325178201 0 0.0065298122535063542 -0.0010573005197009411 0 0.0068466973067098742 -0.00094535359495266787 0 0.0066727573429301874 -0.00078824253585857808 0 0.0067821778201138348 -0.0012137039792816584 0 0.0065298122535063542 -0.0010573005197009411 0 0.0068466973067098742 -0.00094535359495266787 0 0.0067821778201138348 -0.0012137039792816584 0 0.0069702179910713187 -0.0010560149846063241 0 0.0070620618945191295 -0.0011919253161465795 0 0.0068466973067098742 -0.00094535359495266787 0 0.0069702179910713187 -0.0010560149846063241 0 0.007140787995087561 -0.00090550957566171446 0 0.0067821778201138348 -0.0012137039792816584 0 0.0068466973067098742 -0.00094535359495266787 0 0.0069702179910713187 -0.0010560149846063241 0 0.0075171657511303013 -0.00094861637738636727 0 0.0070620618945191295 -0.0011919253161465795 0 0.007140787995087561 -0.00090550957566171446 0 0.0069702179910713187 -0.0010560149846063241 0 0.0070620618945191295 -0.0011919253161465795 0 0.007140787995087561 -0.00090550957566171446 0 0.0073066321565209398 -0.001054465781715825 0 0.0072121874768035386 -0.0009915108353248383 0 0.0071673537174578479 -0.0012608687175200829 0 0.0069304458730441929 -0.0010580829786426939 0 0.0072484574821466705 -0.0011095835751455767 0 0.0072121874768035386 -0.0009915108353248383 0 0.0071673537174578479 -0.0012608687175200829 0 0.0070620618945191295 -0.0011919253161465795 0 0.0071325318923706046 -0.0012621208153707495 0 0.0069304857409381148 -0.0013661039156807424 0 0.006789492486959591 -0.0011965980501867177 0 0.0071325318923706046 -0.0012621208153707495 0 0.0073066321565209398 -0.001054465781715825 0 0.006789492486959591 -0.0011965980501867177 0 0.0072809362114231949 -0.0010665755845815376 0 0.0069743030496558682 -0.0012341762437809408 0 0.0068339417259448611 -0.0015349926421490624 0 0.0071673537174578479 -0.0012608687175200829 0 0.0070620618945191295 -0.0011919253161465795 0 0.0058108743846427297 -0.001295880789952886 0 0.0054338172073633258 -0.0013199895608481372 0 0.0055506097328304697 -0.0010620797792752444 0 0.0058108743846427297 -0.001295880789952886 0 0.0055506097328304697 -0.0010620797792752444 0 0.0058463896265103709 -0.00084026999069891379 0 0.0058108743846427297 -0.001295880789952886 0 0.0061782768725201932 -0.001029415790585393 0 0.0063526516758967934 -0.0013604673325178201 0 0.0058108743846427297 -0.001295880789952886 0 0.0061782768725201932 -0.001029415790585393 0 0.0058463896265103709 -0.00084026999069891379 0 0.0065298122535063542 -0.0010573005197009411 0 0.0061782768725201932 -0.001029415790585393 0 0.0064147968509730216 -0.00082721412306728797 0 0.0065298122535063542 -0.0010573005197009411 0 0.0061782768725201932 -0.001029415790585393 0 0.0063526516758967934 -0.0013604673325178201 0 0.0058108743846427297 -0.001295880789952886 0 0.0063526516758967934 -0.0013604673325178201 0 0.0059685273058182643 -0.0016294229925049202 0 0.0063526516758967934 -0.0013604673325178201 0 0.0059685273058182643 -0.0016294229925049202 0 0.0063795505097090522 -0.0017844606965196387 0 0.0061395930986457266 -0.0017385663558014859 0 0.0057289335302801603 -0.0019850418206411881 0 0.0059685273058182643 -0.0016294229925049202 0 0.0063795505097090522 -0.0017844606965196387 0 0.0059065924518774569 -0.0019981084293538842 0 0.0059685273058182643 -0.0016294229925049202 0 0.0054567580675209046 -0.0017108220559623284 0 0.0059065924518774569 -0.0019981084293538842 0 0.0058108743846427297 -0.001295880789952886 0 0.0059685273058182643 -0.0016294229925049202 0 0.0054567580675209046 -0.0017108220559623284 0 0.0058108743846427297 -0.001295880789952886 0 0.0054338172073633258 -0.0013199895608481372 0 0.0054567580675209046 -0.0017108220559623284 0 0.0054567580675209046 -0.0017108220559623284 0 0.0053635924268744762 -0.0021858651568090006 0 0.0051178460397991992 -0.0020576905503983203 0 0.0053887914930342007 -0.0021732716875370152 0 0.0057289335302801603 -0.0019850418206411881 0 0.0054567580675209046 -0.0017108220559623284 0 0.0053635924268744762 -0.0021858651568090006 0 0.0059065924518774569 -0.0019981084293538842 0 0.0053635924268744762 -0.0021858651568090006 0 0.0055464102616896195 -0.0019793065763236447 0 0.0055105799150457118 -0.0023531133649475795 0 0.0060568326649334649 -0.0020085686159525508 0 0.005889265582910694 -0.0016966268435974841 0 0.005760694779907807 -0.0021236176375847458 0 0.005889265582910694 -0.0016966268435974841 0 0.0055464102616896195 -0.0019793065763236447 0 0.005760694779907807 -0.0021236176375847458 0 0.005760694779907807 -0.0021236176375847458 0 0.0057338199577593443 -0.0023785557839809128 0 0.0055105799150457118 -0.0023531133649475795 0 0.0055464102616896195 -0.0019793065763236447 0 0.005760694779907807 -0.0021236176375847458 0 0.0055105799150457118 -0.0023531133649475795 0 0.005760694779907807 -0.0021236176375847458 0 0.005916818759397556 -0.0022166496360104017 0 0.0057338199577593443 -0.0023785557839809128 0 0.0060568326649334649 -0.0020085686159525508 0 0.005760694779907807 -0.0021236176375847458 0 0.005916818759397556 -0.0022166496360104017 0 0.0058941190171729885 -0.0026057368706843905 0 0.0059393335983106577 -0.0023695186826347874 0 0.0057338199577593443 -0.0023785557839809128 0 0.0059393335983106577 -0.0023695186826347874 0 0.005916818759397556 -0.0022166496360104017 0 0.0057338199577593443 -0.0023785557839809128 0 0.0057338199577593443 -0.0023785557839809128 0 0.0055105799150457118 -0.0023531133649475795 0 0.005634060066234953 -0.0025732812826425541 0 0.0053709892261790378 -0.0027519297329317944 0 0.0056219634672367213 -0.002814232975121895 0 0.005634060066234953 -0.0025732812826425541 0 0.0053709892261790378 -0.0027519297329317944 0 0.0055105799150457118 -0.0023531133649475795 0 0.005634060066234953 -0.0025732812826425541 0 0.0058941190171729885 -0.0026057368706843905 0 0.0057338199577593443 -0.0023785557839809128 0 0.005634060066234953 -0.0025732812826425541 0 0.0056219634672367213 -0.002814232975121895 0 0.0058941190171729885 -0.0026057368706843905 0 0.005634060066234953 -0.0025732812826425541 0 0.0053635924268744762 -0.0021858651568090006 0 0.0052344089668685959 -0.0025332008049123527 0 0.0050780429271797944 -0.002388286380995636 0 0.0053635924268744762 -0.0021858651568090006 0 0.0055105799150457118 -0.0023531133649475795 0 0.0052344089668685959 -0.0025332008049123527 0 0.0053709892261790378 -0.0027519297329317944 0 0.0055105799150457118 -0.0023531133649475795 0 0.0052344089668685959 -0.0025332008049123527 0 0.0052344089668685959 -0.0025332008049123527 0 0.0049568880460249759 -0.0026980432612339245 0 0.0050780429271797944 -0.002388286380995636 0 0.0050963526785200329 -0.0028824081630974972 0 0.0052344089668685959 -0.0025332008049123527 0 0.0049568880460249759 -0.0026980432612339245 0 0.0048855185389047604 -0.0025195135581798293 0 0.0047054070898186629 -0.0025202225937849708 0 0.0048851043951513868 -0.0023052507083247404 0 0.0050780429271797944 -0.002388286380995636 0 0.0048855185389047604 -0.0025195135581798293 0 0.0048851043951513868 -0.0023052507083247404 0 0.0049568880460249759 -0.0026980432612339245 0 0.0050780429271797944 -0.002388286380995636 0 0.0048855185389047604 -0.0025195135581798293 0 0.0049568880460249759 -0.0026980432612339245 0 0.0048855185389047604 -0.0025195135581798293 0 0.0047933581988845357 -0.0026708360718706043 0 0.0046311842714558786 -0.0027780421575178764 0 0.0047933581988845357 -0.0026708360718706043 0 0.0047054070898186629 -0.0025202225937849708 0 0.0046311842714558786 -0.0027780421575178764 0 0.0045219098270191964 -0.0026124065895810084 0 0.0047054070898186629 -0.0025202225937849708 0 0.0048855185389047604 -0.0025195135581798293 0 0.0047933581988845357 -0.0026708360718706043 0 0.0047054070898186629 -0.0025202225937849708 0 0.0044725427163732311 -0.0027626287775863521 0 0.0045219098270191964 -0.0026124065895810084 0 0.0043060195846170088 -0.0026191013436294656 0 0.0044725427163732311 -0.0027626287775863521 0 0.0046311842714558786 -0.0027780421575178764 0 0.0045219098270191964 -0.0026124065895810084 0 0.0045219098270191964 -0.0026124065895810084 0 0.0044705862023147018 -0.0024147022105924679 0 0.0043060195846170088 -0.0026191013436294656 0 0.0044705862023147018 -0.0024147022105924679 0 0.0047054070898186629 -0.0025202225937849708 0 0.0046414088985345815 -0.0021973472746012173 0 0.0045219098270191964 -0.0026124065895810084 0 0.0044705862023147018 -0.0024147022105924679 0 0.0047054070898186629 -0.0025202225937849708 0 0.0047054070898186629 -0.0025202225937849708 0 0.0046414088985345815 -0.0021973472746012173 0 0.0048851043951513868 -0.0023052507083247404 0 0.0046414088985345815 -0.0021973472746012173 0 0.0048355492294993125 -0.0020001484703048651 0 0.0048851043951513868 -0.0023052507083247404 0 0.0044705862023147018 -0.0024147022105924679 0 0.0046414088985345815 -0.0021973472746012173 0 0.0043453775818711373 -0.0021872827998870139 0 0.0046414088985345815 -0.0021973472746012173 0 0.0045327544590306268 -0.0019602591982022821 0 0.0043453775818711373 -0.0021872827998870139 0 0.0045327544590306268 -0.0019602591982022821 0 0.0048355492294993125 -0.0020001484703048651 0 0.0047367611917954622 -0.0016964273367296235 0 0.0046414088985345815 -0.0021973472746012173 0 0.0045327544590306268 -0.0019602591982022821 0 0.0048355492294993125 -0.0020001484703048651 0 0.0048355492294993125 -0.0020001484703048651 0 0.0051178460397991992 -0.0020576905503983203 0 0.0050692092109725371 -0.0017320542439835248 0 0.0053635924268744762 -0.0021858651568090006 0 0.0050780429271797944 -0.002388286380995636 0 0.0051178460397991992 -0.0020576905503983203 0 0.0050780429271797944 -0.002388286380995636 0 0.0051178460397991992 -0.0020576905503983203 0 0.0048851043951513868 -0.0023052507083247404 0 0.0048355492294993125 -0.0020001484703048651 0 0.0051178460397991992 -0.0020576905503983203 0 0.0048851043951513868 -0.0023052507083247404 0 0.0034442364157009535 -0.0022766604473273598 0 0.0035423835470190417 -0.0025233352861128767 0 0.0037287839649006336 -0.002294093657607744 0 0.0036427290824536775 -0.0028090732406128804 0 0.0034284564555307384 -0.0027824060466415355 0 0.0035423835470190417 -0.0025233352861128767 0 0.0036427290824536775 -0.0028090732406128804 0 0.003824164584644134 -0.0024993338179229723 0 0.0038768803648839495 -0.0027151889397513144 0 0.0036427290824536775 -0.0028090732406128804 0 0.0035423835470190417 -0.0025233352861128767 0 0.003824164584644134 -0.0024993338179229723 0 0.003824164584644134 -0.0024993338179229723 0 0.0037287839649006336 -0.002294093657607744 0 0.0040673617262683833 -0.0022114439285960009 0 0.0035423835470190417 -0.0025233352861128767 0 0.003824164584644134 -0.0024993338179229723 0 0.0037287839649006336 -0.002294093657607744 0 0.003824164584644134 -0.0024993338179229723 0 0.0041625139041242482 -0.0024229032491367443 0 0.0040673617262683833 -0.0022114439285960009 0 0.0038768803648839495 -0.0027151889397513144 0 0.0043060195846170088 -0.0026191013436294656 0 0.0041625139041242482 -0.0024229032491367443 0 0.003824164584644134 -0.0024993338179229723 0 0.0038768803648839495 -0.0027151889397513144 0 0.0041625139041242482 -0.0024229032491367443 0 0.0042916911724606016 -0.0028482952001520762 0 0.0038768803648839495 -0.0027151889397513144 0 0.0043060195846170088 -0.0026191013436294656 0 0.0042916911724606016 -0.0028482952001520762 0 0.0044725427163732311 -0.0027626287775863521 0 0.0043060195846170088 -0.0026191013436294656 0 0.0044705862023147018 -0.0024147022105924679 0 0.0043060195846170088 -0.0026191013436294656 0 0.0041625139041242482 -0.0024229032491367443 0 0.0044705862023147018 -0.0024147022105924679 0 0.0041625139041242482 -0.0024229032491367443 0 0.0043453775818711373 -0.0021872827998870139 0 0.0041625139041242482 -0.0024229032491367443 0 0.0043453775818711373 -0.0021872827998870139 0 0.0040673617262683833 -0.0022114439285960009 0 0.0043453775818711373 -0.0021872827998870139 0 0.0042653609814772581 -0.0019533057847857995 0 0.0040673617262683833 -0.0022114439285960009 0 0.0045327544590306268 -0.0019602591982022821 0 0.0043453775818711373 -0.0021872827998870139 0 0.0042653609814772581 -0.0019533057847857995 0 0.0045327544590306268 -0.0019602591982022821 0 0.0042653609814772581 -0.0019533057847857995 0 0.0044252609082203395 -0.0017092159063694921 0 0.0042653609814772581 -0.0019533057847857995 0 0.0039394395828344477 -0.0020050502045212376 0 0.0041512435881318364 -0.0017465637028943554 0 0.0042653609814772581 -0.0019533057847857995 0 0.0040673617262683833 -0.0022114439285960009 0 0.0039394395828344477 -0.0020050502045212376 0 0.0037287839649006336 -0.002294093657607744 0 0.0040673617262683833 -0.0022114439285960009 0 0.0039394395828344477 -0.0020050502045212376 0 0.0037287839649006336 -0.002294093657607744 0 0.0039394395828344477 -0.0020050502045212376 0 0.0036090285032094652 -0.0020464339249314269 0 0.0039394395828344477 -0.0020050502045212376 0 0.0036090285032094652 -0.0020464339249314269 0 0.0038179263133982341 -0.0017876413414937514 0 0.0039394395828344477 -0.0020050502045212376 0 0.0038179263133982341 -0.0017876413414937514 0 0.0041512435881318364 -0.0017465637028943554 0 0.0034642706116915028 -0.0017974471188313404 0 0.0036090285032094652 -0.0020464339249314269 0 0.0038179263133982341 -0.0017876413414937514 0 0.0034442364157009535 -0.0022766604473273598 0 0.0037287839649006336 -0.002294093657607744 0 0.0036090285032094652 -0.0020464339249314269 0 0.0034642706116915028 -0.0017974471188313404 0 0.0037003291922171476 -0.001579885595828025 0 0.0038179263133982341 -0.0017876413414937514 0 0.0037003291922171476 -0.001579885595828025 0 0.0038179263133982341 -0.0017876413414937514 0 0.0039863983130569393 -0.0015818609820478819 0 0.0038179263133982341 -0.0017876413414937514 0 0.0039863983130569393 -0.0015818609820478819 0 0.0041512435881318364 -0.0017465637028943554 0 0.0039863983130569393 -0.0015818609820478819 0 0.0042497615205754676 -0.0014933389701633393 0 0.0040136143722287439 -0.0013020509296309052 0 0.0037003291922171476 -0.001579885595828025 0 0.0039863983130569393 -0.0015818609820478819 0 0.0040136143722287439 -0.0013020509296309052 0 0.0039863983130569393 -0.0015818609820478819 0 0.0042497615205754676 -0.0014933389701633393 0 0.0041512435881318364 -0.0017465637028943554 0 0.0042497615205754676 -0.0014933389701633393 0 0.0041512435881318364 -0.0017465637028943554 0 0.0044252609082203395 -0.0017092159063694921 0 0.0042653609814772581 -0.0019533057847857995 0 0.0041512435881318364 -0.0017465637028943554 0 0.0044252609082203395 -0.0017092159063694921 0 0.0042497615205754676 -0.0014933389701633393 0 0.0044252609082203395 -0.0017092159063694921 0 0.004573207240021704 -0.0014268365513441699 0 0.0042497615205754676 -0.0014933389701633393 0 0.0043673940784705644 -0.0011828673391402647 0 0.004573207240021704 -0.0014268365513441699 0 0.0043673940784705644 -0.0011828673391402647 0 0.004573207240021704 -0.0014268365513441699 0 0.0046466551959561137 -0.0011466196715978108 0 0.0043673940784705644 -0.0011828673391402647 0 0.0046466551959561137 -0.0011466196715978108 0 0.0045278579400869334 -0.00085466107626222185 0 0.0041939909554958837 -0.0010034015357189138 0 0.0043673940784705644 -0.0011828673391402647 0 0.0040136143722287439 -0.0013020509296309052 0 0.0041939909554958837 -0.0010034015357189138 0 0.0043673940784705644 -0.0011828673391402647 0 0.0045278579400869334 -0.00085466107626222185 0 0.0042497615205754676 -0.0014933389701633393 0 0.0043673940784705644 -0.0011828673391402647 0 0.0040136143722287439 -0.0013020509296309052 0 0.0041939909554958837 -0.0010034015357189138 0 0.0040136143722287439 -0.0013020509296309052 0 0.0038533090193987119 -0.00094297965355059519 0 0.0040136143722287439 -0.0013020509296309052 0 0.0037236117716840447 -0.0012475575625741993 0 0.0038533090193987119 -0.00094297965355059519 0 0.0035440070089806245 -0.0011006827669655063 0 0.0037236117716840447 -0.0012475575625741993 0 0.0038533090193987119 -0.00094297965355059519 0 0.0037003291922171476 -0.001579885595828025 0 0.0040136143722287439 -0.0013020509296309052 0 0.0037236117716840447 -0.0012475575625741993 0 0.0051886205297153468 -0.0014483983836784107 0 0.0050692092109725371 -0.0017320542439835248 0 0.0049199913542775087 -0.0013735423315691401 0 0.0054338172073633258 -0.0013199895608481372 0 0.0054567580675209046 -0.0017108220559623284 0 0.0051886205297153468 -0.0014483983836784107 0 0.0054567580675209046 -0.0017108220559623284 0 0.0051886205297153468 -0.0014483983836784107 0 0.0050692092109725371 -0.0017320542439835248 0 0.0054567580675209046 -0.0017108220559623284 0 0.0051178460397991992 -0.0020576905503983203 0 0.0050692092109725371 -0.0017320542439835248 0 0.0048355492294993125 -0.0020001484703048651 0 0.0050692092109725371 -0.0017320542439835248 0 0.0047367611917954622 -0.0016964273367296235 0 0.0045327544590306268 -0.0019602591982022821 0 0.0044252609082203395 -0.0017092159063694921 0 0.0047367611917954622 -0.0016964273367296235 0 0.0044252609082203395 -0.0017092159063694921 0 0.0047367611917954622 -0.0016964273367296235 0 0.004573207240021704 -0.0014268365513441699 0 0.0047367611917954622 -0.0016964273367296235 0 0.004573207240021704 -0.0014268365513441699 0 0.0049199913542775087 -0.0013735423315691401 0 0.0050692092109725371 -0.0017320542439835248 0 0.0047367611917954622 -0.0016964273367296235 0 0.0049199913542775087 -0.0013735423315691401 0 0.004573207240021704 -0.0014268365513441699 0 0.0049199913542775087 -0.0013735423315691401 0 0.0046466551959561137 -0.0011466196715978108 0 0.0046466551959561137 -0.0011466196715978108 0 0.0049261146870106893 -0.0010626120428564867 0 0.0048172393174181318 -0.00081847111762623826 0 0.0049199913542775087 -0.0013735423315691401 0 0.0046466551959561137 -0.0011466196715978108 0 0.0049261146870106893 -0.0010626120428564867 0 0.0049199913542775087 -0.0013735423315691401 0 0.0049261146870106893 -0.0010626120428564867 0 0.0052409813897651 -0.0011139672287885025 0 0.0049261146870106893 -0.0010626120428564867 0 0.0052409813897651 -0.0011139672287885025 0 0.0051013193403979026 -0.00084861538708558152 0 0.0051886205297153468 -0.0014483983836784107 0 0.0049199913542775087 -0.0013735423315691401 0 0.0052409813897651 -0.0011139672287885025 0 0.0054338172073633258 -0.0013199895608481372 0 0.0051886205297153468 -0.0014483983836784107 0 0.0052409813897651 -0.0011139672287885025 0 0.0054338172073633258 -0.0013199895608481372 0 0.0055506097328304697 -0.0010620797792752444 0 0.0052409813897651 -0.0011139672287885025 0 0.0055506097328304697 -0.0010620797792752444 0 0.0052409813897651 -0.0011139672287885025 0 0.0054485448903312033 -0.00079248333396278285 0 0.0052409813897651 -0.0011139672287885025 0 0.0053865025276484636 -0.00072922333128000937 0 0.0057009024850546734 -0.00088393846588084716 0 0.0052748346887732354 -0.0010918121978100181 0 0.005570853849055756 -0.00083804758488436519 0 0.0053865025276484636 -0.00072922333128000937 0 0.0056580844786283269 -0.00049324066861037403 0 0.0057009024850546734 -0.00088393846588084716 0 0.0053865025276484636 -0.00072922333128000937 0 0.0051013193403979026 -0.00084861538708558152 0 0.0051407525932715787 -0.00051259845057040842 0 0.0053865025276484636 -0.00072922333128000937 0 0.0051407525932715787 -0.00051259845057040842 0 0.0056580844786283269 -0.00049324066861037403 0 0.0052409813897651 -0.0011139672287885025 0 0.0053865025276484636 -0.00072922333128000937 0 0.0051013193403979026 -0.00084861538708558152 0 0.0049261146870106893 -0.0010626120428564867 0 0.0051013193403979026 -0.00084861538708558152 0 0.0048172393174181318 -0.00081847111762623826 0 0.0046466551959561137 -0.0011466196715978108 0 0.0048172393174181318 -0.00081847111762623826 0 0.0045278579400869334 -0.00085466107626222185 0 0.0048172393174181318 -0.00081847111762623826 0 0.0048112022607785087 -0.00051557175341452547 0 0.0045278579400869334 -0.00085466107626222185 0 0.0048172393174181318 -0.00081847111762623826 0 0.0048112022607785087 -0.00051557175341452547 0 0.0051407525932715787 -0.00051259845057040842 0 0.0051013193403979026 -0.00084861538708558152 0 0.0048172393174181318 -0.00081847111762623826 0 0.0051407525932715787 -0.00051259845057040842 0 0.0048112022607785087 -0.00051557175341452547 0 0.0051407525932715787 -0.00051259845057040842 0 0.0049824434096224536 -0.00024965085008401525 0 0.0051407525932715787 -0.00051259845057040842 0 0.0049824434096224536 -0.00024965085008401525 0 0.0051566937039730868 -0.00023886204715855747 0 0.0048112022607785087 -0.00051557175341452547 0 0.0048979744735947626 -0.00024146516929365235 0 0.0049824434096224536 -0.00024965085008401525 0 0.0049722076187915373 -0.00022082059399969469 0 0.0054399868140148902 1.0516388383491574e-06 0 0.0048979744735947626 -0.00024146516929365235 0 0.0049824434096224536 -0.00024965085008401525 0 0.0050420364365753095 2.2627669094001479e-05 0 0.0049824434096224536 -0.00024965085008401525 0 0.0051018814677205957 -0.00012464429251483276 0 0.0050420364365753095 2.2627669094001479e-05 0 0.0049824434096224536 -0.00024965085008401525 0 0.0051566937039730868 -0.00023886204715855747 0 0.0051018814677205957 -0.00012464429251483276 0 0.0051566937039730868 -0.00023886204715855747 0 0.0051018814677205957 -0.00012464429251483276 0 0.0052746501450929321 -2.4737190086286359e-05 0 0.0051018814677205957 -0.00012464429251483276 0 0.0052746501450929321 -2.4737190086286359e-05 0 0.0050420364365753095 2.2627669094001479e-05 0 0.0052746501450929321 -2.4737190086286359e-05 0 0.0054035262180136615 -0.00024543895185991305 0 0.0056070757067661504 5.287875006778767e-05 0 0.0051566937039730868 -0.00023886204715855747 0 0.0052746501450929321 -2.4737190086286359e-05 0 0.0054035262180136615 -0.00024543895185991305 0 0.0054035262180136615 -0.00024543895185991305 0 0.0057144128912242258 -0.00020927158702750798 0 0.0056070757067661504 5.287875006778767e-05 0 0.0057144128912242258 -0.00020927158702750798 0 0.0056070757067661504 5.287875006778767e-05 0 0.0059152935166308937 -2.1652283901733616e-05 0 0.0054035262180136615 -0.00024543895185991305 0 0.0057144128912242258 -0.00020927158702750798 0 0.0056580844786283269 -0.00049324066861037403 0 0.0051407525932715787 -0.00051259845057040842 0 0.0054035262180136615 -0.00024543895185991305 0 0.0056580844786283269 -0.00049324066861037403 0 0.0051407525932715787 -0.00051259845057040842 0 0.0051566937039730868 -0.00023886204715855747 0 0.0054035262180136615 -0.00024543895185991305 0 0.003672665736492347 -0.00064732755686912173 0 0.0039589793936806242 -0.00056029872305393322 0 0.0038533090193987119 -0.00094297965355059519 0 0.0039589793936806242 -0.00056029872305393322 0 0.0038533090193987119 -0.00094297965355059519 0 0.0042081804072245863 -0.00072784850350970877 0 0.0041939909554958837 -0.0010034015357189138 0 0.0038533090193987119 -0.00094297965355059519 0 0.0042081804072245863 -0.00072784850350970877 0 0.0039589793936806242 -0.00056029872305393322 0 0.0042081804072245863 -0.00072784850350970877 0 0.0042264232934272408 -0.00035789856623777677 0 0.0042081804072245863 -0.00072784850350970877 0 0.0045278579400869334 -0.00085466107626222185 0 0.004532658208464743 -0.000496197412021008 0 0.0042081804072245863 -0.00072784850350970877 0 0.004532658208464743 -0.000496197412021008 0 0.0042264232934272408 -0.00035789856623777677 0 0.0041939909554958837 -0.0010034015357189138 0 0.0042081804072245863 -0.00072784850350970877 0 0.0045278579400869334 -0.00085466107626222185 0 0.0048112022607785087 -0.00051557175341452547 0 0.0045278579400869334 -0.00085466107626222185 0 0.004532658208464743 -0.000496197412021008 0 0.0048979744735947626 -0.00024146516929365235 0 0.004532658208464743 -0.000496197412021008 0 0.0045359336629457146 -0.00015185177408196974 0 0.0048112022607785087 -0.00051557175341452547 0 0.0048979744735947626 -0.00024146516929365235 0 0.004532658208464743 -0.000496197412021008 0 0.0048979744735947626 -0.00024146516929365235 0 0.0045359336629457146 -0.00015185177408196974 0 0.0049661456497364139 0.0001638856271350036 0 0.0045359336629457146 -0.00015185177408196974 0 0.0042264232934272408 -0.00035789856623777677 0 0.0042252693274837131 -4.2498934170889284e-05 0 0.0045359336629457146 -0.00015185177408196974 0 0.0042252693274837131 -4.2498934170889284e-05 0 0.0045057210000157451 0.00021821304868353087 0 0.004532658208464743 -0.000496197412021008 0 0.0045359336629457146 -0.00015185177408196974 0 0.0042264232934272408 -0.00035789856623777677 0 0.0039589793936806242 -0.00056029872305393322 0 0.0042264232934272408 -0.00035789856623777677 0 0.0038913014166319206 -0.00012647905928583943 0 0.0042264232934272408 -0.00035789856623777677 0 0.0042252693274837131 -4.2498934170889284e-05 0 0.0038913014166319206 -0.00012647905928583943 0 0.0042252693274837131 -4.2498934170889284e-05 0 0.0038913014166319206 -0.00012647905928583943 0 0.0040317916737643324 0.0002714355837254015 0 0.00359604160943353 -0.00033432959860139969 0 0.0039589793936806242 -0.00056029872305393322 0 0.0038913014166319206 -0.00012647905928583943 0 0.0037855704455360974 0.00044804978041601529 0 0.0040317916737643324 0.0002714355837254015 0 0.0039859290688851823 0.00062883047250968549 0 0.0037855704455360974 0.00044804978041601529 0 0.0036979138777926308 0.00018476786268256133 0 0.0040317916737643324 0.0002714355837254015 0 0.0036979138777926308 0.00018476786268256133 0 0.0038913014166319206 -0.00012647905928583943 0 0.0040317916737643324 0.0002714355837254015 0 0.0042252693274837131 -4.2498934170889284e-05 0 0.0040317916737643324 0.0002714355837254015 0 0.0045057210000157451 0.00021821304868353087 0 0.0040317916737643324 0.0002714355837254015 0 0.0044265387439381392 0.0006229768483722749 0 0.0039859290688851823 0.00062883047250968549 0 0.0040317916737643324 0.0002714355837254015 0 0.0044265387439381392 0.0006229768483722749 0 0.0045057210000157451 0.00021821304868353087 0 0.0046042640799693326 0.00065034492027858182 0 0.0041080534063541955 0.0006638864982136815 0 0.0044265387439381392 0.0006229768483722749 0 0.0045057210000157451 0.00021821304868353087 0 0.0047924499537886451 0.00040201523365824307 0 0.0045057210000157451 0.00021821304868353087 0 0.0049661456497364139 0.0001638856271350036 0 0.0047924499537886451 0.00040201523365824307 0 0.0049661456497364139 0.0001638856271350036 0 0.0047924499537886451 0.00040201523365824307 0 0.005231441787599927 0.00041365568050991412 0 0.0045359336629457146 -0.00015185177408196974 0 0.0045057210000157451 0.00021821304868353087 0 0.0049661456497364139 0.0001638856271350036 0 0.0044265387439381392 0.0006229768483722749 0 0.0047924499537886451 0.00040201523365824307 0 0.005121010770700889 0.00063526596669028358 0 0.0046042640799693326 0.00065034492027858182 0 0.0050935708365038614 0.00062906452457135882 0 0.0047924499537886451 0.00040201523365824307 0 0.005121010770700889 0.00063526596669028358 0 0.005231441787599927 0.00041365568050991412 0 0.0047570265493691692 0.00068119838777223256 0 0.005121010770700889 0.00063526596669028358 0 0.0050115670831255765 0.0009636946293673361 0 0.005121010770700889 0.00063526596669028358 0 0.0050115670831255765 0.0009636946293673361 0 0.0051984251163818395 0.0008852010414657712 0 0.0050115670831255765 0.0009636946293673361 0 0.0051984251163818395 0.0008852010414657712 0 0.0053670630748855535 0.0011774184024700622 0 0.0048908516057690433 0.0013646918334154572 0 0.0050115670831255765 0.0009636946293673361 0 0.0053670630748855535 0.0011774184024700622 0 0.0048908516057690433 0.0013646918334154572 0 0.0050115670831255765 0.0009636946293673361 0 0.004718668080928177 0.0010048058360582204 0 0.0047570265493691692 0.00068119838777223256 0 0.0050115670831255765 0.0009636946293673361 0 0.004718668080928177 0.0010048058360582204 0 0.004718668080928177 0.0010048058360582204 0 0.0044122947971699548 0.0011409862041221841 0 0.0042517400780269369 0.0006835158672929408 0 0.0047570265493691692 0.00068119838777223256 0 0.004718668080928177 0.0010048058360582204 0 0.0042517400780269369 0.0006835158672929408 0 0.007910494450856875 0.00050589574684096735 0 0.0077407261705381702 0.00045904731978110543 0 0.0048908516057690433 0.0013646918334154572 0 0.004718668080928177 0.0010048058360582204 0 0.0044122947971699548 0.0011409862041221841 0 0.010565236634198819 -0.00050379859914761495 0 0.010695466123659854 -0.00012693837731552615 0 0.010974339706959062 -0.00027574412901386157 0 0.0071495551714099497 0.00018022363045520359 0 0.0077407261705381702 0.00045904731978110543 0 0.0038022915502391951 0.00083661933640628969 0 0.0044122947971699548 0.0011409862041221841 0 0.0042517400780269369 0.0006835158672929408 0 0.0062235536454063921 0.00045304424544566753 0 0.006184198438943197 0.00065300869559282049 0 0.0053958760412967438 0.0003714310171991061 0 0.0058398857993652211 0.00070762241670285179 0 0.0059634597442581082 0.00027551978599839696 0 0.0053958760412967438 0.0003714310171991061 0 0.0056070757067661504 5.287875006778767e-05 0 0.0059634597442581082 0.00027551978599839696 0 0.0062235536454063921 0.00045304424544566753 0 0.0054399868140148902 1.0516388383491574e-06 0 0.0052746501450929321 -2.4737190086286359e-05 0 0.0053958760412967438 0.0003714310171991061 0 0.0050420364365753095 2.2627669094001479e-05 0 0.0052746501450929321 -2.4737190086286359e-05 0 0.0053958760412967438 0.0003714310171991061 0 0.0056070757067661504 5.287875006778767e-05 0 0.0068170915836981479 0.00043027468270349321 0 0.0058711781474389902 -3.061853494150499e-05 0 0.0060898331511541016 0.00051138878612920176 0 0.0058711781474389902 -3.061853494150499e-05 0 0.0056172632355754948 0.00015331563887032338 0 0.0060898331511541016 0.00051138878612920176 0 0.0049661456497364139 0.0001638856271350036 0 0.0056172632355754948 0.00015331563887032338 0 0.005231441787599927 0.00041365568050991412 0 0.0048979744735947626 -0.00024146516929365235 0 0.0049661456497364139 0.0001638856271350036 0 0.0056172632355754948 0.00015331563887032338 0 0.0048979744735947626 -0.00024146516929365235 0 0.0058711781474389902 -3.061853494150499e-05 0 0.0056172632355754948 0.00015331563887032338 0 0.0056158843932684844 0.00020258168038403475 0 0.0056160728655874209 0.00081160960938672937 0 0.0056172632355754948 0.00015331563887032338 0 0.005231441787599927 0.00041365568050991412 0 0.005410990384407008 0.00078000291453450684 0 0.005121010770700889 0.00063526596669028358 0 0.005231441787599927 0.00041365568050991412 0 0.005410990384407008 0.00078000291453450684 0 0.0056172632355754948 0.00015331563887032338 0 0.0060898331511541016 0.00051138878612920176 0 0.0057328772830178209 0.00098050436890197374 0 0.0068170915836981479 0.00043027468270349321 0 0.0060898331511541016 0.00051138878612920176 0 0.0062495522349773139 0.00096470738886937841 0 0.0060898331511541016 0.00051138878612920176 0 0.0062495522349773139 0.00096470738886937841 0 0.0057328772830178209 0.00098050436890197374 0 0.0062495522349773139 0.00096470738886937841 0 0.0057328772830178209 0.00098050436890197374 0 0.0061956498818868189 0.001557826834212239 0 0.0062495522349773139 0.00096470738886937841 0 0.0061956498818868189 0.001557826834212239 0 0.0066800899429632537 0.0014355638197066855 0 0.0057328772830178209 0.00098050436890197374 0 0.0057295962348007917 0.0017811380249055132 0 0.0061956498818868189 0.001557826834212239 0 0.0051984251163818395 0.0008852010414657712 0 0.005410990384407008 0.00078000291453450684 0 0.0053670630748855535 0.0011774184024700622 0 0.0056160728655874209 0.00081160960938672937 0 0.0051680001019170215 0.0016416165794612978 0 0.005121010770700889 0.00063526596669028358 0 0.0051984251163818395 0.0008852010414657712 0 0.005410990384407008 0.00078000291453450684 0 0.0060885138810170642 0.0021930151952589748 0 0.0061956498818868189 0.001557826834212239 0 0.0066557222569036505 0.0019591010721343874 0 0.0060885138810170642 0.0021930151952589748 0 0.0057295962348007917 0.0017811380249055132 0 0.0061956498818868189 0.001557826834212239 0 0.0071458265091019005 0.0023260151802773159 0 0.0066557222569036505 0.0019591010721343874 0 0.00731991291344354 0.0014327566279257891 0 0.0066557222569036505 0.0019591010721343874 0 0.0066800899429632537 0.0014355638197066855 0 0.00731991291344354 0.0014327566279257891 0 0.0061956498818868189 0.001557826834212239 0 0.0066557222569036505 0.0019591010721343874 0 0.0066800899429632537 0.0014355638197066855 0 0.0068170915836981479 0.00043027468270349321 0 0.0066800899429632537 0.0014355638197066855 0 0.00731991291344354 0.0014327566279257891 0 0.0068170915836981479 0.00043027468270349321 0 0.0062495522349773139 0.00096470738886937841 0 0.0066800899429632537 0.0014355638197066855 0 0.00731991291344354 0.0014327566279257891 0 0.0077836612049052706 0.0018712509997533186 0 0.0076384154452388527 0.00088934490649185329 0 0.0068170915836981479 0.00043027468270349321 0 0.00731991291344354 0.0014327566279257891 0 0.0076384154452388527 0.00088934490649185329 0 0.0071458265091019005 0.0023260151802773159 0 0.00731991291344354 0.0014327566279257891 0 0.0077836612049052706 0.0018712509997533186 0 0.012579352856075384 0.001259899464213359 0 0.010437494739109317 0.0011484273444730406 0 0.016882822992562076 0.0007938530129745397 0 0.016229981395270335 0.0005871312425210967 0 0.015712750367601492 0.0016741983929332174 0 0.015512386776759786 0.00060212888115380992 0 0.015574114706012899 0.0015839202934371807 0 0.015712750367601492 0.0016741983929332174 0 0.015512386776759786 0.00060212888115380992 0 0.015574114706012899 0.0015839202934371807 0 0.014347683712102878 0.001499256838074062 0 0.016229981395270335 0.0005871312425210967 0 0.015512386776759786 0.00060212888115380992 0 0.015712750367601492 0.0016741983929332174 0 0.015574114706012899 0.0015839202934371807 0 0.015704899872717878 0.001671970591839431 0 0.014522573340134369 0.0025109539649854429 0 0.0063348699678815353 0.0010284493499924021 0 0.0062783990091372886 0.00061082215576220913 0 0.0067243189247390778 0.00072417954235133965 0 0.010437494739109317 0.0011484273444730406 0 0.010563740936328459 0.0017119038894326288 0 0.011381123330829768 0.0015795958880897552 0 0.010437494739109317 0.0011484273444730406 0 0.0063348699678815353 0.0010284493499924021 0 0.0058398857993652211 0.00070762241670285179 0 0.0062783990091372886 0.00061082215576220913 0 0.010437494739109317 0.0011484273444730406 0 0.006184198438943197 0.00065300869559282049 0 0.0077836612049052706 0.0018712509997533186 0 0.0084534215295438021 0.0013750404576670452 0 0.0076384154452388527 0.00088934490649185329 0 0.0058398857993652211 0.00070762241670285179 0 0.0062783990091372886 0.00061082215576220913 0 0.0059634597442581082 0.00027551978599839696 0 0.0062783990091372886 0.00061082215576220913 0 0.0065348596111671764 0.00023582706377769594 0 0.0067243189247390778 0.00072417954235133965 0 0.0062783990091372886 0.00061082215576220913 0 0.0059634597442581082 0.00027551978599839696 0 0.0065348596111671764 0.00023582706377769594 0 0.0059634597442581082 0.00027551978599839696 0 0.0065348596111671764 0.00023582706377769594 0 0.0062274961538234712 -1.3447283983957359e-05 0 0.0056070757067661504 5.287875006778767e-05 0 0.0059634597442581082 0.00027551978599839696 0 0.0059152935166308937 -2.1652283901733616e-05 0 0.0059634597442581082 0.00027551978599839696 0 0.0059152935166308937 -2.1652283901733616e-05 0 0.0062274961538234712 -1.3447283983957359e-05 0 0.0070656883949101077 0.00014504724900900142 0 0.0068474153983695265 0.00035576359587361796 0 0.0071259300530204127 0.00042666386638730649 0 0.0096190431092147092 -0.000164931004122303 0 0.0098360282643343063 0.0011114760727149182 0 0.010430985108377148 0.00065453719449081892 0 0.0087497629077006103 7.5635551005294458e-07 0 0.0092607559487757011 0.00050937379655758891 0 0.0094873516017660673 0.00033528426762774905 0 0.007978579531576855 -0.00011284272706945456 0 0.011007332143656939 0.0013895055596569899 0 0.007978579531576855 -0.00011284272706945456 0 0.011299626640788676 0.00035579329673306035 0 0.011007332143656939 0.0013895055596569899 0 0.011299626640788676 0.00035579329673306035 0 0.0090049518000752879 -0.00026578715231307835 0 0.0087497629077006103 7.5635551005294458e-07 0 0.0094873516017660673 0.00033528426762774905 0 0.0070656883949101077 0.00014504724900900142 0 0.0065348596111671764 0.00023582706377769594 0 0.0068474153983695265 0.00035576359587361796 0 0.0065348596111671764 0.00023582706377769594 0 0.0068474153983695265 0.00035576359587361796 0 0.0067243189247390778 0.00072417954235133965 0 0.0068474153983695265 0.00035576359587361796 0 0.0067243189247390778 0.00072417954235133965 0 0.0071259300530204127 0.00042666386638730649 0 0.010563740936328459 0.0017119038894326288 0 0.011007332143656939 0.0013895055596569899 0 0.011007332143656939 0.0013895055596569899 0 0.014727947355455911 0.0013333200687569108 0 0.014522573340134369 0.0025109539649854429 0 0.013399072823411271 0.0033258557379514712 0 0.01325792468642106 0.002372470519057238 0 0.013026264249414403 0.00067647173585428679 0 0.013112408500620712 0.001122430904067735 0 0.01322390198819289 0.00078853802117917276 0 0.013026264249414403 0.00067647173585428679 0 0.01322390198819289 0.00078853802117917276 0 0.013189534156928711 0.00054878932917951432 0 0.014727947355455911 0.0013333200687569108 0 0.015438383878470191 0.001089211579348616 0 0.016687640614783592 0.00053511651308017945 0 0.016691334241352516 0.00052855562437497967 0 0.016709056884528575 0.00052799815453023497 0 0.016691334241352516 0.00052855562437497967 0 0.016709056884528575 0.00052799815453023497 0 0.016695444615194906 0.00052720300396851048 0 0.014522573340134369 0.0025109539649854429 0 0.01325792468642106 0.002372470519057238 0 0.014347683712102878 0.001499256838074062 0 0.014727947355455911 0.0013333200687569108 0 0.01521120651855549 0.00092189090760690486 0 0.016691334241352516 0.00052855562437497967 0 0.016695444615194906 0.00052720300396851048 0 0.016708402857419358 0.00053165328055907531 0 0.015574114706012899 0.0015839202934371807 0 0.014522573340134369 0.0025109539649854429 0 0.014347683712102878 0.001499256838074062 0 0.016823538662879983 0.00029734410759435774 0 0.015438383878470191 0.001089211579348616 0 0.016712679364999518 0.00049480077359080111 0 0.016740343481016412 0.00050086323703298367 0 0.016706678855484561 0.00051473479803009815 0 0.016740343481016412 0.00050086323703298367 0 0.016709056884528575 0.00052799815453023497 0 0.016706678855484561 0.00051473479803009815 0 0.016699713243265454 0.00057371945538654129 0 0.016695444615194906 0.00052720300396851048 0 0.016708402857419358 0.00053165328055907531 0 0.016691581847151478 0.00049409368469862129 0 0.016695444615194906 0.00052720300396851048 0 0.016706678855484561 0.00051473479803009815 0 0.016958499761218528 0.00028874480686139103 0 0.016708768044748041 0.00059179139740737853 0 0.016709056884528575 0.00052799815453023497 0 0.016695444615194906 0.00052720300396851048 0 0.016706678855484561 0.00051473479803009815 0 0.016691581847151478 0.00049409368469862129 0 0.016712679364999518 0.00049480077359080111 0 0.016706678855484561 0.00051473479803009815 0 0.016784115974350859 0.00058105622921370719 0 0.016699713243265454 0.00057371945538654129 0 0.016732847215749639 0.0005463671716297656 0 0.016784115974350859 0.00058105622921370719 0 0.016732847215749639 0.0005463671716297656 0 0.01675001055558158 0.00051469972806270244 0 0.016699713243265454 0.00057371945538654129 0 0.016708402857419358 0.00053165328055907531 0 0.016732847215749639 0.0005463671716297656 0 0.016721580118131331 0.00052888236802317665 0 0.016708402857419358 0.00053165328055907531 0 0.016732847215749639 0.0005463671716297656 0 0.016721580118131331 0.00052888236802317665 0 0.016732847215749639 0.0005463671716297656 0 0.01675001055558158 0.00051469972806270244 0 0.018342372502546118 0.00010873444080595453 0 0.017711012007684834 0.00023752970842547461 0 0.018902181150520184 9.245505880210691e-05 0 0.018834231768298026 -9.7723951001325689e-05 0 0.019041039567707668 -6.1333353118269031e-05 0 0.017944681878882669 4.0148690940655841e-05 0 0.018352464321616545 9.2887800080724268e-05 0 0.018247979066756254 -0.00019621924464276975 0 0.017944681878882669 4.0148690940655841e-05 0 0.018247979066756254 -0.00019621924464276975 0 0.017836162791824962 -0.00029177265654073008 0 0.017711012007684834 0.00023752970842547461 0 0.018829572545219605 4.3687437043920097e-06 0 0.017711012007684834 0.00023752970842547461 0 0.015215009110099355 0.00029174952538684693 0 0.016692755185045913 0.00052913459578319048 0 0.016691213199399445 0.00052068785407091429 0 0.016683448107958295 0.00053652247684020187 0 0.016690072839063739 0.00053165989688994325 0 0.016691334241352516 0.00052855562437497967 0 0.016692755185045913 0.00052913459578319048 0 0.016691334241352516 0.00052855562437497967 0 0.016692755185045913 0.00052913459578319048 0 0.016702026765918282 0.00052322784789456405 0 0.016691334241352516 0.00052855562437497967 0 0.016708402857419358 0.00053165328055907531 0 0.016702026765918282 0.00052322784789456405 0 0.016721580118131331 0.00052888236802317665 0 0.016708402857419358 0.00053165328055907531 0 0.016702026765918282 0.00052322784789456405 0 0.016607944260312885 0.00034973711295055324 0 0.017711012007684834 0.00023752970842547461 0 0.016721580118131331 0.00052888236802317665 0 0.016702026765918282 0.00052322784789456405 0 0.01675001055558158 0.00051469972806270244 0 0.016692755185045913 0.00052913459578319048 0 0.016702026765918282 0.00052322784789456405 0 0.016691213199399445 0.00052068785407091429 0 0.019150491568245227 8.4317591004730722e-05 0 0.019201848627989827 -5.4222861000199634e-06 0 0.019041039567707668 -6.1333353118269031e-05 0 0.01894537398003154 5.1795736044430783e-05 0 0.018829572545219605 4.3687437043920097e-06 0 0.019150491568245227 8.4317591004730722e-05 0 0.019215363944555308 2.5324663136692433e-05 0 0.019201848627989827 -5.4222861000199634e-06 0 0.019150491568245227 8.4317591004730722e-05 0 0.018902181150520184 9.245505880210691e-05 0 0.019041039567707668 -6.1333353118269031e-05 0 0.018352464321616545 9.2887800080724268e-05 0 0.018584499053338165 -7.8508806325051163e-05 0 0.018247979066756254 -0.00019621924464276975 0 0.018760832349538206 0.00011627020702342792 0 0.018352464321616545 9.2887800080724268e-05 0 0.018584499053338165 -7.8508806325051163e-05 0 0.018979831139471912 -0.00014793459368818437 0 0.018760832349538206 0.00011627020702342792 0 0.018584499053338165 -7.8508806325051163e-05 0 0.018979831139471912 -0.00014793459368818437 0 0.018584499053338165 -7.8508806325051163e-05 0 0.018569448607434112 -0.00037281872521878468 0 0.018569448607434112 -0.00037281872521878468 0 0.018247979066756254 -0.00019621924464276975 0 0.018181733752742759 -0.0005499492972683782 0 0.018584499053338165 -7.8508806325051163e-05 0 0.018569448607434112 -0.00037281872521878468 0 0.018247979066756254 -0.00019621924464276975 0 0.018569448607434112 -0.00037281872521878468 0 0.018181733752742759 -0.0005499492972683782 0 0.018507389328131733 -0.00076923510432633712 0 0.018811724800817182 -0.00050246154014033768 0 0.018569448607434112 -0.00037281872521878468 0 0.018507389328131733 -0.00076923510432633712 0 0.013311652971694421 -0.00054981952911734174 0 0.013305474681547198 -0.00052087380062193164 0 0.013272020777653005 -0.00050529383821952545 0 0.014633536413770196 0.00026988728190900928 0 0.014459728861142575 9.3263889736295061e-05 0 0.014537802929057301 0.00034877235762485699 0 0.013685809704437375 0.00012141535818698665 0 0.015215009110099355 0.00029174952538684693 0 0.014973852127887172 7.4346392753057652e-05 0 0.013685809704437375 0.00012141535818698665 0 0.014973852127887172 7.4346392753057652e-05 0 0.015215009110099355 0.00029174952538684693 0 0.013311652971694421 -0.00054981952911734174 0 0.013305474681547198 -0.00052087380062193164 0 0.01332318269326652 -0.00053367016706979873 0 0.013373402585074736 0.00072751895039242971 0 0.01322390198819289 0.00078853802117917276 0 0.013189534156928711 0.00054878932917951432 0 0.013373402585074736 0.00072751895039242971 0 0.01322390198819289 0.00078853802117917276 0 0.013417877655118751 0.00086630745004555635 0 0.016690072839063739 0.00053165989688994325 0 0.016692755185045913 0.00052913459578319048 0 0.016683448107958295 0.00053652247684020187 0 0.014727947355455911 0.0013333200687569108 0 0.015215009110099355 0.00029174952538684693 0 0.013112408500620712 0.001122430904067735 0 0.01322390198819289 0.00078853802117917276 0 0.013417877655118751 0.00086630745004555635 0 0.018247979066756254 -0.00019621924464276975 0 0.017868736917887925 -0.00031763265382037499 0 0.018181733752742759 -0.0005499492972683782 0 0.018247979066756254 -0.00019621924464276975 0 0.017868736917887925 -0.00031763265382037499 0 0.017836162791824962 -0.00029177265654073008 0 0.013311652971694421 -0.00054981952911734174 0 0.013213914998766894 -0.00048883838636709631 0 0.013272020777653005 -0.00050529383821952545 0 0.014973852127887172 7.4346392753057652e-05 0 0.015827263109867935 -0.00062480344509278647 0 0.013213914998766894 -0.00048883838636709631 0 0.013272020777653005 -0.00050529383821952545 0 0.013240643568870282 -0.00042131808116540557 0 0.011312802681714045 -5.7554262485084447e-05 0 0.011881582923325737 -0.00044043208778734905 0 0.0090049518000752879 -0.00026578715231307835 0 0.0094873516017660673 0.00033528426762774905 0 0.0091456413928148132 -0.00075889669478230396 0 0.013272020777653005 -0.00050529383821952545 0 0.013330420225287871 -0.00048930225747075061 0 0.013240643568870282 -0.00042131808116540557 0 0.011312802681714045 -5.7554262485084447e-05 0 0.0078848873935490095 -0.00028327610844499648 0 0.013305474681547198 -0.00052087380062193164 0 0.013272020777653005 -0.00050529383821952545 0 0.013330420225287871 -0.00048930225747075061 0 0.013305474681547198 -0.00052087380062193164 0 0.01332318269326652 -0.00053367016706979873 0 0.013330420225287871 -0.00048930225747075061 0 0.012446344922078223 0.00042302187245700794 0 0.012042520994487176 1.8518356767254738e-05 0 0.012268705372445288 -0.00015497615244471229 0 0.013685809704437375 0.00012141535818698665 0 0.011312802681714045 -5.7554262485084447e-05 0 0.013685809704437375 0.00012141535818698665 0 0.011299626640788676 0.00035579329673306035 0 0.011299626640788676 0.00035579329673306035 0 0.011312802681714045 -5.7554262485084447e-05 0 0.01011107062912419 -0.00023010555276983227 0 0.010046698519309526 -0.00042910705356435789 0 0.0095811667385483461 -0.00032250611180434157 0 0.0081295710063268474 -0.00017231717668835916 0 0.0078848873935490095 -0.00028327610844499648 0 0.0097126534480462406 7.4225845739139137e-05 0 0.01011107062912419 -0.00023010555276983227 0 0.0095811667385483461 -0.00032250611180434157 0 0.0068568086712327454 -3.1875934314522602e-05 0 0.0065390634815819561 -0.00019921935782931738 0 0.0065010669925328066 4.9150033125011247e-05 0 0.0081295710063268474 -0.00017231717668835916 0 0.010795024664002154 -0.00023817801013636876 0 0.011881582923325737 -0.00044043208778734905 0 0.010795024664002154 -0.00023817801013636876 0 0.01011107062912419 -0.00023010555276983227 0 0.010046698519309526 -0.00042910705356435789 0 0.010520173572808194 -0.00053015685755008221 0 0.0068568086712327454 -3.1875934314522602e-05 0 0.0072223485000639026 -0.00011012918813263416 0 0.0069581074168159921 -0.00040711235679617155 0 0.0068568086712327454 -3.1875934314522602e-05 0 0.0066910386517391486 -0.00033036652349370614 0 0.0069581074168159921 -0.00040711235679617155 0 0.0068568086712327454 -3.1875934314522602e-05 0 0.0066910386517391486 -0.00033036652349370614 0 0.0065390634815819561 -0.00019921935782931738 0 0.0066910386517391486 -0.00033036652349370614 0 0.0065303751670966201 -0.00034784390873624155 0 0.0065390634815819561 -0.00019921935782931738 0 0.013213914998766894 -0.00048883838636709631 0 0.013240643568870282 -0.00042131808116540557 0 0.013072851100231497 -0.00039376559076790033 0 0.015827263109867935 -0.00062480344509278647 0 0.015723758582846151 -0.00052674540501416816 0 0.013240643568870282 -0.00042131808116540557 0 0.013072851100231497 -0.00039376559076790033 0 0.013118454706639752 -0.00033952883635133917 0 0.0072223485000639026 -0.00011012918813263416 0 0.0072491115024506938 -0.00045677111394122898 0 0.0069581074168159921 -0.00040711235679617155 0 0.012968966608781198 -0.00033189270247042105 0 0.013072851100231497 -0.00039376559076790033 0 0.013118454706639752 -0.00033952883635133917 0 0.012957059296831769 -0.00032895777402015293 0 0.012968966608781198 -0.00033189270247042105 0 0.013072851100231497 -0.00039376559076790033 0 0.0072223485000639026 -0.00011012918813263416 0 0.0075746914053812526 -0.00036619716910812422 0 0.0072491115024506938 -0.00045677111394122898 0 0.012968966608781198 -0.00033189270247042105 0 0.012430624633868861 -0.00019049725424763559 0 0.012847503350652947 -0.00046293533275363816 0 0.013767106206731258 -0.00042029957954698203 0 0.010795024664002154 -0.00023817801013636876 0 0.016035594050973212 -0.00078073752575985621 0 0.015723758582846151 -0.00052674540501416816 0 0.010795024664002154 -0.00023817801013636876 0 0.010118167585019574 -0.00034269676116631935 0 0.0075746914053812526 -0.00036619716910812422 0 0.0072491115024506938 -0.00045677111394122898 0 0.0074164403578295514 -0.00066914027172442934 0 0.0072491115024506938 -0.00045677111394122898 0 0.0070907229401910628 -0.00069264185758583148 0 0.0069581074168159921 -0.00040711235679617155 0 0.0072491115024506938 -0.00045677111394122898 0 0.0070907229401910628 -0.00069264185758583148 0 0.0074164403578295514 -0.00066914027172442934 0 0.0068466973067098742 -0.00094535359495266787 0 0.007140787995087561 -0.00090550957566171446 0 0.0070907229401910628 -0.00069264185758583148 0 0.007140787995087561 -0.00090550957566171446 0 0.0070907229401910628 -0.00069264185758583148 0 0.0074164403578295514 -0.00066914027172442934 0 0.0075171657511303013 -0.00094861637738636727 0 0.007140787995087561 -0.00090550957566171446 0 0.0074164403578295514 -0.00066914027172442934 0 0.0065328321793590846 -0.00047322080312112174 0 0.0065513253226232122 -0.00065787213118759073 0 0.0064141785351730339 -0.00060977349760496654 0 0.0067290424437718458 -0.00054558105621980632 0 0.0065328321793590846 -0.00047322080312112174 0 0.0065513253226232122 -0.00065787213118759073 0 0.0066910386517391486 -0.00033036652349370614 0 0.0065303751670966201 -0.00034784390873624155 0 0.0065328321793590846 -0.00047322080312112174 0 0.0066910386517391486 -0.00033036652349370614 0 0.0067290424437718458 -0.00054558105621980632 0 0.0065328321793590846 -0.00047322080312112174 0 0.0070907229401910628 -0.00069264185758583148 0 0.0069581074168159921 -0.00040711235679617155 0 0.0068717501683716545 -0.00067513470478225836 0 0.0066910386517391486 -0.00033036652349370614 0 0.0067290424437718458 -0.00054558105621980632 0 0.0069581074168159921 -0.00040711235679617155 0 0.0067290424437718458 -0.00054558105621980632 0 0.0069581074168159921 -0.00040711235679617155 0 0.0068717501683716545 -0.00067513470478225836 0 0.0068466973067098742 -0.00094535359495266787 0 0.0068717501683716545 -0.00067513470478225836 0 0.0066727573429301874 -0.00078824253585857808 0 0.0067290424437718458 -0.00054558105621980632 0 0.0068717501683716545 -0.00067513470478225836 0 0.0066727573429301874 -0.00078824253585857808 0 0.0068466973067098742 -0.00094535359495266787 0 0.0070907229401910628 -0.00069264185758583148 0 0.0068717501683716545 -0.00067513470478225836 0 0.0065298122535063542 -0.0010573005197009411 0 0.0066727573429301874 -0.00078824253585857808 0 0.0064147968509730216 -0.00082721412306728797 0 0.0067290424437718458 -0.00054558105621980632 0 0.0066727573429301874 -0.00078824253585857808 0 0.0065513253226232122 -0.00065787213118759073 0 0.0066727573429301874 -0.00078824253585857808 0 0.0065513253226232122 -0.00065787213118759073 0 0.0064147968509730216 -0.00082721412306728797 0 0.0061782768725201932 -0.001029415790585393 0 0.0064147968509730216 -0.00082721412306728797 0 0.0062102423311805295 -0.00069338269091172343 0 0.0065513253226232122 -0.00065787213118759073 0 0.0064147968509730216 -0.00082721412306728797 0 0.0064141785351730339 -0.00060977349760496654 0 0.0064147968509730216 -0.00082721412306728797 0 0.0062102423311805295 -0.00069338269091172343 0 0.0064141785351730339 -0.00060977349760496654 0 0.0062102423311805295 -0.00069338269091172343 0 0.0064141785351730339 -0.00060977349760496654 0 0.0063594364969112175 -0.00038836770643059791 0 0.0062231235866665319 -0.00068315216662624646 0 0.0062425176653617721 -0.00028386361326964603 0 0.0062102423311805295 -0.00069338269091172343 0 0.0063594364969112175 -0.00038836770643059791 0 0.0062899567313697939 -0.00030836800744013152 0 0.0065328321793590846 -0.00047322080312112174 0 0.0064141785351730339 -0.00060977349760496654 0 0.0063594364969112175 -0.00038836770643059791 0 0.0065303751670966201 -0.00034784390873624155 0 0.0065328321793590846 -0.00047322080312112174 0 0.0063594364969112175 -0.00038836770643059791 0 0.0062102423311805295 -0.00069338269091172343 0 0.0060505580554342051 -0.00045698334158874676 0 0.0058463896265103709 -0.00084026999069891379 0 0.0062102423311805295 -0.00069338269091172343 0 0.0060505580554342051 -0.00045698334158874676 0 0.0062823910212436718 -0.00035016933462465481 0 0.0061782768725201932 -0.001029415790585393 0 0.0062102423311805295 -0.00069338269091172343 0 0.0058463896265103709 -0.00084026999069891379 0 0.0055506097328304697 -0.0010620797792752444 0 0.0058463896265103709 -0.00084026999069891379 0 0.0054485448903312033 -0.00079248333396278285 0 0.0058463896265103709 -0.00084026999069891379 0 0.0054485448903312033 -0.00079248333396278285 0 0.0057431782885951589 -0.00045558017337733199 0 0.0056580844786283269 -0.00049324066861037403 0 0.0057009024850546734 -0.00088393846588084716 0 0.0061401657212795321 -0.0006002631441885763 0 0.005570853849055756 -0.00083804758488436519 0 0.005980569063397001 -0.00051045787026744217 0 0.0060505580554342051 -0.00045698334158874676 0 0.0058463896265103709 -0.00084026999069891379 0 0.0057431782885951589 -0.00045558017337733199 0 0.005980569063397001 -0.00051045787026744217 0 0.0061366171260180055 -0.00020584427229544959 0 0.0061401657212795321 -0.0006002631441885763 0 0.0060223054689912984 -0.0002895765655048227 0 0.0066020862323876769 -0.00025668406273658543 0 0.0060505580554342051 -0.00045698334158874676 0 0.0057431782885951589 -0.00045558017337733199 0 0.0060591338799195317 -0.00013141968328663709 0 0.0057144128912242258 -0.00020927158702750798 0 0.0056580844786283269 -0.00049324066861037403 0 0.0060223054689912984 -0.0002895765655048227 0 0.0056580844786283269 -0.00049324066861037403 0 0.0061401657212795321 -0.0006002631441885763 0 0.0060223054689912984 -0.0002895765655048227 0 0.0057144128912242258 -0.00020927158702750798 0 0.0060223054689912984 -0.0002895765655048227 0 0.0059152935166308937 -2.1652283901733616e-05 0 0.0060223054689912984 -0.0002895765655048227 0 0.0059152935166308937 -2.1652283901733616e-05 0 0.0062274961538234712 -1.3447283983957359e-05 0 0.0065348596111671764 0.00023582706377769594 0 0.0062274961538234712 -1.3447283983957359e-05 0 0.0066020862323876769 -0.00025668406273658543 0 0.0060223054689912984 -0.0002895765655048227 0 0.0062274961538234712 -1.3447283983957359e-05 0 0.0066020862323876769 -0.00025668406273658543 0 0.007978579531576855 -0.00011284272706945456 0 0.0061366171260180055 -0.00020584427229544959 0 0.0070656883949101077 0.00014504724900900142 0 0.0065348596111671764 0.00023582706377769594 0 0.0066020862323876769 -0.00025668406273658543 0 0.0060591338799195317 -0.00013141968328663709 0 0.0063171258898706058 3.4420183941564907e-05 0 0.0062944555215588404 -6.2021775610052646e-05 0 0.0060591338799195317 -0.00013141968328663709 0 0.0062944555215588404 -6.2021775610052646e-05 0 0.0062864004907506078 -0.00015866225529549918 0 0.0064075710995236262 0.00020114534654254316 0 0.0060591338799195317 -0.00013141968328663709 0 0.0063171258898706058 3.4420183941564907e-05 0 0.0064075710995236262 0.00020114534654254316 0 0.0063171258898706058 3.4420183941564907e-05 0 0.0063727401664801378 2.0942273756250786e-05 0 0.0063171258898706058 3.4420183941564907e-05 0 0.006368623227463773 2.075437373289136e-05 0 0.0062944555215588404 -6.2021775610052646e-05 0 0.0068201594645471717 -0.00022151499413442544 0 0.0070367530985254167 -0.00028568642064065686 0 0.0090049518000752879 -0.00026578715231307835 0 0.0087497629077006103 7.5635551005294458e-07 0 0.0086383174307487452 -0.0006395145537345776 0 0.007978579531576855 -0.00011284272706945456 0 0.0070367530985254167 -0.00028568642064065686 0 0.0090049518000752879 -0.00026578715231307835 0 0.0086383174307487452 -0.0006395145537345776 0 0.0091456413928148132 -0.00075889669478230396 0 0.0070367530985254167 -0.00028568642064065686 0 0.0078848873935490095 -0.00028327610844499648 0 0.0063685806888292597 4.1567346117874362e-05 0 0.0065003322201673567 1.1974859563637323e-05 0 0.0063792649199415803 -0.00016041940820786245 0 0.006368623227463773 2.075437373289136e-05 0 0.0062944555215588404 -6.2021775610052646e-05 0 0.0062864004907506078 -0.00015866225529549918 0 0.0065390634815819561 -0.00019921935782931738 0 0.0063594364969112175 -0.00038836770643059791 0 0.0065010669925328066 4.9150033125011247e-05 0 0.006062451371318528 -0.00031459672743708284 0 0.0078848873935490095 -0.00028327610844499648 0 0.0063594364969112175 -0.00038836770643059791 0 0.0065003322201673567 1.1974859563637323e-05 0 0.0063792649199415803 -0.00016041940820786245 0 0.0063685806888292597 4.1567346117874362e-05 0 0.0063792649199415803 -0.00016041940820786245 0 0.0062899567313697939 -0.00030836800744013152 0 0.006368623227463773 2.075437373289136e-05 0 0.0062864004907506078 -0.00015866225529549918 0 0.0062823910212436718 -0.00035016933462465481 0 0.0062864004907506078 -0.00015866225529549918 0 0.0062823910212436718 -0.00035016933462465481 0 0.0061689714810412907 -0.00027546167288061804 0 0.0070367530985254167 -0.00028568642064065686 0 0.0062425176653617721 -0.00028386361326964603 0 0.0065303751670966201 -0.00034784390873624155 0 0.0065390634815819561 -0.00019921935782931738 0 0.0063594364969112175 -0.00038836770643059791 0 0.0063594364969112175 -0.00038836770643059791 0 0.0063792649199415803 -0.00016041940820786245 0 0.0062899567313697939 -0.00030836800744013152 0 0.0060505580554342051 -0.00045698334158874676 0 0.0062823910212436718 -0.00035016933462465481 0 0.0061689714810412907 -0.00027546167288061804 0 0.0060505580554342051 -0.00045698334158874676 0 0.0060591338799195317 -0.00013141968328663709 0 0.0061689714810412907 -0.00027546167288061804 0 0.0060591338799195317 -0.00013141968328663709 0 0.0062864004907506078 -0.00015866225529549918 0 0.0061689714810412907 -0.00027546167288061804 0 
</DataArray>
</PointData>
<CellData Scalars="region_id,cross_section_updated," Vectors="" Tensors="stress,">
<DataArray type="Float64" Name="region_id" format="ascii">
5 5 5 5 5 5 5 6 5 5 6 6 6 5 5 5 5 5 5 5 6 5 5 5 5 5 5 6 5 6 5 5 5 5 5 5 5 5 5 5 5 5 5 6 5 5 6 5 5 5 5 5 5 5 5 5 5 5 5 5 5 5 5 6 5 5 6 5 5 5 6 5 5 5 5 5 5 6 6 5 5 5 5 5 5 5 5 5 5 5 5 5 5 5 5 5 6 6 5 5 5 6 5 5 5 5 5 6 6 6 6 5 5 6 5 6 5 5 5 5 6 6 5 5 5 5 5 5 5 5 5 5 5 5 5 5 5 5 5 5 6 5 5 5 5 5 5 6 5 5 6 5 5 5 5 5 5 5 5 5 5 5 5 5 5 5 5 5 5 5 5 5 5 5 5 5 5 6 5 5 5 5 5 5 6 5 6 5 5 5 6 5 5 5 5 5 5 5 5 6 6 5 5 5 5 5 5 5 5 5 5 5 5 6 5 5 5 5 5 5 5 5 5 5 6 5 6 5 5 5 5 5 5 5 5 5 5 5 5 5 5 5 5 5 5 5 5 5 5 5 5 5 5 5 5 5 5 5 5 5 5 5 5 6 5 5 5 5 5 5 5 5 6 5 6 6 5 6 5 5 5 6 5 6 5 5 5 5 5 5 5 5 6 5 5 5 5 5 5 5 5 5 5 5 5 5 5 6 5 6 5 6 5 6 5 5 5 5 6 5 5 5 5 5 6 5 5 6 5 5 6 5 5 5 6 5 6 5 6 5 5 5 6 5 6 5 5 5 5 5 5 5 5 5 6 5 5 5 5 5 5 6 5 5 6 5 5 6 5 5 5 6 6 5 6 5 6 5 5 5 6 5 6 5 5 5 5 6 5 5 5 5 6 5 5 6 5 5 5 5 5 6 5 5 5 6 5 5 5 5 5 6 6 5 6 5 5 5 5 5 6 5 6 5 5 5 5 5 5 5 5 5 5 5 5 5 5 5 5 5 6 5 5 5 5 5 5 6 5 5 5 5 5 5 5 5 5 5 5 5 5 5 5 5 5 5 5 5 5 5 5 5 5 5 5 6 5 6 5 5 6 5 5 5 6 6 5 5 5 5 5 5 5 5 5 5 5 5 5 5 5 5 5 5 5 5 5 5 5 5 5 5 6 5 6 5 5 5 5 6 5 5 5 5 5 5 5 5 5 5 5 5 5 5 5 5 5 5 5 5 5 5 5 5 5 5 5 5 5 6 5 5 5 5 5 6 5 5 5 5 5 5 5 5 5 5 5 5 5 5 5 5 5 5 5 5 5 5 5 5 5 5 5 5 5 5 5 5 5 5 5 5 5 5 5 5 5 5 6 5 6 5 5 6 5 5 5 5 5 5 5 5 5 5 5 5 6 5 5 5 5 5 5 5 5 5 5 6 5 5 6 5 5 5 5 5 6 5 5 5 5 5 5 5 5 6 5 5 6 5 5 5 5 5 6 5 5 5 6 5 5 5 5 5 5 5 5 5 5 5 5 5 5 5 5 5 5 5 5 5 5 5 5 5 5 5 5 5 5 5 5 5 5 5 5 5 6 5 5 5 5 5 5 5 5 5 5 5 5 6 5 5 5 5 6 5 6 6 5 5 5 5 6 6 5 5 5 5 5 5 5 6 5 5 5 5 5 5 5 5 5 5 5 5 5 5 5 5 5 5 5 5 5 5 5 5 5 5 5 5 5 5 5 5 5 5 5 5 5 5 5 6 5 5 5 5 5 5 5 5 5 5 5 5 5 5 6 5 5 5 5 5 5 5 5 5 5 5 5 5 5 5 5 5 5 6 5 5 6 5 6 5 6 5 5 5 5 5 5 5 5 6 5 6 5 5 5 5 5 5 5 5 5 5 5 5 5 5 5 5 5 5 5 5 5 5 5 6 5 5 5 5 6 5 5 5 5 5 5 5 6 5 5 5 6 5 5 6 5 6 6 5 5 5 5 5 5 6 6 5 5 5 6 6 6 6 6 6 5 5 5 5 5 5 6 6 5 5 5 6 6 5 6 6 6 5 5 5 6 5 5 5 5 5 5 6 5 5 5 5 6 5 5 6 5 6 6 6 5 5 5 5 5 6 5 5 5 6 5 5 6 6 5 6 6 5 6 5 5 6 6 6 5 5 5 6 6 5 5 5 5 5 6 5 6 5 5 5 6 5 6 5 6 5 5 5 6 6 5 5 6 5 5 5 5 6 6 6 5 5 6 5 5 5 5 5 5 6 5 6 5 6 5 5 6 5 5 6 5 6 5 5 5 6 5 5 6 5 5 5 5 5 5 5 5 5 5 5 6 5 5 6 5 6 5 5 6 5 5 5 5 5 6 5 6 5 5 5 5 5 5 5 5 5 5 5 5 6 5 5 5 5 5 5 5 5 5 5 5 5 5 5 5 5 5 5 6 5 5 5 5 5 5 5 6 5 5 5 6 5 6 5 5 5 5 6 6 5 5 5 5 6 5 5 5 6 5 6 5 5 6 5 6 5 6 5 5 6 5 5 5 5 5 5 6 5 5 6 5 5 5 5 5 5 5 5 6 5 5 5 5 5 5 6 5 5 5 5 5 5 6 5 5 5 5 5 5 5 5 5 6 5 5 5 5 6 5 5 5 5 5 5 5 6 5 5 6 5 5 5 6 6 5 5 5 5 5 5 5 5 5 5 5 5 6 5 5 5 6 5 5 5 5 5 5 5 5 5 5 5 6 5 5 5 5 5 5 5 5 5 5 5 5 6 6 5 5 5 5 5 5 6 5 5 5 5 5 5 5 5 5 6 5 5 5 5 5 5 5 5 5 5 5 5 5 6 5 5 5 5 5 5 5 5 5 5 5 6 5 5 5 5 5 6 5 5 5 5 5 5 6 5 5 5 5 5 5 5 5 5 5 5 5 5 5 5 6 5 5 5 5 5 5 5 5 5 5 5 5 6 5 5 5 5 5 5 5 5 6 6 5 6 5 5 6 5 5 5 5 6 5 5 5 5 5 6 5 5 6 5 5 6 5 5 5 5 5 5 5 5 5 5 6 5 6 5 5 6 5 5 5 5 5 5 5 6 5 5 6 6 6 5 5 6 5 6 5 5 6 5 5 6 5 6 6 5 5 5 5 6 5 5 5 5 5 5 6 5 5 6 6 5 5 5 6 5 5 5 5 5 5 5 5 5 5 5 6 5 5 5 5 6 5 5 5 5 6 5 5 5 6 5 5 5 6 6 5 5 5 5 5 6 5 5 5 5 6 5 5 5 5 5 5 5 5 5 5 5 5 5 5 5 5 5 5 5 5 6 5 5 5 5 5 5 6 5 5 5 5 5 5 5 5 6 5 5 5 5 5 5 6 6 5 5 5 5 5 5 5 5 5 5 5 5 5 5 5 5 5 5 5 5 5 5 6 5 5 5 6 5 6 5 5 5 6 6 5 5 5 5 6 5 5 6 5 5 5 5 5 5 5 5 6 5 5 5 5 5 5 5 5 5 5 5 5 5 5 5 6 5 5 5 6 5 5 5 5 5 5 5 5 5 5 5 6 5 5 5 5 5 6 5 5 6 5 5 5 5 5 5 5 5 5 5 5 5 5 5 5 5 5 5 5 5 5 5 5 5 6 5 5 6 5 5 5 5 5 5 5 5 5 5 5 6 6 5 5 6 5 5 5 6 5 5 5 5 5 5 5 5 5 5 5 5 5 6 5 6 5 5 5 5 5 5 5 5 5 5 5 6 5 5 5 5 5 5 5 5 6 6 5 5 5 5 5 6 5 5 5 5 6 5 6 5 5 5 5 5 5 5 5 5 5 5 5 6 5 5 5 6 5 5 5 6 5 5 5 6 5 5 5 5 5 5 5 5 5 5 5 5 5 5 5 5 5 5 5 5 5 6 5 5 6 5 5 5 5 5 5 5 5 5 5 5 6 5 5 5 5 5 5 5 5 5 5 5 5 5 5 5 5 5 5 5 6 5 5 5 6 5 5 5 5 5 5 5 5 5 5 5 5 5 5 5 5 5 5 5 5 5 5 5 6 5 5 5 5 6 5 5 5 6 5 5 5 5 6 5 5 5 5 5 5 5 5 5 5 5 6 5 6 5 5 5 5 5 5 5 6 5 5 5 5 5 5 5 5 5 5 5 5 5 5 5 5 5 5 5 6 5 5 5 5 5 5 5 5 5 6 5 5 5 6 5 5 5 5 5 5 5 5 5 5 5 5 6 5 5 5 5 5 5 5 5 6 5 5 6 5 5 5 5 5 5 5 5 5 5 5 5 5 5 5 5 5 5 5 5 5 6 5 5 6 5 5 5 5 5 5 5 5 5 5 5 5 5 5 5 5 6 5 5 5 5 5 5 5 5 5 6 5 5 5 5 6 5 5 5 5 5 5 5 5 5 5 5 5 5 5 5 5 6 6 5 5 5 5 5 6 5 5 5 5 5 5 5 5 5 5 5 6 5 5 6 5 6 5 5 5 5 5 5 6 5 6 5 5 5 6 5 6 5 5 5 5 5 5 5 5 5 5 5 5 5 5 5 5 5 5 5 5 5 5 5 5 5 5 5 5 5 5 5 5 5 5 5 5 5 5 5 5 5 5 5 5 5 5 5 5 5 5 5 5 5 6 5 6 5 5 5 6 6 6 6 5 5 5 6 5 5 5 5 5 6 5 5 5 5 5 6 5 5 5 5 5 5 5 5 5 5 5 5 5 5 6 5 5 6 5 5 5 5 5 5 6 5 6 6 5 5 5 5 5 5 5 6 5 5 5 5 5 5 5 5 6 5 5 5 5 5 5 5 5 5 5 5 5 6 5 5 5 5 5 5 5 5 5 5 5 5 5 5 5 5 5 5 6 5 5 5 5 6 6 5 5 5 5 5 6 5 5 6 5 5 5 6 5 5 5 5 5 6 6 5 5 5 5 5 6 6 5 5 5 5 5 5 5 5 5 5 5 5 5 5 5 5 5 5 5 5 5 5 5 5 5 5 5 5 5 5 5 5 5 5 5 5 5 5 5 5 5 5 5 5 5 5 5 5 5 5 5 5 5 5 5 5 5 5 5 5 5 5 5 5 5 5 5 5 6 5 5 5 6 6 5 5 5 6 5 5 5 5 5 6 5 5 5 5 5 5 5 6 5 5 5 6 5 5 5 5 5 5 5 5 5 5 6 6 5 5 6 5 5 5 5 6 5 5 5 5 5 5 6 5 5 5 5 5 5 5 5 5 6 5 6 5 5 5 6 5 5 5 5 6 5 5 5 5 5 5 5 5 5 5 5 5 5 5 5 5 6 5 5 6 5 5 6 5 5 5 5 5 5 5 5 5 5 6 5 5 6 5 6 5 5 6 5 5 6 5 6 5 6 5 5 6 5 5 5 6 5 6 5 5 5 5 5 5 5 6 5 5 5 6 5 5 6 5 6 6 5 5 5 5 5 5 6 5 5 5 5 5 5 5 5 5 5 5 5 5 5 5 5 5 5 5 5 5 5 5 5 5 6 5 6 5 5 5 5 5 5 5 5 6 5 6 5 5 5 6 5 6 5 5 5 6 5 5 5 5 5 5 6 5 6 5 5 6 5 5 6 5 5 5 5 5 6 5 5 6 5 6 5 5 5 6 5 5 5 6 5 6 5 6 6 5 5 5 5 5 5 6 5 5 5 5 5 5 5 6 5 5 5 5 5 5 6 6 5 6 5 5 5 5 6 5 5 5 5 5 5 5 5 6 5 5 6 5 5 5 5 5 5 5 6 5 5 5 5 5 5 5 5 6 5 5 5 5 6 5 5 5 5 5 5 5 6 5 5 5 6 5 5 5 5 5 5 5 5 5 5 5 5 5 5 5 5 5 5 5 5 5 5 5 5 5 5 5 5 5 5 5 5 5 5 5 5 5 5 5 5 5 5 5 5 6 5 5 5 5 5 6 5 5 5 5 5 6 5 6 5 5 5 5 6 6 5 6 6 5 5 6 6 5 5 6 5 5 6 5 5 5 5 5 5 6 5 5 5 5 5 5 5 6 5 5 6 5 5 5 5 5 5 5 5 5 5 5 5 5 5 5 5 5 5 5 5 6 5 5 5 5 5 5 5 5 5 5 5 5 6 5 5 5 6 5 6 5 5 5 5 5 5 6 5 5 5 6 5 5 5 5 5 6 5 5 5 6 5 5 5 5 5 5 5 5 5 5 5 5 5 5 5 5 6 5 5 5 6 5 5 5 6 5 5 5 5 5 5 5 5 5 5 5 5 6 5 5 5 6 5 5 6 5 5 5 6 5 5 6 5 5 5 5 5 5 5 5 5 5 5 5 5 5 5 5 5 5 5 6 5 5 5 5 5 5 5 5 5 5 5 5 5 6 5 5 5 5 5 5 5 5 5 5 5 5 5 5 5 6 5 5 5 5 6 5 5 5 5 5 5 5 5 6 5 5 5 5 5 5 5 6 5 5 5 5 5 5 5 5 5 5 5 5 5 5 5 5 5 5 5 5 5 5 5 5 5 6 5 5 5 5 5 5 5 5 5 5 5 5 5 5 5 5 5 5 5 5 5 5 5 5 5 5 5 6 5 5 5 5 5 6 5 5 5 5 5 5 5 5 5 5 5 5 5 5 6 5 5 5 5 5 5 5 5 5 5 5 5 5 5 5 5 6 5 6 5 5 5 5 5 6 5 6 5 5 5 5 5 5 5 5 6 5 5 5 6 5 5 6 5 5 5 6 5 5 5 5 5 5 6 5 5 5 5 5 5 5 6 5 5 5 5 5 6 5 5 5 6 5 6 6 5 5 5 6 5 5 5 5 5 5 5 5 5 5 5 5 5 6 5 5 6 6 5 6 5 5 5 5 6 5 5 5 5 5 5 5 5 5 6 5 5 5 5 5 5 5 5 5 5 5 5 5 5 5 5 5 5 5 5 5 5 5 5 5 5 5 5 5 5 5 5 5 5 5 5 5 5 6 6 5 5 5 5 5 5 5 5 5 5 5 5 5 5 5 6 5 5 6 5 5 5 6 5 5 5 5 5 5 5 5 5 5 5 5 5 5 5 5 5 5 6 5 5 5 5 5 5 6 6 5 5 5 5 5 5 5 5 5 5 5 5 5 5 5 6 5 5 5 5 6 5 5 5 5 5 5 5 6 5 5 5 5 5 5 5 5 5 5 5 5 5 5 5 5 5 5 6 5 5 6 5 5 5 5 5 5 5 5 5 5 5 6 5 5 5 5 5 5 5 5 5 5 5 5 5 5 5 5 5 5 5 5 5 5 5 5 5 5 5 5 5 5 6 5 5 5 5 5 5 5 5 5 6 5 5 5 5 5 5 5 5 5 5 5 5 5 5 5 5 5 5 5 5 5 6 5 5 5 5 5 5 5 5 5 5 5 5 5 5 5 5 5 5 5 5 5 5 5 5 5 5 5 5 5 5 5 5 5 5 5 5 6 6 5 5 5 5 5 5 5 5 5 5 5 5 5 5 5 5 6 5 5 5 5 6 5 5 5 5 6 5 5 5 5 6 6 5 5 5 6 5 6 6 5 5 5 5 5 5 6 5 5 5 6 6 5 5 5 6 5 5 6 5 5 6 5 5 6 5 5 5 5 6 5 5 5 6 5 5 5 5 6 5 5 6 5 5 6 6 5 6 5 5 5 5 5 5 5 5 5 6 6 5 5 5 5 5 5 5 5 5 5 5 5 5 6 5 5 6 6 5 5 5 5 5 5 5 5 6 6 5 5 5 5 5 5 5 5 5 6 5 5 5 5 5 5 5 5 5 5 6 5 5 5 6 5 5 5 5 5 5 6 5 5 5 5 5 5 5 5 6 5 5 5 5 5 6 5 5 5 5 5 5 6 5 5 5 5 5 5 6 6 5 5 6 5 6 5 6 5 5 5 5 6 6 5 5 6 5 5 5 5 5 5 5 5 6 6 5 5 5 5 5 5 5 5 5 5 5 5 5 5 5 5 6 5 6 6 5 6 5 6 5 5 5 6 5 5 5 6 5 6 5 5 5 5 5 5 6 5 5 5 5 5 5 5 5 5 5 5 5 5 5 5 5 5 6 5 5 5 5 5 5 5 5 5 5 5 5 5 6 5 5 5 5 5 5 5 5 5 6 5 5 5 6 5 6 6 5 5 5 6 5 5 6 5 5 5 6 5 5 5 6 5 5 6 5 5 6 5 5 5 5 5 5 5 5 5 5 5 5 5 5 5 5 5 5 6 5 5 5 5 5 5 5 5 5 5 5 6 5 5 5 5 5 5 6 6 5 5 5 5 5 5 5 5 5 5 5 5 5 5 5 5 5 5 5 5 5 5 5 5 5 5 5 5 5 5 5 5 5 5 5 5 5 5 5 5 5 5 5 5 5 5 6 5 5 5 5 5 5 5 5 5 5 5 5 5 5 5 5 5 5 5 5 5 5 5 5 5 5 5 5 5 5 5 5 5 5 5 5 5 5 5 5 5 5 5 5 5 5 5 5 5 5 5 5 5 5 5 5 5 5 5 5 5 5 5 5 5 5 5 5 5 6 6 5 5 5 5 6 5 6 5 5 5 5 5 5 5 5 5 5 5 5 5 5 5 6 5 5 5 5 5 5 5 5 5 5 5 5 5 5 5 5 5 5 5 5 5 5 5 5 5 5 5 5 5 5 5 5 5 5 5 5 5 5 5 5 5 5 5 5 5 5 5 5 5 5 5 5 5 5 5 5 5 5 5 5 5 5 5 5 5 5 5 5 5 5 5 5 5 5 5 5 5 5 5 5 5 5 5 5 5 5 5 5 5 5 5 6 6 5 5 5 5 5 5 5 5 6 5 5 6 5 5 5 5 6 5 5 5 5 5 5 6 5 5 5 6 5 5 5 5 5 5 5 5 5 5 5 5 5 5 5 5 6 5 5 5 5 5 5 6 5 5 5 5 5 5 5 5 5 5 5 5 5 6 5 5 5 6 5 5 6 5 6 6 5 5 5 6 5 5 5 5 5 6 5 5 5 6 5 5 5 5 5 5 5 5 5 5 5 6 5 5 5 5 5 6 5 5 5 5 5 6 5 5 5 5 5 5 5 6 6 5 6 5 6 6 5 5 5 5 5 5 5 5 5 5 5 5 5 5 5 5 5 5 5 5 5 5 5 5 5 5 5 5 5 5 5 5 5 5 5 5 5 5 5 5 5 5 5 5 5 5 5 5 5 5 5 5 5 5 5 6 5 6 5 5 5 5 5 5 5 5 5 6 5 5 5 6 5 5 6 5 5 5 5 5 6 5 5 5 5 6 6 5 5 5 5 5 5 5 5 5 5 5 5 5 5 6 6 5 5 5 5 5 5 6 5 6 5 5 5 5 5 6 5 5 5 5 6 5 5 6 5 5 5 5 5 6 5 5 6 5 5 5 5 5 5 6 5 5 5 6 5 5 5 6 5 5 5 5 5 5 5 6 5 5 5 5 6 5 5 5 6 5 5 5 5 6 6 5 5 5 5 5 6 5 5 5 5 5 5 5 5 5 5 5 5 6 5 6 5 5 6 5 5 5 5 5 5 5 5 5 5 5 5 5 5 5 5 5 5 5 5 5 5 5 5 5 5 5 5 5 5 5 5 5 5 5 5 5 5 5 5 6 5 5 5 6 5 5 6 5 5 5 5 5 5 5 6 5 5 5 5 5 6 5 5 5 5 5 5 5 5 5 5 6 5 6 5 5 5 5 5 5 5 5 5 5 5 6 5 6 5 6 5 6 5 5 5 6 5 5 5 5 5 5 5 5 5 5 5 5 5 5 5 5 5 5 5 5 6 5 6 6 5 5 6 5 5 6 5 6 5 6 6 5 5 5 5 5 5 6 5 6 5 6 5 5 5 5 5 5 5 5 6 6 5 5 5 5 5 5 5 6 5 5 5 5 5 5 5 5 5 5 5 5 5 6 5 5 5 5 5 5 5 5 5 5 5 5 5 5 5 5 5 5 6 6 5 5 5 5 5 6 5 5 5 5 5 6 5 5 5 5 6 5 5 5 5 6 6 5 6 5 5 6 6 5 6 5 5 5 6 5 5 5 6 6 5 6 5 6 5 6 5 5 5 5 6 5 6 6 6 6 5 5 5 5 6 5 5 5 5 5 5 5 6 5 5 5 5 5 5 5 5 6 5 5 5 5 5 5 5 5 5 6 6 5 6 5 5 6 5 5 5 5 5 5 5 6 5 5 5 5 5 5 5 5 5 5 5 5 5 5 5 5 6 5 5 5 5 5 5 5 5 5 5 5 5 5 5 5 5 5 5 5 5 5 5 5 5 5 5 6 5 6 5 6 5 5 5 5 5 5 6 5 5 5 6 5 6 5 5 5 5 5 5 6 6 5 5 5 5 5 5 5 6 5 5 6 5 5 6 5 5 6 5 5 6 5 5 6 5 5 5 5 5 5 5 5 5 5 5 6 5 5 5 5 5 5 5 5 5 5 5 5 5 5 6 5 6 5 5 5 5 5 5 6 5 5 5 5 5 5 5 6 5 5 5 5 5 6 5 5 5 6 5 5 5 5 5 5 6 5 5 5 5 5 5 5 6 5 5 6 5 5 6 5 5 5 5 5 5 5 6 6 5 6 5 5 5 5 5 5 5 5 5 5 5 5 5 5 5 5 5 5 5 5 6 5 5 5 5 5 5 5 5 5 5 5 6 5 5 5 5 5 6 6 5 5 6 6 5 5 5 5 5 5 6 5 6 5 6 5 5 5 5 5 5 5 5 5 5 5 5 5 6 5 5 6 5 5 5 6 5 5 5 5 5 5 5 5 5 5 5 5 5 5 5 5 5 5 5 5 5 5 5 5 5 6 5 5 5 6 5 5 5 5 6 5 5 6 5 5 6 5 5 5 5 5 5 5 5 6 5 5 6 5 5 5 5 6 5 5 5 5 5 6 5 5 5 5 5 5 5 5 5 6 5 5 5 6 5 5 6 5 5 5 5 5 5 5 5 5 5 5 5 5 5 5 5 5 5 5 5 5 5 5 5 5 5 5 5 5 5 5 5 5 5 5 5 5 5 5 5 5 5 5 5 5 5 5 5 5 5 5 5 5 6 5 5 6 6 5 5 5 5 5 5 5 6 5 5 5 5 5 5 5 5 5 5 5 5 5 6 5 6 5 5 5 5 5 5 6 5 5 5 5 6 5 5 5 6 5 5 5 5 5 5 5 5 5 5 5 5 5 5 5 5 5 5 5 5 5 5 5 5 5 5 6 5 5 5 6 5 5 5 6 5 5 5 5 6 5 6 5 5 5 5 5 5 5 5 5 5 5 5 5 5 5 5 5 6 5 5 6 5 5 5 5 5 6 5 5 6 5 5 5 5 5 5 5 5 5 5 5 5 5 5 5 5 5 5 5 5 5 5 5 6 5 5 5 6 5 5 6 5 5 5 5 5 5 5 5 5 5 5 5 5 5 5 5 5 6 5 6 5 5 5 5 6 5 5 5 5 5 5 5 5 5 6 5 5 5 5 6 5 6 5 5 5 5 5 5 5 5 5 5 5 6 5 5 5 5 5 5 5 5 5 5 5 5 5 5 5 5 5 5 5 5 5 5 5 5 5 5 5 5 5 5 5 5 5 5 5 5 5 5 6 5 5 5 6 5 5 5 5 5 5 5 5 6 5 5 6 5 5 5 5 5 5 5 5 5 5 5 5 6 5 6 5 5 5 6 5 6 5 5 5 5 5 5 5 5 5 5 5 5 5 5 5 5 5 5 5 5 5 5 5 6 5 5 5 5 6 5 5 6 5 5 6 5 5 5 5 5 5 5 6 5 5 5 5 5 5 5 6 5 5 5 5 5 5 6 5 5 5 6 5 5 5 5 5 5 6 5 5 5 5 6 6 5 5 5 5 5 5 5 5 5 5 5 5 5 5 6 5 5 5 5 5 5 5 5 5 5 5 5 5 5 5 5 5 5 5 5 6 5 5 5 5 5 5 5 5 5 5 6 5 5 6 6 6 5 5 5 5 6 5 5 5 5 6 5 5 5 5 5 5 5 5 5 5 5 5 5 5 5 5 5 6 5 5 5 5 5 5 6 5 5 5 5 5 6 5 5 5 5 5 5 5 5 5 5 5 5 5 5 5 5 5 5 5 5 5 5 5 5 5 5 5 5 5 5 5 5 5 5 5 5 5 5 6 5 5 5 6 5 5 6 5 5 5 5 6 5 5 6 5 5 5 5 5 5 5 5 5 5 5 5 5 5 6 5 5 5 6 5 5 5 5 5 5 5 5 5 5 6 5 5 5 6 5 5 5 5 5 5 5 5 5 5 5 5 5 5 6 5 5 6 5 5 5 5 5 5 5 6 5 5 5 5 5 5 5 5 5 5 5 5 6 5 5 6 6 5 5 5 5 5 5 5 5 5 5 5 5 5 5 6 5 5 5 5 5 5 5 5 5 5 5 5 5 5 5 5 5 5 6 5 6 5 5 5 5 5 5 5 5 5 5 6 5 5 6 5 5 6 5 6 5 6 6 5 5 5 5 5 5 5 5 5 5 5 5 5 5 5 5 6 5 5 5 5 5 5 5 5 5 5 5 5 5 5 5 5 5 5 5 5 5 5 5 5 5 5 5 5 5 6 5 5 5 5 5 5 5 5 5 6 5 5 5 5 5 5 6 5 5 5 5 5 6 5 6 5 5 5 6 5 6 5 5 5 5 5 5 5 5 5 5 5 5 6 5 5 5 5 5 5 5 5 5 5 5 5 5 5 5 5 5 5 6 5 5 6 5 5 5 5 5 5 5 5 5 6 5 5 6 5 5 6 5 5 6 5 6 5 5 5 5 5 5 5 6 5 5 5 5 5 5 5 5 6 6 5 5 6 5 5 5 6 5 6 5 5 5 5 5 5 6 5 5 5 5 5 5 6 5 6 5 5 6 5 5 5 5 6 5 5 5 5 5 5 5 6 5 5 5 5 5 5 5 6 6 6 5 5 5 5 6 5 5 6 6 5 5 5 6 5 5 6 5 5 5 5 5 5 5 5 5 5 5 5 5 6 5 6 5 5 6 5 5 5 5 6 5 5 5 5 5 5 5 5 5 5 5 5 5 5 5 5 5 5 5 5 5 6 5 5 5 5 6 5 5 5 5 5 5 5 6 5 5 5 5 5 6 5 5 6 5 6 5 5 5 6 6 6 6 5 5 5 5 5 5 5 5 5 5 5 5 5 5 5 5 5 5 5 5 5 6 5 5 5 6 5 5 5 5 5 5 5 5 5 6 5 5 5 5 6 5 5 6 5 5 5 5 5 5 5 5 5 6 5 5 5 5 5 5 5 5 6 5 5 5 5 5 5 5 5 5 5 5 5 5 5 5 6 5 5 5 5 5 5 5 5 5 6 5 5 5 5 5 5 5 5 5 5 5 5 5 5 5 5 5 5 5 5 5 5 5 5 5 5 5 5 5 5 6 5 5 5 5 6 5 5 5 5 5 5 5 5 5 6 5 5 5 5 5 5 5 5 5 5 5 5 5 5 5 5 5 5 5 5 5 5 5 5 5 6 5 5 5 5 5 6 5 6 6 5 5 6 5 5 5 5 5 5 5 6 5 5 5 5 5 5 5 5 5 5 5 5 5 5 6 5 6 5 5 6 6 5 5 5 5 5 5 6 5 5 6 5 5 5 5 6 5 6 6 5 5 5 5 5 5 5 5 5 6 5 5 5 5 5 5 5 6 5 5 5 5 5 5 5 5 5 5 5 5 5 5 5 6 5 6 5 6 5 5 5 6 5 5 5 5 6 5 5 5 5 6 5 6 5 5 5 5 5 5 5 6 6 6 5 5 5 5 5 5 6 5 5 5 6 5 5 5 5 5 5 5 5 5 5 6 5 5 5 5 5 5 5 6 6 5 6 5 5 5 5 6 6 5 5 5 5 5 5 5 5 5 6 5 5 6 5 5 5 5 5 5 5 5 5 5 5 5 5 5 5 5 5 5 5 5 5 5 5 5 5 5 5 5 5 6 5 5 6 5 5 5 5 5 5 5 5 5 5 5 5 5 5 6 5 5 5 5 5 5 5 5 5 5 5 5 5 5 5 5 5 5 5 5 6 5 5 5 5 6 5 5 6 5 5 5 5 5 5 5 5 5 5 6 5 6 5 5 5 5 5 5 5 5 5 5 5 5 5 5 5 5 6 5 6 6 5 5 5 5 6 5 5 5 6 5 5 5 5 5 5 5 5 5 5 6 6 5 5 5 6 5 5 5 5 6 5 5 5 5 5 5 5 5 6 5 5 5 5 6 5 5 5 6 5 5 5 5 5 5 5 5 5 5 5 5 5 5 5 5 5 5 5 5 5 5 5 5 5 5 5 5 6 5 5 5 5 5 5 5 6 5 5 6 5 6 5 5 5 5 5 5 5 6 5 5 5 5 5 5 5 5 5 5 5 6 5 5 5 5 5 5 5 6 5 6 5 5 5 5 5 5 5 5 5 5 6 5 5 5 5 5 5 5 5 5 5 5 5 5 5 5 6 5 5 5 5 5 5 6 5 5 5 5 5 6 5 5 5 5 5 6 5 5 5 5 5 5 5 5 5 5 6 5 5 5 5 6 5 5 5 5 5 5 5 5 5 5 5 5 6 5 6 5 5 5 5 5 6 5 5 5 6 5 5 6 5 5 6 5 5 5 5 5 5 5 5 6 5 6 5 5 5 5 5 6 5 5 5 5 6 5 5 5 5 5 5 5 5 5 6 5 5 5 6 5 6 6 6 5 5 5 5 5 5 5 5 5 5 5 5 5 5 5 5 5 5 5 5 5 5 5 5 5 5 5 5 5 5 5 5 5 5 5 6 5 5 6 5 5 5 5 5 5 5 5 5 5 5 5 6 5 5 5 5 5 5 6 6 5 5 5 5 6 5 5 6 5 5 6 5 5 5 5 5 5 5 5 5 5 5 5 5 5 5 6 5 5 5 6 5 6 5 5 5 6 5 5 5 5 5 5 5 5 5 5 5 5 5 6 5 5 6 5 6 5 6 5 5 5 6 6 5 5 5 5 5 5 5 5 5 6 5 6 5 6 5 5 5 6 5 6 5 6 5 5 5 5 5 5 5 6 5 5 5 5 6 5 5 5 5 5 6 5 5 6 5 5 5 5 5 6 5 6 6 5 5 6 5 5 5 6 5 6 5 5 6 5 5 5 5 5 6 5 5 6 5 5 5 5 5 5 5 5 5 5 5 5 5 5 5 5 5 5 5 5 5 5 5 5 5 6 5 6 5 5 5 5 5 5 5 5 6 5 5 5 6 5 5 5 5 5 5 6 5 5 5 5 6 5 5 5 5 5 5 5 5 5 5 5 5 5 5 5 5 5 5 5 5 5 5 5 5 5 5 5 5 5 5 5 5 6 5 5 5 5 5 5 5 5 5 5 5 5 5 6 5 6 6 5 6 5 6 5 6 5 5 6 5 6 5 6 5 6 5 5 6 5 6 5 5 6 5 5 6 6 5 5 5 5 5 5 5 5 6 5 5 5 5 5 5 5 5 5 5 5 5 5 6 5 5 5 5 5 5 5 5 6 5 5 6 6 6 5 5 6 5 5 5 5 5 5 5 5 5 5 5 5 6 5 5 5 6 5 5 5 5 5 6 5 5 5 5 6 5 5 5 5 5 5 5 5 5 6 5 5 6 5 5 5 5 5 5 5 5 6 5 5 6 5 6 5 6 5 5 5 5 5 5 5 6 5 5 5 5 5 5 5 5 5 5 5 5 5 5 5 5 5 5 5 5 5 5 5 5 5 5 5 5 5 5 5 5 5 5 5 5 5 5 5 6 5 5 5 5 5 5 5 5 5 5 5 5 5 5 5 5 5 5 5 5 5 5 5 5 5 5 5 5 5 5 5 5 5 5 5 5 5 5 5 5 5 6 5 5 5 5 6 5 5 5 5 6 5 5 5 5 6 5 5 5 5 5 5 5 5 5 5 5 5 5 5 5 5 5 5 5 5 5 6 5 5 5 5 5 5 6 5 5 5 5 5 6 5 5 5 5 5 5 6 5 5 5 6 5 5 5 5 5 5 5 5 5 5 5 6 5 5 5 5 5 5 5 5 5 5 5 5 5 5 5 5 5 5 5 5 5 5 5 5 6 5 5 5 5 5 5 5 6 5 5 5 5 5 5 5 5 6 5 6 5 5 5 5 6 5 5 6 5 5 5 5 6 5 6 5 5 5 5 5 5 5 5 5 5 5 6 5 5 6 5 6 5 5 6 6 5 5 5 5 5 5 5 5 5 5 5 5 6 5 5 5 6 5 5 6 5 6 5 6 5 5 5 5 5 5 5 6 5 6 5 5 5 5 5 5 5 5 5 6 5 5 5 6 5 5 5 5 5 5 6 5 5 5 5 5 5 5 5 5 6 5 5 5 5 5 5 5 5 5 5 5 6 5 5 5 5 5 5 6 5 5 6 5 5 6 5 5 5 5 6 5 5 5 5 5 5 5 5 5 5 5 5 6 5 6 5 5 6 5 5 6 5 5 5 5 6 5 5 5 5 5 5 6 5 5 5 5 5 5 6 5 5 5 5 5 6 5 5 5 5 5 5 5 5 5 5 5 5 5 5 5 5 5 6 5 5 5 6 5 5 5 5 5 6 6 5 5 5 6 5 6 5 6 5 5 6 6 5 5 5 5 5 5 5 5 5 5 6 5 5 5 6 5 5 5 5 5 5 5 5 5 5 5 5 5 5 5 5 5 5 5 5 5 5 5 5 5 6 6 5 6 6 5 5 5 5 5 5 5 5 5 6 5 5 5 5 5 5 6 5 5 5 5 6 5 5 5 5 5 5 5 5 5 5 5 5 5 5 5 5 5 5 5 5 5 5 5 5 5 6 5 5 5 5 5 6 5 5 6 5 5 6 5 5 6 5 5 5 6 5 5 5 6 5 5 5 5 5 5 5 5 5 5 5 6 5 5 5 5 5 5 6 6 5 5 5 5 6 6 5 5 5 5 6 5 5 5 6 5 5 5 5 5 6 5 5 5 5 5 5 5 5 5 5 6 5 5 5 5 6 5 5 6 5 5 5 5 5 6 5 5 5 5 5 5 6 5 5 5 5 5 5 5 5 5 5 5 5 5 5 5 5 5 5 5 5 5 5 5 6 5 6 5 6 5 5 6 5 5 6 5 5 5 5 5 5 5 5 5 5 5 6 5 5 6 5 5 6 5 5 5 5 5 5 5 5 6 5 5 5 5 5 6 6 5 5 6 6 6 5 5 5 5 6 5 5 5 6 5 5 6 6 5 5 5 5 5 5 5 5 5 5 5 5 5 6 5 6 5 5 5 5 5 5 5 5 6 5 5 5 5 5 6 5 5 6 5 5 5 5 5 5 5 5 5 5 5 5 5 5 5 5 5 5 5 5 5 5 5 6 5 5 5 5 5 5 6 5 5 5 5 5 5 5 5 5 5 5 5 5 5 5 5 5 5 5 5 5 5 5 5 5 5 5 5 5 5 5 5 5 6 5 5 5 5 5 5 5 5 5 5 5 5 5 5 5 5 5 5 6 5 5 5 6 5 5 5 5 5 5 6 5 5 5 5 5 5 5 5 5 5 5 5 5 5 5 5 5 5 6 5 6 5 5 6 5 5 6 5 6 5 5 5 5 5 6 5 5 5 5 6 5 6 5 5 5 5 5 6 5 5 5 5 5 5 5 5 5 5 5 5 5 5 5 5 5 5 5 5 5 5 6 5 5 5 5 5 5 5 5 5 5 6 5 6 5 5 5 5 5 6 5 5 5 5 5 5 5 6 5 5 5 6 5 5 6 5 5 5 6 6 5 5 6 6 5 5 5 5 5 5 5 5 5 5 5 5 5 5 5 5 5 5 6 6 5 5 6 5 5 5 6 5 5 5 6 5 5 5 5 5 5 6 5 6 5 5 5 5 5 5 5 5 5 5 5 5 5 5 6 5 5 6 5 6 5 5 5 6 5 5 5 5 5 5 5 5 5 5 5 5 5 5 5 5 5 5 5 5 5 5 5 5 5 5 5 5 5 5 5 5 5 6 5 5 5 5 6 5 6 5 5 5 5 5 5 6 5 5 5 6 5 6 5 5 6 5 5 5 6 5 6 5 5 5 5 5 5 5 5 5 5 6 5 5 5 5 5 6 5 5 5 5 5 6 5 5 5 5 5 5 6 5 5 5 5 5 5 5 5 5 5 5 5 5 5 5 5 5 5 5 5 6 5 5 5 5 5 5 5 5 5 5 5 5 5 5 6 5 6 5 6 5 6 5 5 6 5 5 6 5 5 5 6 5 6 5 5 5 5 6 5 5 5 5 6 5 5 5 6 5 5 6 6 5 5 6 5 5 5 6 5 5 6 6 5 5 6 5 5 5 5 5 5 5 5 5 5 5 5 5 5 5 5 5 5 5 5 5 5 5 5 5 5 5 5 5 5 5 5 5 5 5 5 6 6 5 5 6 5 6 6 5 5 5 6 5 6 5 5 5 5 5 5 5 6 5 5 5 6 5 5 5 6 5 5 5 6 5 5 5 5 5 6 5 5 6 5 6 5 5 6 5 5 5 5 5 6 5 5 5 6 5 5 5 5 5 5 5 5 5 6 5 5 6 5 5 6 5 6 5 5 5 5 5 6 5 5 6 5 5 6 5 5 6 5 5 5 5 5 5 5 5 5 5 5 5 5 6 5 5 5 5 5 5 5 5 5 6 5 5 5 5 5 5 5 6 6 5 5 6 5 5 5 5 5 5 5 5 6 5 5 5 5 5 5 5 5 5 5 5 5 5 5 5 5 5 5 5 5 5 5 5 5 5 5 5 5 5 5 5 5 5 5 5 5 5 5 5 5 5 5 5 5 5 5 5 5 5 5 5 5 5 5 5 5 5 5 5 5 5 5 5 5 5 5 5 5 5 5 5 5 5 5 5 5 5 5 5 5 5 5 5 5 5 5 5 5 5 5 5 5 5 5 5 5 5 5 5 5 5 5 5 5 5 5 5 5 5 5 5 6 5 5 5 5 5 5 5 5 5 5 5 5 5 5 5 5 5 6 5 5 5 6 5 5 5 5 5 5 5 6 5 6 5 6 5 5 6 5 5 5 5 6 5 5 6 6 5 6 5 5 6 5 5 6 5 5 6 5 5 6 5 5 6 5 5 6 5 5 6 6 5 5 6 5 5 5 5 5 5 5 5 5 5 5 5 5 5 6 5 5 6 5 5 5 5 5 5 5 5 5 5 6 5 5 5 6 5 5 5 5 5 5 5 6 5 5 5 5 5 5 5 5 5 5 6 5 5 5 5 5 5 5 5 5 5 5 5 5 5 5 5 6 5 5 5 5 6 5 6 5 5 5 6 6 5 6 5 6 6 5 5 6 6 5 5 5 5 5 5 5 5 5 5 5 5 6 5 5 5 5 5 5 5 5 5 6 5 5 5 5 5 5 5 5 5 5 5 5 5 5 5 5 5 5 5 5 5 5 5 5 5 5 5 5 5 5 5 5 5 5 5 5 5 5 5 5 5 5 5 5 5 5 5 5 5 5 5 5 5 5 5 5 5 5 5 5 5 5 5 5 5 5 5 5 5 5 5 5 5 5 5 5 5 5 5 5 5 5 5 5 5 5 5 5 5 5 5 5 5 5 5 5 5 5 5 5 5 6 5 5 5 6 6 5 5 5 5 5 5 6 5 6 5 5 5 5 5 6 5 5 5 5 5 5 5 5 5 6 5 5 5 5 5 6 5 6 5 5 6 5 6 5 5 6 6 5 5 5 5 5 6 5 5 5 5 5 5 6 5 5 5 5 5 5 5 5 5 5 6 5 5 6 5 5 5 5 5 5 5 5 6 5 6 5 5 6 5 5 5 5 6 5 5 5 6 5 5 6 5 5 6 5 5 6 5 5 5 6 5 5 5 5 6 5 5 6 5 6 5 5 5 5 5 5 5 6 5 5 5 5 5 5 6 5 5 6 5 6 5 6 5 5 5 5 5 5 5 6 6 5 5 5 5 5 5 5 5 5 5 5 5 5 5 5 5 5 5 5 5 5 5 6 5 5 5 5 5 5 5 5 5 5 5 5 6 5 5 5 5 5 5 5 5 5 5 5 5 5 5 5 5 5 5 5 5 5 5 5 5 5 5 5 5 5 5 5 6 5 5 5 5 5 6 5 5 5 5 6 5 5 5 5 5 5 6 5 5 5 5 5 5 5 5 5 5 5 5 5 6 5 6 5 5 5 5 5 5 5 5 5 5 5 5 5 5 5 5 5 5 5 5 5 6 5 5 5 5 5 5 5 5 5 5 5 5 5 5 5 5 6 5 6 5 5 5 6 6 6 5 5 5 5 6 5 6 5 5 5 5 5 5 5 5 6 5 5 6 5 5 6 5 5 5 6 5 5 5 6 6 5 5 6 5 6 6 5 5 6 5 5 6 5 5 5 5 5 6 5 5 5 5 5 5 5 5 5 5 5 5 5 5 5 5 5 5 5 5 5 5 5 5 5 5 5 5 5 5 5 5 5 5 5 5 5 5 5 5 5 5 5 6 5 5 5 5 5 5 5 5 5 5 5 5 5 5 5 5 5 5 5 5 6 5 5 6 6 5 5 5 5 5 5 5 5 5 5 5 5 5 5 5 6 5 5 5 5 5 5 5 6 5 5 5 5 5 5 5 5 5 5 5 5 5 5 5 5 5 5 5 6 5 5 5 6 5 6 5 5 5 5 5 5 5 5 5 5 5 5 5 5 5 5 5 5 5 5 5 5 5 5 5 5 5 5 5 5 5 5 5 5 5 5 5 5 5 5 5 5 5 5 5 5 5 5 5 5 5 5 5 5 5 6 5 5 5 5 5 5 5 5 5 5 5 5 5 5 5 5 5 5 5 5 6 5 5 5 6 5 5 6 5 5 5 5 5 6 5 5 5 5 5 5 5 6 5 5 5 5 5 5 6 5 5 5 6 5 5 5 5 5 5 5 5 5 5 5 6 5 5 6 5 5 5 5 5 5 5 5 5 5 5 5 5 6 5 5 5 5 6 5 5 5 5 5 5 5 5 5 5 5 5 5 5 5 5 5 5 6 5 5 5 5 5 5 5 5 5 5 5 5 5 5 5 5 5 5 6 5 5 5 5 5 5 5 5 6 5 5 5 5 5 5 5 5 5 5 5 5 5 5 5 5 5 5 6 5 5 5 5 6 5 5 5 5 5 6 5 5 5 6 5 5 5 6 5 5 5 6 6 6 5 5 6 5 5 6 5 5 6 6 5 5 6 5 5 5 5 5 5 5 5 6 5 5 6 5 5 6 6 5 6 6 5 6 5 5 5 5 5 5 5 5 5 5 5 5 5 5 5 5 5 5 5 5 6 5 5 5 5 5 5 5 5 6 5 5 5 5 5 5 5 6 5 5 5 5 5 5 6 5 5 5 5 5 5 5 5 5 5 5 5 5 5 5 5 5 6 6 5 5 5 6 6 5 5 5 5 5 5 5 6 5 5 5 5 5 5 6 5 5 5 5 5 5 6 5 5 5 5 5 5 5 5 5 5 5 5 5 5 5 5 5 6 6 6 5 5 6 5 6 5 5 6 6 5 5 5 5 5 5 6 5 5 6 5 5 6 5 5 6 5 5 6 5 5 6 5 5 5 6 5 5 5 6 5 6 5 5 5 5 5 6 5 5 5 5 5 6 6 5 5 6 5 6 5 5 5 5 5 5 5 5 5 5 5 5 5 5 5 5 5 5 5 5 5 5 5 5 5 5 6 6 5 5 5 5 5 5 5 5 5 5 5 5 5 5 5 5 5 6 5 5 5 5 5 5 5 6 5 5 5 6 5 5 5 5 5 5 5 5 5 5 6 5 6 5 5 6 5 5 5 5 5 5 5 6 5 5 5 5 5 6 5 6 5 6 5 5 5 5 5 5 6 5 5 5 5 5 5 5 5 5 5 6 5 5 5 5 6 5 5 5 5 5 5 5 5 5 5 5 5 5 5 5 5 5 5 5 5 5 5 5 5 5 5 5 5 6 5 5 5 5 5 5 6 5 5 6 5 5 5 5 5 5 5 5 5 5 5 5 5 5 5 6 5 5 5 5 5 6 5 5 5 5 5 5 5 5 5 5 5 6 5 6 5 5 6 5 5 5 5 5 6 5 6 5 5 6 5 5 5 5 5 5 5 5 6 5 5 6 6 5 5 5 5 5 5 5 5 5 5 5 5 5 5 5 5 5 5 5 5 5 5 5 5 5 5 5 5 5 6 5 6 5 5 5 5 5 5 6 5 6 6 5 5 6 5 5 5 6 5 5 5 5 5 6 5 5 5 5 5 5 5 5 5 5 6 5 5 5 5 5 5 5 5 5 5 5 6 5 5 5 5 5 5 5 5 5 5 5 5 5 5 5 5 5 5 5 5 5 5 6 6 5 5 5 5 5 5 5 5 5 5 5 5 5 5 6 6 5 5 5 5 5 5 5 5 5 5 5 5 5 5 5 5 5 5 5 5 5 5 5 5 5 5 5 5 5 5 5 5 6 5 5 5 5 5 5 5 6 5 5 5 5 5 5 5 5 5 5 5 5 5 5 5 5 5 6 5 5 5 5 5 5 5 5 5 5 5 6 5 5 5 5 5 5 5 5 6 5 5 5 5 5 6 5 5 5 5 5 5 5 5 5 5 5 5 5 5 5 5 5 6 5 5 5 5 5 5 6 5 5 6 5 5 5 5 5 5 5 6 5 5 5 5 5 5 5 5 5 5 5 5 5 5 5 5 5 5 6 5 6 5 5 5 5 5 5 5 5 6 5 5 5 5 5 5 5 5 5 6 5 5 5 5 5 5 5 5 5 5 5 5 5 6 5 5 5 6 5 5 5 5 5 5 5 5 5 6 5 5 5 5 5 6 5 5 5 5 5 5 5 5 5 5 5 5 5 5 5 5 5 5 5 5 5 5 5 5 5 5 5 5 5 5 5 5 5 5 5 5 5 5 5 5 5 5 5 5 5 5 5 5 5 5 5 5 5 5 5 5 5 5 5 5 5 5 5 5 5 5 5 5 5 5 5 5 5 5 5 5 5 5 5 5 5 5 5 5 5 5 5 5 5 5 5 5 5 5 5 5 5 5 5 5 5 5 5 5 5 6 5 5 5 5 5 5 5 5 5 5 5 5 6 5 5 5 5 5 5 5 5 5 5 5 5 5 5 5 5 5 5 5 5 5 5 5 5 5 5 5 5 5 5 5 5 5 5 5 5 6 5 5 5 5 5 6 5 5 5 5 5 5 5 5 5 6 5 5 6 5 6 5 5 6 5 5 5 5 5 5 5 6 5 5 5 5 5 5 5 5 5 6 5 5 5 5 5 5 5 5 5 5 5 6 5 5 5 5 5 5 6 6 5 6 5 5 5 5 5 5 5 5 5 5 6 6 6 5 5 5 5 6 6 5 5 5 6 5 5 5 6 5 5 6 5 5 5 5 6 5 5 5 5 5 5 5 6 5 5 5 6 6 5 5 5 5 5 6 5 5 5 6 5 5 5 5 5 5 5 5 5 5 5 5 6 6 6 5 5 5 5 6 5 5 5 5 6 5 6 5 5 6 5 5 5 6 6 6 5 6 5 5 6 6 5 5 5 5 5 5 6 5 5 5 5 5 5 6 6 6 5 5 5 5 5 5 5 5 5 5 5 5 5 5 5 5 5 5 5 5 5 5 5 6 5 5 5 5 5 5 5 5 5 6 5 6 5 5 5 5 5 5 5 5 6 5 5 5 5 5 5 6 5 6 5 6 5 5 5 6 5 5 5 5 6 5 5 5 5 5 
</DataArray>
<DataArray type="Float64" Name="stress" NumberOfComponents="9" format="ascii">
2498.0491888807919 -316.96804103248195 0 -316.96804103248195 -209.7927303633922 0 0 0 0 1924.3804255549512 -94.403485352225729 0 -94.403485352225729 -0.15164382259662651 0 0 0 0 1990.1914643654309 -516.27471795033125 0 -516.27471795033125 -124.72484677192919 0 0 0 0 1926.9898214487912 -517.24216520173638 0 -517.24216520173638 -124.53975124749768 0 0 0 0 1352.0532328524423 -283.45510691172234 0 -283.45510691172234 63.117377179329424 0 0 0 0 66.846325919119408 -17.675630153917439 0 -17.675630153917439 6.4290608807002627 0 0 0 0 71.708874945612479 -7.1731527863540094 0 -7.1731527863540094 0.4353469472443976 0 0 0 0 2.8097281066478779 -6.1999806271301736 0 -6.1999806271301736 2.9231000744135738 0 0 0 0 1359.1051594739547 -264.38785405471475 0 -264.38785405471475 79.426159166381012 0 0 0 0 1548.6641331209976 -277.51022497285362 0 -277.51022497285362 4.275946798081776 0 0 0 0 4.2265163505625143 -0.51317291387732666 0 -0.51317291387732666 -0.043798484456369025 0 0 0 0 -0.32636185377254101 0.57613603495056509 0 0.57613603495056509 -0.26187762759508193 0 0 0 0 18.256198425770442 -6.400190952747721 0 -6.400190952747721 3.2709718160681365 0 0 0 0 1289.2693968224485 -330.65943056621632 0 -330.65943056621632 94.635823301896153 0 0 0 0 1635.0473546905705 -446.07455154909354 0 -446.07455154909354 -30.813701525590318 0 0 0 0 1617.9698702830647 -466.24292234702176 0 -466.24292234702176 -18.93182731474883 0 0 0 0 1707.1514180327431 -344.35113673165768 0 -344.35113673165768 120.02158017604177 0 0 0 0 1922.9062156538421 -341.31366720763776 0 -341.31366720763776 -22.978595403857867 0 0 0 0 1740.2431349252874 -258.42962470397163 0 -258.42962470397163 58.513733477929087 0 0 0 0 63.290816033695592 -10.778902457814922 0 -10.778902457814922 5.7297920586456712 0 0 0 0 0.95734197957294143 -2.2008922476982633 0 -2.2008922476982633 1.0040076733156726 0 0 0 0 1584.486069414088 -357.84248156695213 0 -357.84248156695213 118.53941759173946 0 0 0 0 1622.0320771040933 -567.23848778992283 0 -567.23848778992283 1.6458915074176299 0 0 0 0 1984.9072311541922 -392.78023350136658 0 -392.78023350136658 21.464021674194214 0 0 0 0 765.32598839119964 -56.139700332615554 0 -56.139700332615554 0.24205093641329653 0 0 0 0 40.767154727989691 -69.649746241992901 0 -69.649746241992901 92.525406578225585 0 0 0 0 35.966085954823939 8.8277142059873341 0 8.8277142059873341 77.917613403308096 0 0 0 0 9.0195764365787454 5.0371136274461179 0 5.0371136274461179 -0.65505860527540305 0 0 0 0 2009.2291155781713 77.828625146064084 0 77.828625146064084 5.3361428100998971 0 0 0 0 5.5594674404281932 1.528923983689495 0 1.528923983689495 -0.30612664321919159 0 0 0 0 2319.3363848174049 -405.71292255425459 0 -405.71292255425459 177.91428144776668 0 0 0 0 929.97466240279755 -354.80089488573276 0 -354.80089488573276 176.18545182230631 0 0 0 0 1651.105226100266 106.44934279831816 0 106.44934279831816 -87.318474652594858 0 0 0 0 906.33457574384738 47.583782102174929 0 47.583782102174929 -77.627870505929138 0 0 0 0 952.55919174101655 -166.692752796436 0 -166.692752796436 -80.622779570154847 0 0 0 0 1004.8924175380916 13.294627499254897 0 13.294627499254897 -133.9191174840692 0 0 0 0 109.87788620672654 -18.686988611667232 0 -18.686988611667232 -39.891905710268929 0 0 0 0 67.765327015825278 5.9777723754341974 0 5.9777723754341974 8.3094631800142906 0 0 0 0 43.028505917551229 -3.2693519010325645 0 -3.2693519010325645 5.1383686173075773 0 0 0 0 -7.0866236879955977 -10.997194832986679 0 -10.997194832986679 77.514571545878653 0 0 0 0 841.66308232480878 -222.85224455332616 0 -222.85224455332616 88.403602314677912 0 0 0 0 489.00694940751418 -261.08617855488853 0 -261.08617855488853 97.308751713956752 0 0 0 0 26.964685561739316 -6.7088492382473532 0 -6.7088492382473532 11.475016348754252 0 0 0 0 11.613550200121097 5.0125366038433867 0 5.0125366038433867 -1.3217238999947689 0 0 0 0 51.426286079797137 -23.422132070905196 0 -23.422132070905196 22.136337174293431 0 0 0 0 386.59952721018635 -16.460174935392232 0 -16.460174935392232 51.193350240474416 0 0 0 0 3.43349348517458 -0.81153244738273145 0 -0.81153244738273145 0.20926699854259012 0 0 0 0 18.899532188830563 -22.184939810616761 0 -22.184939810616761 11.299712757200268 0 0 0 0 251.48711834118876 -104.61693040451289 0 -104.61693040451289 39.168577288687736 0 0 0 0 704.94444392940204 -170.20251234335717 0 -170.20251234335717 -80.480418015152452 0 0 0 0 471.4296022884555 1.7393371875809609 0 1.7393371875809609 -59.480893483557537 0 0 0 0 614.88613643780263 -15.53541996283839 0 -15.53541996283839 -78.941116309194911 0 0 0 0 867.11241444959887 -1.7421101993601553 0 -1.7421101993601553 -125.52360483768 0 0 0 0 867.69826874483624 4.7192476342707934 0 4.7192476342707934 -163.12980159007276 0 0 0 0 641.67588351247105 34.610004060878921 0 34.610004060878921 -128.52347538044148 0 0 0 0 891.71032790158642 9.8731614086700148 0 9.8731614086700148 -188.74811295837588 0 0 0 0 854.61357875388057 23.495650325063622 0 23.495650325063622 -180.52256315246063 0 0 0 0 912.14573480364197 -31.546418468401527 0 -31.546418468401527 -169.49800713703848 0 0 0 0 880.71473901636273 88.954814928700898 0 88.954814928700898 -159.91374299208906 0 0 0 0 915.95184513908316 163.0619448860343 0 163.0619448860343 -138.69674110899132 0 0 0 0 807.8509335997951 49.333708200700244 0 49.333708200700244 -139.60756829272287 0 0 0 0 964.01271060725048 -192.94322836458869 0 -192.94322836458869 -79.122847524529334 0 0 0 0 1110.4213164318789 -20.429352610631895 0 -20.429352610631895 -175.92944952736227 0 0 0 0 0.37390621389685741 -4.6062088254770828 0 -4.6062088254770828 0.43878534704377992 0 0 0 0 274.62848005930482 48.024194393223993 0 48.024194393223993 -12.849922330887097 0 0 0 0 649.64990393400876 263.63331695061294 0 263.63331695061294 -23.835208624558049 0 0 0 0 0.56365394955928672 -4.2338352838476112 0 -4.2338352838476112 -1.1241750720823043 0 0 0 0 66.297232644647011 61.737424984502866 0 61.737424984502866 97.603195166565797 0 0 0 0 426.62689906830201 19.617343823175077 0 19.617343823175077 -45.860782816135867 0 0 0 0 54.524269175635709 -0.030279163331840664 0 -0.030279163331840664 -13.407015352483086 0 0 0 0 -1.6022750724291832 -1.8368672461647293 0 -1.8368672461647293 -4.012966557859488 0 0 0 0 -197.30735291764722 -3.0156485336043488 0 -3.0156485336043488 94.725557447480469 0 0 0 0 34.423098876839504 -8.3151021200948776 0 -8.3151021200948776 10.833760708577472 0 0 0 0 49.404741676466074 -7.025522162524112 0 -7.025522162524112 -1.0109026088075552 0 0 0 0 62.079131433173643 4.2089690324196027 0 4.2089690324196027 -10.878368163631762 0 0 0 0 89.738002208992839 -51.531732229905742 0 -51.531732229905742 -41.049958522387897 0 0 0 0 -51.639309941664578 -119.45484581431127 0 -119.45484581431127 -45.003781828741467 0 0 0 0 0.22162051189002696 -2.6181040139542944 0 -2.6181040139542944 -0.55998765919299975 0 0 0 0 3.8767474722724984 1.083432568336363 0 1.083432568336363 -1.8954980562133392 0 0 0 0 74.972626884227793 111.17194594097532 0 111.17194594097532 -230.2297048596289 0 0 0 0 1889.9818693138768 -888.6664003139623 0 -888.6664003139623 346.14962352555517 0 0 0 0 780.62122239655582 -33.000168846831684 0 -33.000168846831684 -201.04107596344249 0 0 0 0 84.840928469064238 -328.70942538861851 0 -328.70942538861851 277.96159247315109 0 0 0 0 942.39555588828262 -914.41552690583831 0 -914.41552690583831 457.04068321415468 0 0 0 0 2495.2280655364957 -1591.5369789683718 0 -1591.5369789683718 325.53826054849071 0 0 0 0 1560.468145222374 -752.29371748224526 0 -752.29371748224526 42.0724827450058 0 0 0 0 1563.4933161984227 -966.30314745982298 0 -966.30314745982298 80.282172333812852 0 0 0 0 1743.9756646105234 -976.28600469424271 0 -976.28600469424271 78.719147855736551 0 0 0 0 1852.4114867591343 -769.9360723561033 0 -769.9360723561033 42.087514367248112 0 0 0 0 2501.106289215968 -874.92125766432127 0 -874.92125766432127 -59.607753093741358 0 0 0 0 1910.3468634194542 -753.70886076237718 0 -753.70886076237718 146.66600885102784 0 0 0 0 2048.7155296556666 -575.85920749514833 0 -575.85920749514833 -96.438124935640644 0 0 0 0 1866.2015822356079 -614.15501577513817 0 -614.15501577513817 -28.028848259907392 0 0 0 0 1652.5728190564259 -554.6263793666584 0 -554.6263793666584 -2.743958243323549 0 0 0 0 1514.6081334733317 -659.31894562021694 0 -659.31894562021694 240.79768074803604 0 0 0 0 1327.0009232478042 -589.67836855158862 0 -589.67836855158862 137.05955397074507 0 0 0 0 2.7403773099487001 -4.6601691770334526 0 -4.6601691770334526 2.950796489664202 0 0 0 0 5.0176393072770811 -4.9313486675401208 0 -4.9313486675401208 0.99822719561430495 0 0 0 0 830.36395799659658 -171.16201989752983 0 -171.16201989752983 82.767954814957989 0 0 0 0 16.58569045868353 -14.751794648643568 0 -14.751794648643568 6.0386454926044735 0 0 0 0 1259.8941546071801 -332.58350006266272 0 -332.58350006266272 27.012991564584354 0 0 0 0 5.5594488667470294 1.077484641422032 0 1.077484641422032 0.71279607017833313 0 0 0 0 51.454892062218278 -6.3533703914192188 0 -6.3533703914192188 1.0268367745701426 0 0 0 0 56.066400351841367 -4.5379619894757681 0 -4.5379619894757681 -0.31483020600455802 0 0 0 0 544.75839453598019 -207.96092760509305 0 -207.96092760509305 132.48367058120638 0 0 0 0 17.616419018944725 -6.2137226824504523 0 -6.2137226824504523 3.0509756085270965 0 0 0 0 18.239084946219009 -6.1451906724918679 0 -6.1451906724918679 2.7321977365614885 0 0 0 0 14.649990875905189 2.4783095197634708 0 2.4783095197634708 -0.33230015540941149 0 0 0 0 13.123134143562254 2.141771051834823 0 2.141771051834823 -1.7366884981884601 0 0 0 0 18.786439619228474 -4.8949817755721483 0 -4.8949817755721483 1.6803894281812961 0 0 0 0 23.068661103659856 -3.3832371142236326 0 -3.3832371142236326 1.4489394895555048 0 0 0 0 1215.3624122077308 -447.05065701858763 0 -447.05065701858763 107.67280945391568 0 0 0 0 941.19552496928372 -282.30612337219009 0 -282.30612337219009 128.25669082097971 0 0 0 0 12.095400859585936 2.9260203629322632 0 2.9260203629322632 -3.9884991493736068 0 0 0 0 1254.1661413203983 -619.13884951458454 0 -619.13884951458454 158.52300327094929 0 0 0 0 9.85799306232677 3.614124777976798 0 3.614124777976798 -4.1389864644103929 0 0 0 0 11.313984909545979 -4.908065525103666 0 -4.908065525103666 4.0140376989238575 0 0 0 0 13.724937009377754 -15.496992335502114 0 -15.496992335502114 4.1578095974691678 0 0 0 0 48.704560556085198 6.0131617338541332 0 6.0131617338541332 6.1426188622092468 0 0 0 0 23.478962087676337 -35.631517745149495 0 -35.631517745149495 -35.656265428919596 0 0 0 0 7.9968720002022167 3.0094123332652316 0 3.0094123332652316 -3.9253427006295492 0 0 0 0 1.5676109692431659 -2.4302174932273317 0 -2.4302174932273317 1.047176052965658 0 0 0 0 42.091973413494998 -10.958128588884023 0 -10.958128588884023 4.7434608470408648 0 0 0 0 1612.8553553374368 -716.35276604887827 0 -716.35276604887827 302.29022964955755 0 0 0 0 1562.5009060730299 -649.85370153310168 0 -649.85370153310168 242.4519978476647 0 0 0 0 69.394204842428735 15.9263113896269 0 15.9263113896269 -0.79494739701421224 0 0 0 0 64.106847823775752 11.622225457843548 0 11.622225457843548 -2.2065000699992225 0 0 0 0 99.600329176341802 9.7269091437868092 0 9.7269091437868092 -14.593892618218831 0 0 0 0 60.126691096647846 19.476810144703638 0 19.476810144703638 -0.0031175468885285239 0 0 0 0 64.136452030579676 14.72874520630582 0 14.72874520630582 -2.9597218912640599 0 0 0 0 77.530465074276435 20.20089862278455 0 20.20089862278455 -4.2165647284741752 0 0 0 0 68.797570397560776 20.849937394822089 0 20.849937394822089 0.0071290537837631653 0 0 0 0 69.79890267081646 22.082759758606151 0 22.082759758606151 0.35996356257031437 0 0 0 0 71.361623093162052 21.042277737642078 0 21.042277737642078 -0.0063107770616203443 0 0 0 0 62.792477547744056 33.088953440061047 0 33.088953440061047 29.718286343231327 0 0 0 0 74.265064805531438 27.494678598911303 0 27.494678598911303 4.2792137405561448 0 0 0 0 67.134040701617778 34.08843769208049 0 34.08843769208049 0.022913238316156992 0 0 0 0 113.61569300031988 55.893121517468174 0 55.893121517468174 10.149427043420729 0 0 0 0 61.535961964167655 30.085496269345413 0 30.085496269345413 23.076558714906589 0 0 0 0 499.69774343814424 128.00166261141192 0 128.00166261141192 38.37632400530066 0 0 0 0 16.271797126189426 -9.2707914013934811 0 -9.2707914013934811 0.10945496417473105 0 0 0 0 57.779532041553466 19.386105286359737 0 19.386105286359737 14.824467861239103 0 0 0 0 65.111243586499768 23.340988392109612 0 23.340988392109612 9.8491881821245713 0 0 0 0 60.238321441705921 16.172025064623636 0 16.172025064623636 -0.0045092783508352413 0 0 0 0 59.121427994376063 22.075954168355583 0 22.075954168355583 13.078980846664692 0 0 0 0 47.346932244639902 20.158862119360442 0 20.158862119360442 12.923816225966599 0 0 0 0 2382.5449162784898 665.96661450411079 0 665.96661450411079 248.45029156345569 0 0 0 0 6.6647893128953228 -1.587574428260254 0 -1.587574428260254 -0.63065218167549797 0 0 0 0 40.737463501915045 8.9891755200272261 0 8.9891755200272261 0.028390562637528254 0 0 0 0 954.67975211787416 399.3203004363254 0 399.3203004363254 257.34909427057568 0 0 0 0 12.847983229069229 -6.2154313580981153 0 -6.2154313580981153 -0.98149827516297572 0 0 0 0 931.45895811553055 340.38048882376393 0 340.38048882376393 124.5794747904896 0 0 0 0 663.80883749711938 339.42617138250148 0 339.42617138250148 124.96616716185196 0 0 0 0 956.98111007097032 58.893343263176803 0 58.893343263176803 -121.99660611642457 0 0 0 0 849.45779487920663 68.681621443019452 0 68.681621443019452 -115.29575652152241 0 0 0 0 687.95269794579144 51.715318039048817 0 51.715318039048817 -27.449490938200142 0 0 0 0 677.356630173761 19.107253163093766 0 19.107253163093766 -82.684448816561826 0 0 0 0 768.7067738725018 -17.805065107645476 0 -17.805065107645476 -77.300275251156549 0 0 0 0 838.87932184508099 -84.520159818095749 0 -84.520159818095749 -94.740797475058685 0 0 0 0 896.87240699602989 -116.64783113760575 0 -116.64783113760575 -91.095604348132483 0 0 0 0 744.57351144381028 -264.56037322469922 0 -264.56037322469922 128.87988457282472 0 0 0 0 529.71249274138972 -65.475513424964063 0 -65.475513424964063 122.66119090562097 0 0 0 0 262.11607315465517 15.809202816784477 0 15.809202816784477 205.70261754082782 0 0 0 0 536.11669042492576 -68.462368886219963 0 -68.462368886219963 27.376926397585976 0 0 0 0 570.1327387236106 49.743598098017898 0 49.743598098017898 -27.20315275098028 0 0 0 0 643.69047416662943 -84.955853252357826 0 -84.955853252357826 26.862495015189779 0 0 0 0 379.70442539807118 11.163936685563527 0 11.163936685563527 84.347239167549162 0 0 0 0 239.14045005704247 118.36744639230832 0 118.36744639230832 57.032056573103148 0 0 0 0 386.2188297421817 61.159975564315914 0 61.159975564315914 44.321718296010545 0 0 0 0 236.57409982080571 153.14434625314516 0 153.14434625314516 104.30232975205169 0 0 0 0 240.94327824191714 111.36495294597199 0 111.36495294597199 138.80433638702164 0 0 0 0 239.03719258555066 127.71287735347846 0 127.71287735347846 41.752941128449834 0 0 0 0 225.06366324640112 20.085950697105631 0 20.085950697105631 44.596233428894323 0 0 0 0 389.90962744698481 159.58502248591685 0 159.58502248591685 60.746713574612343 0 0 0 0 14.29094471794815 28.104638825191493 0 28.104638825191493 35.135522349820576 0 0 0 0 25.899013880657549 85.552324407849909 0 85.552324407849909 28.994605679595821 0 0 0 0 176.97437023108068 159.61057244973381 0 159.61057244973381 53.833119224638864 0 0 0 0 17.977119247644282 -11.209934266546966 0 -11.209934266546966 1.4905688573907858 0 0 0 0 90.308350886436529 60.298468629869205 0 60.298468629869205 84.064767058510029 0 0 0 0 177.55477950470231 123.72216580700655 0 123.72216580700655 89.195636310716253 0 0 0 0 202.41224475901254 76.244618951540758 0 76.244618951540758 -22.001527212858434 0 0 0 0 78.529414741145501 -43.018281615943138 0 -43.018281615943138 0.9378368856087036 0 0 0 0 -111.39474342598623 21.24369067566154 0 21.24369067566154 815.04669374234322 0 0 0 0 -57.023334950390563 -213.78151030772199 0 -213.78151030772199 20.005892714998598 0 0 0 0 18.664713971273812 -11.637135587898754 0 -11.637135587898754 0.87059021299171624 0 0 0 0 412.22053360288919 255.94208808973522 0 255.94208808973522 -286.02231652035778 0 0 0 0 15.766906621991581 -8.4285215561048545 0 -8.4285215561048545 -4.6295763319887726 0 0 0 0 65.024579884513514 -80.790550980728767 0 -80.790550980728767 -200.41188211871969 0 0 0 0 16.047318640721642 66.841460628551744 0 66.841460628551744 40.460349693553951 0 0 0 0 30.288954599727731 155.11422679816104 0 155.11422679816104 372.96824988675769 0 0 0 0 5.0316862559695039 3.145404507954936 0 3.145404507954936 2.0928761407976975 0 0 0 0 42.377416332157736 -51.59937530630603 0 -51.59937530630603 44.539836227689747 0 0 0 0 221.07483294389385 -110.56875662040605 0 -110.56875662040605 62.061300351758348 0 0 0 0 416.99774334216636 28.90613884190833 0 28.90613884190833 -54.649664423527923 0 0 0 0 116.56840667576762 46.906036866814418 0 46.906036866814418 -31.463534830458158 0 0 0 0 183.25841388888512 9.3595048386686273 0 9.3595048386686273 -20.1926947834705 0 0 0 0 129.6128557533375 90.22762482118992 0 90.22762482118992 68.162127575443492 0 0 0 0 93.66730316946996 255.48648247950035 0 255.48648247950035 344.60050627640021 0 0 0 0 121.65178695316717 107.03841564391712 0 107.03841564391712 45.646808130196632 0 0 0 0 29.450875325703549 6.5047910528934949 0 6.5047910528934949 -3.0492399873910321 0 0 0 0 15.748220301562753 1.1886064607143396 0 1.1886064607143396 -12.05825032981835 0 0 0 0 -15.700186157615462 31.197340707233991 0 31.197340707233991 -26.128951301198789 0 0 0 0 49.124447200600116 38.322744044519368 0 38.322744044519368 2.6405003077688889 0 0 0 0 84.287306566539883 82.327334734088495 0 82.327334734088495 14.539666450067216 0 0 0 0 -57.788335438759532 -19.738281061208156 0 -19.738281061208156 69.442881355312522 0 0 0 0 33.849141114213126 -37.536466439522059 0 -37.536466439522059 12.476542995044895 0 0 0 0 239.90555314320227 44.249497488404572 0 44.249497488404572 10.982548026189477 0 0 0 0 252.85316904281353 163.96897784960905 0 163.96897784960905 28.268577822385566 0 0 0 0 244.87308753334219 47.044944478772948 0 47.044944478772948 -19.37786745965596 0 0 0 0 426.81329774222104 281.85737873478843 0 281.85737873478843 98.225889487230802 0 0 0 0 820.67422019827063 271.05069802152309 0 271.05069802152309 24.076944852776762 0 0 0 0 327.74325641468022 589.75524845286373 0 589.75524845286373 886.18988771975739 0 0 0 0 490.62283848748848 -265.84713668171986 0 -265.84713668171986 485.74166950401576 0 0 0 0 10.000395496381486 4.2653427920802702 0 4.2653427920802702 2.2455904747094486 0 0 0 0 222.478450089955 510.71580132889841 0 510.71580132889841 781.93838792432643 0 0 0 0 395.15015690059954 -42.797551889632388 0 -42.797551889632388 -77.883444919214327 0 0 0 0 442.96813511265646 157.00942090104547 0 157.00942090104547 -170.10275292654705 0 0 0 0 268.277892101818 249.56549245150177 0 249.56549245150177 106.22842892832227 0 0 0 0 -61.994360327807954 -197.09970459884727 0 -197.09970459884727 102.76529683060744 0 0 0 0 139.12742182277725 95.952952365691246 0 95.952952365691246 113.86459750698948 0 0 0 0 887.81905137503054 415.48741586122156 0 415.48741586122156 45.766841010313215 0 0 0 0 -157.95363649084175 24.279204563052417 0 24.279204563052417 176.93820322690766 0 0 0 0 134.96342590874701 -123.509473784908 0 -123.509473784908 30.619099675474502 0 0 0 0 15.364755226182751 95.495972320837836 0 95.495972320837836 -160.63356958324835 0 0 0 0 -3.9247374469656791 -1.463495610644685 0 -1.463495610644685 1.1597380487554565 0 0 0 0 81.759023824561154 -288.21442212912905 0 -288.21442212912905 -337.50909202052276 0 0 0 0 17.628927359219659 -8.3074557026671201 0 -8.3074557026671201 2.4883100953920025 0 0 0 0 -56.954092986008618 -141.4061540218494 0 -141.4061540218494 0.147217353692497 0 0 0 0 21.159861326945247 -5.5540281192593284 0 -5.5540281192593284 -1.4386952582258346 0 0 0 0 19.455422702394571 -3.7343261068453444 0 -3.7343261068453444 -1.0169557253580024 0 0 0 0 37.094691171114391 97.642236990792824 0 97.642236990792824 47.404575447950549 0 0 0 0 -41.199166601858451 66.792671231788887 0 66.792671231788887 99.27540765323954 0 0 0 0 -33.594212418101961 78.061937527193948 0 78.061937527193948 154.3396686095702 0 0 0 0 57.277709969552234 249.83051588696966 0 249.83051588696966 376.41642428910995 0 0 0 0 -139.0481142122735 -84.863129523779506 0 -84.863129523779506 407.3933303326815 0 0 0 0 153.52499543817248 239.4317674931942 0 239.4317674931942 235.16289191487201 0 0 0 0 167.98089138684736 313.37692920027763 0 313.37692920027763 276.43613028329469 0 0 0 0 130.19617439589274 215.46897839765552 0 215.46897839765552 177.35666364199255 0 0 0 0 140.23748908295238 237.80030269798132 0 237.80030269798132 195.35710186947313 0 0 0 0 254.07781686315161 209.35000087635254 0 209.35000087635254 189.72236823776768 0 0 0 0 288.6169863578034 50.610562902330713 0 50.610562902330713 247.11473583463226 0 0 0 0 154.20780778011249 128.1922926435218 0 128.1922926435218 205.89288972846157 0 0 0 0 102.20951147560663 134.87260564637492 0 134.87260564637492 227.24474005414845 0 0 0 0 58.258662179519888 215.81119428466917 0 215.81119428466917 211.55242614438626 0 0 0 0 53.097830819984665 205.49700446495598 0 205.49700446495598 167.12945789043516 0 0 0 0 59.004579950374705 101.80005568988277 0 101.80005568988277 60.181226311128171 0 0 0 0 50.173923556416412 106.46655824710672 0 106.46655824710672 109.17162654451465 0 0 0 0 -240.15156429208582 303.16716467783425 0 303.16716467783425 241.34647216849768 0 0 0 0 62.758896231942344 296.76725236536038 0 296.76725236536038 -115.53097444601121 0 0 0 0 -11.223274779185886 -17.679800369314307 0 -17.679800369314307 409.99618197288339 0 0 0 0 4.1847549088161031 -8.1581450617223936 0 -8.1581450617223936 415.13406919927775 0 0 0 0 -55.303575709294819 145.57029940170679 0 145.57029940170679 328.66490511650431 0 0 0 0 136.6549499930552 19.016531721261458 0 19.016531721261458 302.63847640627347 0 0 0 0 142.71721911372151 -20.748219371933317 0 -20.748219371933317 369.45672578942174 0 0 0 0 118.52766690025692 -162.24278538657941 0 -162.24278538657941 504.04047867962663 0 0 0 0 394.93313113856129 -250.03577065939345 0 -250.03577065939345 370.9804119934729 0 0 0 0 356.10681573520196 -47.492546086137907 0 -47.492546086137907 248.22123729735654 0 0 0 0 535.1135692273092 -228.15384435605404 0 -228.15384435605404 153.91365831192405 0 0 0 0 800.20348723002826 -397.22039222299611 0 -397.22039222299611 257.87330739683512 0 0 0 0 837.1494114882662 -514.12954665907932 0 -514.12954665907932 280.0510607168726 0 0 0 0 305.86232488614041 -195.65984965498171 0 -195.65984965498171 342.72453160102089 0 0 0 0 342.69632016238756 -395.97477378609403 0 -395.97477378609403 522.31169261267905 0 0 0 0 1162.8984594581998 -611.98864549961877 0 -611.98864549961877 308.76342271575777 0 0 0 0 7.1213228178592942 -3.3983896001100433 0 -3.3983896001100433 2.4405797234984377 0 0 0 0 349.57861951494124 94.204351466474236 0 94.204351466474236 66.377444093251398 0 0 0 0 460.73759718879228 -570.52851276173783 0 -570.52851276173783 686.8964626367283 0 0 0 0 274.47948964385432 -350.90797513301766 0 -350.90797513301766 754.47801945892229 0 0 0 0 411.41604015881239 -352.73332027895344 0 -352.73332027895344 464.11832404260031 0 0 0 0 68.241426131688058 -326.34577962003902 0 -326.34577962003902 691.54004446197564 0 0 0 0 -132.69970848850789 61.885913310058669 0 61.885913310058669 425.23293105418878 0 0 0 0 -170.0679779498023 287.04547850220183 0 287.04547850220183 -675.18311001797292 0 0 0 0 -41.63434874372615 131.23036540682324 0 131.23036540682324 71.294083539728263 0 0 0 0 9.9135773866822632 -0.37083870061489677 0 -0.37083870061489677 5.1263158772484747 0 0 0 0 22.098161440611875 152.26680395264793 0 152.26680395264793 -491.18397129178356 0 0 0 0 16.163456924875675 -5.5886316729509389 0 -5.5886316729509389 4.3993401166173154 0 0 0 0 1.847800366366755 -1.0960616499837812 0 -1.0960616499837812 0.219292650275007 0 0 0 0 17.807200650735467 -4.6547920947645025 0 -4.6547920947645025 4.2896352449662345 0 0 0 0 17.074271828211153 -6.9525343260947778 0 -6.9525343260947778 3.2881143827230295 0 0 0 0 45.242987450274086 -10.210773277239866 0 -10.210773277239866 -152.14412119475929 0 0 0 0 23.942342354916036 -152.36070465656121 0 -152.36070465656121 -226.87481060567234 0 0 0 0 17.878608391598391 -5.4407306831070628 0 -5.4407306831070628 3.9269089523085086 0 0 0 0 16.728416035487129 -5.7308903643400768 0 -5.7308903643400768 -0.11209505177987023 0 0 0 0 31.123713670018333 -2.8281886067325104 0 -2.8281886067325104 2.5110989506292754 0 0 0 0 10.317547237990013 5.3477013101951911 0 5.3477013101951911 4.7025686461783796 0 0 0 0 338.67118241587013 196.34805705236795 0 196.34805705236795 148.07506017645119 0 0 0 0 23.40925499520381 4.2845854272154611 0 4.2845854272154611 -2.195531780502165 0 0 0 0 26.815641914919979 -2.6479086632406847 0 -2.6479086632406847 -11.243430096097882 0 0 0 0 27.012134527940361 6.2166492010067032 0 6.2166492010067032 6.7438135201698515 0 0 0 0 18.264732305484358 -1.8183344685555767 0 -1.8183344685555767 4.7538247731520187 0 0 0 0 41.552409196566714 -75.594219599695407 0 -75.594219599695407 -121.06446078193852 0 0 0 0 32.655229204465286 17.277542825218568 0 17.277542825218568 -110.63739486279951 0 0 0 0 107.79108737142087 14.932829516822522 0 14.932829516822522 -179.83192389404792 0 0 0 0 22.713159565202233 3.2561297699984815 0 3.2561297699984815 -0.62984638517741687 0 0 0 0 99.283419670104195 -60.668032347588451 0 -60.668032347588451 67.66211228431186 0 0 0 0 116.37556654660875 -49.712591799268537 0 -49.712591799268537 -76.145660758243707 0 0 0 0 169.04219216315687 6.0530034117326466 0 6.0530034117326466 67.95810658196315 0 0 0 0 74.495578618021682 -83.560187656770395 0 -83.560187656770395 236.44482424735071 0 0 0 0 47.007332761560974 -16.061940647272365 0 -16.061940647272365 71.857006143965464 0 0 0 0 33.464869476068998 -63.158387226689911 0 -63.158387226689911 107.77429306136192 0 0 0 0 45.966428940821061 -60.631619134887636 0 -60.631619134887636 -30.271489602700825 0 0 0 0 26.950474947327166 -27.970884534580257 0 -27.970884534580257 -55.123885176734987 0 0 0 0 7.0895539919656585 -12.715673273407731 0 -12.715673273407731 96.507646133397586 0 0 0 0 11.182339964369021 -24.938249117039341 0 -24.938249117039341 -2.3505496953020568 0 0 0 0 6.7038571667144424 -2.7118464907580506 0 -2.7118464907580506 -8.1128103686757918 0 0 0 0 3.9448943782772403 -9.0984400290622744 0 -9.0984400290622744 -19.65921351385461 0 0 0 0 -1.3763892239276174 -64.667560073679354 0 -64.667560073679354 -43.460759737792031 0 0 0 0 40.298094821773702 -7.6132761763014969 0 -7.6132761763014969 -10.094996799953606 0 0 0 0 15.878381502036405 -4.5789443581170968 0 -4.5789443581170968 -2.1983457080544673 0 0 0 0 10.444104742527998 -12.778072673968381 0 -12.778072673968381 -13.513478612289987 0 0 0 0 22.388538891418733 -2.3521340752996451 0 -2.3521340752996451 -7.9379690930088449 0 0 0 0 24.104666582112259 1.1798600746196826 0 1.1798600746196826 -10.507512680387435 0 0 0 0 23.705635923705444 -1.5577706048567839 0 -1.5577706048567839 -2.4255534133010914 0 0 0 0 22.294896961655468 -4.546129755769698 0 -4.546129755769698 -0.92483594941768388 0 0 0 0 17.662303342991947 -3.240011472845616 0 -3.240011472845616 -2.7334722510485836 0 0 0 0 32.723313215148664 -21.452498575261416 0 -21.452498575261416 -13.174171705880781 0 0 0 0 21.882478390154574 -4.8101372981951727 0 -4.8101372981951727 -0.98071635851511019 0 0 0 0 22.470421425301538 -5.937580763667782 0 -5.937580763667782 -0.0026593234738356841 0 0 0 0 -21.434386354376329 -73.780207554119443 0 -73.780207554119443 -22.330166223834567 0 0 0 0 17.253954937356667 -7.9236621939147369 0 -7.9236621939147369 0.71506953986591526 0 0 0 0 3.9710594700009096 -66.852520375087124 0 -66.852520375087124 -121.76956847837619 0 0 0 0 319.60358182762502 366.23037038579497 0 366.23037038579497 172.31834277970302 0 0 0 0 243.44354202295654 195.43396489033853 0 195.43396489033853 26.148858822911279 0 0 0 0 345.70028122833173 187.58685724585166 0 187.58685724585166 -46.100925752303738 0 0 0 0 93.114010809356841 188.27061473443132 0 188.27061473443132 272.47973520457981 0 0 0 0 12.007800496934919 -2.70488118364527 0 -2.70488118364527 -4.3972958161379685 0 0 0 0 -7.2834135009470629 -21.956098127747282 0 -21.956098127747282 -6.9677730006183083 0 0 0 0 141.60325049065432 42.377766426861854 0 42.377766426861854 49.796676644249658 0 0 0 0 -0.70480520699379667 -4.0802728002816941 0 -4.0802728002816941 -0.33368752986370431 0 0 0 0 -1.148541341208329 -12.0070924910749 0 -12.0070924910749 -11.837444958904598 0 0 0 0 -1.181102898583049 -7.7548533616645727 0 -7.7548533616645727 -1.3648586096023791 0 0 0 0 2.0965855331517105 0.09502819340742974 0 0.09502819340742974 -1.9219604349600523 0 0 0 0 16.510680218041671 -6.8697607244505434 0 -6.8697607244505434 -17.112911095402524 0 0 0 0 -20.970194040308343 -61.142399782547329 0 -61.142399782547329 -36.757240301331279 0 0 0 0 -32.619747528900916 -30.986716049750726 0 -30.986716049750726 -7.4220068881303973 0 0 0 0 17.209521777318429 -3.0275647281800175 0 -3.0275647281800175 -8.6345307751389342 0 0 0 0 -2.4569780340243597 -0.84263955198129281 0 -0.84263955198129281 -41.146284921208789 0 0 0 0 14.935970384295047 -3.3599878285161537 0 -3.3599878285161537 -4.9246174912698759 0 0 0 0 9.7481709636776941 -10.248582286220426 0 -10.248582286220426 -16.43916912003624 0 0 0 0 3.7147590137761597 -0.21966031564642918 0 -0.21966031564642918 -1.9950018937793352 0 0 0 0 -5.3659876410945344 12.379282016892844 0 12.379282016892844 -11.99209007852096 0 0 0 0 80.450096155160281 -45.527865135396041 0 -45.527865135396041 24.933266922030271 0 0 0 0 8.0178792310471181 -13.243934219889411 0 -13.243934219889411 -19.753398974397896 0 0 0 0 11.119159380434752 -1.5731273974022528 0 -1.5731273974022528 -6.696266121865099 0 0 0 0 -13.243238169779943 -54.922675030244591 0 -54.922675030244591 -12.743267302464943 0 0 0 0 2.0488960491307466 -0.17541317682880475 0 -0.17541317682880475 -1.1492197728157159 0 0 0 0 -33.999434535938235 48.152201887340425 0 48.152201887340425 -24.345871054652889 0 0 0 0 186.46240330018918 -45.31201227114434 0 -45.31201227114434 -55.942155093542624 0 0 0 0 266.66297161041439 232.46900469986758 0 232.46900469986758 128.99361556395525 0 0 0 0 342.02203513828863 126.71171945948299 0 126.71171945948299 9.1785326722638274 0 0 0 0 494.38428526910138 256.4038226108305 0 256.4038226108305 3.7682927821547594 0 0 0 0 237.43975285225315 303.92865093023374 0 303.92865093023374 403.81481300270707 0 0 0 0 423.29937046505802 373.6142270716964 0 373.6142270716964 172.26976229064167 0 0 0 0 361.79429281404555 106.30973472184007 0 106.30973472184007 283.56472664778812 0 0 0 0 467.5515775944732 324.78962577588959 0 324.78962577588959 204.63808453381671 0 0 0 0 4.6204857070762273 1.3848111806905283 0 1.3848111806905283 -1.2252382948778788 0 0 0 0 213.66684283074574 354.69021551938658 0 354.69021551938658 459.8282370111865 0 0 0 0 264.22423202633581 243.14799084876609 0 243.14799084876609 175.90290161216717 0 0 0 0 285.03709680008615 326.90890358196964 0 326.90890358196964 140.55361880454313 0 0 0 0 163.74807388463887 72.579026727591611 0 72.579026727591611 126.19693037991692 0 0 0 0 248.64510949746182 237.97774121404427 0 237.97774121404427 194.7595541337223 0 0 0 0 20.166479757419438 -11.366497104028099 0 -11.366497104028099 -0.73819549649806504 0 0 0 0 6.0379147813594898 -7.7244427506929796 0 -7.7244427506929796 -3.0686978302135857 0 0 0 0 -2.8837288998402073 5.5454821536273329 0 5.5454821536273329 5.7314555211121103 0 0 0 0 -14.822348794317804 -7.823481568365878 0 -7.823481568365878 -6.9102935552102451 0 0 0 0 9.9633571255233573 -9.5701518955650471 0 -9.5701518955650471 0.074688390502480217 0 0 0 0 31.515042686580273 -17.953141688431742 0 -17.953141688431742 -3.216788598854464 0 0 0 0 31.113613035042363 -17.477902288809219 0 -17.477902288809219 -1.4478553568915231 0 0 0 0 27.661669858553367 -17.218496691244965 0 -17.218496691244965 -5.342962463907746 0 0 0 0 15.832459214958362 -14.54366864792064 0 -14.54366864792064 -12.469078816363435 0 0 0 0 32.213626044174816 -17.887161144543825 0 -17.887161144543825 -5.8653936999689904 0 0 0 0 32.329372458247235 -17.07741619590297 0 -17.07741619590297 -5.4875177435342266 0 0 0 0 17.446114463968314 -16.231955930532816 0 -16.231955930532816 -6.0171614866125838 0 0 0 0 18.481887833629827 -14.27566082331397 0 -14.27566082331397 -6.4752128079610163 0 0 0 0 48.173597623266687 -7.9613426660148434 0 -7.9613426660148434 -3.9506739140283571 0 0 0 0 5.1513567349783536 -0.62775788579034497 0 -0.62775788579034497 3.5294020717905834 0 0 0 0 49.199315655954706 -10.720809783789491 0 -10.720809783789491 -0.7836033511093774 0 0 0 0 32.289434445425911 -8.1673525288625903 0 -8.1673525288625903 -3.5454827303098044 0 0 0 0 44.439643116595107 -8.945118809061114 0 -8.945118809061114 4.0703696601131014 0 0 0 0 15.714142597200407 -9.8424571887915135 0 -9.8424571887915135 17.242110876631614 0 0 0 0 12.081453992628667 -9.5117299151127099 0 -9.5117299151127099 0.22108429807360608 0 0 0 0 16.140913119978592 -7.9053975906378646 0 -7.9053975906378646 -3.8149845675808436 0 0 0 0 11.513383589393925 -3.3260301928176546 0 -3.3260301928176546 -0.62349728183755815 0 0 0 0 17.130222898537284 -4.2246380805005401 0 -4.2246380805005401 -7.3074857866832383 0 0 0 0 14.582369324472893 -2.5352930389256585 0 -2.5352930389256585 -2.931513493838338 0 0 0 0 1699.9224319035657 -1163.4446988186578 0 -1163.4446988186578 523.04647565046207 0 0 0 0 1440.7875732570246 -294.14884026468008 0 -294.14884026468008 -9.8500761772327223 0 0 0 0 2497.683827107765 -283.883260700741 0 -283.883260700741 -403.40250857228312 0 0 0 0 10.06223131550427 0.9144173011235921 0 0.9144173011235921 -4.6852701336270117 0 0 0 0 1123.9617220884247 -78.336913300837125 0 -78.336913300837125 -139.00269904028397 0 0 0 0 1123.9617220882792 -78.336913300791934 0 -78.336913300791934 -139.00269904030233 0 0 0 0 1244.0206817069848 -319.81435300418394 0 -319.81435300418394 -170.46387874413074 0 0 0 0 1460.6394773556385 -87.90237971331095 0 -87.90237971331095 -400.95076182694015 0 0 0 0 8.1037035816727894 -1.0165030611936139 0 -1.0165030611936139 -3.1521987859754912 0 0 0 0 12.151442082147696 -1.3770582527532156 0 -1.3770582527532156 -8.3218336224161931 0 0 0 0 1123.9617220884029 -78.336913300828684 0 -78.336913300828684 -139.00269904026607 0 0 0 0 1.9632820580016812 -1.1736490710967757 0 -1.1736490710967757 -0.48930426683951145 0 0 0 0 515.62148879472079 270.01143393225419 0 270.01143393225419 157.73819016746376 0 0 0 0 34.568370305467397 -26.654706517807199 0 -26.654706517807199 -2.8535067056266783 0 0 0 0 -107.17559415780488 41.437799918048249 0 41.437799918048249 253.18177871791679 0 0 0 0 1419.7825280487777 758.08185615617185 0 758.08185615617185 371.44439088168025 0 0 0 0 2496.2214299477455 197.39113617123533 0 197.39113617123533 -400.7895841597512 0 0 0 0 15.5208971715264 -5.8253189226568125 0 -5.8253189226568125 4.3716565375517682 0 0 0 0 486.94915580729685 -1085.3565272350963 0 -1085.3565272350963 1462.7367853641567 0 0 0 0 -26.956823083302879 -129.703790744044 0 -129.703790744044 739.05876190066704 0 0 0 0 311.63469047825129 129.45445073190902 0 129.45445073190902 -53.378452116939798 0 0 0 0 35.356160459178312 -16.280418580271515 0 -16.280418580271515 3.0859347551293217 0 0 0 0 35.338661073874391 13.763505030527085 0 13.763505030527085 -87.604715743321094 0 0 0 0 -0.096545263861116837 -143.02626433635572 0 -143.02626433635572 -23.12824855267165 0 0 0 0 37.017485107055109 -13.650642396380078 0 -13.650642396380078 -6.6415814016841068 0 0 0 0 33.021034502758994 -18.22050165658959 0 -18.22050165658959 -11.605516160995705 0 0 0 0 33.440347802861197 -10.044154333204325 0 -10.044154333204325 -13.07335627664952 0 0 0 0 11.910078774831163 -13.857614870845683 0 -13.857614870845683 -5.1344222018495129 0 0 0 0 20.107326740939925 -12.334966731021293 0 -12.334966731021293 -8.6656163394210566 0 0 0 0 35.00331894444389 -12.192118621553419 0 -12.192118621553419 1.2686727383129437 0 0 0 0 7.514549068787268 -3.5401692057298675 0 -3.5401692057298675 -12.793868649902052 0 0 0 0 303.38783298141789 91.097250797124957 0 91.097250797124957 -47.917927504771569 0 0 0 0 405.34481630477239 59.987449550843962 0 59.987449550843962 -13.334619760523196 0 0 0 0 297.55473968432807 153.75022187698798 0 153.75022187698798 127.87687171323159 0 0 0 0 -107.37480535816576 -38.27483652781666 0 -38.27483652781666 29.369392454302215 0 0 0 0 169.69151395842346 124.06554457906475 0 124.06554457906475 67.168100914338311 0 0 0 0 -3.6525959062274183 -1.8655034587706751 0 -1.8655034587706751 0.16688363499406345 0 0 0 0 142.1255341137512 331.46747255020091 0 331.46747255020091 527.95875921493371 0 0 0 0 0.55063341475088379 -5.591135530015336 0 -5.591135530015336 -4.4594101647366724 0 0 0 0 -41.186882137037173 -35.611593242420895 0 -35.611593242420895 54.19561503459613 0 0 0 0 35.759841471088293 -13.684642084891777 0 -13.684642084891777 -7.3596716301524339 0 0 0 0 1482.8373027650232 -951.32835284868554 0 -951.32835284868554 480.86084865485691 0 0 0 0 1301.631884071714 -305.57384309767735 0 -305.57384309767735 -49.734297335298436 0 0 0 0 1240.6717910225852 -258.12841191155883 0 -258.12841191155883 -44.698096994393381 0 0 0 0 2200.0568514173356 -394.56159118347045 0 -394.56159118347045 -35.874151127189677 0 0 0 0 705.24105083169707 714.04621320881779 0 714.04621320881779 320.15045574062697 0 0 0 0 1432.0520901064592 22.579642428073385 0 22.579642428073385 -42.10563947905257 0 0 0 0 1440.5374619997692 150.9001638794567 0 150.9001638794567 -170.62985326850765 0 0 0 0 829.2141283107776 -8.3563138181111754 0 -8.3563138181111754 -11.689452494781563 0 0 0 0 1708.7383522551172 1059.6110416040017 0 1059.6110416040017 401.12454371751573 0 0 0 0 3669.401986466808 -682.7232938150712 0 -682.7232938150712 236.24061441668971 0 0 0 0 1684.9733643671134 185.49556894448097 0 185.49556894448097 0.53753870407172144 0 0 0 0 1785.1749783545965 -1766.141913418614 0 -1766.141913418614 918.46575132474936 0 0 0 0 1135.9465796284494 -625.69564884028932 0 -625.69564884028932 610.52063405818808 0 0 0 0 967.30072287443909 -818.19444339126812 0 -818.19444339126812 770.86158964395622 0 0 0 0 -187.83549879057682 324.96794921259107 0 324.96794921259107 1.5065200438639295 0 0 0 0 9.7385844102921055 -4.1757363373189449 0 -4.1757363373189449 1.3700273527726283 0 0 0 0 422.30708521199995 -1082.5211206149104 0 -1082.5211206149104 756.28544317808962 0 0 0 0 4636.8991877516382 -1136.7368027038865 0 -1136.7368027038865 2342.4634000932056 0 0 0 0 5161.4467373443185 1422.4035796531421 0 1422.4035796531421 -802.04498539612359 0 0 0 0 1824.2480343656789 1391.6630642815844 0 1391.6630642815844 -316.1192225107643 0 0 0 0 1967.2204763096815 -1890.5227470457021 0 -1890.5227470457021 1722.6037597471595 0 0 0 0 971.19147552106006 636.23192048834972 0 636.23192048834972 -15.167514692117948 0 0 0 0 23.993224639205664 3.2797923855667008 0 3.2797923855667008 1.8200837893261372 0 0 0 0 4450.6431485053072 -1796.3628003845913 0 -1796.3628003845913 222.43297196127787 0 0 0 0 2270.0110882896697 -781.88306713500333 0 -781.88306713500333 -33.461588016795986 0 0 0 0 3992.6817786435568 72.189172252074513 0 72.189172252074513 82.384117471081481 0 0 0 0 2405.7689560802246 -1308.8144393346793 0 -1308.8144393346793 397.15058206066351 0 0 0 0 584.64356241244241 -1013.655885736167 0 -1013.655885736167 1476.8948784030945 0 0 0 0 1099.5640971362373 -530.51186184722542 0 -530.51186184722542 113.32209979777781 0 0 0 0 1348.9421169138295 -858.89555609438548 0 -858.89555609438548 257.07481078562341 0 0 0 0 2099.3369085713348 -792.27753488175858 0 -792.27753488175858 -95.034079386192388 0 0 0 0 1415.4227988243638 -619.30442483901743 0 -619.30442483901743 24.928984474800018 0 0 0 0 1833.3124005037243 -432.86017605739607 0 -432.86017605739607 -287.01661699346732 0 0 0 0 1515.7059479887248 -363.94387061813723 0 -363.94387061813723 -300.54589504134765 0 0 0 0 1426.8325786471132 -514.72504325244699 0 -514.72504325244699 -204.97939316559859 0 0 0 0 1768.0933738101157 -202.44669072594024 0 -202.44669072594024 -374.04645030681149 0 0 0 0 1827.1924994304941 -233.42259693581306 0 -233.42259693581306 -413.80881570275596 0 0 0 0 2190.9586003180157 -328.92581203974032 0 -328.92581203974032 -391.74896751510005 0 0 0 0 2566.2335766686083 -769.14000106933781 0 -769.14000106933781 -119.1091542838949 0 0 0 0 2070.9717746467068 -384.04156970325403 0 -384.04156970325403 -412.6219662668027 0 0 0 0 3235.1918249983282 -4.4388267491854094 0 -4.4388267491854094 -722.958133426926 0 0 0 0 1838.9314959878684 12.181241153555675 0 12.181241153555675 -455.90839075544682 0 0 0 0 1287.9852561640873 145.29321612129388 0 145.29321612129388 -288.44039646263309 0 0 0 0 2018.8991847969301 270.65987950028034 0 270.65987950028034 -288.69663482487977 0 0 0 0 1812.7758507856925 -158.82037951709981 0 -158.82037951709981 -364.34550609207326 0 0 0 0 1774.933349071478 -46.376970825158423 0 -46.376970825158423 -331.20169089744741 0 0 0 0 983.77797175994783 -240.92383100339589 0 -240.92383100339589 -153.92594109729544 0 0 0 0 415.59593480020703 579.5641689103918 0 579.5641689103918 128.16348687764275 0 0 0 0 348.13163909094874 -21.499381693504802 0 -21.499381693504802 -3.9436224707756082 0 0 0 0 184.95997852123401 -95.398007075320493 0 -95.398007075320493 40.285149375696847 0 0 0 0 61.45869024929749 6.9466326237705367 0 6.9466326237705367 -2.7836142034121671 0 0 0 0 -65.706087304235552 35.498105564680372 0 35.498105564680372 -94.793371117858896 0 0 0 0 30.524122417162182 -19.020284111458309 0 -19.020284111458309 -10.229619172966244 0 0 0 0 32.983948436391074 -16.289896552659911 0 -16.289896552659911 -3.665367724693624 0 0 0 0 26.135728320814451 -3.1462616520008169 0 -3.1462616520008169 -0.71339449198512739 0 0 0 0 7.2067598240760518 -13.516440124944353 0 -13.516440124944353 -2.7973508371135178 0 0 0 0 10.685773934004828 -10.490670583019892 0 -10.490670583019892 -8.6320357392105507 0 0 0 0 0.45762689353432506 -14.683817647151955 0 -14.683817647151955 -8.0360941659182572 0 0 0 0 5.7823972835903987 -18.504171193825641 0 -18.504171193825641 -7.0834649335993163 0 0 0 0 0.074221283369638513 -1.3083771288408599 0 -1.3083771288408599 -0.28915771640696519 0 0 0 0 -2.7813407885080323 -5.4147039398203916 0 -5.4147039398203916 -1.6137895853463098 0 0 0 0 317.36785766427056 -57.795577135129861 0 -57.795577135129861 -287.98893011944966 0 0 0 0 -139.24482752618496 -437.93867857695977 0 -437.93867857695977 -276.57290725125313 0 0 0 0 156.18011367251893 192.00737881724081 0 192.00737881724081 -190.96275966293069 0 0 0 0 -698.82770595805778 -203.85574728151005 0 -203.85574728151005 421.83005596195449 0 0 0 0 -314.8934473926347 -244.62838190647062 0 -244.62838190647062 886.86239837183257 0 0 0 0 -50.021475234098034 318.84508739579178 0 318.84508739579178 166.75692152125521 0 0 0 0 319.26345416685217 -174.27154523454101 0 -174.27154523454101 200.75812910491578 0 0 0 0 169.25858296793012 -38.168122453221486 0 -38.168122453221486 150.85089804591189 0 0 0 0 740.61303336513811 -729.81873157388554 0 -729.81873157388554 512.73117886066575 0 0 0 0 293.90391695692961 -195.22069591143872 0 -195.22069591143872 197.16013119993295 0 0 0 0 921.63123930669099 -265.50787995380142 0 -265.50787995380142 -40.514696285806167 0 0 0 0 946.97000414291688 -407.56067747463021 0 -407.56067747463021 -40.176457836942973 0 0 0 0 605.65690334929968 -387.58419701211733 0 -387.58419701211733 171.51435593194793 0 0 0 0 299.10729163547512 -223.07327157306872 0 -223.07327157306872 69.882688521963928 0 0 0 0 434.07044569322898 -112.69279275341819 0 -112.69279275341819 61.824533024438097 0 0 0 0 108.95564300232218 -103.41413450331447 0 -103.41413450331447 116.58530271386417 0 0 0 0 -98.06285212378134 -122.11921107548642 0 -122.11921107548642 92.739844672516483 0 0 0 0 232.66197618903971 -79.513492307101842 0 -79.513492307101842 63.971501445364993 0 0 0 0 22.92855407743582 -81.616833046615199 0 -81.616833046615199 -82.446608301501328 0 0 0 0 21.8683056931186 -103.36197597356295 0 -103.36197597356295 116.89553717849049 0 0 0 0 119.12121159402886 -71.269364907780982 0 -71.269364907780982 -135.39471850262635 0 0 0 0 -53.01988915700349 -24.741076258264002 0 -24.741076258264002 -109.93890899564349 0 0 0 0 177.2873161986281 -14.893477761948475 0 -14.893477761948475 -80.764235831500628 0 0 0 0 -57.771654487311025 36.732596945508703 0 36.732596945508703 -121.28814715201952 0 0 0 0 51.726358120009536 -8.182736438214306 0 -8.182736438214306 -9.3750948004853853 0 0 0 0 -295.21946740793646 36.252095111687595 0 36.252095111687595 -81.619979604531181 0 0 0 0 35.043611606854199 -0.84080135944103063 0 -0.84080135944103063 1.2288548187879051 0 0 0 0 40.422582534360117 -3.4924923819698961 0 -3.4924923819698961 -2.7291796837625952 0 0 0 0 3.0248541498569139 1.0227478062171684 0 1.0227478062171684 4.493328252007954 0 0 0 0 37.61437473326805 -11.867357146622453 0 -11.867357146622453 19.279256183799589 0 0 0 0 -179.95390498356574 -17.779178353758653 0 -17.779178353758653 157.46617543572393 0 0 0 0 36.263867719364498 -8.1658037778610151 0 -8.1658037778610151 10.584078374743513 0 0 0 0 83.948671666410519 23.712881719880897 0 23.712881719880897 -24.260880022629863 0 0 0 0 3.3537926746237732 1.1004415536421277 0 1.1004415536421277 0.1005679912952786 0 0 0 0 39.401095694047399 -14.902070341227045 0 -14.902070341227045 23.926190021019067 0 0 0 0 420.83728482908919 -70.202462638047564 0 -70.202462638047564 -192.60105723982224 0 0 0 0 339.98890802345704 31.520419150899215 0 31.520419150899215 -248.94114238675473 0 0 0 0 150.78927887583268 175.31962808445132 0 175.31962808445132 -198.15870536015404 0 0 0 0 179.16921698075021 18.434152504154554 0 18.434152504154554 4.0072214097272081 0 0 0 0 -106.51643410405086 157.0973702772817 0 157.0973702772817 39.993742900508551 0 0 0 0 221.15038186413585 65.965953238094244 0 65.965953238094244 -45.958820743664546 0 0 0 0 43.07121734219254 -36.002478491386228 0 -36.002478491386228 124.43156830743465 0 0 0 0 58.322641167091206 6.558301568677507 0 6.558301568677507 103.38338296518123 0 0 0 0 354.49727335965144 -40.009351599512684 0 -40.009351599512684 30.051784795813546 0 0 0 0 447.33837191798375 -213.84938329581655 0 -213.84938329581655 50.803869375916122 0 0 0 0 681.50710628461093 -115.08103171644461 0 -115.08103171644461 -55.995149974483866 0 0 0 0 728.90161124343285 -213.72362426732434 0 -213.72362426732434 -46.57099618079539 0 0 0 0 278.23252880206564 -85.438907859409937 0 -85.438907859409937 60.309295306887179 0 0 0 0 763.74509730786667 -294.14831156445689 0 -294.14831156445689 -13.47819857544755 0 0 0 0 1054.1431491168914 -214.55518871329946 0 -214.55518871329946 -121.03547209047201 0 0 0 0 1052.7340372215667 -279.86373093647279 0 -279.86373093647279 -106.76210482884198 0 0 0 0 1046.1023559190944 -239.23071660580024 0 -239.23071660580024 -82.585339378350909 0 0 0 0 1082.5553686981875 -120.49384280465267 0 -120.49384280465267 -133.50173091154784 0 0 0 0 779.91617381897231 -141.19572323144052 0 -141.19572323144052 -60.058293732015272 0 0 0 0 413.52804911920975 -102.84232508349567 0 -102.84232508349567 10.426030746247875 0 0 0 0 567.76317829250183 -15.459025573322606 0 -15.459025573322606 -97.427619898624926 0 0 0 0 712.05020497081568 -146.11190055652699 0 -146.11190055652699 -120.64452600670256 0 0 0 0 741.19833496741921 -59.056264963011728 0 -59.056264963011728 5.0559960806818935 0 0 0 0 1168.0941642666576 -215.797914836503 0 -215.797914836503 -19.924116387068125 0 0 0 0 1200.0980959955868 -33.971428718186672 0 -33.971428718186672 -113.74745431530209 0 0 0 0 765.46377693919931 -136.40243108179357 0 -136.40243108179357 199.0192160882751 0 0 0 0 744.34514098064392 72.942917799078913 0 72.942917799078913 -212.81900000902851 0 0 0 0 120.271971180744 -121.58106738196494 0 -121.58106738196494 75.553454576853809 0 0 0 0 -0.10976488530316431 -0.08393198771513255 0 -0.08393198771513255 5.3622081119782257 0 0 0 0 59.941976757745579 -20.395240975005265 0 -20.395240975005265 49.152437868314337 0 0 0 0 43.217820671368827 21.946565055179462 0 21.946565055179462 25.476321559639018 0 0 0 0 243.61608865398011 106.69285976507506 0 106.69285976507506 152.89868371718964 0 0 0 0 13.865611676992557 -0.35344956003473271 0 -0.35344956003473271 23.170963857672177 0 0 0 0 1048.6782765434036 -187.56757616777872 0 -187.56757616777872 5.2831494123688572 0 0 0 0 9.5233749827498286 3.4290288799433171 0 3.4290288799433171 -0.9655549336188578 0 0 0 0 1648.8541794750199 -945.3895013907196 0 -945.3895013907196 117.30931810964648 0 0 0 0 1337.4430479925213 -189.66378243138297 0 -189.66378243138297 -169.17584617861718 0 0 0 0 1337.229189259524 -105.5992741865241 0 -105.5992741865241 -198.63341031222581 0 0 0 0 1605.7537501577463 -37.311337055772128 0 -37.311337055772128 -331.68515451512053 0 0 0 0 1715.4984498825215 -169.58368697675041 0 -169.58368697675041 -362.70129527662903 0 0 0 0 1685.8681624152814 -153.9052183605545 0 -153.9052183605545 -325.66838717719293 0 0 0 0 1694.9560927557177 -170.93171769650212 0 -170.93171769650212 -320.92654074690654 0 0 0 0 1554.2770371782535 -229.24157389732591 0 -229.24157389732591 -177.45394428058353 0 0 0 0 1675.2690779595287 -223.2785270693048 0 -223.2785270693048 -177.21928263528855 0 0 0 0 1448.6832368838077 -274.99190514254735 0 -274.99190514254735 93.504757974096265 0 0 0 0 1634.5455497281509 -253.93205134576499 0 -253.93205134576499 10.869036609244176 0 0 0 0 1699.1438725907356 -193.07989264666116 0 -193.07989264666116 -190.50714302109941 0 0 0 0 1656.6017632493313 -251.28008781946085 0 -251.28008781946085 -175.63788747216847 0 0 0 0 1586.8363561481965 -175.76297816497549 0 -175.76297816497549 -179.84930395638457 0 0 0 0 1666.5586500947247 -211.59576850661188 0 -211.59576850661188 -272.08975833280874 0 0 0 0 1687.4474270218052 -165.26320967002448 0 -165.26320967002448 -260.09226857242356 0 0 0 0 1659.1123667178617 -210.46574498899781 0 -210.46574498899781 -198.04576634396108 0 0 0 0 1687.5835332040442 -199.18101967117445 0 -199.18101967117445 -330.40391438801362 0 0 0 0 1729.2623391419693 -196.82684931813333 0 -196.82684931813333 -334.18104242192749 0 0 0 0 1709.8445825491508 -215.68366662221251 0 -215.68366662221251 -352.34581910617453 0 0 0 0 1734.6768244308332 -268.44585391988767 0 -268.44585391988767 -317.1325630887568 0 0 0 0 1591.1691674663598 -268.68043954745872 0 -268.68043954745872 -308.63364061437096 0 0 0 0 1671.6694102095207 -192.10927227439697 0 -192.10927227439697 -269.19464314852303 0 0 0 0 1514.5893427074479 -188.06050876262111 0 -188.06050876262111 -242.45942531061428 0 0 0 0 1424.2710735090368 -278.63592142760604 0 -278.63592142760604 -218.99531320828737 0 0 0 0 1334.3855388814991 -396.56861829113586 0 -396.56861829113586 -136.46253905474759 0 0 0 0 1401.8206549955939 -300.56316405644429 0 -300.56316405644429 -229.88058089275501 0 0 0 0 1296.604872531665 -181.03204373540621 0 -181.03204373540621 -168.16406289153383 0 0 0 0 1192.3490468991513 -245.1369852354162 0 -245.1369852354162 -156.53762686502341 0 0 0 0 1588.7910249899869 -117.96154318825074 0 -117.96154318825074 -155.07964418573243 0 0 0 0 1552.8831326509535 -226.04438761347546 0 -226.04438761347546 -246.34664467357698 0 0 0 0 1346.1169710012764 -115.90504251555012 0 -115.90504251555012 -145.95942109237512 0 0 0 0 1221.8550546413899 -65.649041529215594 0 -65.649041529215594 -19.674103612373983 0 0 0 0 1769.5155660161545 18.051751266639172 0 18.051751266639172 -19.09657039711125 0 0 0 0 1960.9589655888376 -353.98836293768119 0 -353.98836293768119 205.02456946996622 0 0 0 0 1798.7116074093501 -500.25443904350414 0 -500.25443904350414 73.923922410246306 0 0 0 0 1754.386198686072 -255.72353064145369 0 -255.72353064145369 -80.289875404510894 0 0 0 0 1623.5728927459277 -256.94641323536371 0 -256.94641323536371 -41.437547216757594 0 0 0 0 -38.529331030676985 121.75457318374674 0 121.75457318374674 -190.12914195702012 0 0 0 0 1984.1789075634442 -526.81736017500407 0 -526.81736017500407 304.93254304064521 0 0 0 0 1870.4922626498301 -400.38834588873067 0 -400.38834588873067 -53.078290688428524 0 0 0 0 1749.2052671499041 -623.92932979520299 0 -623.92932979520299 327.39127199984659 0 0 0 0 11.691372600362214 8.9149804984600536 0 8.9149804984600536 1.5675350866238773 0 0 0 0 2094.2602466216485 -668.01773644055606 0 -668.01773644055606 52.672969590255065 0 0 0 0 0.89262992709606692 3.0347463322401245 0 3.0347463322401245 -0.24513343402896126 0 0 0 0 232.85854936436954 -3.3844927879120803 0 -3.3844927879120803 -175.61294682189663 0 0 0 0 -161.4661484983335 447.96344370147301 0 447.96344370147301 -229.01121252395041 0 0 0 0 4.4109912370710731 2.6577781519275305 0 2.6577781519275305 0.27973106652213975 0 0 0 0 3032.8609548969689 -1034.0585803334532 0 -1034.0585803334532 138.03399783330431 0 0 0 0 1339.3304769520691 -355.48422885361424 0 -355.48422885361424 213.81107384536975 0 0 0 0 2338.0131672403295 51.381619871946114 0 51.381619871946114 -148.53765313554496 0 0 0 0 1829.502883127192 -581.35214436539036 0 -581.35214436539036 -66.943730592145698 0 0 0 0 1612.9480898222755 -205.9895332881635 0 -205.9895332881635 -16.9303592052607 0 0 0 0 1527.0400563389121 -346.72278972135257 0 -346.72278972135257 -195.11063088218245 0 0 0 0 380.46002285864233 3.0643381503663818 0 3.0643381503663818 233.9465728873169 0 0 0 0 331.77648326143571 -166.33045068553986 0 -166.33045068553986 242.77108213570159 0 0 0 0 1458.7802399432921 -23.487297419841415 0 -23.487297419841415 -93.16274491196117 0 0 0 0 23.905581178099965 -61.981142376015065 0 -61.981142376015065 -256.1739018265788 0 0 0 0 -85.414285540995479 20.769084341324401 0 20.769084341324401 62.523027816994272 0 0 0 0 354.46050113642559 -38.114966349747675 0 -38.114966349747675 178.77243614153298 0 0 0 0 0.24865111139729379 -0.12800635575793251 0 -0.12800635575793251 2.3345641457570903 0 0 0 0 738.70944357404369 -205.66520379283534 0 -205.66520379283534 -28.404894116437049 0 0 0 0 1246.9745159177837 -45.270238773740601 0 -45.270238773740601 -124.09438649759181 0 0 0 0 821.43102484916744 32.050766014339132 0 32.050766014339132 54.034639148790916 0 0 0 0 1964.1735553128747 -355.46774261847935 0 -355.46774261847935 -472.90971724083818 0 0 0 0 888.75843869151868 195.26573984527246 0 195.26573984527246 -129.26654434830476 0 0 0 0 1138.5426034594202 -189.93536960572976 0 -189.93536960572976 25.002479217756743 0 0 0 0 1456.2510153500043 26.390885321499951 0 26.390885321499951 -340.09679151827277 0 0 0 0 -453.18967025377788 -299.44607889820463 0 -299.44607889820463 325.34831559042755 0 0 0 0 48.829690348211443 483.54398317210996 0 483.54398317210996 -220.5713150644994 0 0 0 0 162.1058235914461 -605.68344025009583 0 -605.68344025009583 -1122.7595269226699 0 0 0 0 25.939855249814883 -11.860311615004962 0 -11.860311615004962 2.8412387411704887 0 0 0 0 -42.167128255448915 -366.28108045051721 0 -366.28108045051721 -750.92703479843362 0 0 0 0 549.16817402702873 -516.41808874855246 0 -516.41808874855246 -1257.6507512191774 0 0 0 0 24.581739802049526 -9.0674327178840457 0 -9.0674327178840457 1.4081258981016851 0 0 0 0 -100.4215204569191 -124.12611050513621 0 -124.12611050513621 -85.500358910868115 0 0 0 0 -18.098802550378423 -251.63758188058924 0 -251.63758188058924 -390.60743822945284 0 0 0 0 -47.651077354199515 -44.209204579182881 0 -44.209204579182881 -154.72648710310671 0 0 0 0 -85.265884179045827 -96.942138709384295 0 -96.942138709384295 15.70503623459831 0 0 0 0 41.948376288777581 -53.796022915156414 0 -53.796022915156414 25.480057579113009 0 0 0 0 0.030852630190000951 1.8609339362826205 0 1.8609339362826205 0.86526975692526698 0 0 0 0 103.9759721011942 -26.143498752941241 0 -26.143498752941241 1.8188257569454436 0 0 0 0 22.63148346660455 -48.42100511455385 0 -48.42100511455385 -79.40597603114702 0 0 0 0 -21.374970622034198 -53.632864374694961 0 -53.632864374694961 -37.018411218479741 0 0 0 0 8.4033787309454056 8.8095893578527011 0 8.8095893578527011 -9.4298461333360137 0 0 0 0 39.544862421927974 -7.5383260034254818 0 -7.5383260034254818 10.435945651138354 0 0 0 0 44.638941600236649 -10.569704113243091 0 -10.569704113243091 10.462113751110337 0 0 0 0 44.181060648624225 -10.05588303282471 0 -10.05588303282471 10.955710043558611 0 0 0 0 43.755409098534074 -13.239107579005008 0 -13.239107579005008 18.138822255257764 0 0 0 0 9.3797000358762403 3.6956510142525616 0 3.6956510142525616 -12.147693924942869 0 0 0 0 2494.5157564958868 -575.50254086264806 0 -575.50254086264806 -216.30748629578346 0 0 0 0 1608.1263344757463 580.03264666403948 0 580.03264666403948 194.14013850374019 0 0 0 0 4.6001397664590229 1.6075999780230816 0 1.6075999780230816 -3.51115934838375 0 0 0 0 59.489723992723157 2.4016383135173101 0 2.4016383135173101 -103.05208007394754 0 0 0 0 0.76305103241611505 -38.445615160030684 0 -38.445615160030684 8.6781346131988357 0 0 0 0 -26.211719113935033 -127.68418729871121 0 -127.68418729871121 -167.36585610407838 0 0 0 0 117.06063684208129 -151.96974906064176 0 -151.96974906064176 -190.21508762820335 0 0 0 0 2501.4367383684366 -573.3417813587721 0 -573.3417813587721 -215.64783533944083 0 0 0 0 4.0766894387153911 3.2781149966242111 0 3.2781149966242111 -4.4189582195733665 0 0 0 0 347.17809705515538 1828.6975742371826 0 1828.6975742371826 221.43294181910559 0 0 0 0 1961.5441539760432 589.79818917250395 0 589.79818917250395 -120.2054194547579 0 0 0 0 -34.198062610179477 -249.62569387329751 0 -249.62569387329751 -252.02963847823111 0 0 0 0 10.908619889427285 -2.7945182850497012 0 -2.7945182850497012 0.40272073765790506 0 0 0 0 -169.16579245663161 216.7999327053866 0 216.7999327053866 -394.94329396389185 0 0 0 0 2494.7198201706924 640.36431347546034 0 640.36431347546034 -878.84621039278625 0 0 0 0 1785.8317066122254 800.21377692764656 0 800.21377692764656 -270.9830273340379 0 0 0 0 1633.0469677309657 274.03847865524909 0 274.03847865524909 -897.23053552775798 0 0 0 0 2500.7560145930183 44.264057381851806 0 44.264057381851806 -911.56367423397467 0 0 0 0 1634.2012480960393 258.91785001039034 0 258.91785001039034 -744.4676795280327 0 0 0 0 678.66983709837223 194.36378585797456 0 194.36378585797456 -518.06821786823173 0 0 0 0 773.7800399318985 -284.36643975198643 0 -284.36643975198643 -191.34706278981707 0 0 0 0 1721.3860140047923 -46.54922749956787 0 -46.54922749956787 -489.85616160772349 0 0 0 0 1744.1471630881715 -194.03751362519043 0 -194.03751362519043 -611.55023116915777 0 0 0 0 -266.17097715579439 -400.58401481232477 0 -400.58401481232477 96.100717476219756 0 0 0 0 -50.695672494824976 -695.59146671581664 0 -695.59146671581664 -591.93738804229042 0 0 0 0 -93.917764342126929 4.9712909837109684 0 4.9712909837109684 -595.0927073810949 0 0 0 0 350.52490528285125 -382.30637077864253 0 -382.30637077864253 -257.6273951611372 0 0 0 0 761.73953922739747 -258.579737907724 0 -258.579737907724 -245.7315692414692 0 0 0 0 108.53249927195316 -430.58058131246702 0 -430.58058131246702 196.69059886697045 0 0 0 0 193.24352082501719 -636.57326162071342 0 -636.57326162071342 112.79687484269266 0 0 0 0 131.72386292912188 -653.58377044515009 0 -653.58377044515009 205.50752148336892 0 0 0 0 220.44078718010496 -638.70857679663413 0 -638.70857679663413 361.34161660042082 0 0 0 0 207.08441131652216 -595.74499918926097 0 -595.74499918926097 239.51044895938415 0 0 0 0 240.28155472746585 -670.63417498995875 0 -670.63417498995875 345.4711916826426 0 0 0 0 268.6463145259404 -569.13902273750159 0 -569.13902273750159 398.56674633699231 0 0 0 0 757.11018240388512 -662.93825548251334 0 -662.93825548251334 265.8588513769792 0 0 0 0 402.08930782217794 -463.58525712159303 0 -463.58525712159303 189.6725192174365 0 0 0 0 328.94837089239445 -634.6352877794385 0 -634.6352877794385 446.43506989836874 0 0 0 0 668.31774138400215 -639.14920722451677 0 -639.14920722451677 428.65294914069796 0 0 0 0 125.0467340487894 -359.76271763979497 0 -359.76271763979497 321.77233987053955 0 0 0 0 1709.4556172539105 -713.6986914081308 0 -713.6986914081308 -24.276110841927775 0 0 0 0 2498.8359546903666 -362.59128001481486 0 -362.59128001481486 -595.09826245569411 0 0 0 0 763.94544114550558 -582.53299106065583 0 -582.53299106065583 186.42513059792091 0 0 0 0 1594.6665000462817 -472.49453013953774 0 -472.49453013953774 -148.25789255493092 0 0 0 0 679.01197167288046 -811.09834641914597 0 -811.09834641914597 637.57532000082927 0 0 0 0 1578.0648289431665 -857.51821031461452 0 -857.51821031461452 277.74337805875047 0 0 0 0 2500.3371086120096 -1127.3338029905515 0 -1127.3338029905515 328.44497007871962 0 0 0 0 1696.7582205375793 -634.30765275253634 0 -634.30765275253634 33.031202162509111 0 0 0 0 1724.7952848860259 -905.1996184188738 0 -905.1996184188738 1382.3132832478889 0 0 0 0 2496.8907221835511 -1709.4095908112906 0 -1709.4095908112906 1257.7937016440264 0 0 0 0 8.0152276370786666 -1.4053181030742508 0 -1.4053181030742508 10.394032677313909 0 0 0 0 2359.0941476813205 -1621.7127407326577 0 -1621.7127407326577 1635.9196383029207 0 0 0 0 -224.4548788693246 -142.67225332545377 0 -142.67225332545377 1335.7925338686573 0 0 0 0 -221.82408924794981 217.07804881491074 0 217.07804881491074 398.2209875696899 0 0 0 0 162.75882071878732 -652.82003734865134 0 -652.82003734865134 1217.7645016574502 0 0 0 0 797.15794894882856 -1206.0075258142097 0 -1206.0075258142097 1597.0472483303427 0 0 0 0 1238.7222449398832 -880.83112807565089 0 -880.83112807565089 641.13135444143609 0 0 0 0 1682.1594205775909 -1227.8257170476693 0 -1227.8257170476693 791.94694223730812 0 0 0 0 273.81214347365676 -340.44694414579203 0 -340.44694414579203 441.59469584356248 0 0 0 0 174.46809506838326 -556.45570474880037 0 -556.45570474880037 660.90799608144209 0 0 0 0 147.7018286446455 -105.71283738724287 0 -105.71283738724287 -121.05721695396142 0 0 0 0 190.94823462588101 -406.9538603396395 0 -406.9538603396395 208.43535698823689 0 0 0 0 -83.991948615210276 -53.231172683098066 0 -53.231172683098066 632.85027218857999 0 0 0 0 72.518231222262912 -14.836958216173061 0 -14.836958216173061 0.53527185776296859 0 0 0 0 124.34942997504913 -52.877838005499264 0 -52.877838005499264 -200.83503172836475 0 0 0 0 59.275673705747067 -35.53632491729411 0 -35.53632491729411 -102.76720703930984 0 0 0 0 2495.4397799898179 -482.29485408641426 0 -482.29485408641426 -114.7932115604336 0 0 0 0 -5.3614812013802293 127.14525912839224 0 127.14525912839224 -170.52318500789687 0 0 0 0 12.299451552006531 6.061344066794927 0 6.061344066794927 3.1702878344730543 0 0 0 0 2011.2709028986428 487.28142613426081 0 487.28142613426081 132.30915157906583 0 0 0 0 4.5597611641381093 -0.28815529869876877 0 -0.28815529869876877 8.8300579718266548 0 0 0 0 53.276504782975145 -13.4277935518326 0 -13.4277935518326 2.4480277131468506 0 0 0 0 149.69514367248212 42.669131133242459 0 42.669131133242459 -196.81006253379772 0 0 0 0 321.91215713184647 -108.04390220789855 0 -108.04390220789855 -309.36340168204424 0 0 0 0 98.45203941847285 -45.208960820555319 0 -45.208960820555319 -37.649843443323405 0 0 0 0 122.77477058768272 48.322157705521022 0 48.322157705521022 -158.19006577392838 0 0 0 0 94.243956384516466 -16.911315476535492 0 -16.911315476535492 0.8169625415135785 0 0 0 0 19.982976654573605 3.9870051928358663 0 3.9870051928358663 -6.3634638323281187 0 0 0 0 105.53021030675154 -28.500153975179018 0 -28.500153975179018 -19.276096541646936 0 0 0 0 93.950048935988889 -54.46161242083592 0 -54.46161242083592 -6.8347542708499986 0 0 0 0 91.766822866811708 -37.588543645808073 0 -37.588543645808073 -10.592029801632791 0 0 0 0 72.246269169028892 -45.170948695085734 0 -45.170948695085734 -11.232849120975736 0 0 0 0 73.25199245303952 -31.9453534065497 0 -31.9453534065497 -35.079564453311384 0 0 0 0 58.880965309755084 -83.279804030202783 0 -83.279804030202783 -19.817099459276804 0 0 0 0 171.44260620121349 -49.324879565684569 0 -49.324879565684569 -261.552585069766 0 0 0 0 85.138268216458783 -14.270915102983318 0 -14.270915102983318 0.79837335151938349 0 0 0 0 83.598845249607621 -69.26430366725188 0 -69.26430366725188 -118.42927933728126 0 0 0 0 133.7661263216869 20.807788926348621 0 20.807788926348621 -128.01218507916929 0 0 0 0 57.657740317074058 -71.900259107074817 0 -71.900259107074817 217.88771312260496 0 0 0 0 157.71979090882087 -281.2026504781586 0 -281.2026504781586 143.25280359328599 0 0 0 0 206.86486878765572 -358.60853066009713 0 -358.60853066009713 239.72713646927048 0 0 0 0 304.24663017637795 -211.74776121580317 0 -211.74776121580317 20.748406737243954 0 0 0 0 119.31782604833279 -81.189237093982001 0 -81.189237093982001 75.530817899989415 0 0 0 0 341.88692907518271 -60.10448217438875 0 -60.10448217438875 -109.23160706229908 0 0 0 0 140.94735398230841 18.807071775595887 0 18.807071775595887 -76.544018157179835 0 0 0 0 72.751913696803967 3.8542859200786097 0 3.8542859200786097 -105.32989558242616 0 0 0 0 119.61174182554532 66.349140204945343 0 66.349140204945343 -134.75960991220381 0 0 0 0 207.18237213899192 2.877319158628552 0 2.877319158628552 -114.3311025407329 0 0 0 0 62.325134999702641 57.843360121280739 0 57.843360121280739 -80.970728809338652 0 0 0 0 70.767937955686648 69.325539747512721 0 69.325539747512721 -106.00674438861552 0 0 0 0 183.23614589676436 75.90171375732416 0 75.90171375732416 -128.69459981658406 0 0 0 0 206.52041275495867 55.285941124198757 0 55.285941124198757 -115.42990650103627 0 0 0 0 142.20193600900529 -212.44258119371418 0 -212.44258119371418 -391.9985282213263 0 0 0 0 109.51591058739723 243.49327467069654 0 243.49327467069654 -392.21307158606442 0 0 0 0 514.64697630768205 -185.55411106633102 0 -185.55411106633102 -248.98505086941711 0 0 0 0 234.76977983662073 59.609138397445861 0 59.609138397445861 -234.73140493774667 0 0 0 0 250.84847350042037 -157.35830817030978 0 -157.35830817030978 -24.128750057921479 0 0 0 0 441.34492970592873 -259.74602459288053 0 -259.74602459288053 -55.437994587731282 0 0 0 0 878.54475735923916 -307.99921294402645 0 -307.99921294402645 -83.388272057843423 0 0 0 0 661.94653586381537 -113.48787891554652 0 -113.48787891554652 -97.495921601831014 0 0 0 0 266.28535404592549 -20.523983767651558 0 -20.523983767651558 -97.621837248492739 0 0 0 0 196.35523905920854 -530.89658339674611 0 -530.89658339674611 440.36982439695453 0 0 0 0 180.63229159406183 -472.29166553291617 0 -472.29166553291617 237.45575647067858 0 0 0 0 327.52328242769727 -445.92960412046864 0 -445.92960412046864 124.57136840436942 0 0 0 0 532.5131416514123 -290.68152037677976 0 -290.68152037677976 -103.81701570854736 0 0 0 0 457.78869214135193 -534.24275495736083 0 -534.24275495736083 138.68026939963715 0 0 0 0 323.51336077068481 -628.10918293821044 0 -628.10918293821044 74.948332620060228 0 0 0 0 751.38567763492756 -813.53213439596607 0 -813.53213439596607 150.34905453838383 0 0 0 0 285.18112715036841 -606.85678814812843 0 -606.85678814812843 260.50704306154466 0 0 0 0 179.67675858078383 -695.12348966627053 0 -695.12348966627053 292.55130355451081 0 0 0 0 248.73155508078344 -641.00164213383266 0 -641.00164213383266 321.56301457850265 0 0 0 0 118.96115134427237 -623.17120081608971 0 -623.17120081608971 230.28064681092098 0 0 0 0 201.14484058392009 -855.40364063531558 0 -855.40364063531558 199.54293621986201 0 0 0 0 1201.7964491505554 -1147.059219476429 0 -1147.059219476429 225.41828657591225 0 0 0 0 -141.62639113800105 -784.18062356221708 0 -784.18062356221708 622.0217179263168 0 0 0 0 12.093051806344391 -5.814750189330848 0 -5.814750189330848 1.9670974183090533 0 0 0 0 1448.7082680994499 181.51016100532178 0 181.51016100532178 -806.77878308159518 0 0 0 0 -70.840874518144119 -130.26902255256255 0 -130.26902255256255 -588.77537485928406 0 0 0 0 101.74008994812903 66.817094760150283 0 66.817094760150283 238.69791206046165 0 0 0 0 540.49328306167445 -79.432343167072531 0 -79.432343167072531 198.86354930345252 0 0 0 0 1534.5643202314286 -47.294787893244866 0 -47.294787893244866 64.542419103062798 0 0 0 0 562.147973492858 -254.75733646834129 0 -254.75733646834129 20.433938403325101 0 0 0 0 530.60919656176702 6.0824171974083185 0 6.0824171974083185 622.2634339893541 0 0 0 0 1228.787820422709 -520.20186691508729 0 -520.20186691508729 508.27060405226609 0 0 0 0 105.50018130794342 53.281563018893529 0 53.281563018893529 166.16991231896941 0 0 0 0 105.2057036999613 46.042705344061332 0 46.042705344061332 327.92842189151094 0 0 0 0 28.329616784652899 11.687729932940515 0 11.687729932940515 169.35788838552676 0 0 0 0 -15.217334858309187 135.33571653777528 0 135.33571653777528 132.08645784346743 0 0 0 0 15.749718610346463 -41.631737647648137 0 -41.631737647648137 144.86595816594888 0 0 0 0 -14.160724555120396 56.430192987288059 0 56.430192987288059 145.04512243748934 0 0 0 0 0.19641303303433233 -0.19731065552585392 0 -0.19731065552585392 0.10227013787534699 0 0 0 0 -7.9907243519919575 -4.9406192284413226 0 -4.9406192284413226 57.355977541075546 0 0 0 0 3.9033707094276906 41.542483357971811 0 41.542483357971811 98.034207228009649 0 0 0 0 9.7480236175833852 100.6462363090217 0 100.6462363090217 45.725076228362298 0 0 0 0 14.446406715436751 55.236643405852803 0 55.236643405852803 52.70238534065107 0 0 0 0 30.640883452131675 134.99051969236362 0 134.99051969236362 -65.528123662479118 0 0 0 0 46.56887240436663 68.96496415457176 0 68.96496415457176 -88.925045106468104 0 0 0 0 41.751894450739201 64.346175265676251 0 64.346175265676251 -50.456645633048225 0 0 0 0 59.284022910236672 57.861508107050213 0 57.861508107050213 -49.115025206636979 0 0 0 0 49.887917060994369 33.112516596251567 0 33.112516596251567 -113.6716001383063 0 0 0 0 62.471125472256972 82.992484204203748 0 82.992484204203748 -136.39345492030503 0 0 0 0 52.39083019465761 -1.7296511562053638 0 -1.7296511562053638 -242.83902291734887 0 0 0 0 -48.377035224861174 -182.66013938963272 0 -182.66013938963272 -374.35022647604552 0 0 0 0 72.564027496184281 106.17891904550646 0 106.17891904550646 -150.15422054426398 0 0 0 0 94.24970789616782 88.322086160554392 0 88.322086160554392 -457.56983322712148 0 0 0 0 -178.57847289639722 226.68661405579184 0 226.68661405579184 -66.497036084175875 0 0 0 0 144.90280719910515 42.534910196772643 0 42.534910196772643 -26.283052098725307 0 0 0 0 -65.005771956064564 -52.072050742875945 0 -52.072050742875945 -29.855039331498119 0 0 0 0 23.237232508210582 4.7055589732533107 0 4.7055589732533107 -28.260182325902811 0 0 0 0 24.404855987998516 0.1504651679331559 0 0.1504651679331559 -24.286623642689815 0 0 0 0 6.7346734304956044 -1.4988170080623604 0 -1.4988170080623604 -99.822220264861244 0 0 0 0 -0.32955696288263425 -15.967305141827637 0 -15.967305141827637 -23.29547810939448 0 0 0 0 -11.536154772084558 -10.010857322992049 0 -10.010857322992049 -5.2182094323580106 0 0 0 0 68.578400722282822 -103.67176882679723 0 -103.67176882679723 -0.52090980006050813 0 0 0 0 7.5593875246773621 0.46259514823817227 0 0.46259514823817227 -10.734925054663863 0 0 0 0 4.8384787481627427 -6.2278449195709982 0 -6.2278449195709982 -20.860336358316601 0 0 0 0 14.994796126806378 -2.4988026135205388 0 -2.4988026135205388 -11.734952201156341 0 0 0 0 22.79927515465215 2.8504271887313517 0 2.8504271887313517 -21.266852321466956 0 0 0 0 22.848877714000992 2.3039431008999998 0 2.3039431008999998 -28.798484884915908 0 0 0 0 29.355587312878924 11.304086610961889 0 11.304086610961889 -24.840027998295199 0 0 0 0 30.569584082571964 26.839045276622834 0 26.839045276622834 -15.135035356440582 0 0 0 0 4.9976442624647461 10.801337214504663 0 10.801337214504663 1.8400034037498187 0 0 0 0 23.464031731622526 28.287141295124982 0 28.287141295124982 -12.146308232781855 0 0 0 0 16.127185217999795 2.2954210032980953 0 2.2954210032980953 -17.410727497088651 0 0 0 0 -12.348007627959305 -40.850777977198234 0 -40.850777977198234 -26.346777970341385 0 0 0 0 1.3344684049533839 -4.3025523234255614 0 -4.3025523234255614 -6.4253493426297492 0 0 0 0 -16.111602258602943 -21.017273537425691 0 -21.017273537425691 21.98589030993983 0 0 0 0 0.97693851401191978 0.72176660909762091 0 0.72176660909762091 0.36109649144037159 0 0 0 0 8.0738259616191499 27.702020602727103 0 27.702020602727103 27.688301902102062 0 0 0 0 19.551467375735228 33.250480168417226 0 33.250480168417226 1.7055622397715382 0 0 0 0 8.4146673238810763 37.853389231076498 0 37.853389231076498 8.695641727697577 0 0 0 0 44.046996741904877 39.215946954587096 0 39.215946954587096 -39.515983835143174 0 0 0 0 42.099049889247908 58.932012701175637 0 58.932012701175637 -11.480416404687347 0 0 0 0 41.235086932923878 28.662684849000232 0 28.662684849000232 -39.85042880524253 0 0 0 0 66.010473805043148 20.187732076051333 0 20.187732076051333 -90.027909360153402 0 0 0 0 56.900507903890684 51.999145966370243 0 51.999145966370243 -63.191459921134282 0 0 0 0 65.901199408523098 9.3537497990271419 0 9.3537497990271419 -49.756826243862776 0 0 0 0 43.967684134804585 20.838914570671349 0 20.838914570671349 -55.327276643667645 0 0 0 0 41.936855644369643 17.221945691616838 0 17.221945691616838 -36.580288695056225 0 0 0 0 26.316494989339844 17.013656863278303 0 17.013656863278303 -35.479357640078348 0 0 0 0 38.669531074974657 8.3006392145565897 0 8.3006392145565897 -38.902241247243566 0 0 0 0 25.643887508915213 4.4402405240908962 0 4.4402405240908962 -36.2700898464076 0 0 0 0 26.604424021286832 3.8872621967561045 0 3.8872621967561045 -37.38402286540969 0 0 0 0 35.444449979841011 6.9287174726489553 0 6.9287174726489553 -37.345878132480586 0 0 0 0 18.238258438512275 11.378136709808263 0 11.378136709808263 -36.090184341565831 0 0 0 0 22.02956205150258 0.83692168641652032 0 0.83692168641652032 -38.544958851427012 0 0 0 0 21.371034747962767 3.2095605734915544 0 3.2095605734915544 -44.871308659109076 0 0 0 0 50.353630557088763 -21.116209135244389 0 -21.116209135244389 -47.117086574618952 0 0 0 0 39.199321409141703 13.290967954460029 0 13.290967954460029 -58.902599576280409 0 0 0 0 39.91164125146679 -9.9031548426246445 0 -9.9031548426246445 -19.225028135301727 0 0 0 0 57.586872877855058 -27.063166524842018 0 -27.063166524842018 -19.837093593885584 0 0 0 0 22.762750089576471 0.91919952901200475 0 0.91919952901200475 -28.040409676260683 0 0 0 0 46.189443409857631 -2.573702554035151 0 -2.573702554035151 -32.210906467363316 0 0 0 0 52.582724953474099 -6.7587485580475004 0 -6.7587485580475004 -43.980079475157254 0 0 0 0 52.026115416600078 -10.781625047578927 0 -10.781625047578927 -40.676108185098201 0 0 0 0 57.186831957071263 -17.093646784388682 0 -17.093646784388682 -30.921766746322703 0 0 0 0 23.874301497922374 2.0486314114177588 0 2.0486314114177588 -27.630622247196477 0 0 0 0 49.747139997920385 5.4528776066384665 0 5.4528776066384665 -45.804333079727456 0 0 0 0 57.220577628506192 -7.7576445548745481 0 -7.7576445548745481 -44.249593789206898 0 0 0 0 64.813987304687544 -17.876174382420594 0 -17.876174382420594 -71.878941379532989 0 0 0 0 58.763915542862378 -19.75792688209205 0 -19.75792688209205 -18.50608025791081 0 0 0 0 47.21829220771906 -0.01110841990703193 0 -0.01110841990703193 -43.71835872785141 0 0 0 0 50.714974654743855 -16.451470781673187 0 -16.451470781673187 -2.5532089535207376 0 0 0 0 60.949547760974383 -27.112715092675359 0 -27.112715092675359 -18.023926121137528 0 0 0 0 49.998438774412449 -11.870747626199108 0 -11.870747626199108 -6.4616341820092007 0 0 0 0 54.841921849769278 15.394859407451804 0 15.394859407451804 -32.537904406993675 0 0 0 0 44.374958984088153 -2.0077004414879411 0 -2.0077004414879411 -39.731022473236862 0 0 0 0 32.761254736765295 7.2487690183002087 0 7.2487690183002087 -4.9604590666058357 0 0 0 0 42.354305855073882 1.7109230160335329 0 1.7109230160335329 -5.1640877630722697 0 0 0 0 33.609202892104804 0.15586400265601696 0 0.15586400265601696 -40.112526156422973 0 0 0 0 43.815118770336994 -3.7346767936178367 0 -3.7346767936178367 -33.079582985111756 0 0 0 0 31.250689295382458 -5.5755603028489311 0 -5.5755603028489311 -4.7264160241846245 0 0 0 0 32.875283032462903 11.601470430860218 0 11.601470430860218 -83.403617798638152 0 0 0 0 22.543960663858059 10.879599522984726 0 10.879599522984726 -5.8162372762300318 0 0 0 0 28.795011174507465 -0.13165955729004963 0 -0.13165955729004963 -24.303255334459131 0 0 0 0 68.824552095364197 1.0043099306640215 0 1.0043099306640215 -37.161677816823612 0 0 0 0 22.309244086278341 32.323519243010196 0 32.323519243010196 -23.984421892442697 0 0 0 0 29.618189378874376 -6.0484210320964849 0 -6.0484210320964849 -26.120179207566252 0 0 0 0 60.851194389375451 -17.755170057730538 0 -17.755170057730538 -36.691850775582679 0 0 0 0 26.594204803535831 7.3269122328238154 0 7.3269122328238154 -51.501009107791106 0 0 0 0 40.81123177295467 -15.060503225545517 0 -15.060503225545517 -22.238992475467967 0 0 0 0 33.341143231329085 -3.0208205634094583 0 -3.0208205634094583 -9.9303123529011703 0 0 0 0 48.452545022495457 -33.013767818386185 0 -33.013767818386185 -4.6660779634684886 0 0 0 0 34.176224477210781 18.286642770734034 0 18.286642770734034 -30.140630918086572 0 0 0 0 21.60949557798449 6.8500570147007238 0 6.8500570147007238 -51.139645132498117 0 0 0 0 28.392874279525131 9.6464202020579251 0 9.6464202020579251 -62.79355367944936 0 0 0 0 22.699123071799306 7.8701394974558951 0 7.8701394974558951 -19.701994364283433 0 0 0 0 39.078857197183993 31.914780096079646 0 31.914780096079646 -27.195374706294654 0 0 0 0 39.29276957299011 34.384641599477021 0 34.384641599477021 -28.807462919852952 0 0 0 0 32.928053486192383 -7.1678697496290305 0 -7.1678697496290305 -6.8976415202702093 0 0 0 0 23.420598230993022 10.389295365777686 0 10.389295365777686 -16.992458007824155 0 0 0 0 13.079660192307458 8.6817886138772735 0 8.6817886138772735 -8.1009937149720308 0 0 0 0 14.967348874401068 7.0598374993860489 0 7.0598374993860489 -85.647044231271138 0 0 0 0 41.273473321723941 -12.211420306534592 0 -12.211420306534592 -6.6281326289790741 0 0 0 0 -32.764313983221655 41.153151619420896 0 41.153151619420896 -2.9486204172353609 0 0 0 0 62.762892199508315 -12.099883214519195 0 -12.099883214519195 7.424332250659063 0 0 0 0 37.402140345586304 -3.1781993973659155 0 -3.1781993973659155 -19.793941419778321 0 0 0 0 43.400069858954566 -46.207238129076813 0 -46.207238129076813 45.393495315871405 0 0 0 0 36.841335541633441 5.6610157866419435 0 5.6610157866419435 -14.637598952244893 0 0 0 0 58.332913508858056 -31.770663203472068 0 -31.770663203472068 -11.26023627470456 0 0 0 0 14.470204222317079 24.444502643167652 0 24.444502643167652 5.2435560231251657 0 0 0 0 29.825623574819019 23.429814441297822 0 23.429814441297822 46.039799544711059 0 0 0 0 65.461559445542662 61.567313026553165 0 61.567313026553165 -68.427662190186311 0 0 0 0 22.170485165795952 -1.8658433203113418 0 -1.8658433203113418 -6.2105482748685574 0 0 0 0 35.46641285080608 -3.586348831326525 0 -3.586348831326525 -5.2401873563535393 0 0 0 0 35.108199607140705 0.98570803398888529 0 0.98570803398888529 -58.916772290584049 0 0 0 0 6.4233132680231648 -5.0170427729464109 0 -5.0170427729464109 3.260740420823673 0 0 0 0 31.716102795413818 -11.456299423342536 0 -11.456299423342536 -8.9126848119970496 0 0 0 0 0.011381822515090789 6.1621473965084306 0 6.1621473965084306 -9.3272954689600951 0 0 0 0 81.069020149923745 43.477855854035397 0 43.477855854035397 -24.885599682000446 0 0 0 0 -64.047246293917851 141.24937109756922 0 141.24937109756922 -0.020232382610629429 0 0 0 0 70.431245603107527 30.98165161608415 0 30.98165161608415 -22.179702460240605 0 0 0 0 -2.1915425414236012 2.2266404455161108 0 2.2266404455161108 -2.4648813695199827 0 0 0 0 4.2467808720684843 24.639944756609651 0 24.639944756609651 -120.66454024394039 0 0 0 0 20.48814428334299 -50.51353528860389 0 -50.51353528860389 -137.38985401450373 0 0 0 0 93.093124528066255 -37.299153242143433 0 -37.299153242143433 -123.71337161448427 0 0 0 0 80.263674115347385 25.648460015872018 0 25.648460015872018 -146.30046563199292 0 0 0 0 84.662605239987897 0.72009128500587849 0 0.72009128500587849 -70.318554913949072 0 0 0 0 72.168671498890035 -41.573350149675591 0 -41.573350149675591 -14.46445142666164 0 0 0 0 2.1918817380600046 0.57430237152190955 0 0.57430237152190955 -2.4475744704910607 0 0 0 0 43.359490594462841 -16.313701396479615 0 -16.313701396479615 -6.6551492766294018 0 0 0 0 76.184594545360596 -33.084798621579097 0 -33.084798621579097 -10.548365815039865 0 0 0 0 44.466769640683196 -43.161968998301248 0 -43.161968998301248 -13.723123741899713 0 0 0 0 75.085504006681731 -14.163013381564497 0 -14.163013381564497 -8.0879786317163074 0 0 0 0 26.415546079857023 -8.2910629546981554 0 -8.2910629546981554 -4.6845306915887264 0 0 0 0 62.148598633153597 -11.165812674881764 0 -11.165812674881764 1.7411684883889507 0 0 0 0 70.31715339423863 -12.407258113006439 0 -12.407258113006439 -8.759015738550282 0 0 0 0 49.355721169065816 -9.0634475342809395 0 -9.0634475342809395 -2.8817267493744279 0 0 0 0 24.805676606585621 5.007699550687903 0 5.007699550687903 -26.914890184303431 0 0 0 0 12.889568667119974 -0.16695309463109709 0 -0.16695309463109709 -0.60780556291648646 0 0 0 0 29.890457011726468 -0.73360656789767376 0 -0.73360656789767376 -7.7271987608372275 0 0 0 0 12.367152674927436 -2.075577656782869 0 -2.075577656782869 -0.5748262551987825 0 0 0 0 41.588542348108604 -28.652764831702441 0 -28.652764831702441 -18.85060617438117 0 0 0 0 107.91242506956405 -10.999274660989428 0 -10.999274660989428 -13.173360215590073 0 0 0 0 50.242097844486125 -16.092914603483223 0 -16.092914603483223 -21.594187337287167 0 0 0 0 59.387276530949748 -16.564733665310996 0 -16.564733665310996 -21.738227838553371 0 0 0 0 54.315828572471219 -1.1258879886845534 0 -1.1258879886845534 -43.798229297747639 0 0 0 0 38.15410357864419 -9.5666711157908466 0 -9.5666711157908466 -14.9150511312228 0 0 0 0 55.97526623891099 -15.181217485575871 0 -15.181217485575871 -9.20610156789553 0 0 0 0 52.629542663580651 -17.631519745912897 0 -17.631519745912897 -4.6561292634632991 0 0 0 0 65.485701965746557 -28.485469641691907 0 -28.485469641691907 -2.1335718061072839 0 0 0 0 31.702916336346988 -5.0662961572240697 0 -5.0662961572240697 -7.8802605901173841 0 0 0 0 54.506113652998465 -12.716099705160559 0 -12.716099705160559 -12.582448209972426 0 0 0 0 56.398308762303714 -8.7163975999574461 0 -8.7163975999574461 -4.3927593454022826 0 0 0 0 23.222151365664953 -6.8776084617275259 0 -6.8776084617275259 -2.5984175143455985 0 0 0 0 22.926733304177695 0.91154737352662352 0 0.91154737352662352 -7.1348855183344302 0 0 0 0 55.24190966482638 -10.738248671561109 0 -10.738248671561109 -3.9674800024536125 0 0 0 0 33.250702468965855 -7.2517366090960884 0 -7.2517366090960884 -5.5030640849449046 0 0 0 0 4.5656848875400016 -1.6996166370537509 0 -1.6996166370537509 -0.59501647879354636 0 0 0 0 30.592779000500741 -3.9537146476423004 0 -3.9537146476423004 -11.482201725953018 0 0 0 0 36.941365889199091 -1.3049099402724664 0 -1.3049099402724664 -8.7796923178475978 0 0 0 0 24.322461615141947 0.99045841903352994 0 0.99045841903352994 -11.499736650203758 0 0 0 0 18.431704520946369 -19.916741187574644 0 -19.916741187574644 12.828005139468587 0 0 0 0 36.521423740403975 -13.763266736802713 0 -13.763266736802713 -0.65801948177403702 0 0 0 0 0.45453514751077506 -0.86094652211184197 0 -0.86094652211184197 -0.28183479600749806 0 0 0 0 28.279941109745351 -13.893285994218694 0 -13.893285994218694 -2.9997987273797073 0 0 0 0 54.181837111722416 -12.84124880436633 0 -12.84124880436633 0.31774652848559981 0 0 0 0 54.289278849490074 -9.856966919073983 0 -9.856966919073983 -3.0316794716830557 0 0 0 0 47.284283169668925 -7.5759452243926262 0 -7.5759452243926262 -3.3780304159886327 0 0 0 0 28.238290651811376 3.4059959645182118 0 3.4059959645182118 -12.576226668196597 0 0 0 0 33.859594681542887 -4.3568651097283828 0 -4.3568651097283828 -2.43219683727609 0 0 0 0 54.596457281008043 -10.839622731003715 0 -10.839622731003715 -6.5266220732605689 0 0 0 0 31.934129229415703 -3.5689798109158062 0 -3.5689798109158062 -8.0173431934672976 0 0 0 0 76.239684351756296 -6.5638236587387837 0 -6.5638236587387837 -33.06061714375744 0 0 0 0 70.513623838909552 -32.559385487069903 0 -32.559385487069903 -102.3288364845306 0 0 0 0 76.33569947079377 -8.8092072942067716 0 -8.8092072942067716 -24.104086459549762 0 0 0 0 51.961644111819652 -11.463308176733138 0 -11.463308176733138 -4.2207271219577356 0 0 0 0 42.756810037448304 -7.0131203445328083 0 -7.0131203445328083 -14.446581666718501 0 0 0 0 52.732575787216298 -15.683878806417926 0 -15.683878806417926 -0.93500649972433481 0 0 0 0 37.686869002180174 -2.2265820797945253 0 -2.2265820797945253 55.896082266943267 0 0 0 0 38.900451818230067 -18.776110503466136 0 -18.776110503466136 -11.073246046744337 0 0 0 0 112.14514652921571 -52.635804292924064 0 -52.635804292924064 -2.0351831852602515 0 0 0 0 11.706533326476006 -3.155462018455605 0 -3.155462018455605 -1.496340123072665 0 0 0 0 94.070608339872706 -37.787810837050259 0 -37.787810837050259 6.6304350987451244 0 0 0 0 36.946724806416988 -10.37905347198388 0 -10.37905347198388 -6.5768050066771515 0 0 0 0 15.055836464292952 -21.137643202812122 0 -21.137643202812122 -7.442683860991826 0 0 0 0 6.6889869267548754 -0.93687489899289744 0 -0.93687489899289744 -1.2021029336689215 0 0 0 0 49.351010172144015 -48.53123829916062 0 -48.53123829916062 -63.368923260613656 0 0 0 0 77.190212070619964 28.534242243096088 0 28.534242243096088 -42.649506626707023 0 0 0 0 52.462837333581774 -19.01781452762819 0 -19.01781452762819 15.309825456501301 0 0 0 0 22.060937452169572 6.5662716752801877 0 6.5662716752801877 -11.19157033087092 0 0 0 0 12.19785394422045 -11.340676975874299 0 -11.340676975874299 -3.6571907981131773 0 0 0 0 47.649561035113948 -3.6906532499529021 0 -3.6906532499529021 -15.048043364804187 0 0 0 0 62.194526695360764 -7.7306426356844895 0 -7.7306426356844895 -15.720234621122472 0 0 0 0 3.4920314068250242 -1.644389993610659 0 -1.644389993610659 -8.4383711317517491 0 0 0 0 55.138537462555178 0.62303065995183715 0 0.62303065995183715 -5.6615164804024971 0 0 0 0 29.328465489568771 -13.61543758865173 0 -13.61543758865173 -0.60629222185889375 0 0 0 0 43.78189140448012 -11.888543659388688 0 -11.888543659388688 -14.130893825200474 0 0 0 0 45.557268724123787 -11.308705593326977 0 -11.308705593326977 -6.2362567638965629 0 0 0 0 29.259564480706381 -10.019650282457327 0 -10.019650282457327 -8.4997210499572713 0 0 0 0 18.031340484763554 -3.8330448815916114 0 -3.8330448815916114 -10.047245136813975 0 0 0 0 28.6897441699642 6.2075829950196884 0 6.2075829950196884 -9.8743113171301573 0 0 0 0 47.524703262930416 -9.871572996737541 0 -9.871572996737541 -11.524113998746543 0 0 0 0 44.544755247683497 -4.5438199052641721 0 -4.5438199052641721 2.2701024595007766 0 0 0 0 16.661565832672359 6.0847664754350781 0 6.0847664754350781 -11.2076416384627 0 0 0 0 59.130712423645491 -1.6207514597756472 0 -1.6207514597756472 -16.726207323688868 0 0 0 0 48.876280203938222 -3.3359379300889032 0 -3.3359379300889032 -4.0589379011510118 0 0 0 0 60.426044083331362 -5.0615481144677688 0 -5.0615481144677688 -12.480505328986965 0 0 0 0 64.077793190590455 2.716509239464358 0 2.716509239464358 -12.973899322842044 0 0 0 0 32.809801654617331 -0.40179148266270204 0 -0.40179148266270204 -5.6622171129479284 0 0 0 0 51.797529639031382 6.3752045023591108 0 6.3752045023591108 -15.729682096269244 0 0 0 0 14.924304070169097 5.9931102249775599 0 5.9931102249775599 -9.0609031676797898 0 0 0 0 45.183526626287858 -21.165119184844571 0 -21.165119184844571 -19.059469974657986 0 0 0 0 21.837909181495078 -9.9911879412557454 0 -9.9911879412557454 -5.7046518667617683 0 0 0 0 70.987413700402158 -17.820212304041888 0 -17.820212304041888 -25.058176942358841 0 0 0 0 -0.91304199155582211 -0.78316563106268688 0 -0.78316563106268688 -0.48623572451507613 0 0 0 0 32.590478611684375 48.364889206806311 0 48.364889206806311 -26.35592752515015 0 0 0 0 -0.11495436038421758 -33.44817733157015 0 -33.44817733157015 -12.710806471875912 0 0 0 0 20.401743148144604 -6.3300464849991087 0 -6.3300464849991087 -9.6274597494196392 0 0 0 0 4.5201318063354847 -37.195995877608766 0 -37.195995877608766 20.456628384214127 0 0 0 0 44.249877738777286 -2.3745131186497019 0 -2.3745131186497019 -13.853294250693125 0 0 0 0 14.203789086644505 -3.7636256594728135 0 -3.7636256594728135 -0.92335034870137633 0 0 0 0 26.930166607116007 -24.625011624952549 0 -24.625011624952549 22.362438303664931 0 0 0 0 3.7610763831632639 -0.28167674608619819 0 -0.28167674608619819 -1.6370439258410947 0 0 0 0 94.102447258977918 -41.876363644338198 0 -41.876363644338198 -19.806101971189491 0 0 0 0 132.86177821387537 26.116938774288428 0 26.116938774288428 -12.61068977842757 0 0 0 0 9.9444562474964187 38.570066093429887 0 38.570066093429887 91.584584816780989 0 0 0 0 35.668847794119216 6.8633894174167018 0 6.8633894174167018 -13.326882885495252 0 0 0 0 65.494847113306605 -6.1769591585511989 0 -6.1769591585511989 -37.220060203908361 0 0 0 0 84.56590418348469 -57.389746204903531 0 -57.389746204903531 -13.697052730438372 0 0 0 0 32.534950892837799 3.1359468939309778 0 3.1359468939309778 -17.492197475546657 0 0 0 0 22.81494979383865 -52.182900268829144 0 -52.182900268829144 27.008581436808072 0 0 0 0 55.476195947739143 -23.634541983527015 0 -23.634541983527015 33.502607131458717 0 0 0 0 87.431463114625558 -15.691038846351148 0 -15.691038846351148 -130.5496652351394 0 0 0 0 101.189787218172 -38.584394569723599 0 -38.584394569723599 -314.49877934048982 0 0 0 0 79.677720101356613 -28.848813290622502 0 -28.848813290622502 -54.057903706916477 0 0 0 0 65.109230721765471 63.204762618341192 0 63.204762618341192 -124.45333330936597 0 0 0 0 64.893802446536483 42.693504908957038 0 42.693504908957038 -39.303627011695426 0 0 0 0 54.661819150986048 48.767969523281863 0 48.767969523281863 -21.227171679847743 0 0 0 0 52.211001310405209 45.38183083149579 0 45.38183083149579 -2.293909667774642 0 0 0 0 61.534358406688625 32.628260574909291 0 32.628260574909291 -25.425793087939383 0 0 0 0 63.469602368673804 29.16303937009252 0 29.16303937009252 -14.338607028686965 0 0 0 0 14.598978356258865 2.0021752091455429 0 2.0021752091455429 -5.7610688808493578 0 0 0 0 58.842765080177742 39.805877051285279 0 39.805877051285279 -27.261141285191115 0 0 0 0 48.62124658974426 57.406338412491095 0 57.406338412491095 -57.180896650883369 0 0 0 0 6.454302286464376 -2.5479736757078157 0 -2.5479736757078157 -2.5690808130575533 0 0 0 0 72.261498960690005 -3.9587015882752894 0 -3.9587015882752894 -23.661169371094729 0 0 0 0 47.205612339762439 -1.2988888537058969 0 -1.2988888537058969 -12.735392926694661 0 0 0 0 38.640274538700396 0.86739136589494592 0 0.86739136589494592 -32.790900329123303 0 0 0 0 20.929015987816456 -32.898297285921672 0 -32.898297285921672 -23.66693665153548 0 0 0 0 33.721297692149804 -12.078395046019885 0 -12.078395046019885 -1.6398481128467177 0 0 0 0 38.631648424621289 -16.69025721029459 0 -16.69025721029459 9.3525672618543467 0 0 0 0 44.961073103308991 -2.5091288781128469 0 -2.5091288781128469 -5.005155709293831 0 0 0 0 29.815947731978667 -12.803511051838541 0 -12.803511051838541 -11.997540518648293 0 0 0 0 32.263053594305347 1.2412263064882154 0 1.2412263064882154 -6.1250161320058396 0 0 0 0 68.973865860749356 -24.834748339090311 0 -24.834748339090311 -2.0732125329877817 0 0 0 0 11.827438400489324 -2.3313206689483437 0 -2.3313206689483437 -1.6369657901063448 0 0 0 0 35.916082652275691 -2.4197773993080318 0 -2.4197773993080318 6.0867480853521556 0 0 0 0 14.803988280082761 -9.0574696566864841 0 -9.0574696566864841 -6.7004433953538403 0 0 0 0 79.412072642969179 -12.882628655911049 0 -12.882628655911049 -7.9323061954119112 0 0 0 0 1.7267166660622024 59.06506847214041 0 59.06506847214041 -111.10048567060494 0 0 0 0 -0.43576382677167658 6.026781042570974 0 6.026781042570974 -47.141720438190532 0 0 0 0 1.8691237767416169 -10.166506334242513 0 -10.166506334242513 26.438335277187434 0 0 0 0 27.999160737052989 14.350205419445047 0 14.350205419445047 -44.950848095566471 0 0 0 0 7.0822777866724209 -11.42345195206326 0 -11.42345195206326 13.704141782247461 0 0 0 0 42.089743979119703 5.4748357526068503 0 5.4748357526068503 -51.081506173832167 0 0 0 0 -9.237474187702901 6.7739859992398124 0 6.7739859992398124 -41.618274476240003 0 0 0 0 82.224069551938783 -23.593024920144217 0 -23.593024920144217 -32.526511455453146 0 0 0 0 1.6323381666506975 10.1390789168845 0 10.1390789168845 -13.737429913071537 0 0 0 0 33.350836332092513 6.7626533678144369 0 6.7626533678144369 18.362991464042352 0 0 0 0 61.454876683190378 -7.0793077745729533 0 -7.0793077745729533 -2.962734771860255 0 0 0 0 37.248316172443289 8.781326488809988 0 8.781326488809988 -14.17872858468527 0 0 0 0 76.783249046806304 22.388125366583154 0 22.388125366583154 -6.4819358449221909 0 0 0 0 144.03266923047738 -22.901996630541817 0 -22.901996630541817 -2.7768247999083542 0 0 0 0 55.239093789830804 2.9220321913599037 0 2.9220321913599037 15.627845158029231 0 0 0 0 63.336363416154654 -51.247439012394352 0 -51.247439012394352 14.01891952758524 0 0 0 0 120.31146165984705 20.266214489440699 0 20.266214489440699 -113.12765088400192 0 0 0 0 34.721021139453114 -30.470073843009231 0 -30.470073843009231 26.157228773916358 0 0 0 0 14.454180566845935 33.156494087144893 0 33.156494087144893 5.4883937214958678 0 0 0 0 48.626243281848474 58.499438885522068 0 58.499438885522068 -234.67202468113919 0 0 0 0 -49.357671786101946 20.37942191120419 0 20.37942191120419 -112.61628458649068 0 0 0 0 -23.912723440995251 71.087446088783508 0 71.087446088783508 -136.90854988785895 0 0 0 0 -12.539798006574529 39.485946317256094 0 39.485946317256094 -134.76671307455592 0 0 0 0 22.861360968902133 66.368286009510911 0 66.368286009510911 -141.26048351357895 0 0 0 0 22.099633253973707 68.340652552987763 0 68.340652552987763 -70.093655661155935 0 0 0 0 22.045644543220078 28.484461671832833 0 28.484461671832833 -133.24530209257887 0 0 0 0 48.219789254264697 1.6738338175096033 0 1.6738338175096033 -57.214113828071277 0 0 0 0 -13.176277355691127 35.35679454370802 0 35.35679454370802 -143.46209450748574 0 0 0 0 35.704440451866503 25.279880322157169 0 25.279880322157169 -102.42536991321322 0 0 0 0 -17.720294262988318 55.312665697279954 0 55.312665697279954 -87.592844633083587 0 0 0 0 8.2903953123626692 -1.3223829078790494 0 -1.3223829078790494 -3.4682256195799432 0 0 0 0 -1.9060634863826635 87.184496062691323 0 87.184496062691323 -175.56966814177076 0 0 0 0 22.771915851092785 -20.204709172305343 0 -20.204709172305343 -17.476931311683984 0 0 0 0 8.2057715902003565 10.124284351216374 0 10.124284351216374 6.9570218837779976 0 0 0 0 26.241820111536072 -43.886781870264713 0 -43.886781870264713 25.277408825391831 0 0 0 0 39.636588523440878 -18.121547030094007 0 -18.121547030094007 -58.034823500736195 0 0 0 0 -2.1093205792321896 29.823453475678434 0 29.823453475678434 -152.53056637256668 0 0 0 0 -38.135139430292838 117.99536280057964 0 117.99536280057964 -187.02168218134102 0 0 0 0 4.7347432528850391 -0.058104333556986631 0 -0.058104333556986631 -2.1489442408445534 0 0 0 0 26.022845786741982 47.795512317403336 0 47.795512317403336 40.876566730388959 0 0 0 0 33.021903415663978 -44.316237437466732 0 -44.316237437466732 128.66362502117363 0 0 0 0 0.17140837553210986 -3.5108353672112571 0 -3.5108353672112571 13.054643023524477 0 0 0 0 18.42138230624677 -2.8465682899329714 0 -2.8465682899329714 0.057499068426191569 0 0 0 0 53.292762482770286 -26.228828610800292 0 -26.228828610800292 -93.558819661855523 0 0 0 0 22.484440624157486 -0.2072074923789593 0 -0.2072074923789593 -0.93146380286846653 0 0 0 0 50.770560798257975 17.452429557557707 0 17.452429557557707 -69.146479161707248 0 0 0 0 35.793728733488933 13.118681580761404 0 13.118681580761404 12.264857149841532 0 0 0 0 26.606471282489565 2.3691511539918793 0 2.3691511539918793 6.7814613951231877 0 0 0 0 33.238057745335368 23.985745400402777 0 23.985745400402777 -52.551609382535389 0 0 0 0 29.562746800562579 3.9387728495501655 0 3.9387728495501655 -4.3603620923651807 0 0 0 0 1.8913390097304763 1.7600631912426081 0 1.7600631912426081 -0.74759293523966275 0 0 0 0 -22.91100629742914 46.4064643212796 0 46.4064643212796 8.1234102395338539 0 0 0 0 33.197545705487755 -29.078218072243544 0 -29.078218072243544 -28.459818055176584 0 0 0 0 9.7888032594919423 -22.860930977151384 0 -22.860930977151384 12.415182903294863 0 0 0 0 -8.0028041254493019 36.881170787910605 0 36.881170787910605 -32.165501160910935 0 0 0 0 10.611092955362281 -2.3785075104415725 0 -2.3785075104415725 -0.48729633988080767 0 0 0 0 6.9916987213446191 5.3808682134878154 0 5.3808682134878154 128.08971869438551 0 0 0 0 29.968629941142353 -39.113595125684242 0 -39.113595125684242 9.656890279657091 0 0 0 0 39.887964324893801 17.248973727939074 0 17.248973727939074 -23.435218384598102 0 0 0 0 34.918702235167146 -3.6828436418073851 0 -3.6828436418073851 -4.4802480318209863 0 0 0 0 72.098172420075571 -6.0471070403064004 0 -6.0471070403064004 -6.4346038217386194 0 0 0 0 15.245670554224105 2.3132229599740675 0 2.3132229599740675 1.0281680081524707 0 0 0 0 28.678461187626453 -22.708571222686714 0 -22.708571222686714 25.19070152140057 0 0 0 0 22.308837577800659 10.260230106081963 0 10.260230106081963 -23.067556166844497 0 0 0 0 19.324727395627882 -1.7771596435430723 0 -1.7771596435430723 0.11168503616762848 0 0 0 0 20.081024623846133 -23.551785308558294 0 -23.551785308558294 89.727443759907146 0 0 0 0 29.744067607293282 -4.9534801489260918 0 -4.9534801489260918 -4.7666051754151315 0 0 0 0 37.564603739127961 -3.087179221284714 0 -3.087179221284714 24.076214494231863 0 0 0 0 7.2553040651417362 -4.8615766802521998 0 -4.8615766802521998 0.066367899749154802 0 0 0 0 -2.9371522471865319 -2.5850898432763643 0 -2.5850898432763643 4.6859350277936755 0 0 0 0 15.233954541330604 -41.545674322957439 0 -41.545674322957439 -3.3430412433262973 0 0 0 0 27.827764866906982 -7.0094689800178038 0 -7.0094689800178038 2.6102121351198182 0 0 0 0 71.670887722970292 -76.195386803468864 0 -76.195386803468864 73.324795918475047 0 0 0 0 7.2216464424673177 -28.73584614709489 0 -28.73584614709489 50.222160285029986 0 0 0 0 67.454257818360929 0.99289571665667609 0 0.99289571665667609 -28.309261212595629 0 0 0 0 73.158279027658864 -19.598093073250311 0 -19.598093073250311 -47.810634945418315 0 0 0 0 142.41886843344037 -29.684017096939442 0 -29.684017096939442 14.620244436917346 0 0 0 0 61.433034383877384 -14.083475298350095 0 -14.083475298350095 12.943139616665576 0 0 0 0 36.01504693642822 -0.3732589364773844 0 -0.3732589364773844 -5.3306506313412481 0 0 0 0 9.7052407893834243 -8.6654884579024838 0 -8.6654884579024838 -10.449545262827087 0 0 0 0 93.554997169876515 76.049024335219656 0 76.049024335219656 -42.124098665285373 0 0 0 0 1.1481403047355272 -0.071068007691988733 0 -0.071068007691988733 -0.023846792116552606 0 0 0 0 41.652734056123791 79.201040182617362 0 79.201040182617362 -114.58875738799725 0 0 0 0 27.354675619303862 -67.415579179669294 0 -67.415579179669294 -182.71071952033253 0 0 0 0 22.24975978630755 -16.248363993943258 0 -16.248363993943258 -59.47827656886102 0 0 0 0 50.32103144030998 -35.525678273553069 0 -35.525678273553069 -139.52556100718357 0 0 0 0 51.403361858580126 -22.351477285206556 0 -22.351477285206556 -68.6047550202411 0 0 0 0 41.294423853862554 -29.345645980143672 0 -29.345645980143672 -72.703127194736226 0 0 0 0 37.82703520871155 -21.782192873187796 0 -21.782192873187796 -34.088363141114314 0 0 0 0 -25.050526371461274 -53.796849647897034 0 -53.796849647897034 -38.326550421259526 0 0 0 0 -1.4188070695618489 2.75910348628768 0 2.75910348628768 0.17799963512280925 0 0 0 0 -61.025833410411451 -106.96043416401881 0 -106.96043416401881 -116.80589790132672 0 0 0 0 50.747403680069965 20.820063581854811 0 20.820063581854811 19.533620089442593 0 0 0 0 51.140957291562245 21.65032637933291 0 21.65032637933291 12.513070431970846 0 0 0 0 160.30297258253498 154.35163906060461 0 154.35163906060461 -15.436813163554689 0 0 0 0 46.323755075602321 91.4285349857646 0 91.4285349857646 -9.8296963680143108 0 0 0 0 -23.114777303623669 57.299736714125174 0 57.299736714125174 -4.5027272232318865 0 0 0 0 0.67840334955226722 -1.9839237753937091 0 -1.9839237753937091 0.041697098340548688 0 0 0 0 15.740902964821885 96.054977408416562 0 96.054977408416562 190.67427218067894 0 0 0 0 32.377687997161956 -17.580378455157188 0 -17.580378455157188 26.234200790708201 0 0 0 0 127.11316883923519 97.64563680288029 0 97.64563680288029 -62.572568085621242 0 0 0 0 66.82847343105982 18.760192996628575 0 18.760192996628575 -86.195372452119955 0 0 0 0 86.878309897887448 95.35857276047318 0 95.35857276047318 40.864399333051779 0 0 0 0 88.488174440175499 71.716285643580704 0 71.716285643580704 -145.12482215086584 0 0 0 0 29.823048548016082 6.8707330059839169 0 6.8707330059839169 -2.8889003982131758 0 0 0 0 104.84947917276838 84.340734207436981 0 84.340734207436981 -72.456587536778102 0 0 0 0 72.617572015876476 54.664717823953652 0 54.664717823953652 -76.274568817567342 0 0 0 0 -402.93352172807136 -467.39322457732032 0 -467.39322457732032 -40.685331015597967 0 0 0 0 -54.090357847651831 -106.36910220846448 0 -106.36910220846448 -17.373630256773936 0 0 0 0 -59.232556749823516 -124.73661291985377 0 -124.73661291985377 -56.281052205651122 0 0 0 0 23.539216903063789 -68.711362053441007 0 -68.711362053441007 -251.61178622839225 0 0 0 0 59.430927137142533 147.26796011599436 0 147.26796011599436 -155.10663145214494 0 0 0 0 74.843578278128234 39.928571631232899 0 39.928571631232899 -35.694577600947014 0 0 0 0 136.10801803877121 20.486508600412208 0 20.486508600412208 -22.939501720417866 0 0 0 0 28.680485586293141 6.3198836417672908 0 6.3198836417672908 -2.600119905678727 0 0 0 0 268.7286213034231 375.42721394605974 0 375.42721394605974 214.9809416008784 0 0 0 0 65.80046957003924 -61.108221093238626 0 -61.108221093238626 -79.407956073349851 0 0 0 0 102.1572244761137 79.170260039854838 0 79.170260039854838 36.144535326297046 0 0 0 0 -40.735685245686909 89.934401795807389 0 89.934401795807389 279.89208747393513 0 0 0 0 0.73142824134566453 -2.8132560478438542 0 -2.8132560478438542 2.833929833060111 0 0 0 0 53.743950957885318 40.201553210747534 0 40.201553210747534 14.555486794410172 0 0 0 0 25.209507335373019 -26.968372740982659 0 -26.968372740982659 -17.795757569570924 0 0 0 0 73.898025631563542 -23.280047941630869 0 -23.280047941630869 -45.038435138974819 0 0 0 0 -8.0250476812598208 27.89820990065266 0 27.89820990065266 -6.2406675688253017 0 0 0 0 30.417019638707643 -17.886633542105301 0 -17.886633542105301 -2.483048796470257 0 0 0 0 28.428730546953375 26.6120721259108 0 26.6120721259108 -6.7358633038388689 0 0 0 0 -49.918457000529088 -31.291864240519772 0 -31.291864240519772 -3.0871205492628633 0 0 0 0 23.129405955660207 5.9029799871171651 0 5.9029799871171651 -2.9625855221845505 0 0 0 0 6.1408893771049406 13.921340772175427 0 13.921340772175427 20.681539994456216 0 0 0 0 19.861132352395543 4.918061862154957 0 4.918061862154957 -9.2284721964197161 0 0 0 0 4.3312235886183714 -2.7167787869139914 0 -2.7167787869139914 4.2436509431457772 0 0 0 0 11.817756386459905 28.587678233011047 0 28.587678233011047 -18.279649598698597 0 0 0 0 171.48321663141451 50.486557601599088 0 50.486557601599088 22.224334483443272 0 0 0 0 13.837802633531282 -9.4496256432000791 0 -9.4496256432000791 24.799843464660228 0 0 0 0 0.73377085866184899 -0.46382520175039632 0 -0.46382520175039632 1.7114810639206146 0 0 0 0 0.48026625671847611 9.3771739515940187 0 9.3771739515940187 -0.47056410225141576 0 0 0 0 24.548919477165327 43.455367708962967 0 43.455367708962967 0.11192047945860395 0 0 0 0 152.89195154170739 91.363050235529045 0 91.363050235529045 -4.7424879679911101 0 0 0 0 25.335303164065408 74.400415191133106 0 74.400415191133106 146.88137288040207 0 0 0 0 169.42363488091178 -10.311146138730692 0 -10.311146138730692 -35.71966915242956 0 0 0 0 78.803513790144279 -2.2777666683814459 0 -2.2777666683814459 82.415741910941051 0 0 0 0 77.77884692088719 26.321682918769966 0 26.321682918769966 -3.9571378866075975 0 0 0 0 41.440787556364739 37.753905654205482 0 37.753905654205482 26.76753360482428 0 0 0 0 25.032999645456357 11.340465437647026 0 11.340465437647026 -12.850353310441278 0 0 0 0 52.208728490972135 -12.873444677956741 0 -12.873444677956741 7.0800344267006494 0 0 0 0 95.386890536840838 16.162898539039588 0 16.162898539039588 11.370557777467184 0 0 0 0 153.83784369658679 78.369807594116537 0 78.369807594116537 26.20534769431697 0 0 0 0 11.700923484302621 -38.436211491225549 0 -38.436211491225549 -47.785860971956936 0 0 0 0 0.28438813388426532 -0.98344154725061728 0 -0.98344154725061728 1.992847469418523 0 0 0 0 97.809167489729589 -102.66143078037203 0 -102.66143078037203 -29.030656287395686 0 0 0 0 255.91378605624868 138.44429097811189 0 138.44429097811189 42.425266520480363 0 0 0 0 -80.803144469824474 -109.22786893757439 0 -109.22786893757439 75.902839736578244 0 0 0 0 23.436501747924062 -6.5432426093130651 0 -6.5432426093130651 -22.32642611312307 0 0 0 0 18.176237320592008 82.709603611395323 0 82.709603611395323 -107.00563697846565 0 0 0 0 323.38154038840366 89.390343243803272 0 89.390343243803272 -127.8349725830285 0 0 0 0 39.386110961153463 -52.448862677953002 0 -52.448862677953002 -53.029722316379775 0 0 0 0 38.178597777869072 -36.427591339739593 0 -36.427591339739593 -73.618501307693805 0 0 0 0 57.562481033626398 -70.811661214845117 0 -70.811661214845117 -223.28161471029193 0 0 0 0 59.296303147598906 20.153082940736113 0 20.153082940736113 -100.95426668629241 0 0 0 0 42.301002675467586 -29.209538347511028 0 -29.209538347511028 -15.17658014865583 0 0 0 0 70.583669164783828 -60.657713673004423 0 -60.657713673004423 -86.421617998128113 0 0 0 0 78.787394778726195 -36.660097179187005 0 -36.660097179187005 -82.068238875925999 0 0 0 0 9.4334386318168981 -5.4375547922999203 0 -5.4375547922999203 3.3992778659890632 0 0 0 0 48.572770240283035 -71.362694366644973 0 -71.362694366644973 16.80633277393548 0 0 0 0 14.024242167943028 3.5496095120272626 0 3.5496095120272626 -17.743206132787197 0 0 0 0 65.166366660362655 -82.723125024791443 0 -82.723125024791443 8.9560605851020227 0 0 0 0 -154.45916105502806 97.796098495796116 0 97.796098495796116 10.490605661897462 0 0 0 0 71.930548734067315 -73.269103788057691 0 -73.269103788057691 18.397746850997919 0 0 0 0 23.38969689163946 56.846969661733851 0 56.846969661733851 -36.149505529424459 0 0 0 0 75.196226442594195 -45.245265256344325 0 -45.245265256344325 54.76739459744249 0 0 0 0 54.734633905474915 -49.354678593519736 0 -49.354678593519736 32.121035977479096 0 0 0 0 57.221788747284663 -6.1330484155534215 0 -6.1330484155534215 45.681321404613527 0 0 0 0 60.221761563521284 -68.361127194323444 0 -68.361127194323444 -6.8214627147108899 0 0 0 0 94.300317935262456 -57.732253452479654 0 -57.732253452479654 52.305474688484651 0 0 0 0 120.41830835469565 -2.5707374669127319 0 -2.5707374669127319 36.171300930366442 0 0 0 0 87.279208495036983 -45.455694051518094 0 -45.455694051518094 32.584843562751274 0 0 0 0 79.591661245334251 -54.212376513526863 0 -54.212376513526863 63.913591973179393 0 0 0 0 -2.1870480269896824 4.0199786527651602 0 4.0199786527651602 -2.4274975494158251 0 0 0 0 -1.3794681016418195 13.43220674591721 0 13.43220674591721 -17.294376159828353 0 0 0 0 -18.22647457709661 -5.5183852069150703 0 -5.5183852069150703 -63.414724897874834 0 0 0 0 137.11067709895025 -44.643328979931042 0 -44.643328979931042 65.50462865908321 0 0 0 0 -72.732502237870904 -10.408195235869243 0 -10.408195235869243 8.3794184836960994 0 0 0 0 44.245888909552207 11.718234394867054 0 11.718234394867054 -31.262581948110892 0 0 0 0 12.108749097111286 -31.012148023582995 0 -31.012148023582995 -19.325479104984652 0 0 0 0 -53.901740195486127 -10.453411758049697 0 -10.453411758049697 -7.1841802590884072 0 0 0 0 -5.3911853713019138 12.895062033248884 0 12.895062033248884 -12.471856049137692 0 0 0 0 -105.6022580824735 -70.468500222335507 0 -70.468500222335507 59.228020688691231 0 0 0 0 -28.639469020130491 93.434939201157476 0 93.434939201157476 69.269378048347107 0 0 0 0 27.290402618911003 -16.628721667513958 0 -16.628721667513958 -66.409709661536908 0 0 0 0 73.836948832320104 79.35834885615543 0 79.35834885615543 6.1606640959126935 0 0 0 0 101.76521733033474 58.892706717668716 0 58.892706717668716 -25.653353514687069 0 0 0 0 245.10452362657668 202.96332981529082 0 202.96332981529082 36.954958327416307 0 0 0 0 164.90109244367693 274.50982973712757 0 274.50982973712757 110.65128989841446 0 0 0 0 427.38162802854526 217.02513346613387 0 217.02513346613387 92.522213159648572 0 0 0 0 45.276144083544523 214.53174232542554 0 214.53174232542554 101.99419197859288 0 0 0 0 -0.095085756346596995 0.46305022686487213 0 0.46305022686487213 0.75190478405590455 0 0 0 0 586.94028361048413 300.29213812952662 0 300.29213812952662 -58.843601796333246 0 0 0 0 943.08856862333369 231.67899911234326 0 231.67899911234326 -105.79575298310354 0 0 0 0 763.78371478904205 79.474948317756343 0 79.474948317756343 -137.61703704611682 0 0 0 0 1022.6768109734935 294.07707667186526 0 294.07707667186526 -99.662599001006811 0 0 0 0 882.71725686114235 143.43867865921607 0 143.43867865921607 -106.62399639456541 0 0 0 0 786.27328267223709 253.54249423739213 0 253.54249423739213 -86.865560309147668 0 0 0 0 717.52698964214005 432.93272545033517 0 432.93272545033517 46.351686642751247 0 0 0 0 654.99576333855896 184.93572914131119 0 184.93572914131119 21.286695322982368 0 0 0 0 1172.714227411929 283.00715426519878 0 283.00715426519878 -112.60476733158012 0 0 0 0 1099.6450256614894 554.15661849741082 0 554.15661849741082 29.325371279596283 0 0 0 0 422.52801186455264 40.453651666677295 0 40.453651666677295 132.27357490372418 0 0 0 0 458.87857696480864 34.46714010374167 0 34.46714010374167 0.29322678061276974 0 0 0 0 145.39019401625836 38.103676109729008 0 38.103676109729008 88.126947997342569 0 0 0 0 2.6409472238045035 -1.7094083958478121 0 -1.7094083958478121 0.82210508984107022 0 0 0 0 1842.9209299962999 320.81462054076906 0 320.81462054076906 -553.02275122088668 0 0 0 0 1844.9435049732642 372.37429821926634 0 372.37429821926634 -351.97390681292524 0 0 0 0 1419.5231710744888 184.83908999626232 0 184.83908999626232 -328.82426530035843 0 0 0 0 1403.0172921822359 258.84010010618488 0 258.84010010618488 -242.55385474533523 0 0 0 0 1314.1147417710299 556.42632730089463 0 556.42632730089463 -85.834990026440835 0 0 0 0 1148.0108302037024 477.42093544153045 0 477.42093544153045 -84.486217004369138 0 0 0 0 2500.5240125422656 720.54855941989285 0 720.54855941989285 -435.32477829051635 0 0 0 0 1638.6842174221688 792.91357914390255 0 792.91357914390255 -156.84393856322811 0 0 0 0 1634.5997603895387 819.30997371662977 0 819.30997371662977 2.9939689273284102 0 0 0 0 -394.85571151654494 142.85153723974736 0 142.85153723974736 478.78138865530605 0 0 0 0 657.24536409564757 908.09239092455687 0 908.09239092455687 897.08464550487508 0 0 0 0 18.12904098961614 2.4952397633775321 0 2.4952397633775321 2.139098042779211 0 0 0 0 993.08926602750671 1328.2787623693557 0 1328.2787623693557 1450.378547459502 0 0 0 0 2495.1613910970182 1491.2043540774207 0 1491.2043540774207 319.66065788954762 0 0 0 0 87.932377671656354 7.7342007782391278 0 7.7342007782391278 93.143099572072117 0 0 0 0 173.50973612492533 -11.671437293304052 0 -11.671437293304052 26.429546025131117 0 0 0 0 269.47889304856551 149.35105143347732 0 149.35105143347732 -59.614188970190753 0 0 0 0 1.9432331637608558 -1.1615378619433163 0 -1.1615378619433163 -0.074062692208264558 0 0 0 0 388.28466376513546 244.03484922717584 0 244.03484922717584 342.41714397043631 0 0 0 0 67.054341976123055 169.68712117502719 0 169.68712117502719 -45.676806006024322 0 0 0 0 432.32765154551998 -214.29959865170849 0 -214.29959865170849 -395.2959065713228 0 0 0 0 -82.184160929873258 -2.252453511397789 0 -2.252453511397789 -6.6792030869253267 0 0 0 0 7.0343029658723992 -61.028034208586405 0 -61.028034208586405 3.0058582346985077 0 0 0 0 62.01730542574505 47.275597970847116 0 47.275597970847116 8.8133596385300734 0 0 0 0 41.671464935223085 4.3983192973124137 0 4.3983192973124137 0.11987181357623963 0 0 0 0 191.83482825985993 63.032654028975713 0 63.032654028975713 -128.56768880238087 0 0 0 0 191.27520496499892 -123.34375685633388 0 -123.34375685633388 134.56150368238266 0 0 0 0 -7.6594210307357571 4.3679368855306961 0 4.3679368855306961 209.52653855232859 0 0 0 0 958.81041628019557 -943.11015317415263 0 -943.11015317415263 681.82995108625084 0 0 0 0 2496.525060265164 -538.10184691499921 0 -538.10184691499921 -109.57614944717466 0 0 0 0 -8.9586066976708025 -25.268353304143858 0 -25.268353304143858 381.98410126762718 0 0 0 0 927.42254843748742 -307.54261158717486 0 -307.54261158717486 224.47141905225078 0 0 0 0 956.07493656156294 -192.82251972265328 0 -192.82251972265328 -160.95379036681982 0 0 0 0 2494.5425635524116 193.5870911159133 0 193.5870911159133 -251.50388478990948 0 0 0 0 495.96126668480997 600.91407612865396 0 600.91407612865396 57.320213730902303 0 0 0 0 197.73347726342763 -60.787904762200775 0 -60.787904762200775 310.04715212106555 0 0 0 0 704.78306273729663 -216.99768415090435 0 -216.99768415090435 33.656692124433086 0 0 0 0 253.87610557270818 45.821464966418915 0 45.821464966418915 -154.37451819303845 0 0 0 0 162.23800814396054 37.495038811884228 0 37.495038811884228 -85.501126289174408 0 0 0 0 2501.2540337521077 -481.70105721505359 0 -481.70105721505359 -114.85654530464635 0 0 0 0 3.3024256288620215 3.759251709778912 0 3.759251709778912 0.89675746328137029 0 0 0 0 -522.83519525512202 441.42211785665705 0 441.42211785665705 64.36644748688289 0 0 0 0 52.417366803711957 -77.206981151591492 0 -77.206981151591492 147.43823254976073 0 0 0 0 281.43470364424775 -116.07963018258617 0 -116.07963018258617 -82.234821805120944 0 0 0 0 53.326327278400072 -79.640647949325071 0 -79.640647949325071 34.303705844301888 0 0 0 0 54.383413476896749 -51.816537066910854 0 -51.816537066910854 0.078541902131007646 0 0 0 0 33.270672758422734 -43.179784803835673 0 -43.179784803835673 101.56670985940949 0 0 0 0 35.129305722795834 -41.959459251024072 0 -41.959459251024072 44.119284909402097 0 0 0 0 60.578884015514632 -46.656382278836446 0 -46.656382278836446 19.067696180487111 0 0 0 0 58.274142543827111 -72.203853061675517 0 -72.203853061675517 -10.691217400891546 0 0 0 0 64.879547424525299 -56.596534342205587 0 -56.596534342205587 18.519633662907751 0 0 0 0 102.79199728143067 -48.908387863612717 0 -48.908387863612717 1.2102959332262913 0 0 0 0 67.148027457868011 -64.761484708018571 0 -64.761484708018571 11.265826575408866 0 0 0 0 -0.54969593748600687 -0.16786201322095451 0 -0.16786201322095451 0.12946767564284084 0 0 0 0 121.55594284645122 -89.734497138648749 0 -89.734497138648749 27.468022575951156 0 0 0 0 36.863270056290503 43.377396924079413 0 43.377396924079413 -10.632232070996849 0 0 0 0 102.35696875100894 -37.61977135846675 0 -37.61977135846675 19.567182233473545 0 0 0 0 59.028064240745152 -9.8740777090050358 0 -9.8740777090050358 -58.44948474481015 0 0 0 0 64.060696139733409 -31.203798431667849 0 -31.203798431667849 -5.3769416184824337 0 0 0 0 69.201927603169679 -14.44446872910288 0 -14.44446872910288 16.78311121953314 0 0 0 0 55.711456773517057 -19.339349710540091 0 -19.339349710540091 18.55284451581241 0 0 0 0 43.741387271699978 -11.941407988220817 0 -11.941407988220817 -26.145512663017143 0 0 0 0 30.25734903255626 3.039196739986453 0 3.039196739986453 -11.177648287494945 0 0 0 0 38.069632545305069 -2.5266187011802508 0 -2.5266187011802508 -7.9511333923995977 0 0 0 0 86.333711740553554 -26.357316322169936 0 -26.357316322169936 -94.724093109919522 0 0 0 0 53.367776305453226 6.5814623331842776 0 6.5814623331842776 -4.5963500132961048 0 0 0 0 53.042862609336225 3.8018787134253103 0 3.8018787134253103 12.663281716962274 0 0 0 0 25.801070007590624 45.72595674039799 0 45.72595674039799 3.1831797832637108 0 0 0 0 49.572790307296515 3.5607014282701517 0 3.5607014282701517 0.63471715361144554 0 0 0 0 29.884350615822768 0.93317340415114813 0 0.93317340415114813 92.059690848061052 0 0 0 0 29.568677008119266 6.6892547941963301 0 6.6892547941963301 57.832729317176018 0 0 0 0 97.103324579907849 -0.067288778541524152 0 -0.067288778541524152 15.510761658486445 0 0 0 0 98.309480525290383 8.8475034981402132 0 8.8475034981402132 19.068707087795701 0 0 0 0 30.106694491229653 26.501041782022448 0 26.501041782022448 13.42693739041696 0 0 0 0 99.298170447301231 12.486340389154975 0 12.486340389154975 9.6384231519696186 0 0 0 0 101.83685796274244 -28.987180010940847 0 -28.987180010940847 -23.853149402189956 0 0 0 0 82.411263252911795 7.146005599475302 0 7.146005599475302 12.532021907008129 0 0 0 0 89.363708742605922 -49.815651005710606 0 -49.815651005710606 -58.306116705414752 0 0 0 0 214.96419514625887 -271.37605008046251 0 -271.37605008046251 -159.04712122472301 0 0 0 0 112.95420508883959 15.129227827314502 0 15.129227827314502 -4.4407900821392197 0 0 0 0 33.284548400399217 -78.459531833503206 0 -78.459531833503206 -309.47434355629957 0 0 0 0 256.14586423602304 179.56939643157057 0 179.56939643157057 -513.05116308250581 0 0 0 0 107.81866870014633 13.192135066545326 0 13.192135066545326 -5.0993626236519773 0 0 0 0 432.70653845915876 -86.455169158705758 0 -86.455169158705758 -67.331152060411114 0 0 0 0 244.03932238678919 385.28103937923686 0 385.28103937923686 98.808224023603543 0 0 0 0 3.5789613278917045 -2.3987747760988247 0 -2.3987747760988247 1.5773104822462791 0 0 0 0 -86.464759260063147 -247.52173640621731 0 -247.52173640621731 -102.5388622284454 0 0 0 0 -7.3415321341672097 55.85030922038186 0 55.85030922038186 95.828658422127774 0 0 0 0 644.26140822020716 194.49897061632419 0 194.49897061632419 108.94854689755812 0 0 0 0 708.14215118360698 159.89950845140993 0 159.89950845140993 -105.67417382058557 0 0 0 0 836.65188956526254 190.16001506877183 0 190.16001506877183 -108.71760153024343 0 0 0 0 -14.977413849428558 42.878318320993458 0 42.878318320993458 164.76363142837181 0 0 0 0 152.36591252694234 178.66085458405541 0 178.66085458405541 46.207751556376024 0 0 0 0 -64.481800472989562 226.85602810224009 0 226.85602810224009 130.67845232119726 0 0 0 0 -49.682695712605891 218.20753092088808 0 218.20753092088808 -115.82704422519055 0 0 0 0 -4.0888787207368296 88.6840444846639 0 88.6840444846639 18.878584355035855 0 0 0 0 93.123339148051656 17.078643901192706 0 17.078643901192706 -2.3917775254375755 0 0 0 0 -117.47394233948216 44.149390040042817 0 44.149390040042817 42.977109619844214 0 0 0 0 5.7275934696981992 8.9734193590006797 0 8.9734193590006797 -3.5955431403640574 0 0 0 0 154.20744025118984 -4.0236950724975031 0 -4.0236950724975031 -26.573175794908821 0 0 0 0 48.328109063637385 16.827924332274961 0 16.827924332274961 -22.355051198421279 0 0 0 0 11.207803497030728 0.6765104064612828 0 0.6765104064612828 0.62857941919229177 0 0 0 0 127.37615490363532 14.847507199663596 0 14.847507199663596 -0.3607661139449192 0 0 0 0 94.266924295632634 33.432214980806748 0 33.432214980806748 10.535209127597227 0 0 0 0 28.905446785407548 37.970938908214521 0 37.970938908214521 12.253227247852919 0 0 0 0 108.80664945091848 -12.812007493461351 0 -12.812007493461351 -35.568134404129523 0 0 0 0 125.51343767032085 20.219283648026249 0 20.219283648026249 -48.73283817346055 0 0 0 0 76.008833646807943 21.440395197081671 0 21.440395197081671 1.4755004290091165 0 0 0 0 62.603956648048324 8.6719357143992966 0 8.6719357143992966 12.080333108029663 0 0 0 0 72.461993451743766 14.04869248362278 0 14.04869248362278 2.8324407571491719 0 0 0 0 172.75406268408005 29.84228095913295 0 29.84228095913295 18.439191472684342 0 0 0 0 53.920098997958121 6.7725458126915328 0 6.7725458126915328 -8.1257414669780701 0 0 0 0 84.207393287215822 25.263236276597784 0 25.263236276597784 -2.5204069295824993 0 0 0 0 77.606762468748542 2.0547985977025718 0 2.0547985977025718 -7.5070910004862839 0 0 0 0 65.349765860093171 24.134167444485374 0 24.134167444485374 -3.3398328023341861 0 0 0 0 73.358773932071927 -2.1387252986314707 0 -2.1387252986314707 5.0502106151252519 0 0 0 0 122.08654124029272 12.629862908618634 0 12.629862908618634 10.385194841288012 0 0 0 0 65.483435564498294 -2.2968280181519631 0 -2.2968280181519631 -2.950505333722468 0 0 0 0 40.686334410635027 47.681742016295175 0 47.681742016295175 -11.963431500807928 0 0 0 0 42.592931398530382 15.581198172660201 0 15.581198172660201 6.2180416256116047 0 0 0 0 36.845853217626427 9.6614164325874299 0 9.6614164325874299 0.46034799484732503 0 0 0 0 43.353028683810408 41.067966247958793 0 41.067966247958793 -2.0093877354156575 0 0 0 0 53.813993369733609 18.601231054222019 0 18.601231054222019 3.181302670181573 0 0 0 0 64.975430205813609 63.411927665107214 0 63.411927665107214 -24.28841940368693 0 0 0 0 58.646244843555905 36.901549392401648 0 36.901549392401648 -10.949471992864346 0 0 0 0 51.987313533969669 19.256433838645314 0 19.256433838645314 6.3643726766346838 0 0 0 0 58.942104456494235 13.682472851593047 0 13.682472851593047 5.7253738208137293 0 0 0 0 32.700916449878861 22.989409171301137 0 22.989409171301137 5.3998201144917459 0 0 0 0 17.517058486080629 2.0076975810686797 0 2.0076975810686797 5.8963474518946271 0 0 0 0 110.00450934902892 21.396228921487364 0 21.396228921487364 16.18569989495154 0 0 0 0 84.239318206217831 3.1528000999242067 0 3.1528000999242067 12.021741599479356 0 0 0 0 86.703580091934782 9.1439945158786031 0 9.1439945158786031 22.697178897478807 0 0 0 0 71.972134927302591 10.805404809507536 0 10.805404809507536 33.189105696663319 0 0 0 0 22.458379581414931 25.699997068209044 0 25.699997068209044 5.3070493725671994 0 0 0 0 71.668300537435243 7.2355056708393022 0 7.2355056708393022 -0.064603214930684771 0 0 0 0 89.927596726862248 -9.8466726030655991 0 -9.8466726030655991 -38.792434548888195 0 0 0 0 46.415087411296554 30.336425873618282 0 30.336425873618282 7.0416764280962525 0 0 0 0 87.99669208915293 -15.269008133484931 0 -15.269008133484931 -22.179722462326026 0 0 0 0 80.443122511922411 -18.317562509109848 0 -18.317562509109848 76.590924101070414 0 0 0 0 160.04216182796517 40.866862805921073 0 40.866862805921073 9.8118395164674439 0 0 0 0 44.992197308659485 -10.65208908875309 0 -10.65208908875309 -4.392844347737956 0 0 0 0 78.362214217491783 14.672978233177673 0 14.672978233177673 14.362486085545243 0 0 0 0 143.96881745074097 11.871004192506916 0 11.871004192506916 2.322684835855398 0 0 0 0 25.403876877717561 -18.188706393667697 0 -18.188706393667697 -5.5742658997699692 0 0 0 0 6.9732131454566542 0.30000116169075142 0 0.30000116169075142 -2.0012446732591513 0 0 0 0 151.4623074150968 23.750901913932466 0 23.750901913932466 -7.5624248866688504 0 0 0 0 158.38932311137251 65.616306880294587 0 65.616306880294587 -23.01395428896376 0 0 0 0 -12.790662029712621 33.167242499639087 0 33.167242499639087 -14.865794089341762 0 0 0 0 10.259392217062413 -0.37453143304722047 0 -0.37453143304722047 -1.8957227254812494 0 0 0 0 230.16905516768566 -12.331646230181832 0 -12.331646230181832 -21.200211775593743 0 0 0 0 59.009755979262081 79.803432989360772 0 79.803432989360772 -67.901711770429756 0 0 0 0 140.38290274533392 91.254483021968554 0 91.254483021968554 83.29110562382175 0 0 0 0 295.35484440853725 83.264904522809957 0 83.264904522809957 -71.725533301620317 0 0 0 0 106.40111625968348 28.411467741914748 0 28.411467741914748 -26.82123513357601 0 0 0 0 92.747654822251206 -102.07035154190453 0 -102.07035154190453 11.455995471611914 0 0 0 0 153.60502042873395 -47.369341121368961 0 -47.369341121368961 -25.270618598715373 0 0 0 0 123.02265673917009 -89.81164442211093 0 -89.81164442211093 -81.485463130014978 0 0 0 0 263.06834639605404 -87.919948044775538 0 -87.919948044775538 -84.452609720254941 0 0 0 0 63.151132427001926 -186.78316822047151 0 -186.78316822047151 -116.34002665434855 0 0 0 0 254.43669152433904 190.90748465398929 0 190.90748465398929 98.768309074504941 0 0 0 0 2.4153690048754974 -1.0054718041088471 0 -1.0054718041088471 0.38097888829127236 0 0 0 0 389.87604973949965 44.04890152026951 0 44.04890152026951 -22.021100712558109 0 0 0 0 335.94882941595824 33.769656270325868 0 33.769656270325868 -2.3740895258451928 0 0 0 0 40.750672590625982 44.578043710774182 0 44.578043710774182 50.838028656605275 0 0 0 0 284.7957654241709 -15.709302907423989 0 -15.709302907423989 52.134059968022029 0 0 0 0 0.21434045109537436 -1.3013385392813426 0 -1.3013385392813426 0.99660086038875839 0 0 0 0 309.74813648822419 87.620077880341796 0 87.620077880341796 22.350227427596565 0 0 0 0 28.405742580706828 -12.047606373373924 0 -12.047606373373924 -9.6261306330507068 0 0 0 0 57.841753722257636 83.182507239130246 0 83.182507239130246 58.007714747001955 0 0 0 0 38.793195383877901 -3.6148330238829658 0 -3.6148330238829658 -92.867745187803848 0 0 0 0 4.6304220914965697 1.5852887113079035 0 1.5852887113079035 -1.1247773560731158 0 0 0 0 10.821081895586758 13.827674457114881 0 13.827674457114881 -82.648887738581834 0 0 0 0 74.771903851757088 6.2001858475059635 0 6.2001858475059635 -70.022997732559816 0 0 0 0 18.278083594323562 -35.126992331252268 0 -35.126992331252268 -23.969030705256955 0 0 0 0 8.514631832574338 -1.1989399757992452 0 -1.1989399757992452 -0.19133527683683482 0 0 0 0 56.946243229971515 3.492192334549145 0 3.492192334549145 -0.74567777059519358 0 0 0 0 79.420811037244675 -11.56642271342821 0 -11.56642271342821 -40.547943260080501 0 0 0 0 85.494705280884546 -21.465012983196743 0 -21.465012983196743 -24.947829977176298 0 0 0 0 35.740001508606198 -14.418496608437135 0 -14.418496608437135 4.6189744498180625 0 0 0 0 14.082448679672417 20.878334442071999 0 20.878334442071999 -11.521016137613046 0 0 0 0 -2.9376309560902882 46.018880263229221 0 46.018880263229221 45.358405476997177 0 0 0 0 58.496726210103589 -8.4774886954578506 0 -8.4774886954578506 4.2918698188314011 0 0 0 0 100.87861676376883 9.1048599780615405 0 9.1048599780615405 -9.6025648191016444 0 0 0 0 63.341432766434991 44.947380460792374 0 44.947380460792374 15.382425854397297 0 0 0 0 104.13120899977673 1.9405379618074221 0 1.9405379618074221 5.6676089853730218 0 0 0 0 7.3352274981286225 25.807866874003885 0 25.807866874003885 1.0096136126418642 0 0 0 0 44.219030862544059 -32.694242430070062 0 -32.694242430070062 -10.238059463036961 0 0 0 0 48.413322496689489 6.0899548188629069 0 6.0899548188629069 -16.741676460510462 0 0 0 0 35.381924137230044 -49.782031177284182 0 -49.782031177284182 -25.799869449358994 0 0 0 0 104.44264149706942 47.204738087800251 0 47.204738087800251 35.832328265286833 0 0 0 0 20.709384481912132 -10.528421487846 0 -10.528421487846 5.5093711104890071 0 0 0 0 76.055162846234452 22.336416898446259 0 22.336416898446259 3.5055757270092727 0 0 0 0 66.344806976827385 1.2190644595420963 0 1.2190644595420963 -20.456786014491627 0 0 0 0 88.238960204942487 54.187102089228119 0 54.187102089228119 46.575115434809504 0 0 0 0 172.46664325713209 59.622806159630727 0 59.622806159630727 -13.942907096498402 0 0 0 0 107.01227003035274 98.116433756499646 0 98.116433756499646 100.70734697136322 0 0 0 0 214.24925318062014 -25.796495045728534 0 -25.796495045728534 4.5411658827179053 0 0 0 0 286.75515226786229 98.904327914971418 0 98.904327914971418 -1.0624918682633506 0 0 0 0 193.24763867732145 -6.1402147152089128 0 -6.1402147152089128 0.50992684868151628 0 0 0 0 82.654244925561215 -48.526012950070253 0 -48.526012950070253 13.372707686866534 0 0 0 0 62.931222734616313 -18.599561300578898 0 -18.599561300578898 19.86195008865684 0 0 0 0 124.04797844971836 -44.088254080671049 0 -44.088254080671049 27.78816560035375 0 0 0 0 86.088036926748828 -57.071788099751757 0 -57.071788099751757 88.934226874227534 0 0 0 0 25.643387471718597 -13.323960428439023 0 -13.323960428439023 62.84299582985841 0 0 0 0 147.70519229983802 -77.97180179967927 0 -77.97180179967927 43.601755218131075 0 0 0 0 195.634574303715 -240.99058596807618 0 -240.99058596807618 118.98957120014711 0 0 0 0 86.364765008427639 -8.3468403057877367 0 -8.3468403057877367 78.478651859564707 0 0 0 0 0.16810051583161112 -9.6540345386947592 0 -9.6540345386947592 144.79634518205057 0 0 0 0 -62.256614967656787 192.28935028020169 0 192.28935028020169 156.50992400731462 0 0 0 0 147.64643955882639 -243.29319235358616 0 -243.29319235358616 175.68883200662754 0 0 0 0 151.13748977370415 484.33264337138553 0 484.33264337138553 473.45148228739799 0 0 0 0 111.58680001179721 15.765807176229069 0 15.765807176229069 -3.6849353823196491 0 0 0 0 171.8089251777028 203.58068394978409 0 203.58068394978409 -420.70520297030089 0 0 0 0 338.80209213054695 -413.21069550811444 0 -413.21069550811444 -130.40216661336217 0 0 0 0 9.347758713366602 -83.565022309238884 0 -83.565022309238884 -1.8147435498688083 0 0 0 0 -12.024351117050173 -130.92587714079536 0 -130.92587714079536 308.31605199076967 0 0 0 0 566.53927148174262 5.6904395040769487 0 5.6904395040769487 -5.8459518453064447 0 0 0 0 365.57401386272431 261.56813148789365 0 261.56813148789365 204.02378939169739 0 0 0 0 6.7430902681908051 -3.9978056267152517 0 -3.9978056267152517 2.680923272985817 0 0 0 0 20.419262929659453 -69.271436984136926 0 -69.271436984136926 27.427437885967265 0 0 0 0 32.490625935468415 14.884247719509403 0 14.884247719509403 72.260748922055882 0 0 0 0 41.445615339767755 26.469488779290714 0 26.469488779290714 26.197964435998074 0 0 0 0 95.504426576919286 35.578847832524389 0 35.578847832524389 27.712925694220758 0 0 0 0 24.288522456658029 7.6160053518096902 0 7.6160053518096902 5.5249847969098482 0 0 0 0 87.490285920825045 4.9631476708023001 0 4.9631476708023001 -14.562282140548632 0 0 0 0 48.250122360601381 2.2925933039005031 0 2.2925933039005031 -14.165955550977515 0 0 0 0 27.96380165012306 27.0978861809931 0 27.0978861809931 10.907447629632202 0 0 0 0 27.594605312224118 9.9801171037185075 0 9.9801171037185075 -6.6085097674470461 0 0 0 0 33.33121202674738 10.465398199500669 0 10.465398199500669 -12.245095442664024 0 0 0 0 30.931287897021321 7.9597654706954017 0 7.9597654706954017 -4.922788854859391 0 0 0 0 48.359063955163947 -7.0594427569312757 0 -7.0594427569312757 -1.5692200884964222 0 0 0 0 25.14412101040125 -8.2816931963650404 0 -8.2816931963650404 0.27353788541950053 0 0 0 0 30.467318947819876 -9.3364099143782369 0 -9.3364099143782369 -1.2667528888132438 0 0 0 0 31.145104685942925 4.8905581910036489 0 4.8905581910036489 1.6281013552634249 0 0 0 0 24.810504308678254 12.458304416604808 0 12.458304416604808 -6.5421050282939177 0 0 0 0 5.001152235499374 2.34915599177274 0 2.34915599177274 1.6612152257744661 0 0 0 0 39.440629340029773 2.5162738352896667 0 2.5162738352896667 -0.64467578098856393 0 0 0 0 33.343787694086132 2.5047153103071196 0 2.5047153103071196 1.4123215960462403 0 0 0 0 10.739462326433568 24.597207131544565 0 24.597207131544565 -12.059910890237461 0 0 0 0 77.720538963410945 -18.563847674421595 0 -18.563847674421595 -19.812327927867159 0 0 0 0 60.968283122586399 -22.741638270442763 0 -22.741638270442763 27.491963886366648 0 0 0 0 -16.276690191323723 -2.3049293091239633 0 -2.3049293091239633 12.415411672845948 0 0 0 0 -29.293909999863899 11.343330071305445 0 11.343330071305445 40.132647705688214 0 0 0 0 0.19869752366503235 8.0916239823745855 0 8.0916239823745855 39.736201107538818 0 0 0 0 -16.006714546252624 -5.0695599906018742 0 -5.0695599906018742 40.463244637710886 0 0 0 0 -6.0491416416844004 20.70485310832828 0 20.70485310832828 -27.703442095124046 0 0 0 0 -8.7934409919107566 25.939819521703612 0 25.939819521703612 20.606895602311852 0 0 0 0 -1.6710040648831637 9.343124266659288 0 9.343124266659288 11.157453712520692 0 0 0 0 -6.0491416416698485 20.704853108316456 0 20.704853108316456 -27.703442095124046 0 0 0 0 2.2907533280231291 -4.6995663260695437 0 -4.6995663260695437 52.402056978086421 0 0 0 0 28.542375332561278 -7.6932942627586272 0 -7.6932942627586272 32.414349611561192 0 0 0 0 6.8199426598803257 47.813478003162345 0 47.813478003162345 -28.118172648181826 0 0 0 0 -1.09689001107472 49.688867559509163 0 49.688867559509163 -16.54631538994181 0 0 0 0 -6.025481653829047 35.448598130702521 0 35.448598130702521 45.582229628607365 0 0 0 0 -7.8649399862254086 63.210788661192964 0 63.210788661192964 5.5500681957855704 0 0 0 0 0.27839540248533012 42.425952151319507 0 42.425952151319507 -23.470872012967448 0 0 0 0 -7.6900101550836553 46.283330827872305 0 46.283330827872305 -5.4430614424782107 0 0 0 0 -6.0491416416771244 20.704853108312818 0 20.704853108312818 -27.703442095124046 0 0 0 0 4.4689922961612325 -2.4262372705212449 0 -2.4262372705212449 0.33167850426146939 0 0 0 0 61.885841524588614 181.61285440816209 0 181.61285440816209 255.08636109036115 0 0 0 0 -24.254155770715442 -145.32737094933691 0 -145.32737094933691 104.00853439827006 0 0 0 0 14.456802550149405 194.00680205489925 0 194.00680205489925 -124.5150591565889 0 0 0 0 100.37273919272116 15.848434369399643 0 15.848434369399643 -4.5911719389713905 0 0 0 0 507.93541613024354 176.43518445979953 0 176.43518445979953 138.43183925282358 0 0 0 0 23.38261596619413 0.98025254902822923 0 0.98025254902822923 -0.27537737209191704 0 0 0 0 -302.8224489090353 -170.24558417629123 0 -170.24558417629123 102.06814338535651 0 0 0 0 235.33561884137146 -130.42742574286655 0 -130.42742574286655 93.179025453495342 0 0 0 0 0.55574078797508264 -71.935625515202901 0 -71.935625515202901 153.44577026440902 0 0 0 0 30.62660538322223 17.928733528973758 0 17.928733528973758 -2.3456653040043136 0 0 0 0 50.82290458816842 6.3319172239213533 0 6.3319172239213533 -3.3550787200780761 0 0 0 0 38.782387076213126 4.7103966865643088 0 4.7103966865643088 1.1472459387455274 0 0 0 0 46.166455899407538 1.7045576511303011 0 1.7045576511303011 2.3404531570540712 0 0 0 0 59.683143813879724 24.597720476991526 0 24.597720476991526 -42.101831177926954 0 0 0 0 114.49827061120936 -51.252567819001797 0 -51.252567819001797 -89.325143544127059 0 0 0 0 12.600792052072688 -2.4051897647925653 0 -2.4051897647925653 0.034107921669630059 0 0 0 0 51.410064271073679 -14.104352823348563 0 -14.104352823348563 -36.747513803689799 0 0 0 0 -4.5377419862331863 -40.44313070011799 0 -40.44313070011799 147.91902574880078 0 0 0 0 44.624903112641931 0.77392458820606969 0 0.77392458820606969 -5.104657377416145 0 0 0 0 67.708354665130628 15.889421098345792 0 15.889421098345792 -43.111757258774105 0 0 0 0 32.771361183677072 0.82270283514208131 0 0.82270283514208131 9.5458250192423293 0 0 0 0 51.787757963962576 -10.470458768656499 0 -10.470458768656499 -5.1355538898824307 0 0 0 0 1.4446125161248347 -23.577600977846487 0 -23.577600977846487 -8.3918274985699099 0 0 0 0 79.052766234774026 0.82146666851258487 0 0.82146666851258487 -10.942536978922362 0 0 0 0 14.823758432932664 23.728319420771413 0 23.728319420771413 -19.105709686733462 0 0 0 0 81.337233245596735 53.273899191222398 0 53.273899191222398 -7.0888245257829112 0 0 0 0 135.94786345244211 -94.363716436292634 0 -94.363716436292634 53.916249352652812 0 0 0 0 2.7640780512881342 -0.52739429338864952 0 -0.52739429338864952 -1.7636680567001299 0 0 0 0 159.02770557128679 -2.4349457879079637 0 -2.4349457879079637 -127.10993558045448 0 0 0 0 17.284043623720208 84.59475678221952 0 84.59475678221952 -113.04210093244728 0 0 0 0 75.319171785934032 49.100607725414761 0 49.100607725414761 -96.207281388808042 0 0 0 0 77.955441027446795 75.790418853613119 0 75.790418853613119 -35.30823274607792 0 0 0 0 24.10948046104204 27.362803452965636 0 27.362803452965636 -16.905347237299793 0 0 0 0 29.995824351621195 58.763867805806058 0 58.763867805806058 107.30976573551015 0 0 0 0 145.31914429111202 167.64123397099138 0 167.64123397099138 2.3483206379059993 0 0 0 0 181.12508000018602 -18.491411070277763 0 -18.491411070277763 -183.3151846748533 0 0 0 0 462.78784448622537 185.53082053127218 0 185.53082053127218 -77.947227331724207 0 0 0 0 -55.554163191310636 -85.480051454499289 0 -85.480051454499289 -123.28324674723808 0 0 0 0 75.696000271281719 17.723145433994773 0 17.723145433994773 76.047359477768623 0 0 0 0 -0.50025391651433893 5.3445507071937755 0 5.3445507071937755 73.97137847922022 0 0 0 0 37.909081888563378 -144.68578104861081 0 -144.68578104861081 -224.05980552422324 0 0 0 0 115.7017116831139 62.769250122631092 0 62.769250122631092 -215.80203399440688 0 0 0 0 101.77221598587539 150.50576513697706 0 150.50576513697706 112.44810254549702 0 0 0 0 11.815038023684757 -1.4947565209157538 0 -1.4947565209157538 -2.3332508904468625 0 0 0 0 77.025590642963152 30.113097477233396 0 30.113097477233396 -125.13410231102353 0 0 0 0 151.69994978772775 27.926420478514956 0 27.926420478514956 -39.909639365425392 0 0 0 0 33.78593171470493 125.58327343456585 0 125.58327343456585 92.278435303927836 0 0 0 0 13.582032997894299 -2.3905910391605492 0 -2.3905910391605492 -1.5038431716642719 0 0 0 0 40.859044233877285 1.8511261595967881 0 1.8511261595967881 -60.436254632333657 0 0 0 0 8.1099904402353786 65.413161708727785 0 65.413161708727785 -93.596449348794522 0 0 0 0 -24.165930207125712 152.18351682160392 0 152.18351682160392 -221.58900498572984 0 0 0 0 -66.165548928785938 59.948360045616027 0 59.948360045616027 -101.8368042628299 0 0 0 0 9.7639975337141323 64.270504130396148 0 64.270504130396148 -111.25960061568185 0 0 0 0 552.43360873982238 161.33320507922144 0 161.33320507922144 -29.887373698083593 0 0 0 0 106.72069123808251 0.94040817437053192 0 0.94040817437053192 84.359438748978391 0 0 0 0 189.67932400066093 -79.902482155739108 0 -79.902482155739108 -85.639740095670277 0 0 0 0 30.07869197549735 -81.25917438875058 0 -81.25917438875058 22.18873410060587 0 0 0 0 116.8089928329955 -87.215800860911258 0 -87.215800860911258 -7.4103204768853175 0 0 0 0 319.92691328313958 -86.756973914361879 0 -86.756973914361879 -120.31107735719434 0 0 0 0 115.30044308204339 15.828549918450074 0 15.828549918450074 -4.4458084660478789 0 0 0 0 444.64242270254181 324.51363836018572 0 324.51363836018572 73.47687576089811 0 0 0 0 214.11448668597768 -23.859958626176649 0 -23.859958626176649 -498.94849356373925 0 0 0 0 -134.75355903229502 -239.79465020810312 0 -239.79465020810312 -163.52173613184459 0 0 0 0 13.746396244489006 -64.991144386305677 0 -64.991144386305677 -275.85979238986693 0 0 0 0 -120.70429660419904 -329.92207510516164 0 -329.92207510516164 -281.07443557861416 0 0 0 0 1.5461323016770621 -1.3873149922335433 0 -1.3873149922335433 1.2674388168499817 0 0 0 0 73.133984455340396 -93.467656541469296 0 -93.467656541469296 -125.54194013985943 0 0 0 0 -246.98056014992835 -189.16793479765511 0 -189.16793479765511 -94.413683660632614 0 0 0 0 7.5805459155071091 -1.7689120258974445 0 -1.7689120258974445 -0.60641702099101735 0 0 0 0 114.26693949625587 -200.82440386188091 0 -200.82440386188091 -448.8102000519666 0 0 0 0 322.24665502656262 426.30843436169243 0 426.30843436169243 373.91368705645436 0 0 0 0 114.23082364499714 117.4726976544589 0 117.4726976544589 291.59315620033203 0 0 0 0 162.43502120594712 -16.012389640708989 0 -16.012389640708989 -158.73174643514722 0 0 0 0 87.945567500733887 97.300812184395909 0 97.300812184395909 51.197751104264171 0 0 0 0 185.22709504302657 79.244176709504245 0 79.244176709504245 48.947138754383559 0 0 0 0 107.48942343339877 198.85327979819886 0 198.85327979819886 229.50985186255093 0 0 0 0 98.972945803936454 87.711527635459788 0 87.711527635459788 -14.539118290816987 0 0 0 0 104.28928975331985 -13.911766221646303 0 -13.911766221646303 -130.08552627943573 0 0 0 0 55.829613857269578 11.579467871812085 0 11.579467871812085 -142.58358446608327 0 0 0 0 23.070957970572636 5.6546401193281781 0 5.6546401193281781 -150.702060404863 0 0 0 0 108.23121675363655 -51.633829063088342 0 -51.633829063088342 -238.95992749847937 0 0 0 0 63.890346513104305 -92.232191905051877 0 -92.232191905051877 -207.52439785162278 0 0 0 0 36.948920545462897 -31.795805268660843 0 -31.795805268660843 -279.63185911438995 0 0 0 0 -153.6766291820386 -92.590719193081895 0 -92.590719193081895 -208.66458798753774 0 0 0 0 -31.988857159085455 -257.45198908065686 0 -257.45198908065686 -332.32075200000133 0 0 0 0 -42.645247036911314 -107.7119743133353 0 -107.7119743133353 -164.1685173159276 0 0 0 0 89.767079424425901 -108.73219529598646 0 -108.73219529598646 -228.73364798778312 0 0 0 0 62.663145845319377 0.3600292129576701 0 0.3600292129576701 -7.1464461803661834 0 0 0 0 160.39869200978865 -68.340743929804376 0 -68.340743929804376 -194.71272743376358 0 0 0 0 288.45395167408424 76.303785234073075 0 76.303785234073075 -34.248300680505054 0 0 0 0 -21.945520018640309 -151.75336476975917 0 -151.75336476975917 -69.095547087765226 0 0 0 0 -62.10959855071269 -70.751494346063737 0 -70.751494346063737 -188.0902952817014 0 0 0 0 57.922101142416068 -159.39057004200731 0 -159.39057004200731 -338.44999201059181 0 0 0 0 9.8530572880555951 -5.7082293579807999 0 -5.7082293579807999 2.4740741452215751 0 0 0 0 -3.7939512468647081 33.141017040796669 0 33.141017040796669 23.794955391505937 0 0 0 0 207.69063454659045 147.60768148095667 0 147.60768148095667 -330.61986567551867 0 0 0 0 18.502564803125878 0.66913585111942098 0 0.66913585111942098 -0.38701316115296969 0 0 0 0 60.99619760096175 92.251031809584674 0 92.251031809584674 -64.297270204475353 0 0 0 0 149.13132793850491 297.77590425022254 0 297.77590425022254 106.14748246898671 0 0 0 0 321.26995117887418 18.26278642203215 0 18.26278642203215 -127.71196351027402 0 0 0 0 217.27705399291699 120.86354977857491 0 120.86354977857491 -113.37724812976376 0 0 0 0 174.04634080045071 211.7145798446727 0 211.7145798446727 70.218080416067096 0 0 0 0 36.488724554488726 199.37540995400923 0 199.37540995400923 -146.9258579166908 0 0 0 0 -78.211553019380517 -84.667261944760867 0 -84.667261944760867 -134.51197793007304 0 0 0 0 36.4285519650075 -18.785210996131354 0 -18.785210996131354 -35.881740316095375 0 0 0 0 48.713075362033123 -130.16750456558111 0 -130.16750456558111 -302.27455424835307 0 0 0 0 214.31951068273338 1.2276140487010707 0 1.2276140487010707 -581.96039182664117 0 0 0 0 29.768421081314955 27.560055372418446 0 27.560055372418446 -6.2733010943193221 0 0 0 0 24.538722090403766 -3.7275956266443515 0 -3.7275956266443515 0.11741166806454251 0 0 0 0 18.790791682677614 -3.0853825708058675 0 -3.0853825708058675 1.1867798283477349 0 0 0 0 -10.070905645119637 -100.97536970619149 0 -100.97536970619149 -193.66268842325371 0 0 0 0 -50.154044669048744 -242.40993228424122 0 -242.40993228424122 -757.72005480013831 0 0 0 0 47.839233341253177 -5.9282750523838601 0 -5.9282750523838601 -0.40675744697872851 0 0 0 0 92.696598322358113 -13.825289995078492 0 -13.825289995078492 -242.35754444627491 0 0 0 0 65.434256916567392 17.445288153061483 0 17.445288153061483 -347.43662238538309 0 0 0 0 -1.3327149004544481 -48.386221067663428 0 -48.386221067663428 -171.76643378617155 0 0 0 0 10.649462990018776 8.670700455652403 0 8.670700455652403 -7.6284312336645037 0 0 0 0 127.59622371582736 -105.00801868118651 0 -105.00801868118651 -370.16537134795544 0 0 0 0 212.8068521648056 120.58641646865453 0 120.58641646865453 -349.94003331167914 0 0 0 0 43.499947081254504 -317.63445189930644 0 -317.63445189930644 67.776432717404532 0 0 0 0 13.232041908842803 60.204782070852161 0 60.204782070852161 244.44864869981666 0 0 0 0 127.13667055111728 -109.52080433691663 0 -109.52080433691663 -463.59761680318115 0 0 0 0 72.795760705739667 -62.390389359623441 0 -62.390389359623441 -141.86295696507295 0 0 0 0 92.294898858730448 157.70346891902591 0 157.70346891902591 -383.63573449334217 0 0 0 0 -38.947949564273586 37.634427006174519 0 37.634427006174519 407.37906508191736 0 0 0 0 52.386249171453528 -104.88525750293047 0 -104.88525750293047 201.60587806884723 0 0 0 0 26.89829048087995 10.803046091215947 0 10.803046091215947 -105.42304727533974 0 0 0 0 29.17074104945641 -143.38218655181117 0 -143.38218655181117 204.30768795305812 0 0 0 0 15.19926183057305 -105.35088269825837 0 -105.35088269825837 202.78458418750233 0 0 0 0 153.78801659265991 -39.964832032592767 0 -39.964832032592767 2.769152224802383 0 0 0 0 22.277758932349997 6.3431866856639516 0 6.3431866856639516 -2.9247326735738959 0 0 0 0 77.33068145326979 79.830621682378478 0 79.830621682378478 95.785985772262393 0 0 0 0 6.4812895565604549 -1.15499121328447 0 -1.15499121328447 -2.9440667055384324 0 0 0 0 44.033235568180316 233.44481317910402 0 233.44481317910402 729.70770969276782 0 0 0 0 17.804435224497865 50.268597702983243 0 50.268597702983243 193.25517154947738 0 0 0 0 406.29594852435548 470.17252692205966 0 470.17252692205966 363.12692393410362 0 0 0 0 283.57191971209249 -173.53315865124023 0 -173.53315865124023 497.51966841174044 0 0 0 0 173.29260188555781 448.00413525364092 0 448.00413525364092 750.13609180270214 0 0 0 0 199.50297268773102 68.790967950433242 0 68.790967950433242 -168.72504025786839 0 0 0 0 56.882249932015839 226.33901621576206 0 226.33901621576206 329.80829940453623 0 0 0 0 242.90919331300393 426.94606168508744 0 426.94606168508744 334.53264084893453 0 0 0 0 417.52059294673381 359.30073241272657 0 359.30073241272657 53.337380340141863 0 0 0 0 378.98191504820716 -238.49723545919733 0 -238.49723545919733 221.39639386866565 0 0 0 0 899.67712261209817 438.24717300332213 0 438.24717300332213 201.79188013152998 0 0 0 0 7.015212860800176 3.9469040675522891 0 3.9469040675522891 2.4598841085095771 0 0 0 0 250.18056345585865 170.90988776464383 0 170.90988776464383 91.92728061879825 0 0 0 0 33.773495035486121 -14.942432823343552 0 -14.942432823343552 -52.136780150458435 0 0 0 0 73.185663304786431 -58.451482114610371 0 -58.451482114610371 4.1074623579957006 0 0 0 0 11.799874462361913 7.702077605519662 0 7.702077605519662 84.720659833430545 0 0 0 0 23.285616952365672 -86.630799458697311 0 -86.630799458697311 -34.290079483005684 0 0 0 0 86.542446124860362 63.804969250353679 0 63.804969250353679 -128.06477741394156 0 0 0 0 -29.816566501129273 17.987491298845271 0 17.987491298845271 -37.014863665418488 0 0 0 0 121.20762121293592 -16.109383934755897 0 -16.109383934755897 -199.06238062985358 0 0 0 0 41.853659815564093 -5.0769183184074969 0 -5.0769183184074969 0.63556734314839458 0 0 0 0 24.052662373231016 -13.065314493129797 0 -13.065314493129797 -7.7202576878978775 0 0 0 0 18.097668901285942 -41.798332031822611 0 -41.798332031822611 -18.491553183344877 0 0 0 0 47.386985099017693 -5.8372760469155764 0 -5.8372760469155764 -73.836474444302439 0 0 0 0 37.10711367939075 -77.073874716923456 0 -77.073874716923456 -139.59515873083024 0 0 0 0 58.996761430971674 9.9794036724397301 0 9.9794036724397301 -48.394135613936669 0 0 0 0 101.14765618852289 -2.623539172065648 0 -2.623539172065648 -236.83101316924331 0 0 0 0 46.213058287469927 -5.3255513572665265 0 -5.3255513572665265 -0.044317209878860009 0 0 0 0 50.034254278516528 -45.460000716842842 0 -45.460000716842842 -140.50393284828533 0 0 0 0 64.098403497953768 77.323730010034524 0 77.323730010034524 -61.505053524719187 0 0 0 0 -15.043286417665513 -46.42036773909058 0 -46.42036773909058 3.6390427606929734 0 0 0 0 25.604032755285516 -58.589507185327875 0 -58.589507185327875 5.2262151399663708 0 0 0 0 17.573253809812371 -15.985593866627241 0 -15.985593866627241 -10.369694506519636 0 0 0 0 19.084307149507367 -4.931516824956816 0 -4.931516824956816 -52.485277077957107 0 0 0 0 25.164395914251614 4.3367172328260217 0 4.3367172328260217 -23.631877790879077 0 0 0 0 -27.902835743414471 -60.160264788181848 0 -60.160264788181848 61.939872947867116 0 0 0 0 49.237593242925868 24.846730835512062 0 24.846730835512062 60.789221524664754 0 0 0 0 118.34775399733189 139.92812104237055 0 139.92812104237055 87.196543448721968 0 0 0 0 28.384805188637984 -13.44530797641255 0 -13.44530797641255 -29.771114519510775 0 0 0 0 13.651103319511094 -8.3474891985551949 0 -8.3474891985551949 -29.110310332334848 0 0 0 0 30.521373968062107 1.9245290478711468 0 1.9245290478711468 -54.368486952984767 0 0 0 0 28.48313708580099 -17.141520846378626 0 -17.141520846378626 -39.509991557534704 0 0 0 0 30.495165184616781 -11.690340103458766 0 -11.690340103458766 -26.74600229279531 0 0 0 0 44.310860745841637 -17.42801231876274 0 -17.42801231876274 -27.313042936818647 0 0 0 0 49.821318626170978 -19.07825834023879 0 -19.07825834023879 -31.01471435658641 0 0 0 0 22.389747179458936 -3.2640126273340684 0 -3.2640126273340684 -19.621714965185674 0 0 0 0 18.722141298590032 12.853354116833756 0 12.853354116833756 -44.754324886295691 0 0 0 0 28.295268759129584 9.7371239209548719 0 9.7371239209548719 -29.096427985655158 0 0 0 0 32.185150134464493 39.910564856441852 0 39.910564856441852 -32.112811477889409 0 0 0 0 41.753782025640248 -16.926485725221482 0 -16.926485725221482 -7.1751651553386182 0 0 0 0 52.481229991462897 -33.051580642809313 0 -33.051580642809313 -7.8312298869695951 0 0 0 0 26.156277757521593 -0.83222023819536162 0 -0.83222023819536162 -30.47879932183131 0 0 0 0 28.116525150027883 -12.831026227915572 0 -12.831026227915572 -15.186990797208637 0 0 0 0 50.626365017278204 -19.196238055360368 0 -19.196238055360368 -16.018545132761574 0 0 0 0 126.37190557184658 -46.486960716509202 0 -46.486960716509202 -120.86842442299712 0 0 0 0 39.175014651575026 -16.098571168145305 0 -16.098571168145305 -15.162040512855349 0 0 0 0 82.677742324756764 61.705702790881105 0 61.705702790881105 22.856963265145168 0 0 0 0 259.1261657266441 62.07484530531201 0 62.07484530531201 -45.538335543687936 0 0 0 0 183.04590615871712 175.39082357409097 0 175.39082357409097 48.702440389972253 0 0 0 0 29.856498326815412 -5.0179248359359505 0 -5.0179248359359505 -13.853821715287339 0 0 0 0 112.91767445618461 41.284734991916594 0 41.284734991916594 -19.351585101594537 0 0 0 0 93.760078290354613 117.08102417445161 0 117.08102417445161 71.582677110971417 0 0 0 0 171.07870337788336 144.03543355360853 0 144.03543355360853 12.996048515820803 0 0 0 0 177.6141831160603 232.96939571552502 0 232.96939571552502 125.76360270476653 0 0 0 0 258.75601929171899 176.22168510856272 0 176.22168510856272 30.836115865402462 0 0 0 0 242.45364446854364 288.17162566668867 0 288.17162566668867 172.57456450285827 0 0 0 0 200.01759143004165 237.79395364101401 0 237.79395364101401 186.50056976404267 0 0 0 0 80.493347071904282 234.00119037096692 0 234.00119037096692 380.82864592350779 0 0 0 0 370.96600939988275 477.43469555436832 0 477.43469555436832 404.32246409124673 0 0 0 0 689.20046058722801 165.35196666226057 0 165.35196666226057 107.21515444174361 0 0 0 0 274.80492275138022 160.68614089345692 0 160.68614089345692 107.81709674274134 0 0 0 0 352.61747836202994 229.78706980871857 0 229.78706980871857 53.281636293175325 0 0 0 0 395.13250790032907 92.610515415359259 0 92.610515415359259 -0.31175199475273985 0 0 0 0 153.79838082016795 105.76758097361835 0 105.76758097361835 14.029068726205878 0 0 0 0 238.70785019974574 -12.961949562557493 0 -12.961949562557493 -49.609170448115037 0 0 0 0 203.21624636348861 61.485833256034311 0 61.485833256034311 5.882746315895929 0 0 0 0 179.00291268587898 41.574923866089193 0 41.574923866089193 118.89425526418199 0 0 0 0 368.62644295021528 -15.446832575195913 0 -15.446832575195913 371.28117514682253 0 0 0 0 276.69125317554426 138.11643746815389 0 138.11643746815389 127.5698761985368 0 0 0 0 124.94205710102688 76.265169532925029 0 76.265169532925029 236.45070745075282 0 0 0 0 -46.012134145974414 63.643326145988794 0 63.643326145988794 130.16424068792958 0 0 0 0 0.36877897501216239 1.376947400857139 0 1.376947400857139 -3.3056132061905306 0 0 0 0 126.38175952112942 141.8825923760146 0 141.8825923760146 -15.034646772361157 0 0 0 0 1.6202688650228083 -10.947896617064544 0 -10.947896617064544 44.965917038657608 0 0 0 0 1.4418941578017552 -0.51032922076524301 0 -0.51032922076524301 -2.8577849498410792 0 0 0 0 6.1221788691909751 -34.362898531619066 0 -34.362898531619066 43.77013805612296 0 0 0 0 -2.527900403511012 -11.72547625538391 0 -11.72547625538391 13.008803798977169 0 0 0 0 125.83325958359637 41.820006962512707 0 41.820006962512707 21.559037631808678 0 0 0 0 66.570735585846705 -56.533932480857402 0 -56.533932480857402 32.380049377678006 0 0 0 0 183.3410374064988 -15.070708044962885 0 -15.070708044962885 3.0284369876171695 0 0 0 0 71.249924094503513 -42.654593433635455 0 -42.654593433635455 7.9483811079544466 0 0 0 0 54.907844317465788 -12.966417193789312 0 -12.966417193789312 -44.743065431695868 0 0 0 0 -18.772952520215767 -117.81805331841633 0 -117.81805331841633 -26.800932558282511 0 0 0 0 6.5898053707060171 -147.01425850686974 0 -147.01425850686974 -103.03789837302611 0 0 0 0 273.26074623702152 80.309471186549672 0 80.309471186549672 -47.034213372877275 0 0 0 0 187.61529983102082 149.98948397088316 0 149.98948397088316 -92.489139011080624 0 0 0 0 8.7757158070424879 -6.9368395638561822 0 -6.9368395638561822 3.4386010922002868 0 0 0 0 49.84669307250806 140.58696694913397 0 140.58696694913397 34.21217614465786 0 0 0 0 64.789390932046899 -271.24243923656002 0 -271.24243923656002 -26.295717858143689 0 0 0 0 111.12777040126821 96.1113848725754 0 96.1113848725754 54.080160252193309 0 0 0 0 727.37254852978549 132.38031221100027 0 132.38031221100027 20.673389820822194 0 0 0 0 202.72767565520917 234.04361558132496 0 234.04361558132496 89.687101506244289 0 0 0 0 90.328014201022597 158.23777150070327 0 158.23777150070327 87.275103302730713 0 0 0 0 137.09621163088741 249.57440746827069 0 249.57440746827069 243.95497225530426 0 0 0 0 157.37092146744908 206.4004914212544 0 206.4004914212544 107.93127237187036 0 0 0 0 182.46542533534739 217.8035445973801 0 217.8035445973801 82.789253683175048 0 0 0 0 264.37620768224951 250.61480729738562 0 250.61480729738562 77.023643331862331 0 0 0 0 183.08698777906102 183.2810143780498 0 183.2810143780498 22.295452272745024 0 0 0 0 140.53594533826981 131.18588218770765 0 131.18588218770765 74.888771983190509 0 0 0 0 119.46464883186491 129.80308273913113 0 129.80308273913113 79.617209086926778 0 0 0 0 96.989747429208364 174.98781686297389 0 174.98781686297389 184.02906377772342 0 0 0 0 173.96545387674723 219.72912405437091 0 219.72912405437091 86.594305539176275 0 0 0 0 79.052381860332389 141.10188486924108 0 141.10188486924108 147.1318767419084 0 0 0 0 57.916758740131627 126.28507606279072 0 126.28507606279072 186.96078190257685 0 0 0 0 -52.573508099696483 -47.469998591678177 0 -47.469998591678177 -3.3157997589405568 0 0 0 0 65.520611140593246 88.667596702980063 0 88.667596702980063 115.07713241699639 0 0 0 0 7.046187482616034 -4.0212088255660774 0 -4.0212088255660774 2.5826572043831213 0 0 0 0 -66.859046767334803 -32.37992986201607 0 -32.37992986201607 17.931745721833067 0 0 0 0 38.332892491001985 78.105409633382806 0 78.105409633382806 58.855406793154657 0 0 0 0 -56.238182861079622 17.024718281369076 0 17.024718281369076 43.335991156730415 0 0 0 0 8.8080910189236619 -7.2850577644823318 0 -7.2850577644823318 4.1641131511249689 0 0 0 0 -58.263764900675596 -121.22751706117697 0 -121.22751706117697 -8.9537491095429687 0 0 0 0 141.79033393748978 34.277481066094424 0 34.277481066094424 -47.042416213527076 0 0 0 0 -1.272296792078123 104.49048156948402 0 104.49048156948402 360.73661316927246 0 0 0 0 104.5377167993247 13.810769225383638 0 13.810769225383638 10.998348900716337 0 0 0 0 147.93031341265305 -20.091821394692943 0 -20.091821394692943 50.164586799950484 0 0 0 0 132.00451822439209 21.130733963036164 0 21.130733963036164 -7.1911451435531148 0 0 0 0 70.087251459630352 -46.21276646476872 0 -46.21276646476872 72.915062517071419 0 0 0 0 100.49159166580921 -16.153741128742411 0 -16.153741128742411 102.28897867374053 0 0 0 0 105.85360332853452 -37.866165081830331 0 -37.866165081830331 58.643572534074337 0 0 0 0 97.513846927793566 -26.801887195188783 0 -26.801887195188783 111.59245357144573 0 0 0 0 94.428715899146482 -7.9477997507201508 0 -7.9477997507201508 22.36462256266168 0 0 0 0 59.794637854814937 30.160146553356753 0 30.160146553356753 69.327520997148895 0 0 0 0 99.014252882247092 21.501709284107164 0 21.501709284107164 65.549044385319576 0 0 0 0 100.01346210307383 10.118435975658031 0 10.118435975658031 195.20288609969975 0 0 0 0 234.55931567653533 -69.239365330173996 0 -69.239365330173996 9.0616016037711233 0 0 0 0 136.03569335446082 -81.460678513108178 0 -81.460678513108178 160.73678368959372 0 0 0 0 123.10363181935827 -44.346141967601397 0 -44.346141967601397 60.688215627106729 0 0 0 0 76.736622981828987 82.864477603001433 0 82.864477603001433 95.729562580518177 0 0 0 0 73.713196342105221 59.525473889803379 0 59.525473889803379 106.83558953319243 0 0 0 0 79.329169422548148 57.330169911773055 0 57.330169911773055 96.786775813096028 0 0 0 0 70.2151397016587 -30.459126608549944 0 -30.459126608549944 -21.912792847166202 0 0 0 0 79.338063290262653 46.023744857307065 0 46.023744857307065 185.63537433514011 0 0 0 0 103.44490255643177 103.96447151411576 0 103.96447151411576 133.0324882413297 0 0 0 0 2.1932394230581593 -0.44169864063287889 0 -0.44169864063287889 -1.0702285381587249 0 0 0 0 53.028092064691009 13.981875503810897 0 13.981875503810897 33.618620200300938 0 0 0 0 45.906847896076215 24.960737603219968 0 24.960737603219968 21.022591412822294 0 0 0 0 -7.6330272313061869 32.518538447080573 0 32.518538447080573 36.827581321593243 0 0 0 0 5.971606965373212 0.037148456100112526 0 0.037148456100112526 2.3809314654699847 0 0 0 0 0.7463140698141153 -1.2283568585014422 0 -1.2283568585014422 1.15414946289998 0 0 0 0 -31.079673491582071 -4.4697554134847906 0 -4.4697554134847906 41.282454539850733 0 0 0 0 86.570703237065572 84.804404283110671 0 84.804404283110671 75.853304564414429 0 0 0 0 88.279023242990661 70.493881565460924 0 70.493881565460924 60.471084132652322 0 0 0 0 2.8592181927985649 -0.37089209604670259 0 -0.37089209604670259 -1.3160263499797722 0 0 0 0 86.26356598156417 66.610420273121235 0 66.610420273121235 50.712483746688577 0 0 0 0 78.849503049354098 72.474092686009271 0 72.474092686009271 79.580728860437375 0 0 0 0 89.032858554783161 79.044818235099228 0 79.044818235099228 55.669498588077658 0 0 0 0 77.415584458445664 58.803334229392931 0 58.803334229392931 58.412625765700795 0 0 0 0 2.7066802784088395 -0.62866583967499423 0 -0.62866583967499423 -1.8862809384271237 0 0 0 0 3.9631679038811853 7.0575306410191843 0 7.0575306410191843 3.0076933363816352 0 0 0 0 47.112197718401148 16.18777547915397 0 16.18777547915397 -12.466722170883259 0 0 0 0 -3.3960048129665665 -10.32747799750905 0 -10.32747799750905 18.993175966053968 0 0 0 0 64.714394436443399 45.630026765577895 0 45.630026765577895 28.806172077804149 0 0 0 0 38.51689735805121 31.640809525018994 0 31.640809525018994 34.182411637641053 0 0 0 0 75.852677726186812 44.172461938169363 0 44.172461938169363 13.859970550891376 0 0 0 0 78.095363400785573 52.83779931979916 0 52.83779931979916 33.569778833576493 0 0 0 0 80.721637264672609 50.229495131126896 0 50.229495131126896 18.21640350958387 0 0 0 0 46.701695034960721 40.530137295213535 0 40.530137295213535 29.040791635032292 0 0 0 0 23.256245863813092 23.511546516536782 0 23.511546516536782 29.428749346636323 0 0 0 0 -4.6912299553659977 -4.3143744638343833 0 -4.3143744638343833 7.6465800813730311 0 0 0 0 0.69168962972092984 -1.2388137979062606 0 -1.2388137979062606 1.2920218601311646 0 0 0 0 45.92869294583943 46.190386130627303 0 46.190386130627303 9.4943642714279122 0 0 0 0 3.0899999631855266 -2.5821327851995974 0 -2.5821327851995974 0.70140190321759732 0 0 0 0 288.55499864804187 11.413573337610615 0 11.413573337610615 -224.95645549376968 0 0 0 0 126.15722096550599 75.879683421396294 0 75.879683421396294 118.71717653165797 0 0 0 0 87.859557376985322 40.811134024547755 0 40.811134024547755 97.113671880641959 0 0 0 0 88.12248851692857 39.634995040052672 0 39.634995040052672 32.414713665433737 0 0 0 0 74.007969227306603 33.370431842741255 0 33.370431842741255 38.407062934060377 0 0 0 0 75.633634940890374 59.103068892514628 0 59.103068892514628 40.450096248860063 0 0 0 0 124.56500729892286 64.306534016915066 0 64.306534016915066 34.985912240645121 0 0 0 0 4.2644121039616536 -5.3128893060654079 0 -5.3128893060654079 5.7456808604110989 0 0 0 0 -31.74335015845827 -116.21790857612405 0 -116.21790857612405 146.91388961222947 0 0 0 0 114.02421297031833 65.01122273753208 0 65.01122273753208 25.354088653099097 0 0 0 0 103.11868145074732 64.325902140878043 0 64.325902140878043 32.464355144762521 0 0 0 0 101.53689551879893 56.311195408437158 0 56.311195408437158 34.342375353096941 0 0 0 0 101.66300970345037 54.553312370848289 0 54.553312370848289 23.908694436926453 0 0 0 0 104.17805749805848 63.767293783068453 0 63.767293783068453 22.164659210949821 0 0 0 0 62.444843011606281 -66.655048715352677 0 -66.655048715352677 -101.93354257009378 0 0 0 0 -164.52331929319325 -145.7251291265917 0 -145.7251291265917 208.40581483785354 0 0 0 0 -213.27083379138639 109.37729150463565 0 109.37729150463565 341.61406303702825 0 0 0 0 99.612631003379647 199.82834262465803 0 199.82834262465803 272.66456994122927 0 0 0 0 -49.878981656147516 79.147674025211927 0 79.147674025211927 201.58850733784493 0 0 0 0 407.57558817861718 169.30268500645798 0 169.30268500645798 146.52311756900326 0 0 0 0 207.04137994166922 322.85356459568311 0 322.85356459568311 56.12191791216901 0 0 0 0 -0.39433005381556541 -706.17166300637518 0 -706.17166300637518 627.7501052167936 0 0 0 0 182.81899277591219 -94.287520483615481 0 -94.287520483615481 103.39481970078486 0 0 0 0 208.67971956643305 -307.86216813877036 0 -307.86216813877036 -333.64823693675135 0 0 0 0 212.05236685249838 -160.08340630170642 0 -160.08340630170642 54.134755186873008 0 0 0 0 292.38653850394803 -64.696145971484839 0 -64.696145971484839 -168.57950076719499 0 0 0 0 -77.568106019381958 374.45195736054666 0 374.45195736054666 -465.03868854475513 0 0 0 0 4.1075247711015663 -2.8238755208327433 0 -2.8238755208327433 0.73100502923932709 0 0 0 0 110.87138805296308 43.454197839546282 0 43.454197839546282 34.635367037808464 0 0 0 0 64.717119774286402 54.310598222730732 0 54.310598222730732 43.262311331238379 0 0 0 0 73.10871917618806 51.92474685203797 0 51.92474685203797 40.682674271214637 0 0 0 0 73.214779573972919 48.905205018421839 0 48.905205018421839 54.667045417907502 0 0 0 0 69.160851499094861 32.389418844622924 0 32.389418844622924 8.9901983615727659 0 0 0 0 82.473530546241818 51.828692173246509 0 51.828692173246509 35.107559662954372 0 0 0 0 84.604260964035348 49.50337068469662 0 49.50337068469662 36.91936913939935 0 0 0 0 74.357151159134446 65.099520976211352 0 65.099520976211352 46.378569718017388 0 0 0 0 142.32125365158208 60.585528257592159 0 60.585528257592159 38.426874523634979 0 0 0 0 3.2295761761318431 -5.5277457894817168 0 -5.5277457894817168 8.8836025635775684 0 0 0 0 70.704316974573885 60.542362489760308 0 60.542362489760308 43.651539849017809 0 0 0 0 71.042276436040993 58.138183483992179 0 58.138183483992179 47.635237502008749 0 0 0 0 -71.634073731958779 279.01236571500749 0 279.01236571500749 -278.4563913645834 0 0 0 0 -2.3444515322516821 -1.650122986509416 0 -1.650122986509416 5.8931493877319312 0 0 0 0 76.39673536967166 47.825337917553043 0 47.825337917553043 30.671998149517094 0 0 0 0 30.178950636334775 13.83438055012175 0 13.83438055012175 58.908689441464048 0 0 0 0 116.26639166240784 70.991813792763423 0 70.991813792763423 66.968532629569381 0 0 0 0 67.428202030188913 58.001893096976346 0 58.001893096976346 76.223703550054779 0 0 0 0 33.16991494740796 42.665870328495657 0 42.665870328495657 97.642480436363257 0 0 0 0 33.96411410591827 -1.3240437932618079 0 -1.3240437932618079 -9.6514898169298249 0 0 0 0 43.842518766439753 46.943871473145009 0 46.943871473145009 54.624957309737511 0 0 0 0 -379.0818719306917 -225.60387082861416 0 -225.60387082861416 200.97958253088291 0 0 0 0 -56.120891284801473 128.49516980202725 0 128.49516980202725 -13.052548882384144 0 0 0 0 295.2104618669 409.10963196786997 0 409.10963196786997 365.95742535011595 0 0 0 0 181.45977182233582 469.08699041282671 0 469.08699041282671 487.00382649054518 0 0 0 0 618.90558720445188 -154.14059796447691 0 -154.14059796447691 -94.137011822807835 0 0 0 0 7.0779814438494668 0.35292302049731816 0 0.35292302049731816 0.1482471604558695 0 0 0 0 641.53680008584706 472.72330040218367 0 472.72330040218367 102.20465251911446 0 0 0 0 749.80633978447077 143.19535333994872 0 143.19535333994872 -171.92403219257903 0 0 0 0 241.83154305721473 -187.23457884974778 0 -187.23457884974778 272.50585993229288 0 0 0 0 46.890212338034871 5.4862562622012092 0 5.4862562622012092 50.83027851828956 0 0 0 0 58.844330523574172 3.5642581520660315 0 3.5642581520660315 51.079425247658946 0 0 0 0 45.038071036775364 4.733185940192925 0 4.733185940192925 59.404466467312886 0 0 0 0 57.777960208972218 36.841053936019762 0 36.841053936019762 76.728968898078165 0 0 0 0 141.66790518263952 56.122778403873781 0 56.122778403873781 48.050473409683036 0 0 0 0 8.6797563746535857 -2.0350882684636531 0 -2.0350882684636531 1.0658393161833644 0 0 0 0 47.135916484621703 10.173641063818138 0 10.173641063818138 25.815353903977666 0 0 0 0 112.91379368181333 24.117616658399129 0 24.117616658399129 -25.144068476762186 0 0 0 0 9.8676203088891619 0.16519201754189794 0 0.16519201754189794 -0.87289939246732473 0 0 0 0 50.633821022318443 30.912907563830231 0 30.912907563830231 -13.103883865180251 0 0 0 0 55.280057504896831 25.250952440686888 0 25.250952440686888 17.96505510211864 0 0 0 0 54.02933027662948 23.258379540506212 0 23.258379540506212 -0.39852838792285183 0 0 0 0 52.09593503522774 28.579673421827465 0 28.579673421827465 25.308138373678958 0 0 0 0 51.63911580851709 9.174174572352058 0 9.174174572352058 24.043343398926936 0 0 0 0 51.82982344343327 13.868017345008411 0 13.868017345008411 50.747493117123668 0 0 0 0 57.621280096846021 9.3563566119919415 0 9.3563566119919415 46.569913008504955 0 0 0 0 57.265831894635994 11.162369119079813 0 11.162369119079813 73.092768828995759 0 0 0 0 70.009941858112143 24.398321460934312 0 24.398321460934312 32.901279877529305 0 0 0 0 61.490446329989936 50.240497585007688 0 50.240497585007688 3.6282848006667336 0 0 0 0 53.965489613254249 40.574131649186711 0 40.574131649186711 33.606901731531252 0 0 0 0 54.270316583904787 35.115404441043211 0 35.115404441043211 43.837974539327661 0 0 0 0 109.09014174051845 52.744096748414449 0 52.744096748414449 35.613092881379998 0 0 0 0 91.904443255822116 24.846395674867381 0 24.846395674867381 42.106585378503951 0 0 0 0 188.85532036029144 -10.613406667941035 0 -10.613406667941035 14.711607239161822 0 0 0 0 135.35740779149364 -16.079012776891432 0 -16.079012776891432 16.728787116742751 0 0 0 0 150.76467711603254 74.60207108220493 0 74.60207108220493 82.835193409104249 0 0 0 0 69.221269575558836 14.941533450644783 0 14.941533450644783 99.64507520261941 0 0 0 0 86.316857231257018 41.840811672096606 0 41.840811672096606 51.533941854453587 0 0 0 0 310.2829779131207 54.871317493158131 0 54.871317493158131 21.778379875264363 0 0 0 0 -21.310046264921766 48.306286720444859 0 48.306286720444859 102.78141574186884 0 0 0 0 -0.90069392503267309 -1.9283832349078764 0 -1.9283832349078764 1.3509730184128017 0 0 0 0 315.23898527619895 81.338197093800773 0 81.338197093800773 136.54251345249941 0 0 0 0 -9.9329805570196186 15.213122592600484 0 15.213122592600484 64.740465077469707 0 0 0 0 1.071432293342923 -1.3057678200610923 0 -1.3057678200610923 -0.24534628663779756 0 0 0 0 -1.839999875983267 -42.015412669263696 0 -42.015412669263696 46.896121509216755 0 0 0 0 195.34044486510174 140.72841140403943 0 140.72841140403943 109.01286638848069 0 0 0 0 204.34125467400008 130.66376304834739 0 130.66376304834739 51.545076565662384 0 0 0 0 8.8901045548882394 96.567704936518567 0 96.567704936518567 159.37986574316164 0 0 0 0 83.969096365246514 144.08715696267245 0 144.08715696267245 134.7131041984976 0 0 0 0 49.428100999793969 72.63898732123198 0 72.63898732123198 85.211267187797603 0 0 0 0 67.213621137743758 -6.8666673950410768 0 -6.8666673950410768 63.363368095338444 0 0 0 0 70.587316730801831 0.51354980280484597 0 0.51354980280484597 77.466522146876741 0 0 0 0 71.271522694936721 11.812867011301933 0 11.812867011301933 63.181867619608965 0 0 0 0 80.237406309512153 67.828481876626029 0 67.828481876626029 162.44711644255585 0 0 0 0 68.236013411209569 2.0279942293545901 0 2.0279942293545901 76.49834878988986 0 0 0 0 19.034914372903586 2.2983199687951128 0 2.2983199687951128 100.76631368804374 0 0 0 0 55.983633249221384 -31.505977704453471 0 -31.505977704453471 40.994207346800977 0 0 0 0 58.015112838740606 -28.175489621929955 0 -28.175489621929955 -20.526876257372351 0 0 0 0 77.990319679294771 3.5776594356757414 0 3.5776594356757414 29.665798532175359 0 0 0 0 83.601429617599933 0.7012557149391796 0 0.7012557149391796 11.775205519583324 0 0 0 0 0.89075438341109603 -1.2945404993158576 0 -1.2945404993158576 0.83171029858126388 0 0 0 0 1.8925138861895903 -13.58182127626651 0 -13.58182127626651 10.870653998470516 0 0 0 0 76.780550424100966 30.739569938048362 0 30.739569938048362 36.738136173660678 0 0 0 0 77.802944028324418 26.807946816365074 0 26.807946816365074 -13.68150206529458 0 0 0 0 110.3144062066167 21.604855729804058 0 21.604855729804058 24.604356019648549 0 0 0 0 96.293221270898357 22.317731482563431 0 22.317731482563431 47.187260158281788 0 0 0 0 91.207004334382873 29.399756862890172 0 29.399756862890172 40.775173299791277 0 0 0 0 125.24530183869138 28.449617513869271 0 28.449617513869271 35.933518893943983 0 0 0 0 109.07595516459247 46.214528963707721 0 46.214528963707721 55.262331493555394 0 0 0 0 137.5898446696192 49.647842600060358 0 49.647842600060358 48.081810394029162 0 0 0 0 7.1933813411451055 -14.725052965072909 0 -14.725052965072909 32.605342940468113 0 0 0 0 119.47397827260647 62.897749615960493 0 62.897749615960493 62.573141706928254 0 0 0 0 110.21323130006385 47.182396430719564 0 47.182396430719564 70.247270058002869 0 0 0 0 246.72636622858499 117.03880824931659 0 117.03880824931659 99.66600867625516 0 0 0 0 7.0808825094536587 12.529428746386202 0 12.529428746386202 9.1612266293119546 0 0 0 0 2.0639488432698911 -0.42372738632420592 0 -0.42372738632420592 -1.7229768783638413 0 0 0 0 117.27176506652177 47.760063115056255 0 47.760063115056255 50.467440826190796 0 0 0 0 116.65947512823629 58.080713767404262 0 58.080713767404262 49.981894783826647 0 0 0 0 112.28671237869639 48.646345634364479 0 48.646345634364479 51.009746675185852 0 0 0 0 109.59436428076151 50.978517984738119 0 50.978517984738119 61.876430986932974 0 0 0 0 91.355411842712783 69.78213454459501 0 69.78213454459501 46.098267813909843 0 0 0 0 73.24948721013061 69.345545562857296 0 69.345545562857296 62.088068377532181 0 0 0 0 79.035892949083063 72.440561331883259 0 72.440561331883259 70.583562598823846 0 0 0 0 79.116916679162387 66.90368070660179 0 66.90368070660179 70.497721017565709 0 0 0 0 86.351710061142512 64.599388871378324 0 64.599388871378324 63.101015367676155 0 0 0 0 108.24731435003378 51.147134546853749 0 51.147134546853749 66.209289248432924 0 0 0 0 86.343966724802158 64.761538130076588 0 64.761538130076588 59.887361307242259 0 0 0 0 74.651696399843786 53.485324848120172 0 53.485324848120172 70.61634918200366 0 0 0 0 79.143806930829214 54.866769961472073 0 54.866769961472073 68.293248616249002 0 0 0 0 75.95777680944957 64.830113230949792 0 64.830113230949792 82.040540855865856 0 0 0 0 73.342467011585541 62.932021938938306 0 62.932021938938306 80.678563031807244 0 0 0 0 254.41278135638004 132.32562256811013 0 132.32562256811013 114.62458162699068 0 0 0 0 6.6170602806115042 -13.668576957620623 0 -13.668576957620623 30.058920669013354 0 0 0 0 6.3117929023011143 -12.593781647016442 0 -12.593781647016442 27.290551415034457 0 0 0 0 314.82089600404743 264.08017413599964 0 264.08017413599964 241.48340923665455 0 0 0 0 249.50847379823881 85.243565209249539 0 85.243565209249539 184.59241864871819 0 0 0 0 264.03314570439034 144.85569947174463 0 144.85569947174463 104.35176146275353 0 0 0 0 26.051105668768287 -62.043921010175382 0 -62.043921010175382 -279.6741152313715 0 0 0 0 -75.305076547677345 -87.371557229379221 0 -87.371557229379221 -103.86987802983185 0 0 0 0 16.259222547604708 -8.5751326303557605 0 -8.5751326303557605 3.0477096269536581 0 0 0 0 -63.575483200971803 -190.6948455044903 0 -190.6948455044903 -258.15171149256184 0 0 0 0 570.05240677915026 98.880207139945469 0 98.880207139945469 50.093664293678557 0 0 0 0 438.08266632428422 337.88377836206655 0 337.88377836206655 210.14210676493212 0 0 0 0 -100.24125499453112 -386.60408846388611 0 -386.60408846388611 -123.76205002718552 0 0 0 0 -59.444978869451461 -7.9192037567443379 0 -7.9192037567443379 -138.05650799188334 0 0 0 0 -7.8298112368429429 -69.028882918810496 0 -69.028882918810496 -73.854785829764296 0 0 0 0 -34.568111698157736 -57.326087347006478 0 -57.326087347006478 -109.89367938320629 0 0 0 0 97.814133488980588 26.247272009658218 0 26.247272009658218 -115.23867576396333 0 0 0 0 -12.139131312396785 2.7514491878771423 0 2.7514491878771423 247.33265602148458 0 0 0 0 83.883058414034167 -300.93908878497223 0 -300.93908878497223 -57.353663237632645 0 0 0 0 366.382764222486 50.372575395172589 0 50.372575395172589 -37.283266505192614 0 0 0 0 2.2732649970470646 -2.178876257463223 0 -2.178876257463223 1.4537108055870918 0 0 0 0 186.32632127192483 131.46183545690519 0 131.46183545690519 91.444235027123284 0 0 0 0 237.14401412502093 -108.33555274561228 0 -108.33555274561228 15.207325121428767 0 0 0 0 1.5988155112777509 -1.2443528242931734 0 -1.2443528242931734 0.16301181304820478 0 0 0 0 17.792076628378709 -8.6215709943924139 0 -8.6215709943924139 -6.8013231994452781 0 0 0 0 9.3519309247402731 -3.0870327160311604 0 -3.0870327160311604 1.3441872241893473 0 0 0 0 -75.900629711324655 64.692591815919741 0 64.692591815919741 -33.723541491748847 0 0 0 0 235.48819036032364 -304.2510433741827 0 -304.2510433741827 -114.30719877881347 0 0 0 0 5.1730837764389435 117.84958354788557 0 117.84958354788557 -189.55376455822898 0 0 0 0 187.79789707621967 -164.87757788500039 0 -164.87757788500039 25.092291899122301 0 0 0 0 1192.125526921227 97.833683013862355 0 97.833683013862355 -334.23602885510354 0 0 0 0 21.811216542526381 -5.1461525121842442 0 -5.1461525121842442 -3.6731789504947301 0 0 0 0 0.47404454136835916 -1.6871877963751132 0 -1.6871877963751132 -0.20156583005608519 0 0 0 0 6.053383458256576 -4.1260090398216107 0 -4.1260090398216107 1.6639834338097899 0 0 0 0 1.9056782251172848 -1.3883644370968895 0 -1.3883644370968895 6.5123589650338083 0 0 0 0 49.217272765770758 48.858612319309486 0 48.858612319309486 86.487601843038192 0 0 0 0 33.541376625820703 7.5306227875408922 0 7.5306227875408922 62.0622982656555 0 0 0 0 1043.0833542947839 -380.98572439417512 0 -380.98572439417512 267.44245929032559 0 0 0 0 4.8554658307422045 -2.565261140162562 0 -2.565261140162562 1.5965722069674939 0 0 0 0 321.75112951891424 738.30023663663087 0 738.30023663663087 513.96582193092581 0 0 0 0 4.4166700431428154 -9.2600912500534562 0 -9.2600912500534562 20.586442659943252 0 0 0 0 74.197489866870455 43.674849077248382 0 43.674849077248382 55.637076296606665 0 0 0 0 65.868664171952332 23.946655881651623 0 23.946655881651623 80.02382251304698 0 0 0 0 69.826622496420896 49.427859480894654 0 49.427859480894654 88.05603326869732 0 0 0 0 78.326906664484341 36.048168562499995 0 36.048168562499995 112.65037304061934 0 0 0 0 77.383683999607456 43.065874600129064 0 43.065874600129064 68.973763913693801 0 0 0 0 109.10404844754521 25.800828768329666 0 25.800828768329666 74.94450474479072 0 0 0 0 138.45565105858259 -2.3403872931830847 0 -2.3403872931830847 103.85724892597545 0 0 0 0 104.32904051609512 37.615219787859814 0 37.615219787859814 77.526773656244359 0 0 0 0 103.5519090741509 54.648112492781223 0 54.648112492781223 39.856276976086519 0 0 0 0 127.60948893146269 31.644462098864324 0 31.644462098864324 61.287333577155778 0 0 0 0 89.349364267667625 56.91047911376117 0 56.91047911376117 66.149790524370019 0 0 0 0 96.519971038054791 36.242729777159525 0 36.242729777159525 65.703606575671188 0 0 0 0 85.815784077341959 32.443707336144143 0 32.443707336144143 76.071037920016806 0 0 0 0 84.782315501201083 35.334757896130213 0 35.334757896130213 71.379864869922926 0 0 0 0 122.33275387422964 27.831041658149786 0 27.831041658149786 10.905165996642609 0 0 0 0 124.55073597424052 24.554189067683865 0 24.554189067683865 29.871482637951658 0 0 0 0 121.3298672778983 24.845098154513153 0 24.845098154513153 32.11256095087856 0 0 0 0 132.14775316872692 35.92780938704027 0 35.92780938704027 88.034028061194363 0 0 0 0 125.54991344910377 17.620869600121068 0 17.620869600121068 61.075605163775435 0 0 0 0 126.50303865385422 52.516177875993172 0 52.516177875993172 45.742168027758453 0 0 0 0 130.31527504984115 45.613843024674225 0 45.613843024674225 29.08469050055055 0 0 0 0 126.59663860826549 60.053545406279881 0 60.053545406279881 25.789156975093285 0 0 0 0 130.04125515740816 47.557813660342731 0 47.557813660342731 21.485183128037988 0 0 0 0 123.47869215566607 41.624022891944605 0 41.624022891944605 16.285579185412985 0 0 0 0 124.20510291794471 38.973505250240635 0 38.973505250240635 6.0929208050461057 0 0 0 0 124.50514914482483 37.481587580301756 0 37.481587580301756 12.563543513610156 0 0 0 0 144.10137688120449 52.22361688274313 0 52.22361688274313 10.858674181468096 0 0 0 0 137.08918806353176 60.401135281495286 0 60.401135281495286 16.807851722366138 0 0 0 0 140.07381808954233 64.768933433253096 0 64.768933433253096 14.294066273141198 0 0 0 0 127.95174137242793 75.039818842804095 0 75.039818842804095 25.226675589479555 0 0 0 0 119.67018288112013 68.470925377774279 0 68.470925377774279 25.405526291525121 0 0 0 0 218.60511951973604 83.968328703706447 0 83.968328703706447 26.834321367239113 0 0 0 0 136.3823640365481 81.596442760185369 0 81.596442760185369 27.174410850636832 0 0 0 0 168.8096946816222 72.280612041433642 0 72.280612041433642 12.527239707730587 0 0 0 0 149.9866578854344 44.774696808072221 0 44.774696808072221 12.970890024187369 0 0 0 0 157.31552415309216 35.520558834339312 0 35.520558834339312 24.605927423160665 0 0 0 0 199.44350434382795 41.636980477690031 0 41.636980477690031 25.491610714599005 0 0 0 0 97.403692244621197 51.297603185635523 0 51.297603185635523 24.988114163100022 0 0 0 0 65.576995022624033 20.541985599653799 0 20.541985599653799 6.1529108389958083 0 0 0 0 108.31514416007849 50.203546217215674 0 50.203546217215674 33.658834984415677 0 0 0 0 122.1970051147764 66.328063249230169 0 66.328063249230169 24.795052143375187 0 0 0 0 118.44736203215871 62.494376464795437 0 62.494376464795437 22.617224884105781 0 0 0 0 92.608299361112586 60.30681604844392 0 60.30681604844392 28.166665837185406 0 0 0 0 84.40690200402787 45.012375378465748 0 45.012375378465748 15.987449654927332 0 0 0 0 116.23544104371103 74.612701483379851 0 74.612701483379851 28.911419976403067 0 0 0 0 95.960336085690869 72.58050165794802 0 72.58050165794802 31.68381389038359 0 0 0 0 68.589714046887821 61.52850631652791 0 61.52850631652791 57.573517554650607 0 0 0 0 51.940194657563552 23.90913349037902 0 23.90913349037902 15.933596841010058 0 0 0 0 23.533757249926566 20.189396817555462 0 20.189396817555462 25.593028751547763 0 0 0 0 40.857958785076335 26.215388582582818 0 26.215388582582818 16.62180903082708 0 0 0 0 43.263150828584912 39.683156755821074 0 39.683156755821074 30.286830020075854 0 0 0 0 48.137099874973501 26.281627020304995 0 26.281627020304995 7.1940038263614952 0 0 0 0 -14.330265635973774 -6.2895213883921315 0 -6.2895213883921315 1.0342189005256159 0 0 0 0 10.093815108013445 -0.87558533252139625 0 -0.87558533252139625 -3.3969503805789483 0 0 0 0 11.636976411369687 2.6068893499100341 0 2.6068893499100341 -2.1747755798460275 0 0 0 0 7.4267914008709646 4.9931772433620552 0 4.9931772433620552 -2.6054151915862906 0 0 0 0 8.5182732232642593 -2.4546143214106451 0 -2.4546143214106451 -18.840277289625647 0 0 0 0 54.811742951170118 11.733455349322966 0 11.733455349322966 -4.5384755176082763 0 0 0 0 54.950195761193754 15.844990959438064 0 15.844990959438064 2.0672859866456292 0 0 0 0 7.1361103193887061 -1.2666008516168503 0 -1.2666008516168503 -1.4983186525209566 0 0 0 0 3.884787521440435 6.9569187320225367 0 6.9569187320225367 -0.56016507587648778 0 0 0 0 11.333074797483228 -3.3704481477721444 0 -3.3704481477721444 -7.5845661054734554 0 0 0 0 18.221270123299703 1.0804391173705667 0 1.0804391173705667 -10.517384879129672 0 0 0 0 50.3460782197144 11.374266189058744 0 11.374266189058744 11.71085313242861 0 0 0 0 17.761229259580432 24.509382129721416 0 24.509382129721416 48.358123245817865 0 0 0 0 -11.153810406771299 6.109824014674814 0 6.109824014674814 -6.7931763085907733 0 0 0 0 13.621210887287305 -5.0416238028628086 0 -5.0416238028628086 -5.7216984490570368 0 0 0 0 -19.614734504080843 -9.1883247918672168 0 -9.1883247918672168 4.7851110452947978 0 0 0 0 -10.135670635660063 10.766088587645299 0 10.766088587645299 12.19605371241687 0 0 0 0 -19.111286461120471 -6.3134669834416854 0 -6.3134669834416854 20.37784395560152 0 0 0 0 46.704448196527665 9.3740338805573629 0 9.3740338805573629 -4.4299819233913382 0 0 0 0 39.223197585168236 -0.63810950799802413 0 -0.63810950799802413 -8.1622844478652041 0 0 0 0 16.83557717872263 8.1395231037034392 0 8.1395231037034392 -10.616654278695904 0 0 0 0 159.99951129613328 7.5430979314847946 0 7.5430979314847946 94.084959822275778 0 0 0 0 163.37272718101303 -9.763983471833626 0 -9.763983471833626 71.513779565547338 0 0 0 0 177.70617043488164 49.114128647544248 0 49.114128647544248 47.402918032004891 0 0 0 0 341.08089591366297 43.722900812330408 0 43.722900812330408 46.859710348293561 0 0 0 0 74.519980948378361 102.17978490679104 0 102.17978490679104 108.27866565605473 0 0 0 0 3.571776672140814 0.68593970937780568 0 0.68593970937780568 -0.77003798960250425 0 0 0 0 207.96747735129611 154.23899876430596 0 154.23899876430596 126.94536366714351 0 0 0 0 34.886021681413695 -37.159900258281368 0 -37.159900258281368 35.407824606823851 0 0 0 0 74.553894533353741 -18.124124726607533 0 -18.124124726607533 -48.046416177929132 0 0 0 0 250.63443242140056 -104.46830662761658 0 -104.46830662761658 -7.537448138545642 0 0 0 0 183.42187046490653 -55.903424177869965 0 -55.903424177869965 192.70865610209785 0 0 0 0 298.41108987161715 124.68406301532605 0 124.68406301532605 140.07037810415295 0 0 0 0 181.84002894120385 17.771277242975316 0 17.771277242975316 42.432410289741711 0 0 0 0 153.98997083274298 3.6118584191081027 0 3.6118584191081027 -40.033170464681916 0 0 0 0 96.936192349912744 57.640409121920584 0 57.640409121920584 0.022628253407674492 0 0 0 0 134.18234432972531 29.8186671563235 0 29.8186671563235 44.48897069261966 0 0 0 0 157.36436803620018 42.958529259224633 0 42.958529259224633 0.92318149258790072 0 0 0 0 207.81158077029977 42.051258987462006 0 42.051258987462006 -19.471866275209322 0 0 0 0 111.24991009773294 -90.983400154002879 0 -90.983400154002879 48.628144678186345 0 0 0 0 -7.4431749158393359 -38.043887490416637 0 -38.043887490416637 25.01605337713454 0 0 0 0 0.58903740768478485 -3.486883195248522 0 -3.486883195248522 -0.6187142113695715 0 0 0 0 150.68610245018317 -47.206556897470819 0 -47.206556897470819 -44.291179478525919 0 0 0 0 -71.646095871365105 -83.612900726678106 0 -83.612900726678106 79.158665670419396 0 0 0 0 26.147600639601805 -19.769303022999324 0 -19.769303022999324 -17.911812066138722 0 0 0 0 71.783584741366212 -32.126233778350979 0 -32.126233778350979 -46.654272879212385 0 0 0 0 116.0885716671819 19.368399702655324 0 19.368399702655324 -46.182617168640718 0 0 0 0 88.259347152932605 20.362195380770572 0 20.362195380770572 -58.252396189343926 0 0 0 0 89.246753291015921 8.3284917308064905 0 8.3284917308064905 -50.278983401652113 0 0 0 0 118.74653246974049 -11.637013161370305 0 -11.637013161370305 -182.28717435303724 0 0 0 0 51.179362487000617 -42.90583611061993 0 -42.90583611061993 -122.33763475221713 0 0 0 0 17.116277682654456 0.91993144616385791 0 0.91993144616385791 -0.95476379411076095 0 0 0 0 60.431950159871121 31.268690855555462 0 31.268690855555462 -31.609373648366272 0 0 0 0 48.142410350964681 0.60819340381836229 0 0.60819340381836229 -6.3289249767574551 0 0 0 0 32.965072289972504 -20.377533816199822 0 -20.377533816199822 -12.231258822957003 0 0 0 0 91.946738002958227 -110.24878994001369 0 -110.24878994001369 -57.929144710509718 0 0 0 0 -17.998248640542442 -16.415938613502703 0 -16.415938613502703 -31.446195866310347 0 0 0 0 71.093864237365779 -169.55785175330232 0 -169.55785175330232 230.7802588130462 0 0 0 0 259.81999855911999 -134.25505290768047 0 -134.25505290768047 -83.455604962084863 0 0 0 0 134.096787552764 153.95990850714657 0 153.95990850714657 20.01618877411579 0 0 0 0 91.16081109015613 66.182057294132647 0 66.182057294132647 -23.798950558251818 0 0 0 0 87.600443140167044 43.68817213460261 0 43.68817213460261 -129.35000871256398 0 0 0 0 62.012990858452554 -0.4803539404439281 0 -0.4803539404439281 -2.1449362196838853 0 0 0 0 67.309601424076391 -5.4823443681688673 0 -5.4823443681688673 -57.323186400647273 0 0 0 0 63.696727949616616 5.6761493244805479 0 5.6761493244805479 -69.77450348991124 0 0 0 0 54.920913133139038 11.195760504021223 0 11.195760504021223 -16.013122960673627 0 0 0 0 36.618388387745654 25.833208662535981 0 25.833208662535981 32.25313947001905 0 0 0 0 31.466640361657483 10.13033331060069 0 10.13033331060069 -15.338440766345457 0 0 0 0 52.106557304396119 -5.0944769406374917 0 -5.0944769406374917 -17.108630852590977 0 0 0 0 52.245579737954415 9.120783402992263 0 9.120783402992263 -25.400662224305051 0 0 0 0 55.356206290327464 5.0860930398953315 0 5.0860930398953315 -41.57850459814108 0 0 0 0 53.745861218368589 -2.347768246324498 0 -2.347768246324498 -0.067540169328449182 0 0 0 0 120.27236901373908 8.4673702427620583 0 8.4673702427620583 -107.64124836579215 0 0 0 0 48.928096272611583 -46.612436532846829 0 -46.612436532846829 -24.422660377549391 0 0 0 0 48.500693127287377 -25.303894488550952 0 -25.303894488550952 -10.856205315312934 0 0 0 0 75.194648535485612 29.251705179751639 0 29.251705179751639 -2.4583632510665439 0 0 0 0 48.891382248034461 20.138379521034764 0 20.138379521034764 3.1872173267372546 0 0 0 0 58.609839294298581 54.034247977410246 0 54.034247977410246 36.765480711867781 0 0 0 0 59.902020387558878 45.735870816635384 0 45.735870816635384 -15.593285478941198 0 0 0 0 76.99226067339805 21.400293479420508 0 21.400293479420508 -53.318209865385683 0 0 0 0 43.622061673222561 21.910133852720776 0 21.910133852720776 -2.6239863289180221 0 0 0 0 240.44405384320271 207.65947256463869 0 207.65947256463869 204.49166433441678 0 0 0 0 63.408481739868876 84.552323102244827 0 84.552323102244827 133.77072953266642 0 0 0 0 70.365302344511292 -30.472364062863953 0 -30.472364062863953 -21.116570012616464 0 0 0 0 24.682937200180788 -11.625751749536164 0 -11.625751749536164 -10.620867620433314 0 0 0 0 159.22508628388096 112.13566759375533 0 112.13566759375533 60.64559721218302 0 0 0 0 216.62225072588626 241.49974537291064 0 241.49974537291064 214.16288710913955 0 0 0 0 185.14332913287944 73.050231198359143 0 73.050231198359143 90.422499857869298 0 0 0 0 226.91132803536857 249.77717832183794 0 249.77717832183794 186.81272194539088 0 0 0 0 220.93429360635855 287.89048987848832 0 287.89048987848832 196.36365704452601 0 0 0 0 242.30454975474277 310.12874721348771 0 310.12874721348771 217.55161339522624 0 0 0 0 269.19717066971498 246.38114270248388 0 246.38114270248388 186.76757434912906 0 0 0 0 161.51240682174489 257.34036521440248 0 257.34036521440248 263.5171548486378 0 0 0 0 157.23623313650023 156.30453418817069 0 156.30453418817069 125.72276963854074 0 0 0 0 172.083492823293 154.54424169112983 0 154.54424169112983 121.41820832622216 0 0 0 0 208.80224298251778 222.75594868544908 0 222.75594868544908 543.56333056564472 0 0 0 0 464.23603508042288 459.97571932925666 0 459.97571932925666 339.42981051144307 0 0 0 0 216.66450044741214 227.86304705894145 0 227.86304705894145 183.68106596155371 0 0 0 0 358.93523714863113 253.2361595056127 0 253.2361595056127 133.35809777996519 0 0 0 0 258.11897304448939 257.14116896887799 0 257.14116896887799 158.10112950448365 0 0 0 0 181.36823769156035 -29.775175540316241 0 -29.775175540316241 10.456386503153226 0 0 0 0 724.37051592017087 149.6040624352795 0 149.6040624352795 -4.672335210599158 0 0 0 0 -17.985266446317837 134.21122381002874 0 134.21122381002874 619.55041247757083 0 0 0 0 -0.84520063072658047 1.3497534447639623 0 1.3497534447639623 6.1276128261869705 0 0 0 0 81.09486014922004 13.923850344601533 0 13.923850344601533 13.618019824508337 0 0 0 0 11.025971526192734 -31.515365082158496 0 -31.515365082158496 182.8503380631098 0 0 0 0 61.132882606812927 55.007234117265398 0 55.007234117265398 19.366891288597344 0 0 0 0 17.681649883721548 40.540619395535487 0 40.540619395535487 16.568402742688704 0 0 0 0 11.605788676280298 3.8934849408929608 0 3.8934849408929608 8.3148515387647421 0 0 0 0 33.182749399143063 -13.811583109098315 0 -13.811583109098315 -4.6620440305959772 0 0 0 0 10.555342409047626 198.01802623950817 0 198.01802623950817 77.677637170834714 0 0 0 0 60.837059227049394 -103.8386298780861 0 -103.8386298780861 100.89009848450951 0 0 0 0 46.150558484543581 -54.066406586447329 0 -54.066406586447329 28.460998676178377 0 0 0 0 90.571897155430634 123.33431163502155 0 123.33431163502155 101.0511927386035 0 0 0 0 94.841034418568597 84.14204505421776 0 84.14204505421776 -8.6707530461817441 0 0 0 0 -7.6307763580461199 -0.10922702779652127 0 -0.10922702779652127 4.610212293455124 0 0 0 0 206.6473049873166 68.515539487111255 0 68.515539487111255 -49.524264095455692 0 0 0 0 254.12392752365122 -10.129422950025514 0 -10.129422950025514 -36.60015812511574 0 0 0 0 4.8848281554550113 28.381135180858337 0 28.381135180858337 17.455820512776487 0 0 0 0 -71.460836605481745 -16.08392238771637 0 -16.08392238771637 20.689081305981745 0 0 0 0 -56.220195498135581 -31.708832341991183 0 -31.708832341991183 14.236843074658339 0 0 0 0 -48.960595653064956 30.8670732430881 0 30.8670732430881 18.448454915606362 0 0 0 0 -10.697853076929917 1.4921670836438139 0 1.4921670836438139 7.7553903626155982 0 0 0 0 -15.04345161224046 -8.8174529951697878 0 -8.8174529951697878 13.708063745234369 0 0 0 0 26.906350126711914 25.84972457000913 0 25.84972457000913 16.840625338150232 0 0 0 0 -9.8507519247577875 10.429467540951464 0 10.429467540951464 13.736427033373175 0 0 0 0 -8.4163816157324618 4.6232885523406608 0 4.6232885523406608 30.004486042405006 0 0 0 0 27.691230540214747 15.197305526634182 0 15.197305526634182 13.670725609799376 0 0 0 0 22.677267382103011 21.867889519590619 0 21.867889519590619 9.4712675692865709 0 0 0 0 4.5470684950456643 6.4029818857141265 0 6.4029818857141265 7.1055000915112592 0 0 0 0 16.134216119287885 12.558363178079844 0 12.558363178079844 5.459233678525834 0 0 0 0 -30.252675355579413 13.134282811806429 0 13.134282811806429 21.153835600794309 0 0 0 0 61.452364108561596 -6.9028234061147486 0 -6.9028234061147486 10.15753902398319 0 0 0 0 -44.180294315414358 -2.4864737858723629 0 -2.4864737858723629 9.9198326697842276 0 0 0 0 26.092489099093655 9.9341147450149947 0 9.9341147450149947 6.0338530054227704 0 0 0 0 17.041268550340533 -0.45028876415559438 0 -0.45028876415559438 -4.2511684673432555 0 0 0 0 1.0052341145371351 4.0802997977143889 0 4.0802997977143889 5.8289027882023099 0 0 0 0 -38.096441166242585 -9.495141625325914 0 -9.495141625325914 16.024153153299267 0 0 0 0 65.531556844172883 -5.5601852070021778 0 -5.5601852070021778 101.00467850992209 0 0 0 0 89.433059520277311 -16.467878041614313 0 -16.467878041614313 10.350058782931228 0 0 0 0 74.868342293582828 108.24495696721988 0 108.24495696721988 110.66923667768788 0 0 0 0 -32.683241328122676 -0.5255778721493698 0 -0.5255778721493698 -22.415855177688172 0 0 0 0 57.462889212765731 55.202772041368007 0 55.202772041368007 182.20555771488478 0 0 0 0 79.252745674937614 58.46370635333642 0 58.46370635333642 28.242125093913273 0 0 0 0 -31.421929646647186 0.14982121390778502 0 0.14982121390778502 36.405429273647314 0 0 0 0 -24.448276868351968 -24.62974621163994 0 -24.62974621163994 -26.337117976720947 0 0 0 0 -32.68324132822454 -0.52557787218029262 0 -0.52557787218029262 -22.415855177681351 0 0 0 0 -32.683241328122676 -0.52557787217483565 0 -0.52557787217483565 -22.415855177675439 0 0 0 0 -33.13448629679624 -8.1951161196857356 0 -8.1951161196857356 8.3422224812766217 0 0 0 0 -23.050305471086176 3.6620733094769093 0 3.6620733094769093 10.407016017009937 0 0 0 0 -15.514447240035224 -0.61466409213517181 0 -0.61466409213517181 10.643355734760007 0 0 0 0 -41.784360065488727 -26.334145636119956 0 -26.334145636119956 -3.2067546935159044 0 0 0 0 -8.833268690159457 15.928640635304191 0 15.928640635304191 22.703586097308289 0 0 0 0 -20.455946019937983 -3.3418047915386069 0 -3.3418047915386069 10.380052614033502 0 0 0 0 -31.547449202334974 6.0316564067002219 0 6.0316564067002219 8.0511284341925275 0 0 0 0 -6.4785628710669698 14.041770957833705 0 14.041770957833705 16.671107189752547 0 0 0 0 -20.090774883428821 -2.9460722416561111 0 -2.9460722416561111 3.9521048088465704 0 0 0 0 18.018956534811878 13.663859432618324 0 13.663859432618324 10.726216244717989 0 0 0 0 -3.8596716739048134 8.6144673831338991 0 8.6144673831338991 21.101608620266688 0 0 0 0 18.006746686172846 14.267793348121472 0 14.267793348121472 21.713589529089859 0 0 0 0 58.954428846649535 35.780712023933802 0 35.780712023933802 13.997066964879821 0 0 0 0 2.9148398728139 13.817046850731458 0 13.817046850731458 11.199378167586474 0 0 0 0 0.36816909877961734 21.005942844748006 0 21.005942844748006 22.120040402278391 0 0 0 0 61.056086799391778 49.303201354568046 0 49.303201354568046 20.890395692341372 0 0 0 0 97.85244236321887 41.676932369393398 0 41.676932369393398 9.9307588050174189 0 0 0 0 70.941997203528445 27.333910704389382 0 27.333910704389382 14.746532402060438 0 0 0 0 97.66305213409214 41.673184534222628 0 41.673184534222628 16.505786724331472 0 0 0 0 98.248052882823686 37.970937491000313 0 37.970937491000313 8.1626090742324777 0 0 0 0 60.624545804144873 29.83974307243551 0 29.83974307243551 17.972328218848702 0 0 0 0 105.25566753183779 29.67446837636016 0 29.67446837636016 6.6075144229253056 0 0 0 0 73.494019857680541 32.923100685446514 0 32.923100685446514 27.543744255435968 0 0 0 0 105.35293009799352 45.201477935641066 0 45.201477935641066 16.54455330534325 0 0 0 0 68.133094751152385 11.155975102629043 0 11.155975102629043 15.130291424486131 0 0 0 0 31.049002849889803 32.670453161850389 0 32.670453161850389 25.58569504561239 0 0 0 0 57.673976007507008 39.611436226647129 0 39.611436226647129 34.702560564744999 0 0 0 0 42.74609429355769 10.13929738163165 0 10.13929738163165 20.657366627646752 0 0 0 0 69.211096466173331 21.91828793307161 0 21.91828793307161 60.5910198763886 0 0 0 0 110.37752399034071 19.55206047963452 0 19.55206047963452 42.956360206668705 0 0 0 0 107.18205904948991 28.659570447800434 0 28.659570447800434 20.340703485097038 0 0 0 0 127.71922163282579 26.398270502450032 0 26.398270502450032 40.957979654439782 0 0 0 0 57.922857878329523 15.151568755602057 0 15.151568755602057 104.00281696985712 0 0 0 0 109.08955944763147 21.139968040110148 0 21.139968040110148 75.27824686490294 0 0 0 0 109.80010918172775 17.167760247601564 0 17.167760247601564 97.475594581502264 0 0 0 0 86.565322557245963 12.083361227952309 0 12.083361227952309 83.747604041481281 0 0 0 0 28.786500919167338 46.039170514261798 0 46.039170514261798 131.0022458124181 0 0 0 0 77.064676427668019 29.839516991121855 0 29.839516991121855 55.434098916948187 0 0 0 0 27.283828485975391 38.321947727284623 0 38.321947727284623 95.526918728590772 0 0 0 0 52.312197945455409 14.399881290540179 0 14.399881290540179 64.622474925390634 0 0 0 0 40.988724608716439 50.071280069587715 0 50.071280069587715 18.620345746820021 0 0 0 0 5.5656436747958651 56.023655099734697 0 56.023655099734697 25.840058592362766 0 0 0 0 56.085526456401567 76.799675790843139 0 76.799675790843139 44.542761700039136 0 0 0 0 68.768945905641885 41.182088461131116 0 41.182088461131116 95.540802593567605 0 0 0 0 79.393155605532229 14.571372377716671 0 14.571372377716671 144.4821438484787 0 0 0 0 157.42916926650469 89.096072865968154 0 89.096072865968154 77.615221784722962 0 0 0 0 89.879910059164104 53.237208687809471 0 53.237208687809471 58.965785297898947 0 0 0 0 65.53242910226254 42.238649775087652 0 42.238649775087652 -3.1114923822415221 0 0 0 0 97.16285393592625 59.485124224784613 0 59.485124224784613 6.2660783488208835 0 0 0 0 72.756378369113918 84.319092938622418 0 84.319092938622418 -24.30585973021789 0 0 0 0 114.65837723405639 49.483101869740494 0 49.483101869740494 -67.722196221533522 0 0 0 0 34.846251910799765 46.861148301407411 0 46.861148301407411 -49.060862844487019 0 0 0 0 81.761882551531016 34.173468394731572 0 34.173468394731572 -35.838007973394269 0 0 0 0 62.082682440770441 86.262435182420177 0 86.262435182420177 -98.943435169521763 0 0 0 0 17.182130907247483 50.912785679966873 0 50.912785679966873 -42.510728207966622 0 0 0 0 24.57280083941032 99.541581566352306 0 99.541581566352306 -63.376530009857561 0 0 0 0 79.797250964096747 44.461157427845137 0 44.461157427845137 -65.328193157562509 0 0 0 0 44.202444715113472 25.770214292774522 0 25.770214292774522 11.731797442670921 0 0 0 0 -15.028585600644874 64.660128726359744 0 64.660128726359744 -18.234604164632401 0 0 0 0 27.341545535724435 58.298304123951311 0 58.298304123951311 32.774172801178793 0 0 0 0 37.060777459457313 78.20252002050097 0 78.20252002050097 -22.357239836876033 0 0 0 0 -4.1557782031819102 3.9924276641174785 0 3.9924276641174785 4.8433829640159063 0 0 0 0 27.028978593996648 25.389829983670822 0 25.389829983670822 14.623306033355036 0 0 0 0 -45.68118198573211 128.7923409726742 0 128.7923409726742 -22.598935752283978 0 0 0 0 20.027148553759616 65.104865907004751 0 65.104865907004751 -76.032034381888025 0 0 0 0 108.35674068269145 4.1176685121026821 0 4.1176685121026821 -44.141444207537688 0 0 0 0 9.5713055359184551 0.77094866198511625 0 0.77094866198511625 -3.3049062964374771 0 0 0 0 100.53352064419596 -16.212618353709331 0 -16.212618353709331 -91.530098455963525 0 0 0 0 79.526305094914278 -37.98993100883672 0 -37.98993100883672 -64.024867744535186 0 0 0 0 84.141484240855789 -23.639260325390069 0 -23.639260325390069 -30.662851490967626 0 0 0 0 -6.745504663187603 76.71291817385486 0 76.71291817385486 91.549209026767585 0 0 0 0 143.51750094074669 3.7702997597748436 0 3.7702997597748436 -58.365576973890484 0 0 0 0 2.3316796400771764 5.6487488111814201 0 5.6487488111814201 16.933371166323948 0 0 0 0 16.031229542593792 -11.506284755829483 0 -11.506284755829483 -30.410494555098239 0 0 0 0 47.607945348529029 95.835825004105573 0 95.835825004105573 -77.247340030741725 0 0 0 0 35.116736489464529 -25.056580657318591 0 -25.056580657318591 90.783241117588204 0 0 0 0 -106.65901975741872 -5.8195778654046535 0 -5.8195778654046535 9.0384193648308155 0 0 0 0 28.735541413756437 133.81832345808516 0 133.81832345808516 148.69486545352993 0 0 0 0 35.854641984864429 76.743196862352988 0 76.743196862352988 64.553562618900287 0 0 0 0 40.062903268364607 56.11743470471788 0 56.11743470471788 -19.233390206203239 0 0 0 0 -0.40677479655120408 0.26371010067106226 0 0.26371010067106226 1.4088040171592375 0 0 0 0 -19.075443108007761 -50.040202059252131 0 -50.040202059252131 157.57752405095471 0 0 0 0 -135.15666859755038 122.35818134717417 0 122.35818134717417 120.41749937141958 0 0 0 0 -19.276998237478068 39.628539898368501 0 39.628539898368501 -37.96195415607599 0 0 0 0 11.190695348195277 24.266603213713779 0 24.266603213713779 15.109470072667042 0 0 0 0 107.0569106773255 46.089598389900402 0 46.089598389900402 10.504540997032194 0 0 0 0 174.10676873587363 2.9397545028159584 0 2.9397545028159584 13.180050883001968 0 0 0 0 15.959879351234122 6.1944314183344886 0 6.1944314183344886 -0.53798814424908414 0 0 0 0 108.15482603926966 30.68145573999395 0 30.68145573999395 -16.110417045294071 0 0 0 0 43.304526850959519 -7.6064191490163466 0 -7.6064191490163466 -37.462667985178996 0 0 0 0 19.639848248705675 127.95982520839993 0 127.95982520839993 -66.061674385613969 0 0 0 0 477.10644325360772 68.819381395273467 0 68.819381395273467 -459.81553489822363 0 0 0 0 -59.244012584847951 28.289371531402821 0 28.289371531402821 134.50049227243198 0 0 0 0 -8.9624983278699801 -279.3540404199257 0 -279.3540404199257 617.0371173540459 0 0 0 0 124.55997159577055 208.75653139804871 0 208.75653139804871 27.43064400500316 0 0 0 0 -2.1557605629360737 3.3159007770165942 0 3.3159007770165942 19.076672214029351 0 0 0 0 5.0456940618795727 2.6135138980537711 0 2.6135138980537711 1.577704737733983 0 0 0 0 12.986984464943816 97.001298827532764 0 97.001298827532764 304.30019659761138 0 0 0 0 229.28694319519855 -159.37351016123387 0 -159.37351016123387 86.383522472990535 0 0 0 0 16.864143905986396 2.3353584778578274 0 2.3353584778578274 -4.0179908695239348 0 0 0 0 58.814835171186132 84.903649135194883 0 84.903649135194883 49.545210159970907 0 0 0 0 21.471509644678008 55.255190330268022 0 55.255190330268022 55.248144118409755 0 0 0 0 47.692265705103637 41.100893420685907 0 41.100893420685907 53.425390906708799 0 0 0 0 58.859691075316732 -30.145963936140735 0 -30.145963936140735 -7.3006790014077012 0 0 0 0 25.864215976363923 -2.5959936026136035 0 -2.5959936026136035 -16.981665401555318 0 0 0 0 39.651524586799496 -11.423485785553794 0 -11.423485785553794 -17.205567863778128 0 0 0 0 163.86901520098399 106.06067865493907 0 106.06067865493907 13.307776331609517 0 0 0 0 15.801170163082134 28.576024402219105 0 28.576024402219105 42.492550685048229 0 0 0 0 34.012515090572833 12.83656429275797 0 12.83656429275797 3.1557755690680267 0 0 0 0 23.159595764576807 1.5163375536972126 0 1.5163375536972126 14.896903834274113 0 0 0 0 25.083064648701111 19.295285898263728 0 19.295285898263728 7.275976132129415 0 0 0 0 15.860853933251548 7.9115369894254997 0 7.9115369894254997 4.0669645587225727 0 0 0 0 36.087702887765772 50.45068623987919 0 50.45068623987919 29.072538379463822 0 0 0 0 44.35287938636975 63.493692553464641 0 63.493692553464641 22.333243157604556 0 0 0 0 41.935279794466624 76.488361445545195 0 76.488361445545195 43.655847136376252 0 0 0 0 43.315121137675305 25.172565473782925 0 25.172565473782925 -18.794882434840247 0 0 0 0 56.159364547253062 54.963291043500419 0 54.963291043500419 28.16252717934924 0 0 0 0 46.456101541079988 14.078887520409978 0 14.078887520409978 9.2105804999202974 0 0 0 0 102.16991347411386 77.866366455007551 0 77.866366455007551 3.0185751693138627 0 0 0 0 90.694523148908047 32.518430314486011 0 32.518430314486011 -104.11501984781518 0 0 0 0 -152.28796473486364 -79.190701204163588 0 -79.190701204163588 123.32112291704289 0 0 0 0 -3.070129322474056 4.2482287191599681 0 4.2482287191599681 13.352813924654148 0 0 0 0 35.196036345303582 -5.8406189889820439 0 -5.8406189889820439 -25.117077660936275 0 0 0 0 6.006468455041734 8.9785263297592053 0 8.9785263297592053 3.3598811517411722 0 0 0 0 -135.91289158797736 79.321576284821276 0 79.321576284821276 85.266637273592551 0 0 0 0 36.471526898283628 17.459199279453514 0 17.459199279453514 9.6126815803432919 0 0 0 0 34.641330407781425 12.036095082771794 0 12.036095082771794 -3.8124711346094955 0 0 0 0 24.835521358151851 13.228309484397137 0 13.228309484397137 5.9978117062158409 0 0 0 0 125.7751611783242 31.846837440690933 0 31.846837440690933 -57.719185021287558 0 0 0 0 23.620594458465348 33.89731297121125 0 33.89731297121125 -43.917139695655351 0 0 0 0 132.11421811129549 79.996347213656463 0 79.996347213656463 -67.920713265477161 0 0 0 0 -56.039278848227696 108.48775602034266 0 108.48775602034266 -47.115469759651887 0 0 0 0 9.9600775663088825 -1.7837191899256766 0 -1.7837191899256766 -3.1955107411410744 0 0 0 0 142.7233581286855 -2.6122828349352858 0 -2.6122828349352858 -52.528065576717381 0 0 0 0 54.0915767771221 -18.306938721280403 0 -18.306938721280403 27.076689585627264 0 0 0 0 284.36718658106838 -92.594514291511132 0 -92.594514291511132 -2.8081468705690895 0 0 0 0 127.12942385900897 -66.706436401916676 0 -66.706436401916676 25.247045061751123 0 0 0 0 148.36458708948703 -47.932549608665795 0 -47.932549608665795 -1.9230566842252301 0 0 0 0 29.423909349599853 185.96640138013277 0 185.96640138013277 99.91010513280844 0 0 0 0 9.552628232520874 72.614615765441613 0 72.614615765441613 -18.114442206952845 0 0 0 0 290.12001406205673 123.7187029677475 0 123.7187029677475 -10.433708913827786 0 0 0 0 61.322448841296136 -181.765358202671 0 -181.765358202671 132.51246751741493 0 0 0 0 375.48387945293143 64.405630656238714 0 64.405630656238714 1.1843750993798494 0 0 0 0 109.09904474128416 19.277316823033743 0 19.277316823033743 -84.278173436407087 0 0 0 0 94.898061778530973 5.438648423555037 0 5.438648423555037 3.4707604152149543 0 0 0 0 162.26742196479609 15.797894721364628 0 15.797894721364628 -68.684905049241479 0 0 0 0 23.386520159896463 93.874409176278959 0 93.874409176278959 75.262230045484586 0 0 0 0 78.960743533556524 137.87344474592396 0 137.87344474592396 302.42340744579224 0 0 0 0 137.52297143588657 -105.75521329726485 0 -105.75521329726485 84.294889643182159 0 0 0 0 3.65836456021907 0.41074616230715932 0 0.41074616230715932 0.21282030774764998 0 0 0 0 35.128307459192001 24.767087792925849 0 24.767087792925849 84.074017026127876 0 0 0 0 2.0324077107870835 56.172266097130773 0 56.172266097130773 115.23612819784239 0 0 0 0 10.544782362982119 0.94612191865900108 0 0.94612191865900108 0.1027873084463804 0 0 0 0 18.383160194876837 11.68528561567291 0 11.68528561567291 -20.563050972848743 0 0 0 0 40.335145993685728 62.567778012748249 0 62.567778012748249 -69.924602350323767 0 0 0 0 49.376269461130732 23.754013775607266 0 23.754013775607266 11.200565546821705 0 0 0 0 20.338512623071438 93.315641638789941 0 93.315641638789941 -8.2537887822240918 0 0 0 0 31.094780785824696 20.250128067105379 0 20.250128067105379 24.459780032520257 0 0 0 0 18.381934270735655 37.173491620278583 0 37.173491620278583 26.913336246325343 0 0 0 0 7.5074979985752179 0.70436357709579056 0 0.70436357709579056 -1.5412948009070533 0 0 0 0 21.598897642099473 0.85741575122642644 0 0.85741575122642644 -1.8783954693908527 0 0 0 0 7.6326086455351287 -0.75585451062859477 0 -0.75585451062859477 7.8318228926736992 0 0 0 0 16.982178940910671 6.7714987363742694 0 6.7714987363742694 -16.627213385650975 0 0 0 0 -18.440955801219388 -7.4859036747818664 0 -7.4859036747818664 40.713751044423134 0 0 0 0 1.5735366412263829 -9.271584469035588 0 -9.271584469035588 4.3400374721081789 0 0 0 0 20.484817004526121 -20.694968407392821 0 -20.694968407392821 -16.040327752250505 0 0 0 0 0.40826291705479889 0.48927266257883062 0 0.48927266257883062 0.13336289475607011 0 0 0 0 53.416914669374819 -74.014773245020478 0 -74.014773245020478 69.741393666997851 0 0 0 0 13.45593991134956 -8.6037160515295454 0 -8.6037160515295454 -10.104745621060374 0 0 0 0 3.0726762411325979 -4.7413324495986764 0 -4.7413324495986764 -3.1989282007262467 0 0 0 0 9.6941541560663609 -28.958164779680374 0 -28.958164779680374 1.193231150243264 0 0 0 0 13.020043759563308 -9.9358489319299679 0 -9.9358489319299679 -5.9767518779558326 0 0 0 0 19.706534191278479 -5.1196132300879995 0 -5.1196132300879995 -3.8262028969955111 0 0 0 0 23.468482931933977 -5.0729931243180815 0 -5.0729931243180815 -4.2604153671446738 0 0 0 0 19.14390584948471 -6.0529864817115282 0 -6.0529864817115282 -7.2081090753840193 0 0 0 0 64.069208936591167 -7.3379749966809413 0 -7.3379749966809413 -62.796899954001219 0 0 0 0 43.297745410061907 -20.919607330344206 0 -20.919607330344206 -17.745951334967458 0 0 0 0 31.839088694201536 5.0685807083736165 0 5.0685807083736165 -1.7531847807343051 0 0 0 0 28.44931802656356 -0.99415459450358412 0 -0.99415459450358412 1.4114224243445506 0 0 0 0 14.955741177217391 -5.3379697535226427 0 -5.3379697535226427 0.49614070178203984 0 0 0 0 18.053434157191077 -5.9410044022031343 0 -5.9410044022031343 -3.1562419704829381 0 0 0 0 19.807822847795677 0.57067197860500585 0 0.57067197860500585 -2.6848736271458122 0 0 0 0 41.697161680429417 1.2974941698550797 0 1.2974941698550797 -12.501208157346579 0 0 0 0 46.149586651587015 10.220334944535947 0 10.220334944535947 0.014337579150035718 0 0 0 0 1.5343616499214932 -0.43536078593635352 0 -0.43536078593635352 0.024435972445370071 0 0 0 0 52.477662185606277 -22.696303149678904 0 -22.696303149678904 -2.3199754905073142 0 0 0 0 8.7188743634542334 0.34903116011807017 0 0.34903116011807017 0.0023625320587292538 0 0 0 0 31.049950233194977 -6.588452855589229 0 -6.588452855589229 3.2973561911326996 0 0 0 0 15.323252454324091 7.7140055985275922 0 7.7140055985275922 -0.54748234162736931 0 0 0 0 15.813007246921188 14.355211328475946 0 14.355211328475946 -2.7954411765386169 0 0 0 0 1.7154076723285101 0.54410778721356223 0 0.54410778721356223 -0.11059057243022606 0 0 0 0 -0.09193834473262541 2.9783048323720163 0 2.9783048323720163 6.2992734298501452 0 0 0 0 15.216140372749578 28.508877233102556 0 28.508877233102556 0.027594655641851793 0 0 0 0 52.245952444834984 15.559509206360403 0 15.559509206360403 -5.2088033724291716 0 0 0 0 14.416975976579124 17.917011874950198 0 17.917011874950198 5.218364349804574 0 0 0 0 41.976540646675858 26.582789079629556 0 26.582789079629556 -0.36150504979124776 0 0 0 0 47.423828079379746 10.21050643600087 0 10.21050643600087 -3.8311154608011719 0 0 0 0 23.818198756009224 9.0055840618977072 0 9.0055840618977072 0.44752444099134436 0 0 0 0 21.668620857884434 8.2497909853094313 0 8.2497909853094313 2.7138476644697649 0 0 0 0 86.732683316324255 49.344021575680813 0 49.344021575680813 -115.03352737433761 0 0 0 0 29.218283646849159 4.7826636251771788 0 4.7826636251771788 -2.8545772984411997 0 0 0 0 24.833687212980294 4.8500267661497674 0 4.8500267661497674 -29.305978101747996 0 0 0 0 24.29960811091405 10.247263642880839 0 10.247263642880839 2.2856144462543888 0 0 0 0 62.583573779555081 25.5661741041982 0 25.5661741041982 1.0078102204258812 0 0 0 0 54.241627719820826 17.724019186353601 0 17.724019186353601 -0.037346105926729933 0 0 0 0 45.076147758043561 17.672501516153432 0 17.672501516153432 4.3311726681704918 0 0 0 0 30.643733754090135 15.612157929864505 0 15.612157929864505 9.5591292994701007 0 0 0 0 9.6106452773832487 3.0565102504428552 0 3.0565102504428552 0.99677078392653851 0 0 0 0 -0.71964206264254926 0.0032141047197029593 0 0.0032141047197029593 0.091027439585689873 0 0 0 0 20.763765596755547 9.3348296534891446 0 9.3348296534891446 6.0516290765186511 0 0 0 0 90.195250482422125 16.463869872874191 0 16.463869872874191 -2.6338421013356736 0 0 0 0 55.613563286977296 28.078505720176434 0 28.078505720176434 5.4517323217013498 0 0 0 0 54.216661601187297 8.975888718614204 0 8.975888718614204 8.1458758228850456 0 0 0 0 94.384125487864367 26.478514813163702 0 26.478514813163702 -0.028090401573526755 0 0 0 0 10.878498652931739 6.3140768329735852 0 6.3140768329735852 3.4885336466563714 0 0 0 0 0.1117910250052887 0.19848153558484682 0 0.19848153558484682 0.056085004674631608 0 0 0 0 31.487688497654744 12.865171507674084 0 12.865171507674084 1.8976205457862161 0 0 0 0 36.026054262889375 18.652004972989584 0 18.652004972989584 -0.0049537422326259399 0 0 0 0 44.45060443510738 9.6026657988048907 0 9.6026657988048907 -1.2384255494997924 0 0 0 0 52.869138668043888 16.956666368580159 0 16.956666368580159 -0.076914680408112446 0 0 0 0 30.938375915931829 9.8396077100592976 0 9.8396077100592976 3.2760351010521447 0 0 0 0 31.24382355529815 11.137975207143398 0 11.137975207143398 6.1946256460761617 0 0 0 0 37.711742181811132 5.962184135402957 0 5.962184135402957 4.2710562381226822 0 0 0 0 56.173366521761636 -0.60039887807931436 0 -0.60039887807931436 7.5386632711479251 0 0 0 0 37.4713608527818 8.0608051015160527 0 8.0608051015160527 -43.464217061767719 0 0 0 0 46.681605066581596 -91.911106919850255 0 -91.911106919850255 -26.236211099186903 0 0 0 0 92.023030569864204 -135.91888323971682 0 -135.91888323971682 153.76080700228283 0 0 0 0 287.55720499605945 -261.48896975093999 0 -261.48896975093999 248.76617327366728 0 0 0 0 106.72894038752565 -26.32077217233487 0 -26.32077217233487 -43.629955014211738 0 0 0 0 141.75833382700512 -21.162549854888397 0 -21.162549854888397 -131.48806292088386 0 0 0 0 293.93606372310751 139.8896027843312 0 139.8896027843312 36.917471659785747 0 0 0 0 -19.137150273579209 89.11265650694304 0 89.11265650694304 28.767865740119447 0 0 0 0 70.984360663547704 143.05457336832731 0 143.05457336832731 29.430134918475574 0 0 0 0 -26.558611943415599 23.808293307251326 0 23.808293307251326 160.05298303161177 0 0 0 0 -0.8583849581918912 35.247513653650628 0 35.247513653650628 -112.2335502278388 0 0 0 0 -44.984947672168346 175.91845266865027 0 175.91845266865027 -111.94351244344188 0 0 0 0 -90.252587630398921 197.37696274003724 0 197.37696274003724 -171.79501124415015 0 0 0 0 5.1106355218362296 74.524138397877906 0 74.524138397877906 -140.12746284000644 0 0 0 0 -26.321059610811062 177.77443688939843 0 177.77443688939843 -434.55342492778641 0 0 0 0 76.364425108869909 23.178896530669249 0 23.178896530669249 -327.73540608586359 0 0 0 0 -201.24659955649986 94.850887273306739 0 94.850887273306739 -123.40494342021987 0 0 0 0 6.7051063627111205 2.6269258308770844 0 2.6269258308770844 -2.6330378522334241 0 0 0 0 -8.5436803514894564 -108.63619495905903 0 -108.63619495905903 -386.96316245957013 0 0 0 0 2.906451776090023 -2.6821428998651555 0 -2.6821428998651555 -2.1894433979470911 0 0 0 0 -9.5008677641353643 -30.709235898456825 0 -30.709235898456825 -89.284327200518419 0 0 0 0 24.64988086053927 -89.540546403203791 0 -89.540546403203791 -124.83018252757029 0 0 0 0 74.91819811348978 49.379589268970449 0 49.379589268970449 -103.09069516799633 0 0 0 0 67.380073766355054 122.96935001249722 0 122.96935001249722 -186.94312078003713 0 0 0 0 55.265463894018467 6.9563636643176778 0 6.9563636643176778 -7.8905607964019282 0 0 0 0 51.074498472620689 -5.6884691587076759 0 -5.6884691587076759 -2.5824555918134138 0 0 0 0 44.69400237534137 -1.5878349644199261 0 -1.5878349644199261 -18.402422504826745 0 0 0 0 38.378930227801902 84.931640012579351 0 84.931640012579351 -121.42642625260362 0 0 0 0 44.45548508620152 2.3979241429788427 0 2.3979241429788427 -0.87161062875660877 0 0 0 0 34.713533829548396 20.794314530587144 0 20.794314530587144 -5.173739306808784 0 0 0 0 42.96449864188088 1.9469883289701286 0 1.9469883289701286 -1.6632906297050787 0 0 0 0 0.97786020040803123 -47.536989109967749 0 -47.536989109967749 12.24587974069982 0 0 0 0 51.971781769294466 1.6986229364492829 0 1.6986229364492829 19.314720714388841 0 0 0 0 36.701902210588742 -11.726620971284774 0 -11.726620971284774 5.8822889665416369 0 0 0 0 61.918114869732022 0.99441227162581924 0 0.99441227162581924 0.75574872745179467 0 0 0 0 66.953988284934894 -91.786587486479675 0 -91.786587486479675 -43.202895088618718 0 0 0 0 17.189941601942678 0.36379525787108946 0 0.36379525787108946 1.1966150271906857 0 0 0 0 191.21393129001081 -5.4298134133260305 0 -5.4298134133260305 -229.57301164166211 0 0 0 0 -63.601547439229762 41.53758946773587 0 41.53758946773587 140.55137131133597 0 0 0 0 19.724297888886213 38.243544358508416 0 38.243544358508416 113.42744715752178 0 0 0 0 3.1467129733871388 2.384437087666516 0 2.384437087666516 1.2018150318717993 0 0 0 0 79.063578302426322 -161.1124059643987 0 -161.1124059643987 181.61653772522561 0 0 0 0 7.1582449921770603 2.8397558632600521 0 2.8397558632600521 18.040240798133027 0 0 0 0 264.24133469794106 -123.64124697703585 0 -123.64124697703585 -71.747508604218865 0 0 0 0 44.554197684745304 119.18086737991825 0 119.18086737991825 141.87816813892738 0 0 0 0 29.753417664622248 69.074339680564378 0 69.074339680564378 -20.959683985281572 0 0 0 0 217.42906682742978 -1.4059216336434019 0 -1.4059216336434019 -202.9547766150763 0 0 0 0 61.804199863257793 -3.1838030844974403 0 -3.1838030844974403 -0.0061295120585743434 0 0 0 0 78.581488773474121 -23.557286379203617 0 -23.557286379203617 -168.24347641579794 0 0 0 0 51.433221466412533 24.580225544740124 0 24.580225544740124 6.4598711375174318 0 0 0 0 77.975281900085974 35.639524741023706 0 35.639524741023706 -61.145471698424899 0 0 0 0 71.485471849231544 14.080925215422667 0 14.080925215422667 -49.389390291584277 0 0 0 0 30.090507056075481 -13.293607480980853 0 -13.293607480980853 -20.012199029256248 0 0 0 0 69.331424102441815 30.306840566892788 0 30.306840566892788 -25.373185891810408 0 0 0 0 101.13115029650362 -1.4296348182697329 0 -1.4296348182697329 -41.826565149798625 0 0 0 0 56.935554267954842 -2.8036271670710304 0 -2.8036271670710304 -2.6713237968799346 0 0 0 0 57.462145881858305 -23.002966709486486 0 -23.002966709486486 -74.694616887750328 0 0 0 0 27.668715163963498 49.617574243359513 0 49.617574243359513 -54.149541082143287 0 0 0 0 59.827668809797615 5.3606135122565775 0 5.3606135122565775 -79.099997586054542 0 0 0 0 25.285482667852193 44.439196201152299 0 44.439196201152299 -2.0499444645238327 0 0 0 0 11.667604260379449 28.00397612031702 0 28.00397612031702 41.795581693743088 0 0 0 0 17.023865221238879 0.012962470307234852 0 0.012962470307234852 -0.49609124899546331 0 0 0 0 21.077619113493711 3.5123292694006523 0 3.5123292694006523 -9.3834345970262802 0 0 0 0 41.53636550745432 5.0370914586201252 0 5.0370914586201252 5.489877290548975 0 0 0 0 36.357021066482716 16.626771721111652 0 16.626771721111652 -7.0165349515499118 0 0 0 0 10.354259022256883 -10.891422482297372 0 -10.891422482297372 -12.684567083719486 0 0 0 0 19.888615978282019 -3.8297314929767481 0 -3.8297314929767481 -5.9059604268919941 0 0 0 0 37.972017803360359 -27.146153094862711 0 -27.146153094862711 -8.4985453454376056 0 0 0 0 10.386161776228619 -11.816351977833676 0 -11.816351977833676 -3.2029734105874468 0 0 0 0 91.438886112737237 -70.424960180872517 0 -70.424960180872517 -33.603958619532023 0 0 0 0 10.265535379276287 -4.4741334699064517 0 -4.4741334699064517 -1.7528874824985654 0 0 0 0 8.4194429623967153 -10.827882248653566 0 -10.827882248653566 -3.2914616059711079 0 0 0 0 14.428569127325318 -4.5578452374713834 0 -4.5578452374713834 -7.2260294090235959 0 0 0 0 7.9450007894265582 -13.563720838110939 0 -13.563720838110939 -14.897208697045812 0 0 0 0 11.764324176420814 -7.5265763547631845 0 -7.5265763547631845 -4.426627649556977 0 0 0 0 18.215736124649993 -10.164210412218893 0 -10.164210412218893 -3.8585126611875964 0 0 0 0 11.148384650973199 -5.4209485951201088 0 -5.4209485951201088 -9.9141822420836512 0 0 0 0 24.421875935451681 -37.187286987377576 0 -37.187286987377576 9.4056533222916414 0 0 0 0 16.107644784769946 -0.30675219655230634 0 -0.30675219655230634 -1.3797831495340143 0 0 0 0 3.9935605424424949 0.077992821019861935 0 0.077992821019861935 0.37099492573396431 0 0 0 0 93.034954966962687 -60.805727068171876 0 -60.805727068171876 4.4339622458632881 0 0 0 0 48.084265486999357 -73.186093048657654 0 -73.186093048657654 62.392953448708795 0 0 0 0 56.151426009164425 -29.099561649382963 0 -29.099561649382963 -13.854749098090316 0 0 0 0 30.970551790163881 -6.8653572655660184 0 -6.8653572655660184 -71.585800041894288 0 0 0 0 11.564403757023683 -21.941965927135548 0 -21.941965927135548 5.0067940479969621 0 0 0 0 16.846449573313294 -14.898356535181975 0 -14.898356535181975 -18.106519524062044 0 0 0 0 2.873057104269698 -4.337281327105913 0 -4.337281327105913 -3.1203784328392663 0 0 0 0 17.195260551088722 -8.2699329036523253 0 -8.2699329036523253 2.0613353752328312 0 0 0 0 20.020282346809836 -16.491202345687288 0 -16.491202345687288 25.982791812984892 0 0 0 0 13.938578508139472 -3.7013926524922738 0 -3.7013926524922738 -2.8919523460203891 0 0 0 0 13.280911021543943 -6.1683987460965284 0 -6.1683987460965284 -2.9801840698160049 0 0 0 0 12.372171894661733 -5.742712849220311 0 -5.742712849220311 -0.41303102585936813 0 0 0 0 17.933349282160634 -2.8900585093743985 0 -2.8900585093743985 0.8191832674036732 0 0 0 0 12.0256952917116 -4.1667345224872365 0 -4.1667345224872365 1.6683819224925391 0 0 0 0 11.656915043962755 -0.78325184234975609 0 -0.78325184234975609 -2.2193856474758826 0 0 0 0 14.12825416780106 -6.7919774891319094 0 -6.7919774891319094 5.6161038240899188 0 0 0 0 15.156652250618208 5.2019957351152737 0 5.2019957351152737 -8.231062407135795 0 0 0 0 0.89777712570503354 4.8973682805868579 0 4.8973682805868579 0.0035483524758603891 0 0 0 0 7.7718423044861993 9.1737893221263995 0 9.1737893221263995 -3.6964960744351338 0 0 0 0 2.6164619568126 -21.635461733947785 0 -21.635461733947785 24.392430537118763 0 0 0 0 -8.6317548002625699 -8.7181431987891891 0 -8.7181431987891891 18.990595906170153 0 0 0 0 -0.24004982170015765 -3.9818019887837721 0 -3.9818019887837721 3.9602465275280845 0 0 0 0 2.0287170216571653 -0.71894642546531884 0 -0.71894642546531884 0.05086524178401209 0 0 0 0 5.1723139549771986 -3.5382293840410375 0 -3.5382293840410375 1.5702025377815192 0 0 0 0 1.0142473649184183 -0.95957238905658215 0 -0.95957238905658215 0.97870410610291281 0 0 0 0 2.2953731900197454 -1.1892417663456798 0 -1.1892417663456798 0.0059322550664751448 0 0 0 0 2.2954554036905392 -1.1886883481515875 0 -1.1886883481515875 0.00051149584778159476 0 0 0 0 129.81908080387802 -29.605912688408822 0 -29.605912688408822 2.2346382018814039 0 0 0 0 161.49546926845142 23.940156641513759 0 23.940156641513759 1.4878168794445101 0 0 0 0 0.16498240663062802 0.095266493461366508 0 0.095266493461366508 -0.0023514181202939975 0 0 0 0 189.83074994884009 2.436696445524889 0 2.436696445524889 -0.022042989016737038 0 0 0 0 197.90043283277919 31.952102260515826 0 31.952102260515826 -1.2459293802088993 0 0 0 0 227.32659308294751 -27.601438212714029 0 -27.601438212714029 19.908878088693772 0 0 0 0 105.59555854230712 -2.852959733687829 0 -2.852959733687829 12.625221925271379 0 0 0 0 103.27126371199847 2.4858953114716726 0 2.4858953114716726 12.621138668633584 0 0 0 0 102.54578304311144 24.296996467452189 0 24.296996467452189 15.742303002396056 0 0 0 0 335.77421614785271 75.418356269090197 0 75.418356269090197 -35.666263254200658 0 0 0 0 103.99607575052869 22.143513750538865 0 22.143513750538865 16.522503276465343 0 0 0 0 3.6569413093064327 -0.21888533927300102 0 -0.21888533927300102 0.039433715866731611 0 0 0 0 102.67047621605161 130.81429607780905 0 130.81429607780905 5.3436970140398046 0 0 0 0 2.0768195456912508 -32.014405672854679 0 -32.014405672854679 24.888028408176098 0 0 0 0 10.066565892886132 0.12095980329338474 0 0.12095980329338474 0.0053266877285623737 0 0 0 0 12.901722915237769 44.686695582455144 0 44.686695582455144 105.11499647714442 0 0 0 0 92.948976162078907 5.8855887913235279 0 5.8855887913235279 80.498387975039208 0 0 0 0 70.961509644126636 -76.074282042215785 0 -76.074282042215785 321.83482870710054 0 0 0 0 220.90574242177536 -46.336742747998258 0 -46.336742747998258 -8.5926169965976218 0 0 0 0 407.60277754501658 -132.11343413112616 0 -132.11343413112616 30.328363189197432 0 0 0 0 -16.811938921076944 1.2260188179796323 0 1.2260188179796323 108.66081938280357 0 0 0 0 193.55937304740837 12.10633836923653 0 12.10633836923653 -4.6493006224822366 0 0 0 0 0.89805454981686239 -0.16514493192522295 0 -0.16514493192522295 0.017391196816457496 0 0 0 0 88.338649426143093 -77.979620200134434 0 -77.979620200134434 9.1761573685872602 0 0 0 0 217.3360047601891 15.875915656612525 0 15.875915656612525 -0.4373087567011158 0 0 0 0 224.08727458007161 -49.983331475408498 0 -49.983331475408498 -26.831268986994118 0 0 0 0 105.46194660214678 -12.152208442476084 0 -12.152208442476084 -0.0087902788065289065 0 0 0 0 -3.4978861125928233 -30.774456344349538 0 -30.774456344349538 42.463105847360879 0 0 0 0 9.1049542170731002 14.258230945818656 0 14.258230945818656 -1.1735998798091725 0 0 0 0 22.217213302719756 6.5773494675682675 0 6.5773494675682675 5.0256092539187325 0 0 0 0 19.592335049703252 10.033615325421506 0 10.033615325421506 0.054573143052619524 0 0 0 0 1.5988233943500063 -0.24602053829544346 0 -0.24602053829544346 0.012780489204311248 0 0 0 0 14.509348389779916 -12.809039352835548 0 -12.809039352835548 -31.377431344440875 0 0 0 0 20.625826990923088 12.887883306224168 0 12.887883306224168 -15.981510667152019 0 0 0 0 1.1269204432828701 -3.7658118219666257 0 -3.7658118219666257 -7.2953548563823896 0 0 0 0 47.248308090176579 14.786409254080752 0 14.786409254080752 -0.035838138882422516 0 0 0 0 0.22055676525377521 -0.097744960163637984 0 -0.097744960163637984 0.025593224669344376 0 0 0 0 43.108329104448785 21.349940767505203 0 21.349940767505203 5.0771741855772667 0 0 0 0 83.288491044440889 30.11800683630328 0 30.11800683630328 -4.0592445815609439 0 0 0 0 6.437410322832875 21.452862456896927 0 21.452862456896927 3.8635632359294387 0 0 0 0 79.502038406741121 46.143252901097732 0 46.143252901097732 -14.636717101054842 0 0 0 0 75.876677624386502 63.134699471075443 0 63.134699471075443 -8.7297937624981721 0 0 0 0 53.051224083560555 -65.04928251426297 0 -65.04928251426297 -21.10622990895709 0 0 0 0 95.890754218562506 24.849551754336744 0 24.849551754336744 24.637548264451169 0 0 0 0 0.70534587820972661 0.34249923404749438 0 0.34249923404749438 0.14385301474844864 0 0 0 0 12.35147649513965 19.508494757164698 0 19.508494757164698 26.546495033195935 0 0 0 0 34.6154779339995 -15.39681537214495 0 -15.39681537214495 -8.5029923400372596 0 0 0 0 97.535598962247605 19.195994915943743 0 19.195994915943743 7.086753137830712 0 0 0 0 0.70244566752248261 -0.073671955117948329 0 -0.073671955117948329 0.026221578578992731 0 0 0 0 56.6735366054927 58.986616116260748 0 58.986616116260748 31.893925923134475 0 0 0 0 -2.123278360144468 3.8508827836667479 0 3.8508827836667479 46.146137565687994 0 0 0 0 71.531829443643801 -13.030605700962816 0 -13.030605700962816 18.677483061845464 0 0 0 0 100.62854949106986 13.345310968957619 0 13.345310968957619 -11.288653792991965 0 0 0 0 63.649038714196649 54.124110421974116 0 54.124110421974116 16.434055484581847 0 0 0 0 -19.474610657689482 -9.9375587358392998 0 -9.9375587358392998 64.462815510104349 0 0 0 0 -8.1318416420836002 5.4880932455502993 0 5.4880932455502993 5.0110109388312711 0 0 0 0 -16.846011936802824 17.63704789972164 0 17.63704789972164 40.644556309660068 0 0 0 0 -16.948853007794241 34.456752866554822 0 34.456752866554822 26.532340359079711 0 0 0 0 8.8586092011100845 15.362803629799231 0 15.362803629799231 40.401998379166088 0 0 0 0 -18.671105527217151 61.316559852620102 0 61.316559852620102 24.04157362448899 0 0 0 0 -21.428518525208347 37.064434218491101 0 37.064434218491101 57.872363434531067 0 0 0 0 -16.418264097977953 38.637947258755695 0 38.637947258755695 57.32958432386566 0 0 0 0 -8.6863867844222113 20.118543674978234 0 20.118543674978234 79.819424813936379 0 0 0 0 -27.206144990559551 57.687879348459433 0 57.687879348459433 88.935739243482828 0 0 0 0 -8.5520248205284588 71.504158309183396 0 71.504158309183396 13.151617386875159 0 0 0 0 -0.057376686469069682 54.323747555578365 0 54.323747555578365 18.767236882411154 0 0 0 0 37.835339505269076 49.246713735948077 0 49.246713735948077 -102.71536951422365 0 0 0 0 -11.588678853368037 95.14301270133879 0 95.14301270133879 -35.552251914664453 0 0 0 0 52.144085814827122 68.479238609532331 0 68.479238609532331 -222.03793818948679 0 0 0 0 60.124234445233014 36.35570763820045 0 36.35570763820045 -95.359774775962023 0 0 0 0 64.481881150815752 -15.587546908885045 0 -15.587546908885045 -109.21966147150636 0 0 0 0 51.615062245167792 -41.537822565575652 0 -41.537822565575652 -88.389920399366929 0 0 0 0 76.548570991610177 -50.775389083001301 0 -50.775389083001301 -213.30896654056968 0 0 0 0 30.741332674631849 -18.379890483076906 0 -18.379890483076906 -53.909724461227881 0 0 0 0 59.781041503170854 -12.588461200072743 0 -12.588461200072743 -107.12082872682697 0 0 0 0 38.318744939446333 -4.9267408133434145 0 -4.9267408133434145 -52.606384430701375 0 0 0 0 46.269208695208363 20.089261487943972 0 20.089261487943972 -59.289468089800948 0 0 0 0 47.328886586357839 -5.6658905451230126 0 -5.6658905451230126 -67.071758869668315 0 0 0 0 25.773697448712483 25.947551457285897 0 25.947551457285897 -22.330725311451886 0 0 0 0 20.107220560865244 25.337752059594976 0 25.337752059594976 17.38819824535679 0 0 0 0 45.824486515513854 25.815930929893256 0 25.815930929893256 -36.179393617210565 0 0 0 0 4.7044057509920094 57.211955372246116 0 57.211955372246116 -40.296887049986935 0 0 0 0 40.195822593057528 2.4178644714188664 0 2.4178644714188664 11.565301780972135 0 0 0 0 55.117279689802672 16.443063640508598 0 16.443063640508598 -28.667181291553803 0 0 0 0 67.163397596450523 29.893091501505047 0 29.893091501505047 -19.036151011837376 0 0 0 0 46.509664571844041 6.6108165876618585 0 6.6108165876618585 -27.693323130507636 0 0 0 0 51.940517860711225 35.93504898253056 0 35.93504898253056 -13.402957712347558 0 0 0 0 25.496523544527008 27.373261253281811 0 27.373261253281811 -1.0670949301816677 0 0 0 0 44.268896107307228 4.3950863608415887 0 4.3950863608415887 -44.492274248701854 0 0 0 0 40.148484252424169 15.982608036421299 0 15.982608036421299 -23.160406881762526 0 0 0 0 47.952430497534806 22.594817731546073 0 22.594817731546073 -33.642860747008825 0 0 0 0 13.354851043026429 -1.0114341231881099 0 -1.0114341231881099 36.15595813677453 0 0 0 0 44.383527781536031 9.764463613085816 0 9.764463613085816 -54.037691262747998 0 0 0 0 36.227015975585118 3.0770321227402055 0 3.0770321227402055 -0.066392775218328759 0 0 0 0 39.325993419552105 31.164111770827844 0 31.164111770827844 -15.52182329821153 0 0 0 0 25.828556756623584 -26.232931507210168 0 -26.232931507210168 3.9821017077726992 0 0 0 0 41.60787364350108 15.048335134064992 0 15.048335134064992 -8.240475664584153 0 0 0 0 40.890578068334435 -3.4527550930256474 0 -3.4527550930256474 -5.9663613051849609 0 0 0 0 40.041920845425921 -25.084891384918592 0 -25.084891384918592 -38.410551980895463 0 0 0 0 28.830938415067237 -3.0576864241944293 0 -3.0576864241944293 -4.6102811824426411 0 0 0 0 51.551621735030494 2.1466141925666307 0 2.1466141925666307 -7.1192369111456628 0 0 0 0 32.816359982920403 22.753451986337524 0 22.753451986337524 17.403586131928698 0 0 0 0 36.658273233711952 -58.465430466568705 0 -58.465430466568705 8.6797115031833982 0 0 0 0 59.860117613010516 27.2058202344449 0 27.2058202344449 51.702038075859036 0 0 0 0 62.925092765821319 3.0214896190250329 0 3.0214896190250329 -2.9654598022227674 0 0 0 0 27.320093553640206 -7.4027783264447464 0 -7.4027783264447464 -1.1129245738103899 0 0 0 0 35.230009037040872 8.6765953952517521 0 8.6765953952517521 9.4847274635139911 0 0 0 0 10.604347745258679 -32.332751979093196 0 -32.332751979093196 -0.17019610445036171 0 0 0 0 4.5015865812310949 0.79118882941111224 0 0.79118882941111224 -4.4613147932286665 0 0 0 0 49.713349194498733 -8.1019065328520128 0 -8.1019065328520128 -66.874722363339288 0 0 0 0 39.867496385690174 -15.942955902295552 0 -15.942955902295552 -9.738975030467941 0 0 0 0 43.404637994215591 -18.903057909536585 0 -18.903057909536585 6.9630436309819288 0 0 0 0 -1.2631366566084807 -1.0215730328768942 0 -1.0215730328768942 1.6361245397288893 0 0 0 0 33.454622424064667 -10.287590526796038 0 -10.287590526796038 -4.876601347731504 0 0 0 0 4.8351684105582535 -37.616730791492046 0 -37.616730791492046 -55.211426299455297 0 0 0 0 42.449199070858072 20.118344485484059 0 20.118344485484059 -7.6444945967138356 0 0 0 0 40.070428872951624 -1.9083835612167235 0 -1.9083835612167235 0.24450877936341742 0 0 0 0 51.292388018991915 -8.2329758814558147 0 -8.2329758814558147 -64.150409187416699 0 0 0 0 46.33201486049802 -21.038933100249835 0 -21.038933100249835 -50.816784315327027 0 0 0 0 29.671726192667819 0.05878622184884108 0 0.05878622184884108 -4.1677321373954577 0 0 0 0 28.276915128763051 -2.8004952792238056 0 -2.8004952792238056 -1.7737664247465763 0 0 0 0 15.116581021746242 -33.368312681080468 0 -33.368312681080468 -9.6367060603555501 0 0 0 0 75.498123284240137 11.405815831269351 0 11.405815831269351 -18.355910953793277 0 0 0 0 21.029122491787561 1.2353899388007221 0 1.2353899388007221 -0.3717762209892026 0 0 0 0 72.834268674239866 -12.70096493071712 0 -12.70096493071712 -24.894524698254898 0 0 0 0 77.479578125174157 -3.8224826710974149 0 -3.8224826710974149 -24.470563905469351 0 0 0 0 77.282127041582726 -1.5198298913967334 0 -1.5198298913967334 -0.92623855073494377 0 0 0 0 86.314844427237404 52.085011225437825 0 52.085011225437825 -75.344258843132366 0 0 0 0 77.131179644587974 -7.2267826068113621 0 -7.2267826068113621 -19.016585235953034 0 0 0 0 55.58747883758042 39.940259919540267 0 39.940259919540267 22.906951945990841 0 0 0 0 46.264945570575946 65.282787257792734 0 65.282787257792734 -32.190984619510346 0 0 0 0 88.10136597622477 34.682241674341526 0 34.682241674341526 -47.689313657628873 0 0 0 0 67.95357308180246 17.106858479811763 0 17.106858479811763 1.0060757751723486 0 0 0 0 11.909314803221292 9.8555574748571928 0 9.8555574748571928 -3.5373585681421451 0 0 0 0 49.792743471040012 10.020441146824567 0 10.020441146824567 14.165638476850177 0 0 0 0 49.540697029755393 14.016104063527564 0 14.016104063527564 3.5044904694288732 0 0 0 0 37.326373556265025 2.62280857286828 0 2.62280857286828 0.29658598704668293 0 0 0 0 48.130740721142502 -1.5411394280104105 0 -1.5411394280104105 -3.1592987386812297 0 0 0 0 29.579913758207113 -0.71226190161610248 0 -0.71226190161610248 -0.29209734855567149 0 0 0 0 44.57651119804359 13.21130054673749 0 13.21130054673749 -34.989851388388658 0 0 0 0 47.531188268749247 5.4668018499761324 0 5.4668018499761324 -16.903853282260258 0 0 0 0 44.161796394927251 1.4981553291893146 0 1.4981553291893146 -0.10405127067446354 0 0 0 0 32.390176200176938 3.8980726004014628 0 3.8980726004014628 31.282284938008161 0 0 0 0 46.325967194745317 3.8058466603960106 0 3.8058466603960106 -17.86574703183696 0 0 0 0 52.568344290328298 3.4708714260673736 0 3.4708714260673736 -0.66675232396053241 0 0 0 0 44.853373553974961 -3.2628320195803289 0 -3.2628320195803289 -12.443687402085629 0 0 0 0 42.052357058812049 14.713468345444227 0 14.713468345444227 -19.584381732683735 0 0 0 0 38.409295873847441 17.985203066550739 0 17.985203066550739 -10.647748836195092 0 0 0 0 37.82486550793692 21.094412712519983 0 21.094412712519983 -26.794789941671077 0 0 0 0 21.377502657996956 17.435877657985856 0 17.435877657985856 -9.4790696062390865 0 0 0 0 28.443999029965198 -3.087244254664256 0 -3.087244254664256 -11.995289672949426 0 0 0 0 32.276692387189541 2.3086398502664238 0 2.3086398502664238 -4.4920627844128092 0 0 0 0 78.164855974551756 -29.927832695320305 0 -29.927832695320305 -20.400280379278449 0 0 0 0 88.493628994092433 -10.695432632665927 0 -10.695432632665927 -22.499269381812013 0 0 0 0 82.284824669070076 4.4619239327930842 0 4.4619239327930842 -19.179263368379281 0 0 0 0 76.765231152083288 -13.888727220146446 0 -13.888727220146446 -29.195459816059383 0 0 0 0 82.607219728056407 -6.0597389359552158 0 -6.0597389359552158 -28.194404283404353 0 0 0 0 82.441409578823368 -9.7566896408370525 0 -9.7566896408370525 -26.2659338363815 0 0 0 0 76.59919359133346 -2.825102218054063 0 -2.825102218054063 -29.934992217302224 0 0 0 0 90.803198722444904 -1.0133012267005168 0 -1.0133012267005168 -33.853758392293287 0 0 0 0 93.010981974570313 -16.234562357258049 0 -16.234562357258049 -29.895429719651645 0 0 0 0 91.881880813190946 -22.470907145940991 0 -22.470907145940991 -2.9307573614109401 0 0 0 0 106.57539398788504 -11.983080963474382 0 -11.983080963474382 -30.582922693164718 0 0 0 0 164.61404616931395 -59.394229088668965 0 -59.394229088668965 -1.745767896935277 0 0 0 0 91.450449692158145 -11.81246000060132 0 -11.81246000060132 1.6370005580985136 0 0 0 0 0.14911335915135737 -0.079078689444401107 0 -0.079078689444401107 -0.043544645143191119 0 0 0 0 3.9861438999651 -37.039112213507281 0 -37.039112213507281 -21.081214414929878 0 0 0 0 94.958918848433314 -5.5801733541596779 0 -5.5801733541596779 0.46741662876576129 0 0 0 0 108.40300494449912 -19.261735473181634 0 -19.261735473181634 -5.8537618996571581 0 0 0 0 47.572291265081731 -7.0657793261043054 0 -7.0657793261043054 -4.4414662344842633 0 0 0 0 31.903356595052173 14.506056287102076 0 14.506056287102076 0.30454122733137012 0 0 0 0 89.158559216233698 -46.601775751956538 0 -46.601775751956538 14.196890399409682 0 0 0 0 90.500506287138705 -33.418066935603548 0 -33.418066935603548 7.5250193641842458 0 0 0 0 11.445128925341123 20.07530315975815 0 20.07530315975815 -1.0684363174376017 0 0 0 0 27.892777940069209 20.155832360755191 0 20.155832360755191 -8.9350935161503457 0 0 0 0 -12.60470739059383 2.1885623785292694 0 2.1885623785292694 -2.4366536699577921 0 0 0 0 -1.0140045106818434 8.8795844601335219 0 8.8795844601335219 3.8683169361810066 0 0 0 0 1.9745525676808029 -7.6078697199220784 0 -7.6078697199220784 5.9572809447468771 0 0 0 0 0.46594098491812019 0.19904714028716342 0 0.19904714028716342 -0.11161915619332297 0 0 0 0 -4.0633730032423045 -10.233261913090118 0 -10.233261913090118 -9.2045107218934987 0 0 0 0 1.7993537615548121 -0.81026243104582818 0 -0.81026243104582818 -4.9910182153415708 0 0 0 0 2.3547473148200879 1.7734631885545864 0 1.7734631885545864 -3.0941910117446501 0 0 0 0 0.55241414274735234 0.025914188814823547 0 0.025914188814823547 0.13002265905362601 0 0 0 0 0.67919451746274717 1.684130592868859 0 1.684130592868859 -2.8229003027973181 0 0 0 0 1.3947806440334034 0.47413078061990177 0 0.47413078061990177 0.039125596979925972 0 0 0 0 0.51750202896073461 2.8711233892225545 0 2.8711233892225545 0.0099775745232415346 0 0 0 0 3.6077445275805076 3.6270651000098217 0 3.6270651000098217 -1.6368025003059627 0 0 0 0 5.4853375042875996 1.0726722311519612 0 1.0726722311519612 -4.2369802603810554 0 0 0 0 37.63668973777385 -26.488866335367739 0 -26.488866335367739 4.4677164597763488 0 0 0 0 93.711999897255737 -33.969391456267459 0 -33.969391456267459 -3.3323830624271551 0 0 0 0 27.220487634520396 -15.814057367448168 0 -15.814057367448168 0.29531315635696842 0 0 0 0 1.1175240130698967 0.31710075368692969 0 0.31710075368692969 -0.00039666012409339882 0 0 0 0 42.980230109780678 -5.3981166943191532 0 -5.3981166943191532 -3.4258732512156214 0 0 0 0 0.19149605158054328 2.8102678457651944 0 2.8102678457651944 -1.7956219141664991 0 0 0 0 -0.021952923350909259 1.7668974148221674 0 1.7668974148221674 -1.6787997135038029 0 0 0 0 0.55562347696002234 0.024737883364352342 0 0.024737883364352342 -0.021515446000900055 0 0 0 0 117.69816989991523 -78.239009356460912 0 -78.239009356460912 37.897494727024629 0 0 0 0 -0.53731901481660316 1.2285679508112111 0 1.2285679508112111 -0.0063976304103390818 0 0 0 0 138.03652476095158 -26.614520868374584 0 -26.614520868374584 -14.423387842396817 0 0 0 0 79.75614272178791 10.805734290946472 0 10.805734290946472 0.17935523468589812 0 0 0 0 70.054674250321114 -16.122931404353395 0 -16.122931404353395 -0.81958163557262509 0 0 0 0 0.94845941096690467 0.34102435501709749 0 0.34102435501709749 -0.23143864233075001 0 0 0 0 71.152052834746428 -6.0449411613091399 0 -6.0449411613091399 -5.0907975414627309 0 0 0 0 27.37030653795955 -24.969217992618844 0 -24.969217992618844 6.3228802230649501 0 0 0 0 188.96729983859404 -72.733697162632893 0 -72.733697162632893 21.705827593673643 0 0 0 0 0.59631324305937028 0.12938231375895271 0 0.12938231375895271 -0.091399251028634471 0 0 0 0 8.6176994559700688 13.951418618728535 0 13.951418618728535 -0.050472887299638544 0 0 0 0 194.36653714683052 -14.365834402448828 0 -14.365834402448828 2.3949283634343255 0 0 0 0 171.94617824631132 -0.95224282214013756 0 -0.95224282214013756 0.14956130538944248 0 0 0 0 143.39376462085056 -8.4568998508882451 0 -8.4568998508882451 -3.2611777649978357 0 0 0 0 153.75359157374896 5.0483629533914209 0 5.0483629533914209 9.0302087733030749 0 0 0 0 151.87708108600964 -21.036521622955185 0 -21.036521622955185 9.2483898039823735 0 0 0 0 100.94822110013047 -56.128871697964186 0 -56.128871697964186 26.003220638095886 0 0 0 0 106.44097413634881 -18.915392022987113 0 -18.915392022987113 -15.585465569655895 0 0 0 0 139.61397769619361 -21.62534512164947 0 -21.62534512164947 -16.608827720433002 0 0 0 0 123.72683419124223 -9.4100321759182926 0 -9.4100321759182926 -32.931531176963823 0 0 0 0 132.61413817328139 -2.3253640318940416 0 -2.3253640318940416 -31.844158869493739 0 0 0 0 85.267454020402511 -20.65492808365882 0 -20.65492808365882 -26.934089829984863 0 0 0 0 104.20585419830604 -13.367765019950946 0 -13.367765019950946 -28.152403560362792 0 0 0 0 73.680979138203838 -13.130534005370915 0 -13.130534005370915 -25.945881030238574 0 0 0 0 71.476056977742701 -17.201548692532267 0 -17.201548692532267 -30.305382085600577 0 0 0 0 16.682645815119031 -10.929665262580539 0 -10.929665262580539 -11.807264983683794 0 0 0 0 0.49994244259249854 0.14639636405088652 0 0.14639636405088652 -0.13749814321020704 0 0 0 0 15.992360407995875 40.007038506286094 0 40.007038506286094 -40.735381419798252 0 0 0 0 66.882661852454476 -31.236007637143501 0 -31.236007637143501 -7.8898750859147171 0 0 0 0 56.602659749827581 -14.302175283740677 0 -14.302175283740677 -1.0323973228336953 0 0 0 0 -0.27683292689826544 -0.43342658313731874 0 -0.43342658313731874 -0.0075571017205650695 0 0 0 0 25.957584170921109 -1.8398149094320164 0 -1.8398149094320164 -0.0034581716375917653 0 0 0 0 27.4701077014779 4.2485999350867605 0 4.2485999350867605 0.79583491097294878 0 0 0 0 178.75275775622868 47.699940392710417 0 47.699940392710417 -3.7896181747307516 0 0 0 0 0.35271350298960868 -0.079947753102288743 0 -0.079947753102288743 -0.070770206801015673 0 0 0 0 109.8838240148616 -9.4250016507010237 0 -9.4250016507010237 0.19997241173453639 0 0 0 0 197.15699670771937 22.260594091671894 0 22.260594091671894 0.22462230106834191 0 0 0 0 170.13147044401558 0.72258833791351718 0 0.72258833791351718 10.116700252374089 0 0 0 0 168.88338110854966 4.2775960521860759 0 4.2775960521860759 -0.0029762020665433488 0 0 0 0 154.77585098001873 -2.1063784472218323 0 -2.1063784472218323 -1.7829220155756522 0 0 0 0 147.18728685655515 24.781714806901139 0 24.781714806901139 7.4064201396247658 0 0 0 0 128.71804901596624 -7.7436510063929145 0 -7.7436510063929145 -18.256148016671119 0 0 0 0 137.35111228861206 7.8110096374061024 0 7.8110096374061024 -7.4213615579491439 0 0 0 0 135.03839702578261 -0.18496266292650176 0 -0.18496266292650176 -52.436216336768844 0 0 0 0 115.27209567512909 -1.5527431621152417 0 -1.5527431621152417 -19.081559031488943 0 0 0 0 85.051309131746166 -32.973045420990971 0 -32.973045420990971 -50.852028985504973 0 0 0 0 137.91497361308211 17.818369270434928 0 17.818369270434928 -13.528710714583557 0 0 0 0 0.40445870437591935 -0.20762007652621151 0 -0.20762007652621151 -0.25654554154547915 0 0 0 0 143.78603484405176 11.775955276027075 0 11.775955276027075 -8.2628036052655069 0 0 0 0 126.59015295984136 21.666754993276435 0 21.666754993276435 1.6446536224334629 0 0 0 0 110.40281791954476 17.415509034445215 0 17.415509034445215 10.800721939493585 0 0 0 0 0.26623002737358092 -0.12165522669192796 0 -0.12165522669192796 -0.19516571985741549 0 0 0 0 167.24385335975967 29.869738178958642 0 29.869738178958642 -8.3333503156079161 0 0 0 0 73.98459491183894 24.04774415366683 0 24.04774415366683 11.665183663563539 0 0 0 0 6.4401745751619046 1.2459958565411284 0 1.2459958565411284 0.80144466150533955 0 0 0 0 109.85560220071602 15.245637632013848 0 15.245637632013848 9.336943946592811 0 0 0 0 12.279001335176872 43.760750377549812 0 43.760750377549812 23.503063681890126 0 0 0 0 -112.60768881994591 -223.11211591354765 0 -223.11211591354765 -148.32209979341633 0 0 0 0 10.385783603378442 18.212237544382617 0 18.212237544382617 15.333199979546883 0 0 0 0 -14.253204742555681 37.624646406424972 0 37.624646406424972 31.330573550678309 0 0 0 0 115.37160305822908 -16.937878255652642 0 -16.937878255652642 -25.428022563421422 0 0 0 0 11.136488962635795 17.786658028051306 0 17.786658028051306 12.22165233298705 0 0 0 0 110.1767859942338 -48.348586652054792 0 -48.348586652054792 -19.313408536030771 0 0 0 0 109.00483977422846 -61.870448280053118 0 -61.870448280053118 -106.93014750054144 0 0 0 0 439.87082742561324 -111.16464816199641 0 -111.16464816199641 -629.40910597432344 0 0 0 0 313.72650024590257 68.030049262804312 0 68.030049262804312 -160.1724713038806 0 0 0 0 177.87932966134395 99.904618717799821 0 99.904618717799821 -9.4555994211742984 0 0 0 0 330.84984166242066 85.652305806796022 0 85.652305806796022 -143.4219724482943 0 0 0 0 157.76639058455476 70.440462790618781 0 70.440462790618781 -52.371819645416721 0 0 0 0 193.77256303961622 61.01833390461141 0 61.01833390461141 -50.71192567153976 0 0 0 0 212.70785751931544 -7.3503908456348341 0 -7.3503908456348341 -178.33294350272709 0 0 0 0 151.00259119978 -13.581635018885891 0 -13.581635018885891 -72.302233381097622 0 0 0 0 136.06994339928133 7.7907211699718957 0 7.7907211699718957 -63.421155073787659 0 0 0 0 124.84064220391156 8.553217570343854 0 8.553217570343854 -53.281934624375637 0 0 0 0 139.74943563311535 26.864331056987162 0 26.864331056987162 -71.263269991565735 0 0 0 0 126.26622964011767 31.196552839127762 0 31.196552839127762 -30.670509608878419 0 0 0 0 114.14472890513207 70.002430342133209 0 70.002430342133209 17.456433550736193 0 0 0 0 110.05753184223431 41.092631240874141 0 41.092631240874141 -14.161472031178036 0 0 0 0 92.96994292063755 24.85295745569298 0 24.85295745569298 -29.253195882319197 0 0 0 0 86.945827100076713 23.520391267637876 0 23.520391267637876 -18.371890201590674 0 0 0 0 90.805995286820689 -15.341159550330829 0 -15.341159550330829 -61.289908251756763 0 0 0 0 54.124930185251912 -7.7225744698351395 0 -7.7225744698351395 0.68196614252655341 0 0 0 0 1167.3433052359615 -994.33347825683086 0 -994.33347825683086 291.4542043674852 0 0 0 0 85.185801630141214 5.2830404529325108 0 5.2830404529325108 -40.492164408147573 0 0 0 0 76.469225652632304 0.314879653391273 0 0.314879653391273 -24.744227110274629 0 0 0 0 75.6542217991082 15.869975619241515 0 15.869975619241515 -18.435540596695063 0 0 0 0 79.412747919894173 18.033403731215309 0 18.033403731215309 -2.5241423279557864 0 0 0 0 81.672492481666268 19.657087826370976 0 19.657087826370976 -20.274386302219682 0 0 0 0 83.672014563444463 37.991630403870325 0 37.991630403870325 24.139960225197655 0 0 0 0 79.481022791005671 9.0118426110338135 0 9.0118426110338135 -3.380525779231391 0 0 0 0 84.735170920670498 14.376942710811392 0 14.376942710811392 -10.421718977775157 0 0 0 0 74.971450333687244 -18.853409523219128 0 -18.853409523219128 -25.199075055896174 0 0 0 0 71.649836938770022 -60.032775835189113 0 -60.032775835189113 -24.419804367739157 0 0 0 0 44.041583660902688 -22.368910126434869 0 -22.368910126434869 76.073342185892756 0 0 0 0 438.59588672748214 1.4357279339546949 0 1.4357279339546949 -147.50047824733792 0 0 0 0 20.881295014087669 -7.2019378916901324 0 -7.2019378916901324 1.2495562031648229 0 0 0 0 700.94884256570367 -177.66702361490843 0 -177.66702361490843 -131.48168728852437 0 0 0 0 216.22990494422265 63.196972681731495 0 63.196972681731495 -106.77772454419119 0 0 0 0 370.84442531110835 -13.439266165320305 0 -13.439266165320305 -195.52512220079069 0 0 0 0 68.6777466464182 -866.1784629001894 0 -866.1784629001894 304.6540489094956 0 0 0 0 290.54061740053294 -122.53199277173849 0 -122.53199277173849 -86.734146443169038 0 0 0 0 507.52072041323117 -175.79763592566775 0 -175.79763592566775 -73.682645714777209 0 0 0 0 319.91295611535315 -53.730654923855582 0 -53.730654923855582 -41.227784143821054 0 0 0 0 391.4659947064647 40.03616634107459 0 40.03616634107459 -109.25302155384452 0 0 0 0 167.6868135323748 4.571872780045851 0 4.571872780045851 -56.981313094316647 0 0 0 0 -87.51601856086927 4.0040536362701005 0 4.0040536362701005 41.594933475474136 0 0 0 0 140.87736007690182 67.24838810168643 0 67.24838810168643 -70.953661735991318 0 0 0 0 34.119085050449939 151.31299965968901 0 151.31299965968901 -143.51182063921033 0 0 0 0 155.61647546369932 37.963379544471991 0 37.963379544471991 -59.807062513358233 0 0 0 0 69.885679658473236 -97.841933276102395 0 -97.841933276102395 -70.550321743995937 0 0 0 0 -403.34229269904426 814.39717896849481 0 814.39717896849481 1056.4456158377407 0 0 0 0 54.529868300468962 -11.973244477386324 0 -11.973244477386324 4.1957551061776748 0 0 0 0 -26.236632781510707 -77.96918674741778 0 -77.96918674741778 57.382463090948363 0 0 0 0 -266.65104871036965 -49.058610605893648 0 -49.058610605893648 54.371310435336454 0 0 0 0 111.49654292119158 149.96289199005821 0 149.96289199005821 339.67251895528352 0 0 0 0 56.522955549211474 64.93323130671601 0 64.93323130671601 345.14614926206775 0 0 0 0 15.232722068435692 -3.8245649596438449 0 -3.8245649596438449 1.3302156458259939 0 0 0 0 27.137051861267537 -69.200995892683338 0 -69.200995892683338 41.692294729686353 0 0 0 0 100.32517107477179 101.1701427455676 0 101.1701427455676 135.8033952088262 0 0 0 0 31.743243438599166 -25.459519920132109 0 -25.459519920132109 222.44907288666155 0 0 0 0 92.56086952579426 92.426933324617423 0 92.426933324617423 132.53328564423077 0 0 0 0 85.14405244847876 61.428323695415486 0 61.428323695415486 57.612623346927535 0 0 0 0 270.72078283535666 296.90644729971859 0 296.90644729971859 216.54817516050531 0 0 0 0 196.65728874044726 139.33859525248758 0 139.33859525248758 -5.4793660266404984 0 0 0 0 130.29320454283152 385.31719337543046 0 385.31719337543046 501.53190556188633 0 0 0 0 18.961993801266033 15.290107176151395 0 15.290107176151395 14.843251161793624 0 0 0 0 429.683357647089 831.7766623178054 0 831.7766623178054 2618.8810153316626 0 0 0 0 395.82320110822911 271.10689002693903 0 271.10689002693903 -199.17825344347165 0 0 0 0 425.92163282035472 346.08543121217645 0 346.08543121217645 -50.939413220664562 0 0 0 0 601.10657097782678 188.55120730848785 0 188.55120730848785 -557.12718142221024 0 0 0 0 633.42955413946038 366.99789802779003 0 366.99789802779003 -301.58493399128838 0 0 0 0 549.04613419949237 591.38199748756324 0 591.38199748756324 122.77498696497565 0 0 0 0 -242.23939371685265 -1711.7771995248531 0 -1711.7771995248531 321.36435498360891 0 0 0 0 0.22207560813026817 -1.6776253573898678 0 -1.6776253573898678 6.0823442412669859 0 0 0 0 -184.91401861433405 -42.119255337521281 0 -42.119255337521281 184.28311097645837 0 0 0 0 -21.86249196287099 -8.480254144114042 0 -8.480254144114042 25.387151982914929 0 0 0 0 117.14556676457869 -82.341952629710249 0 -82.341952629710249 79.507159669659814 0 0 0 0 -7.7065792638313724 6.6838936328208547 0 6.6838936328208547 38.424857406357205 0 0 0 0 -6.3096690651946119 15.172393331525427 0 15.172393331525427 17.869594548039004 0 0 0 0 69.375649694145977 -13.864333222163179 0 -13.864333222163179 -27.360963511684016 0 0 0 0 76.622040616814047 -13.04876105208827 0 -13.04876105208827 -29.404280374807179 0 0 0 0 74.933685776471975 -7.2270444065239694 0 -7.2270444065239694 -28.105955257936849 0 0 0 0 77.589466561970767 13.356363295697477 0 13.356363295697477 -46.803978423877538 0 0 0 0 46.309913197932474 -9.6961689843128358 0 -9.6961689843128358 -23.001546180883032 0 0 0 0 71.489928349881666 -7.5360286285143996 0 -7.5360286285143996 -24.080027327703007 0 0 0 0 81.836251840300974 -17.780971241940382 0 -17.780971241940382 -28.965474673093329 0 0 0 0 110.13133852112514 -13.962432066310162 0 -13.962432066310162 -33.851046196478535 0 0 0 0 84.647589975851588 -10.771942142584868 0 -10.771942142584868 -31.810155612120113 0 0 0 0 97.254899405219476 9.5421435358930928 0 9.5421435358930928 -40.784485091777391 0 0 0 0 107.24471269242349 -0.0096729773685475529 0 -0.0096729773685475529 -37.91390305128332 0 0 0 0 126.7120882977797 3.4956976161712454 0 3.4956976161712454 -39.614343123483373 0 0 0 0 98.432432672248979 5.3826167635511215 0 5.3826167635511215 -30.046777341673359 0 0 0 0 73.873346285050502 -0.095208339282507382 0 -0.095208339282507382 -29.710747453022933 0 0 0 0 79.654067597879475 -2.7963577124291277 0 -2.7963577124291277 -30.878016554766546 0 0 0 0 89.383525981054845 14.964572632414624 0 14.964572632414624 -25.819835615100544 0 0 0 0 87.117265557782957 -10.533323375669248 0 -10.533323375669248 -32.040014927170034 0 0 0 0 77.391471198789077 -9.8072308022460195 0 -9.8072308022460195 -29.717610189718155 0 0 0 0 75.221299293509219 -13.391528608762354 0 -13.391528608762354 -32.560886359890745 0 0 0 0 76.455495899637754 -14.404138105611167 0 -14.404138105611167 -47.817908734820492 0 0 0 0 78.58365855115332 -4.08053408867681 0 -4.08053408867681 -0.35011062902287859 0 0 0 0 78.696383643648005 -7.4293807997524475 0 -7.4293807997524475 -41.274892943778589 0 0 0 0 62.247406966518611 11.237238001522293 0 11.237238001522293 -28.902324338788745 0 0 0 0 81.613938883856463 7.3226956127413168 0 7.3226956127413168 -29.687213038888459 0 0 0 0 72.348753507016227 3.4560900056568613 0 3.4560900056568613 -33.028601322919229 0 0 0 0 59.882970388571266 -11.732362444746144 0 -11.732362444746144 -34.514180529289675 0 0 0 0 51.895368599216454 -13.602732690858133 0 -13.602732690858133 -33.458487161101459 0 0 0 0 67.464710089989239 13.177987809646481 0 13.177987809646481 -43.188739010133851 0 0 0 0 45.600208923366154 1.8162395087164072 0 1.8162395087164072 -32.362231885757879 0 0 0 0 -1743.4363074020948 -2104.5999402524458 0 -2104.5999402524458 3989.6791623147674 0 0 0 0 688.01129238618887 -280.96034721543765 0 -280.96034721543765 13.023667559073147 0 0 0 0 634.07882798730861 -130.1451071458755 0 -130.1451071458755 -58.760163292866309 0 0 0 0 1285.9937256641279 -419.67898090392919 0 -419.67898090392919 -56.051928967158801 0 0 0 0 561.90810497981147 -835.09346924551096 0 -835.09346924551096 267.93077336103033 0 0 0 0 1991.5943409285974 -1981.3539114308642 0 -1981.3539114308642 1018.7553759507869 0 0 0 0 655.58677400858141 -705.88550810924426 0 -705.88550810924426 211.78296371500142 0 0 0 0 26.931720014224993 -290.81016692285243 0 -290.81016692285243 38.292922140795326 0 0 0 0 -1364.9273922464345 115.07114985689623 0 115.07114985689623 1182.3341803261974 0 0 0 0 -2129.5072997784446 -725.53977294314382 0 -725.53977294314382 2814.7100210542394 0 0 0 0 152.28609360558767 -352.57959598952345 0 -352.57959598952345 61.651249979693148 0 0 0 0 438.29989346052753 -257.33622423803365 0 -257.33622423803365 -24.117351739579135 0 0 0 0 -45.83488486837814 309.48159973745487 0 309.48159973745487 -575.72301293562555 0 0 0 0 206.43129714545648 -101.12898503017027 0 -101.12898503017027 -232.43690637671534 0 0 0 0 -51.541165999129589 -146.75693747967966 0 -146.75693747967966 42.40741571834451 0 0 0 0 141.74155675095244 80.438852966329591 0 80.438852966329591 -217.59783770838371 0 0 0 0 23.840158820901706 -6.6233560138614109 0 -6.6233560138614109 -40.92762827555805 0 0 0 0 77.70361409112229 -7.8892359423259739 0 -7.8892359423259739 -31.597772538163515 0 0 0 0 76.248308517930127 -7.051717256000571 0 -7.051717256000571 -30.229002630107338 0 0 0 0 78.705242472539766 -3.0683559943544032 0 -3.0683559943544032 -0.065918688982963602 0 0 0 0 77.865804056607885 -5.1234329396480334 0 -5.1234329396480334 -27.946320720488956 0 0 0 0 40.534902850326034 57.13835247326341 0 57.13835247326341 23.071081631552488 0 0 0 0 39.777416367945989 46.959610632326644 0 46.959610632326644 22.193334530431457 0 0 0 0 77.251739541978168 29.718901532905505 0 29.718901532905505 -6.8210586625200449 0 0 0 0 233.00545229213458 -223.85804500491039 0 -223.85804500491039 173.65523693071177 0 0 0 0 5.4016806588566055 -0.75075457662964595 0 -0.75075457662964595 0.16141538861198199 0 0 0 0 92.293871056266653 159.38763598395357 0 159.38763598395357 261.88248359245426 0 0 0 0 292.48645797502832 -274.17073625473586 0 -274.17073625473586 111.07727457034878 0 0 0 0 469.24183636148518 43.078004046335423 0 43.078004046335423 -35.642292126612787 0 0 0 0 148.11826927999209 -147.36670453125475 0 -147.36670453125475 91.438908501226933 0 0 0 0 222.48125678981887 -249.6440548513273 0 -249.6440548513273 -8.4850001205500121 0 0 0 0 240.22379808578989 -202.70578915579608 0 -202.70578915579608 28.239886576394298 0 0 0 0 170.10392244077229 -232.39135910722007 0 -232.39135910722007 261.47818468807395 0 0 0 0 170.96709305925469 43.650482947278647 0 43.650482947278647 294.01509225214227 0 0 0 0 508.60006182490179 -97.140664982656432 0 -97.140664982656432 -4.4534182643642737 0 0 0 0 417.03643013182227 90.72504660348072 0 90.72504660348072 96.904562176226023 0 0 0 0 40.393566336872027 -83.659377941413894 0 -83.659377941413894 173.79107462110329 0 0 0 0 269.93019944931439 -53.863435695243169 0 -53.863435695243169 -41.952590909779985 0 0 0 0 301.98057180931664 17.834051232752611 0 17.834051232752611 -46.533167760722392 0 0 0 0 57.343706974861561 -84.453143179310814 0 -84.453143179310814 30.920361001696619 0 0 0 0 1.3629281287332304 0.87106925686649106 0 0.87106925686649106 -0.096378316481362081 0 0 0 0 206.72648845637013 27.922056339253686 0 27.922056339253686 0.49385704618384807 0 0 0 0 329.01827290177789 -51.361890738541149 0 -51.361890738541149 -13.793994162730314 0 0 0 0 325.95727907048422 -35.542473213393123 0 -35.542473213393123 -10.968850144664316 0 0 0 0 263.8544992496245 -63.269671904018068 0 -63.269671904018068 49.025519675591603 0 0 0 0 153.09667139473459 -36.049762970810889 0 -36.049762970810889 42.413073201096608 0 0 0 0 105.75771693980641 -36.880128335384711 0 -36.880128335384711 105.48849043692826 0 0 0 0 131.7204043010388 -4.4464245545302674 0 -4.4464245545302674 81.80051517131551 0 0 0 0 77.856287893140689 -54.016692166398116 0 -54.016692166398116 105.45702613274807 0 0 0 0 77.776153134385822 -45.471627179204461 0 -45.471627179204461 107.15851630707925 0 0 0 0 33.91351682111781 -43.077238615410934 0 -43.077238615410934 101.9332652468572 0 0 0 0 90.177331920083645 -101.0935122633875 0 -101.0935122633875 111.44543588152489 0 0 0 0 89.392823384034727 -24.692180009217612 0 -24.692180009217612 59.9623645398284 0 0 0 0 271.67220524833101 -76.267362761315283 0 -76.267362761315283 -4.5774738419986249 0 0 0 0 -30.137803495505068 -121.16394690632751 0 -121.16394690632751 4.118976300351278 0 0 0 0 -2.9785518353746738 -79.377387965267644 0 -79.377387965267644 -41.478900987944144 0 0 0 0 -379.72688930690492 22.580465399770446 0 22.580465399770446 104.82183205228466 0 0 0 0 -0.32393715037751036 -0.8813511270535912 0 -0.8813511270535912 -1.6965169235732134 0 0 0 0 186.01047426666628 -99.20529827872042 0 -99.20529827872042 40.180371322519932 0 0 0 0 -4.3139371850295163 -14.645646818582989 0 -14.645646818582989 18.131029829353874 0 0 0 0 162.68854520717287 -65.051737774555022 0 -65.051737774555022 21.284171335241808 0 0 0 0 -1.881066897411074 -30.503644795859742 0 -30.503644795859742 0.69724307310966083 0 0 0 0 102.17424929838307 -48.535291308159799 0 -48.535291308159799 61.583749970979625 0 0 0 0 131.63362663031148 -70.500471629010462 0 -70.500471629010462 24.497544350381759 0 0 0 0 121.74815676691651 -53.238388970184587 0 -53.238388970184587 18.636077641537668 0 0 0 0 -13.051322936471799 -13.287772610977171 0 -13.287772610977171 17.544174495012445 0 0 0 0 0.78461219112796243 -14.013523005425611 0 -14.013523005425611 23.265771880771354 0 0 0 0 0.73734467525082437 0.57893408993318474 0 0.57893408993318474 0.1818465071432307 0 0 0 0 7.9906235685411957 -66.595921549371496 0 -66.595921549371496 61.152377599603625 0 0 0 0 -11.477553958542558 -11.651213486634571 0 -11.651213486634571 25.536893865166093 0 0 0 0 183.4819770695467 -87.643140771041431 0 -87.643140771041431 15.588520404787687 0 0 0 0 11.594950691163831 -49.939491818308568 0 -49.939491818308568 73.685261342462923 0 0 0 0 91.697664571125642 -22.980117293542776 0 -22.980117293542776 45.494925194181292 0 0 0 0 90.302619801521814 -50.346136376415977 0 -50.346136376415977 14.39811929768166 0 0 0 0 9.6527012704973458 36.010525019045986 0 36.010525019045986 54.454125204777249 0 0 0 0 85.171821043113596 -112.95707639729739 0 -112.95707639729739 53.557362291517393 0 0 0 0 1.2430549285594168 1.1533868104534122 0 1.1533868104534122 0.77930840090304132 0 0 0 0 33.065479963297548 -6.1810761151248244 0 -6.1810761151248244 29.175539456041975 0 0 0 0 30.826991771198664 -39.604143967921544 0 -39.604143967921544 15.798349618003954 0 0 0 0 44.717590614702203 -38.168585067528738 0 -38.168585067528738 39.739453178885014 0 0 0 0 -0.77058960537539178 -3.2471931465897192 0 -3.2471931465897192 4.2295293418109159 0 0 0 0 78.907857664489711 -42.839372400684226 0 -42.839372400684226 21.516804826441785 0 0 0 0 -19.848391484338208 -17.547953955607994 0 -17.547953955607994 49.1419807368232 0 0 0 0 -7.0607355417420976 -14.247500259530952 0 -14.247500259530952 16.744182971724463 0 0 0 0 70.405668454113766 -25.10308344367786 0 -25.10308344367786 -7.602884845608969 0 0 0 0 115.14323262179096 -55.467128561352638 0 -55.467128561352638 12.342790202077595 0 0 0 0 106.10977460761205 -49.260191680677963 0 -49.260191680677963 35.683800545910344 0 0 0 0 16.268782061499806 -5.2575690528431096 0 -5.2575690528431096 0.83889616410893453 0 0 0 0 110.16074869781914 -28.636457992637077 0 -28.636457992637077 22.741374262248428 0 0 0 0 110.7550926511467 -52.462852483308779 0 -52.462852483308779 23.272752290420158 0 0 0 0 102.75395003566518 -64.666221957082598 0 -64.666221957082598 42.973882462406436 0 0 0 0 111.99799201428687 -47.514043819381413 0 -47.514043819381413 5.494722054399972 0 0 0 0 93.508938525355916 -14.40184797758161 0 -14.40184797758161 -4.8404295816435479 0 0 0 0 66.952844495164754 -17.114093304186099 0 -17.114093304186099 6.3618798676288861 0 0 0 0 13.127753125898856 -7.9409675456379603 0 -7.9409675456379603 -10.305019116886863 0 0 0 0 78.300681842549238 -35.112949748860956 0 -35.112949748860956 3.1406542757511033 0 0 0 0 105.12711366976146 -41.50950758606723 0 -41.50950758606723 0.54172061425560969 0 0 0 0 72.092689747238182 -42.195267309419251 0 -42.195267309419251 -26.362123789558609 0 0 0 0 56.539666422480877 -56.996173167209349 0 -56.996173167209349 -39.218300572608769 0 0 0 0 43.184360004961491 -50.63055313399127 0 -50.63055313399127 -76.564637172441508 0 0 0 0 70.095947081099439 -11.927331181046384 0 -11.927331181046384 1.0142031749073794 0 0 0 0 12.104139679053333 -56.470662376898417 0 -56.470662376898417 -59.632300783912939 0 0 0 0 16.709149937774527 -5.8418012911887729 0 -5.8418012911887729 1.7306247493907287 0 0 0 0 55.071253627160331 -73.666926006974336 0 -73.666926006974336 -58.588900458349144 0 0 0 0 54.906599186531821 -54.840325055776589 0 -54.840325055776589 -20.807933595637223 0 0 0 0 43.62211767359986 -81.44646247098899 0 -81.44646247098899 -12.559940074935184 0 0 0 0 -7.3057088511268375 -83.59684957405716 0 -83.59684957405716 3.964679228631212 0 0 0 0 -99.455491499804339 -57.29523820428426 0 -57.29523820428426 26.150938791070075 0 0 0 0 -1.889280660573263 -2.546597234269683 0 -2.546597234269683 -5.9496119789510367 0 0 0 0 18.526142759845243 -46.321749628639282 0 -46.321749628639282 1.498958792151825 0 0 0 0 66.578092763804307 -27.343362273421967 0 -27.343362273421967 17.200590799240722 0 0 0 0 61.736279342775902 -47.947691431168394 0 -47.947691431168394 18.140940226880261 0 0 0 0 14.162691158161813 -2.3117621524949783 0 -2.3117621524949783 -9.7885619713871996 0 0 0 0 64.067972770006236 -27.865971457630472 0 -27.865971457630472 17.507352534874315 0 0 0 0 56.145891449475982 -9.541231531194704 0 -9.541231531194704 -7.2684382695806846 0 0 0 0 56.445804609023014 -12.629805864655991 0 -12.629805864655991 -1.9756216493234244 0 0 0 0 95.285104903301544 -19.099951439510505 0 -19.099951439510505 2.1852089905414687 0 0 0 0 91.64065568226215 -14.295450688375695 0 -14.295450688375695 -9.1542202579662444 0 0 0 0 117.79227576074481 -32.216159677700034 0 -32.216159677700034 -6.3596804695830542 0 0 0 0 13.144548367940118 -4.0108790364107989 0 -4.0108790364107989 -6.373633543416787 0 0 0 0 78.529265663262777 -18.270393125489363 0 -18.270393125489363 -0.95573890128503081 0 0 0 0 98.857564608922985 -39.204045302268128 0 -39.204045302268128 2.5297456847656576 0 0 0 0 86.344957887755299 -6.1989233935655648 0 -6.1989233935655648 -2.6022355841851095 0 0 0 0 78.277094539371319 -8.8843360444770951 0 -8.8843360444770951 6.2026016394939916 0 0 0 0 123.60336093931801 0.044749096962618751 0 0.044749096962618751 -11.319840865307924 0 0 0 0 73.157721264622523 -24.411961881939533 0 -24.411961881939533 7.888528885105643 0 0 0 0 72.5198540618876 -29.112349321116199 0 -29.112349321116199 -20.300921911727528 0 0 0 0 65.272927893540327 -19.025988915447101 0 -19.025988915447101 -17.403684035594779 0 0 0 0 82.997103891160805 -11.374440537314513 0 -11.374440537314513 -6.937246929090179 0 0 0 0 67.454549389964086 -13.577392720900662 0 -13.577392720900662 -3.8183781181351151 0 0 0 0 71.201444383346825 -17.206879645037134 0 -17.206879645037134 -2.3480804995815561 0 0 0 0 63.799577510995732 -11.640568026712231 0 -11.640568026712231 -0.82302288022560788 0 0 0 0 60.916306120123409 -3.7392124941930547 0 -3.7392124941930547 -8.7277550557182622 0 0 0 0 36.08783889968467 -9.4806027471961265 0 -9.4806027471961265 7.3769289709426742 0 0 0 0 -28.455260545197234 2.0216159667671718 0 2.0216159667671718 54.82801331070732 0 0 0 0 32.510265956654621 -28.823457282114077 0 -28.823457282114077 -9.8735192920877353 0 0 0 0 9.6582815312145982 -0.4027259457897685 0 -0.4027259457897685 5.0135632978612765 0 0 0 0 18.543395696640452 4.4579846428282366 0 4.4579846428282366 -4.4479651113491556 0 0 0 0 55.596591746434569 -23.962288764728555 0 -23.962288764728555 11.795604396630154 0 0 0 0 10.833171152990317 10.31207375725922 0 10.31207375725922 -2.0115792516695095 0 0 0 0 50.631325019829092 -17.557608079283909 0 -17.557608079283909 -14.7706690494133 0 0 0 0 24.072524865238393 59.315143989648959 0 59.315143989648959 -8.2234434700385464 0 0 0 0 62.646643844753271 -47.516177593920474 0 -47.516177593920474 -22.099852927032771 0 0 0 0 20.497436968096736 16.894599600289894 0 16.894599600289894 -5.2000867142960487 0 0 0 0 4.775329267820652 -0.16872035260549012 0 -0.16872035260549012 -0.85288136538098946 0 0 0 0 92.973475742459414 39.29199386671371 0 39.29199386671371 -26.429534706920094 0 0 0 0 116.21918483427726 15.694276598644137 0 15.694276598644137 -13.292973540242201 0 0 0 0 82.90535193953292 37.916944930746098 0 37.916944930746098 -58.501673342898357 0 0 0 0 2.0342603323078947 7.0471854669035565 0 7.0471854669035565 11.164866097066806 0 0 0 0 93.42116740217898 41.168563162808823 0 41.168563162808823 3.8305271518674999 0 0 0 0 117.50226494673916 -12.856297553098329 0 -12.856297553098329 18.540375214090091 0 0 0 0 191.44214387048851 5.3413095239347967 0 5.3413095239347967 1.9176212716283771 0 0 0 0 82.530119642848149 31.784818253988959 0 31.784818253988959 9.4593220757196832 0 0 0 0 138.30908449966228 15.468175564587909 0 15.468175564587909 -17.312536239510337 0 0 0 0 4.2339488498497531 4.2578500806569295 0 4.2578500806569295 0.12166509498288391 0 0 0 0 228.72972055853461 -106.78759269017155 0 -106.78759269017155 100.00464661799197 0 0 0 0 296.8851350810728 -121.7897269363184 0 -121.7897269363184 41.989399032092479 0 0 0 0 114.81044192604895 21.372841160880853 0 21.372841160880853 24.008840374599458 0 0 0 0 24.923316126897589 541.07006166944325 0 541.07006166944325 398.91756833370528 0 0 0 0 149.11236597748939 9.9490862861639471 0 9.9490862861639471 69.259088979141779 0 0 0 0 147.87194257178635 -11.22392697424948 0 -11.22392697424948 18.400341594133351 0 0 0 0 157.02756262283219 -32.343036948766667 0 -32.343036948766667 38.126264120177439 0 0 0 0 191.13549958610383 -27.258075410282345 0 -27.258075410282345 13.252207701499174 0 0 0 0 200.78208097873721 -56.82098321230842 0 -56.82098321230842 37.941035080920301 0 0 0 0 194.03745910275029 -133.15943074978077 0 -133.15943074978077 169.82671491768997 0 0 0 0 177.67893155917409 -34.18307797457237 0 -34.18307797457237 41.12423656755891 0 0 0 0 184.89481773735679 -71.486029236486047 0 -71.486029236486047 126.02287520543905 0 0 0 0 171.33278369213804 47.811178632588053 0 47.811178632588053 129.3241284446849 0 0 0 0 175.6933735696075 2.3862122163809545 0 2.3862122163809545 -0.32860453372995835 0 0 0 0 140.83630688037374 -65.272518877161929 0 -65.272518877161929 289.33992613249939 0 0 0 0 191.46887602680363 45.149429778823105 0 45.149429778823105 -17.85379854227358 0 0 0 0 175.10872768622357 150.02695881710679 0 150.02695881710679 287.77605969463912 0 0 0 0 399.25308952660998 246.3555066755489 0 246.3555066755489 -119.95406382450346 0 0 0 0 288.49637746138615 -73.972747984049875 0 -73.972747984049875 -286.64838077676905 0 0 0 0 105.37171761365607 -138.79511599435682 0 -138.79511599435682 -112.26794364532907 0 0 0 0 225.18962318665581 26.791415461650104 0 26.791415461650104 -12.279556301544289 0 0 0 0 113.54750088861329 -58.160697331897609 0 -58.160697331897609 -52.766214286272771 0 0 0 0 133.14595677341276 -43.724387949581796 0 -43.724387949581796 -46.402363001716367 0 0 0 0 207.1907459974318 -19.260221056058072 0 -19.260221056058072 -108.33441911544833 0 0 0 0 159.20867356653616 2.5822161032547228 0 2.5822161032547228 -0.19430180875133374 0 0 0 0 99.902461890542327 -2.0234643058183792 0 -2.0234643058183792 -26.940087565666545 0 0 0 0 170.39076314145495 16.555764998364793 0 16.555764998364793 -21.693369706525118 0 0 0 0 129.09270169981755 20.939610500936396 0 20.939610500936396 -9.5181984444655541 0 0 0 0 148.85351686144713 11.635163362614549 0 11.635163362614549 -9.0204102710031293 0 0 0 0 122.44296604156261 -16.845207814208152 0 -16.845207814208152 -39.116055715023322 0 0 0 0 133.40549652505433 -16.105792989740621 0 -16.105792989740621 -43.037241490202177 0 0 0 0 76.815831507192343 -3.1918290173653077 0 -3.1918290173653077 -33.734066173277824 0 0 0 0 105.63488842942024 -25.750468523787958 0 -25.750468523787958 -42.987591774737666 0 0 0 0 111.93288969734567 -2.5182115705465549 0 -2.5182115705465549 -34.747781537531409 0 0 0 0 82.402160565015947 -27.643416524188524 0 -27.643416524188524 -28.683602207422155 0 0 0 0 69.757309646709473 -40.227165111161412 0 -40.227165111161412 -12.325174502609116 0 0 0 0 103.69214683712926 -28.31458299220958 0 -28.31458299220958 -35.790408701464912 0 0 0 0 89.143955885519972 -50.459557900939217 0 -50.459557900939217 -45.06811924684007 0 0 0 0 4.0667303211104837 4.1786607273526286 0 4.1786607273526286 -6.5255889807444873 0 0 0 0 -0.51717051743013798 0.86936667785045074 0 0.86936667785045074 -2.8272273193918629 0 0 0 0 60.130045361645102 44.989347215089161 0 44.989347215089161 -84.115301032199568 0 0 0 0 257.36836596467765 -144.84389710962205 0 -144.84389710962205 -90.775457940340857 0 0 0 0 254.71626275308518 -112.32574168997007 0 -112.32574168997007 48.45995411839499 0 0 0 0 46.133462433077511 -62.470020621705316 0 -62.470020621705316 -19.854439885195461 0 0 0 0 80.335470193531364 -93.355064613764625 0 -93.355064613764625 -248.8250712544359 0 0 0 0 105.64879822422517 -94.908328487673316 0 -94.908328487673316 -344.34893818137789 0 0 0 0 91.740619268355658 -243.87930993324335 0 -243.87930993324335 9.6435104262923232 0 0 0 0 99.290558861444879 -197.54971889049011 0 -197.54971889049011 120.74605909529055 0 0 0 0 84.42000413700589 -223.95987165494444 0 -223.95987165494444 -383.08607840056402 0 0 0 0 66.732897439549561 -165.12249519364059 0 -165.12249519364059 -109.63749224921412 0 0 0 0 28.374810304314451 -357.23321891322496 0 -357.23321891322496 -69.943734413396669 0 0 0 0 35.373090361972572 -346.54964676998043 0 -346.54964676998043 -268.42228031564809 0 0 0 0 -115.50292653864744 -309.63204253008644 0 -309.63204253008644 78.267331819288302 0 0 0 0 80.3234354911433 -103.07596044295137 0 -103.07596044295137 96.919061575223168 0 0 0 0 108.84507812702213 -12.390251702885507 0 -12.390251702885507 -1.3102209012818093 0 0 0 0 -19.863322317544061 -23.99228864266599 0 -23.99228864266599 -11.174008960022018 0 0 0 0 132.39378043705256 -45.64679968207497 0 -45.64679968207497 -25.005110850893743 0 0 0 0 195.34564960479474 -54.830096348045529 0 -54.830096348045529 -29.663154413377228 0 0 0 0 -21.207440232648892 -17.855374450506645 0 -17.855374450506645 -1.9005812584715978 0 0 0 0 316.79632611091074 -51.020126265288127 0 -51.020126265288127 166.05023552289887 0 0 0 0 261.03564506236216 4.9193030767032724 0 4.9193030767032724 137.43735441744229 0 0 0 0 255.91338173959957 14.249153371977968 0 14.249153371977968 170.80736506936546 0 0 0 0 1.5465008032614094 -1.0938142313571042 0 -1.0938142313571042 -0.73696677648253583 0 0 0 0 81.50886648818414 75.098578088943441 0 75.098578088943441 -32.653660099858371 0 0 0 0 92.929368090168282 -187.25653690185277 0 -187.25653690185277 197.78507175668801 0 0 0 0 167.13173992011434 23.210692255007189 0 23.210692255007189 -7.1336073473768238 0 0 0 0 53.496411901770671 -0.59080068722628098 0 -0.59080068722628098 90.125734127935175 0 0 0 0 83.045427143541019 3.5919201817858948 0 3.5919201817858948 89.517012019439335 0 0 0 0 61.128817376586085 -29.067095965420663 0 -29.067095965420663 92.942589624427455 0 0 0 0 216.63227799962624 -52.409329185509137 0 -52.409329185509137 67.824757838045571 0 0 0 0 283.0194436214806 -10.41735060199062 0 -10.41735060199062 25.584011476123351 0 0 0 0 278.14396951639173 -27.28037738535221 0 -27.28037738535221 30.267231231922779 0 0 0 0 286.45469618789502 -58.432880530746502 0 -58.432880530746502 44.354881868255234 0 0 0 0 256.87501311725646 -76.893310730423764 0 -76.893310730423764 39.884284962339279 0 0 0 0 405.19214813606231 -111.96700604511057 0 -111.96700604511057 6.4950102022053215 0 0 0 0 392.59656490841007 21.271476018375552 0 21.271476018375552 44.788839466860054 0 0 0 0 26.251497617231507 -6.3414503860035438 0 -6.3414503860035438 137.27919449567503 0 0 0 0 277.58196444160967 -17.06278005661045 0 -17.06278005661045 45.78750036167412 0 0 0 0 66.989378054175177 7.7528780238067156 0 7.7528780238067156 -15.42528733605468 0 0 0 0 13.9397240850667 39.982004040964057 0 39.982004040964057 1.4148659031432089 0 0 0 0 49.157317596138455 14.72942919936304 0 14.72942919936304 67.197631511383634 0 0 0 0 0.21186640216065911 -0.29624626949528476 0 -0.29624626949528476 1.7902447210509358 0 0 0 0 -30.433539441393805 -55.073501867030245 0 -55.073501867030245 27.576918046144101 0 0 0 0 212.2648994674455 -125.69636757193189 0 -125.69636757193189 48.015623226076968 0 0 0 0 740.48197029266521 143.24275295765267 0 143.24275295765267 -7.0312128402429153 0 0 0 0 31.27647473475372 -10.341194753853415 0 -10.341194753853415 -22.241013986456608 0 0 0 0 63.746373714609945 2.7873288402201979 0 2.7873288402201979 -22.956485969527421 0 0 0 0 14.196909141637661 87.122976937293856 0 87.122976937293856 8.7610407404445141 0 0 0 0 12.444010817226015 8.7326558075901062 0 8.7326558075901062 -3.0852340225936139 0 0 0 0 6.3882031127372585 -2.236153978748149 0 -2.236153978748149 4.3563180314951531 0 0 0 0 22.472059442203317 -4.040026877123637 0 -4.040026877123637 -34.431005768299201 0 0 0 0 -11.890305706492654 60.612309080653233 0 60.612309080653233 -18.144534208104233 0 0 0 0 466.43462001805892 35.943536607417286 0 35.943536607417286 -2.9198031919240748 0 0 0 0 437.38861112425366 -56.577838869445713 0 -56.577838869445713 -269.04993999084354 0 0 0 0 247.78549396512244 193.09830039649023 0 193.09830039649023 14.440089211495433 0 0 0 0 13.903807849925215 -121.08689878074881 0 -121.08689878074881 91.259832693577664 0 0 0 0 62.997626347791083 -84.665512584752719 0 -84.665512584752719 107.18538105978587 0 0 0 0 134.39674126244427 -133.37854737396015 0 -133.37854737396015 -254.08017244135408 0 0 0 0 -7.8359047061894671 119.61846192303028 0 119.61846192303028 -245.32536231338582 0 0 0 0 61.402586495853029 -0.23768226874062748 0 -0.23768226874062748 -95.062531207447762 0 0 0 0 67.090388786302356 -17.129900788915165 0 -17.129900788915165 -71.201467795797726 0 0 0 0 63.671538913222321 -38.451743644147427 0 -38.451743644147427 -66.892476169406564 0 0 0 0 64.185765781672671 -24.046724645009363 0 -24.046724645009363 -82.184945189745576 0 0 0 0 42.504657986921302 -27.011922799750437 0 -27.011922799750437 -68.796981944105937 0 0 0 0 31.794493002875242 -67.75799854099148 0 -67.75799854099148 64.8138418422634 0 0 0 0 2.9466549294717481 -1.525202410434396 0 -1.525202410434396 -1.2721448927122641 0 0 0 0 22.999327083576645 -11.876680724529251 0 -11.876680724529251 -42.717313946774084 0 0 0 0 81.321943195849599 -71.139483902205257 0 -71.139483902205257 -97.293419141412386 0 0 0 0 73.848203853212908 -82.456815435393082 0 -82.456815435393082 -22.551523951585523 0 0 0 0 -40.828810517105012 -20.685217194010704 0 -20.685217194010704 75.475176833777596 0 0 0 0 1.2003520775186587 -0.89215591454532017 0 -0.89215591454532017 -1.5042613717249127 0 0 0 0 -0.94312257354977191 -55.528771606850341 0 -55.528771606850341 101.78602338953306 0 0 0 0 43.738840377962333 -14.412231246033571 0 -14.412231246033571 -31.913077046447142 0 0 0 0 3.5285563480356359 -46.561819207390272 0 -46.561819207390272 113.12835515070742 0 0 0 0 36.224938380604726 -81.316296915100452 0 -81.316296915100452 116.64155589507266 0 0 0 0 3.5680380217381753 -47.581617205242651 0 -47.581617205242651 96.420251696998548 0 0 0 0 77.310215863530175 -22.558387726870023 0 -22.558387726870023 65.428667460532552 0 0 0 0 54.868582429209312 -47.734784748020061 0 -47.734784748020061 80.058966971472728 0 0 0 0 1.0619215057293871 -0.56590017485902422 0 -0.56590017485902422 -1.0532242158406699 0 0 0 0 77.478869693208253 -42.319289171891342 0 -42.319289171891342 81.350664394411069 0 0 0 0 42.958996948655113 -97.063115381572516 0 -97.063115381572516 98.793568063084834 0 0 0 0 22.930696949733829 -59.087463947070205 0 -59.087463947070205 56.057269177604212 0 0 0 0 35.856458167050732 -52.665436795282858 0 -52.665436795282858 42.66174758700538 0 0 0 0 25.135935480138869 -39.631980047525985 0 -39.631980047525985 35.498518895542475 0 0 0 0 8.4443013555646758 -17.358601965390449 0 -17.358601965390449 53.794060577061543 0 0 0 0 -4.0209651072873385 -31.722041595430767 0 -31.722041595430767 99.48472221603663 0 0 0 0 85.585968752136978 2.7475644599683164 0 2.7475644599683164 50.016682673648347 0 0 0 0 80.451911695788795 -96.39869533169562 0 -96.39869533169562 59.116942913628009 0 0 0 0 69.18825966703298 -87.751531413846806 0 -87.751531413846806 61.182564090594724 0 0 0 0 60.118064143898664 -86.274678313383447 0 -86.274678313383447 61.316867261322841 0 0 0 0 59.348044322876376 -87.607350617984594 0 -87.607350617984594 59.016191518367009 0 0 0 0 50.675153552776464 -67.22585843506522 0 -67.22585843506522 41.917782447846548 0 0 0 0 54.897288985084742 -64.832664372394447 0 -64.832664372394447 40.720146280423251 0 0 0 0 66.988122496652068 -85.99111554781166 0 -85.99111554781166 58.956531042746974 0 0 0 0 78.113923889592115 -71.634572288328854 0 -71.634572288328854 69.352055429837037 0 0 0 0 -2.8712016010395018 -48.266732720198888 0 -48.266732720198888 113.10366049710319 0 0 0 0 67.363313778572774 -61.839333021105631 0 -61.839333021105631 113.65857304884776 0 0 0 0 1.184545478282331 -1.1391962839282073 0 -1.1391962839282073 -1.7010133195251793 0 0 0 0 59.298008773479523 -43.918685972770163 0 -43.918685972770163 -2.9386575821836232 0 0 0 0 25.392108538020693 -12.040255259247715 0 -12.040255259247715 -72.583780355018916 0 0 0 0 3.2120737241554025 -1.5553421179991087 0 -1.5553421179991087 -1.4494778090392444 0 0 0 0 2.1261481600668048 -17.852890184043645 0 -17.852890184043645 -67.647097849237525 0 0 0 0 42.070780530630145 -29.975035302391007 0 -29.975035302391007 -84.375315482267979 0 0 0 0 -40.191132468877186 38.537313235484817 0 38.537313235484817 -105.86123752162166 0 0 0 0 17.121069791115588 59.889771602488509 0 59.889771602488509 -177.32533753505777 0 0 0 0 -21.814818084603758 57.824806158881529 0 57.824806158881529 -139.74706768357646 0 0 0 0 -30.755482587759616 10.186204748370983 0 10.186204748370983 -87.419732430465956 0 0 0 0 4.8921214699366828 4.7066423435762772 0 4.7066423435762772 -106.83367660550078 0 0 0 0 -1.2801965813850984 -23.949462386874984 0 -23.949462386874984 -73.604377413031671 0 0 0 0 -3.8899180445805541 11.324477238341842 0 11.324477238341842 -102.96622755555472 0 0 0 0 30.596898550196784 10.138630152523547 0 10.138630152523547 -135.13593484218336 0 0 0 0 50.730773272909573 -2.7554380232268159 0 -2.7554380232268159 -129.77924306460409 0 0 0 0 1.9183583382019265 -1.2489456447812444 0 -1.2489456447812444 -1.0981103482601346 0 0 0 0 135.59195577679202 -166.949545599673 0 -166.949545599673 78.596340678381239 0 0 0 0 66.682656484059407 39.36644776947287 0 39.36644776947287 -219.72681101051057 0 0 0 0 60.129490097773669 12.940932246218836 0 12.940932246218836 -170.6383561283219 0 0 0 0 31.840935218476261 21.864880694262126 0 21.864880694262126 -140.9431051162901 0 0 0 0 56.638326982822036 8.1044287441127381 0 8.1044287441127381 -165.4408776723867 0 0 0 0 113.49068237448228 -32.642288760180236 0 -32.642288760180236 -223.23415389177273 0 0 0 0 92.460684619320091 -38.070826230717103 0 -38.070826230717103 -82.788072072420618 0 0 0 0 122.29663013653771 -105.03735613186473 0 -105.03735613186473 -106.59781656397536 0 0 0 0 119.78408044102252 -86.890677879345276 0 -86.890677879345276 -167.61028855275799 0 0 0 0 89.676407462306088 -19.297318047769295 0 -19.297318047769295 -147.48801072089645 0 0 0 0 78.754054140154039 -29.998334547091872 0 -29.998334547091872 -144.96843331313357 0 0 0 0 48.682015515936655 4.2385402228019302 0 4.2385402228019302 -120.87367707365138 0 0 0 0 128.87193992530229 -32.397496498765577 0 -32.397496498765577 -96.272019088904926 0 0 0 0 112.67601868005295 -16.3051897798141 0 -16.3051897798141 -114.47170971570813 0 0 0 0 109.87082273382111 -38.252636794128193 0 -38.252636794128193 -44.856513194134095 0 0 0 0 107.65228211352951 -55.32869395317357 0 -55.32869395317357 -8.5145829847497225 0 0 0 0 116.59445123112528 -64.341834270666368 0 -64.341834270666368 -60.323264662319161 0 0 0 0 107.28594391114893 -80.852540605682407 0 -80.852540605682407 103.16213453219098 0 0 0 0 110.66111269065004 -32.426121190630511 0 -32.426121190630511 -2.8016171388680959 0 0 0 0 114.06815012532752 -21.278749464120665 0 -21.278749464120665 -44.802259731945924 0 0 0 0 98.325079162968905 -54.448368521649627 0 -54.448368521649627 54.988165899510022 0 0 0 0 99.411571437885868 -49.717126238705532 0 -49.717126238705532 53.049031765553082 0 0 0 0 97.738012650050223 -57.341756282280585 0 -57.341756282280585 59.60883992185336 0 0 0 0 128.54886445467127 -48.337224730954404 0 -48.337224730954404 1.5728015280164982 0 0 0 0 190.99323920584357 26.785759151693583 0 26.785759151693583 67.649289563385537 0 0 0 0 103.06829113166896 -54.108063562239295 0 -54.108063562239295 37.188855693268124 0 0 0 0 129.09036019870837 -56.161327747859104 0 -56.161327747859104 34.773600426155099 0 0 0 0 165.71418888877088 -88.578764663036054 0 -88.578764663036054 44.988133535887755 0 0 0 0 110.27453897715895 -72.647045408188205 0 -72.647045408188205 75.486503160025677 0 0 0 0 106.42184873245424 -80.366553255456893 0 -80.366553255456893 63.663673703227687 0 0 0 0 0.65695125074137195 0.056433798375998379 0 0.056433798375998379 -2.2171995439647834 0 0 0 0 83.559896474804873 -14.043167424169084 0 -14.043167424169084 1.9978430781065981 0 0 0 0 86.158290086867055 -53.858585614043932 0 -53.858585614043932 67.524261957119506 0 0 0 0 84.435319670054014 -59.977442626235188 0 -59.977442626235188 59.383938036135078 0 0 0 0 98.558285485181841 -65.448729585768888 0 -65.448729585768888 73.013230087273769 0 0 0 0 76.664376944449032 -60.845768476006924 0 -60.845768476006924 86.255287073516229 0 0 0 0 67.790349192044232 -63.858805067126923 0 -63.858805067126923 71.505240082118462 0 0 0 0 88.443340429075761 -140.44999239091248 0 -140.44999239091248 147.82881354029087 0 0 0 0 81.743010954975034 -63.80475529432988 0 -63.80475529432988 71.409166120333794 0 0 0 0 67.536593526667275 -99.029476896926553 0 -99.029476896926553 116.79048937862717 0 0 0 0 1.1787130022023717 -0.88867646945604761 0 -0.88867646945604761 -1.3104461381281531 0 0 0 0 73.021614479643176 -73.993924764040912 0 -73.993924764040912 90.13043999133879 0 0 0 0 81.58301188092446 -76.045861030725064 0 -76.045861030725064 87.198546471448935 0 0 0 0 65.299859941995237 -78.579189921996203 0 -78.579189921996203 101.09212438444411 0 0 0 0 75.898910078743938 -95.990535552624351 0 -95.990535552624351 118.93866666798567 0 0 0 0 78.675103117158869 -74.761938424704567 0 -74.761938424704567 73.506609704625589 0 0 0 0 71.808671407328802 -92.415635447748173 0 -92.415635447748173 96.650915407703906 0 0 0 0 52.771030995805631 -87.763551061980252 0 -87.763551061980252 156.85977261949301 0 0 0 0 146.52896190219326 -121.85174014733093 0 -121.85174014733093 75.241296661784872 0 0 0 0 107.10755142603739 -96.272418442333674 0 -96.272418442333674 98.726769680586585 0 0 0 0 134.05894317605998 -117.2661343532418 0 -117.2661343532418 94.101798208364926 0 0 0 0 85.169684177119052 -107.0710047558332 0 -107.0710047558332 119.39739402605483 0 0 0 0 16.099796318121662 -41.67857352180863 0 -41.67857352180863 -168.50910531444288 0 0 0 0 -27.093838513450464 -30.580219495912388 0 -30.580219495912388 -27.116802692507008 0 0 0 0 -23.923012297451351 -105.27418071657894 0 -105.27418071657894 -66.661218125969299 0 0 0 0 -13.694022753472382 -3.9109652323759292 0 -3.9109652323759292 14.227555104630028 0 0 0 0 82.171315528368723 -36.536706586631453 0 -36.536706586631453 13.100139669380951 0 0 0 0 48.131802034366046 18.424801914244426 0 18.424801914244426 -21.604646093729571 0 0 0 0 -11.658096741579357 6.2756093173479712 0 6.2756093173479712 -1.5036799254376092 0 0 0 0 -24.070301139581716 32.079971269460657 0 32.079971269460657 -40.89469056004674 0 0 0 0 -1.8942454116149747 -23.082662000540722 0 -23.082662000540722 42.654362283698816 0 0 0 0 -5.8448731019852858 77.695008299656479 0 77.695008299656479 57.339164064620036 0 0 0 0 -0.050776946970136905 0.78372070550966555 0 0.78372070550966555 0.17280859832038153 0 0 0 0 155.60540381542251 -14.348614372753673 0 -14.348614372753673 -24.558257618089556 0 0 0 0 -126.93027134532895 -7.8425212464371725 0 -7.8425212464371725 39.912154264911351 0 0 0 0 -80.051103791560308 -64.146969850211462 0 -64.146969850211462 50.391276051135918 0 0 0 0 -38.266488442131958 28.285810613959256 0 28.285810613959256 8.3161038991536316 0 0 0 0 27.969983563234564 4.2111185160401874 0 4.2111185160401874 -18.909401168394652 0 0 0 0 50.221559540692397 -44.016444160953824 0 -44.016444160953824 11.188056210938157 0 0 0 0 40.863809555958142 -58.210733293500198 0 -58.210733293500198 -14.367673909582663 0 0 0 0 51.171544899095807 -24.403143223551467 0 -24.403143223551467 -41.444378022006276 0 0 0 0 47.429143712884979 -40.568732048188849 0 -40.568732048188849 22.484933047526283 0 0 0 0 39.00292602708214 -20.999853623476156 0 -20.999853623476156 -5.4276690354736274 0 0 0 0 44.658692288066959 -43.719888267608439 0 -43.719888267608439 18.961776970870687 0 0 0 0 62.689900216981187 -66.764717732144163 0 -66.764717732144163 34.883250354847405 0 0 0 0 55.772340427036397 -43.902565101059736 0 -43.902565101059736 9.4158345850164551 0 0 0 0 69.644413440211792 -81.967657279370997 0 -81.967657279370997 64.960163696171549 0 0 0 0 63.903510836011264 -62.888595485804217 0 -62.888595485804217 76.873258829870338 0 0 0 0 63.727874432443059 -62.690157200536419 0 -62.690157200536419 40.859953412309551 0 0 0 0 68.517461236115196 -73.742301302987471 0 -73.742301302987471 35.514101991857387 0 0 0 0 62.160905521915993 -55.418198485128642 0 -55.418198485128642 46.917838695302635 0 0 0 0 51.135464213506566 -42.245381739373897 0 -42.245381739373897 -2.2117762098932872 0 0 0 0 55.881011666642735 -67.188715946421325 0 -67.188715946421325 37.748077587046282 0 0 0 0 48.630776694291853 -57.180657715821781 0 -57.180657715821781 43.130536944758205 0 0 0 0 62.040536355605582 -70.979384950393069 0 -70.979384950393069 23.650053382527403 0 0 0 0 69.732847337632847 -57.671673502845806 0 -57.671673502845806 42.969167911764089 0 0 0 0 61.678880740946624 -72.017618708722694 0 -72.017618708722694 75.469591264587052 0 0 0 0 123.05593953304924 12.078083930244247 0 12.078083930244247 -5.301750700365119 0 0 0 0 82.424996049157926 -50.828015820942255 0 -50.828015820942255 26.052187454250088 0 0 0 0 70.384951449843356 -30.716943383853277 0 -30.716943383853277 -7.2421489581156493 0 0 0 0 89.181846443971153 -36.745886563548993 0 -36.745886563548993 -12.682781589275692 0 0 0 0 30.503408244767343 -23.287545755288875 0 -23.287545755288875 19.440831946498747 0 0 0 0 -13.378328954480821 1.5371646564067305 0 1.5371646564067305 -16.333897884267571 0 0 0 0 64.153832397423685 -10.605055129632547 0 -10.605055129632547 9.2098535459472259 0 0 0 0 69.604135608627985 4.0803488875194489 0 4.0803488875194489 16.436904251214855 0 0 0 0 60.417347813308879 -8.4473760133830638 0 -8.4473760133830638 11.407368765567924 0 0 0 0 60.347063446737593 -9.6130749254591592 0 -9.6130749254591592 -2.5659528989467617 0 0 0 0 40.067794695540215 -9.9148468301882531 0 -9.9148468301882531 11.528416727822787 0 0 0 0 -10.047774608938198 3.0725656066376814 0 3.0725656066376814 -17.866772206337828 0 0 0 0 0.45430352201834978 0.67233233019669569 0 0.67233233019669569 -0.93852724390153153 0 0 0 0 0.54504843668169656 0.074650960206959383 0 0.074650960206959383 -2.3317381056738071 0 0 0 0 30.927338303639658 -1.3063161296672963 0 -1.3063161296672963 15.51348346345776 0 0 0 0 2.7449795042339247 2.6699157327107059 0 2.6699157327107059 14.060494569816456 0 0 0 0 21.655474156024866 -17.774660218297868 0 -17.774660218297868 -7.7472229893392068 0 0 0 0 42.852569936834698 -3.3097025666568811 0 -3.3097025666568811 -2.1816831693390668 0 0 0 0 1.4389574587767129 -11.079134168854807 0 -11.079134168854807 19.234230319013477 0 0 0 0 23.542785126301169 -14.569227689815079 0 -14.569227689815079 17.580070788320882 0 0 0 0 21.235421860270435 -22.498799454607706 0 -22.498799454607706 22.904922254481519 0 0 0 0 26.97864305175608 -16.60806050166002 0 -16.60806050166002 17.154083175639244 0 0 0 0 2.7308716810366604 -7.8327752052528012 0 -7.8327752052528012 27.363536055118402 0 0 0 0 32.010583375827991 -33.22498274463851 0 -33.22498274463851 26.50753394667754 0 0 0 0 6.8703241591865662 -20.352604348064233 0 -20.352604348064233 38.874149040676002 0 0 0 0 9.2197679859309574 -1.6280766015295285 0 -1.6280766015295285 8.5160193726355828 0 0 0 0 8.7171997247351101 -8.88872769957743 0 -8.88872769957743 17.615131663311331 0 0 0 0 3.8444882755284198 -15.076010459153167 0 -15.076010459153167 10.428890283863893 0 0 0 0 7.4541278133801825 1.8018053037545769 0 1.8018053037545769 -7.7839631217559599 0 0 0 0 -0.70176787711898214 8.0113927784211683 0 8.0113927784211683 -7.5080815912065191 0 0 0 0 2.6360778465678862 -0.74519305794729718 0 -0.74519305794729718 -4.107527681259679 0 0 0 0 16.451559879838896 -6.5913135603242381 0 -6.5913135603242381 -17.92099077924172 0 0 0 0 12.599402041207213 -9.0782404866558721 0 -9.0782404866558721 2.4410285556064082 0 0 0 0 29.307834169900161 -23.116233671912937 0 -23.116233671912937 -7.6984532608607879 0 0 0 0 40.85696070377162 -13.395789419318817 0 -13.395789419318817 -12.302263373593632 0 0 0 0 -0.18558406652213932 -0.40990500390911677 0 -0.40990500390911677 -2.9836864585238017 0 0 0 0 34.337925485098822 -14.119249253180897 0 -14.119249253180897 -1.5110291375403904 0 0 0 0 50.733453593229342 -1.7683197778532431 0 -1.7683197778532431 1.3712551286680537 0 0 0 0 48.784879925959103 -2.0357463219494321 0 -2.0357463219494321 -1.9609122739775557 0 0 0 0 49.565551573854464 -13.236577201104808 0 -13.236577201104808 -8.1487251030578136 0 0 0 0 17.185639371944276 -4.6490430779760885 0 -4.6490430779760885 -0.62524189860256074 0 0 0 0 36.037179794933763 -12.702521306898291 0 -12.702521306898291 -3.2687354290662887 0 0 0 0 29.11001108718483 -6.5971246220597664 0 -6.5971246220597664 -3.2579183640723386 0 0 0 0 47.239727312517061 -45.545494741878315 0 -45.545494741878315 -22.65917245936032 0 0 0 0 90.991101239415002 -2.2885728455417507 0 -2.2885728455417507 -6.5283301472270523 0 0 0 0 -0.79964643175633832 0.53758801406344503 0 0.53758801406344503 -0.10923872232187559 0 0 0 0 8.2381140698167759 -0.53741620535830492 0 -0.53741620535830492 -1.0671470447524283 0 0 0 0 58.606254295431427 -8.0623086649254958 0 -8.0623086649254958 -5.6245278247181147 0 0 0 0 10.217147926960024 -38.997772432321028 0 -38.997772432321028 -23.618642738039942 0 0 0 0 44.927651022922873 -34.097076727031606 0 -34.097076727031606 -52.123903204538664 0 0 0 0 44.249452527746541 -2.3413662847103858 0 -2.3413662847103858 -0.60481877754546609 0 0 0 0 50.031820208569115 9.8332206950719865 0 9.8332206950719865 -21.26327456712815 0 0 0 0 18.26737673347948 -8.8391500651234125 0 -8.8391500651234125 -5.7304604930143519 0 0 0 0 10.136579906931971 -1.2086142645336508 0 -1.2086142645336508 -1.2189461294398223 0 0 0 0 79.978224026635871 63.043783396239462 0 63.043783396239462 -82.139043619918993 0 0 0 0 23.655385312699764 -11.388127075793847 0 -11.388127075793847 9.5461533422298999 0 0 0 0 63.556368046229181 9.5590516692445817 0 9.5590516692445817 -55.368562705557338 0 0 0 0 58.376561913260957 -4.245664138499933 0 -4.245664138499933 -5.990887312294376 0 0 0 0 37.71506369134022 17.543635689805242 0 17.543635689805242 -25.363197944077911 0 0 0 0 18.591762598578498 -0.8358804724873039 0 -0.8358804724873039 -3.1120841625427147 0 0 0 0 24.468544944443181 1.3175420172748797 0 1.3175420172748797 -0.83209547666412531 0 0 0 0 30.898557376098324 -2.5956041670095829 0 -2.5956041670095829 8.0402640631002669 0 0 0 0 37.896520394766412 -10.278020504691995 0 -10.278020504691995 -11.63610810386092 0 0 0 0 43.660927113887738 -3.5638997388386997 0 -3.5638997388386997 -3.8812042987439099 0 0 0 0 31.220601791819874 -5.0716818631219382 0 -5.0716818631219382 -1.2777142421618346 0 0 0 0 23.36075750595387 -4.2292992317260456 0 -4.2292992317260456 -8.7454412454882728 0 0 0 0 51.321460119594121 10.983793546549549 0 10.983793546549549 5.1680972592572516 0 0 0 0 34.516660650180711 -10.021032591230217 0 -10.021032591230217 -6.1513593605325454 0 0 0 0 25.592429263961094 4.5170617346408335 0 4.5170617346408335 8.2141459570891584 0 0 0 0 31.102018855139704 -1.847984031860058 0 -1.847984031860058 -4.5593267260254873 0 0 0 0 42.671497691342665 -13.988837834598939 0 -13.988837834598939 -30.509186685870191 0 0 0 0 30.959434576667263 2.0064122132507691 0 2.0064122132507691 -0.85391519918226777 0 0 0 0 26.44988077973224 1.5882029933655639 0 1.5882029933655639 -0.7873712082532216 0 0 0 0 26.595835382438963 -4.6939646606379029 0 -4.6939646606379029 -9.7248144947487702 0 0 0 0 33.921348747106094 13.097152153412495 0 13.097152153412495 -16.151155905310336 0 0 0 0 12.965904649979208 -1.4130204308417831 0 -1.4130204308417831 -0.57393922456605573 0 0 0 0 28.262347566414974 -2.5089573246099235 0 -2.5089573246099235 -7.4932483915140438 0 0 0 0 23.951893613102584 -2.1391268559959826 0 -2.1391268559959826 -20.694627530003117 0 0 0 0 23.087181447198304 -4.4167313440534119 0 -4.4167313440534119 -0.89918939855628954 0 0 0 0 41.898228648635268 -2.3937123673684653 0 -2.3937123673684653 -33.872847175450801 0 0 0 0 19.91647866369749 -4.2260876457410177 0 -4.2260876457410177 -3.2187118702161115 0 0 0 0 28.716568483061565 0.76505839515459684 0 0.76505839515459684 -4.3759534555483697 0 0 0 0 38.23589030293806 -7.2803046784147227 0 -7.2803046784147227 -22.712449489624305 0 0 0 0 26.030747220384171 -5.7626399673146551 0 -5.7626399673146551 -3.4795603292991002 0 0 0 0 24.368280272959964 -0.83480516527185955 0 -0.83480516527185955 -2.6101704252866966 0 0 0 0 37.637937394174514 6.5900218329924201 0 6.5900218329924201 -14.4040393823866 0 0 0 0 50.500665800303977 9.8728199576524958 0 9.8728199576524958 -7.6846266324519092 0 0 0 0 1.2423853691774411 8.5439027539742511 0 8.5439027539742511 3.4851774935884245 0 0 0 0 52.573931438251748 7.028133656428281 0 7.028133656428281 -4.3815927998525694 0 0 0 0 46.446162058768095 14.782544501701068 0 14.782544501701068 5.6606592304462993 0 0 0 0 38.117157312291965 34.921043629374822 0 34.921043629374822 23.972986535314334 0 0 0 0 61.678363312152214 17.108116078765988 0 17.108116078765988 -15.549787228673082 0 0 0 0 14.465764690752934 1.8855099470456249 0 1.8855099470456249 0.83246989962782703 0 0 0 0 34.206295521496941 41.188029476061899 0 41.188029476061899 55.029150263674637 0 0 0 0 -16.851844818125755 -3.1357424282876281 0 -3.1357424282876281 13.983372904662701 0 0 0 0 16.333083941757124 8.0223306500818694 0 8.0223306500818694 2.0777098474176627 0 0 0 0 58.662412108777062 20.208427845559754 0 20.208427845559754 2.35731382546237 0 0 0 0 48.21093783055403 11.955947265411851 0 11.955947265411851 -5.2671845428176312 0 0 0 0 26.319407988840652 2.4960198999797782 0 2.4960198999797782 -3.2708376271350628 0 0 0 0 24.426494231130619 5.2905759148776479 0 5.2905759148776479 -0.52744120648024606 0 0 0 0 32.521735910821008 -8.5610361810777249 0 -8.5610361810777249 -46.253225361659901 0 0 0 0 17.136154946095644 1.6061678269101591 0 1.6061678269101591 0.31331965774818382 0 0 0 0 9.9773195953021059 3.6863065546344558 0 3.6863065546344558 -0.4780388531889912 0 0 0 0 15.052965727161791 10.768170749591462 0 10.768170749591462 5.250365632962712 0 0 0 0 31.037672795340768 0.42930630415617088 0 0.42930630415617088 -4.9714579585480578 0 0 0 0 17.440522730872544 -9.8773412752693446 0 -9.8773412752693446 47.667416565578264 0 0 0 0 17.784401678272843 -11.207970745585435 0 -11.207970745585435 44.258858138872711 0 0 0 0 45.897797705911216 -6.6681260606839032 0 -6.6681260606839032 -3.8027353258177072 0 0 0 0 5.6549007010562491 -3.5276154749901139 0 -3.5276154749901139 52.629988519695644 0 0 0 0 93.667390819340653 -54.812674028078106 0 -54.812674028078106 15.76860662365857 0 0 0 0 77.516625538191875 -50.587827704391202 0 -50.587827704391202 57.025453921275584 0 0 0 0 0.29503691113873742 0.74012615931479786 0 0.74012615931479786 1.7733983853472504 0 0 0 0 1.5870853850158966 1.5015449875489395 0 1.5015449875489395 1.2701988678679308 0 0 0 0 55.038040078870836 34.618205085269096 0 34.618205085269096 19.045170199980248 0 0 0 0 74.066049232897058 -50.347768282815196 0 -50.347768282815196 117.27338804183273 0 0 0 0 6.1344199473169283 -24.321355075927158 0 -24.321355075927158 105.38945311522502 0 0 0 0 54.787110278586624 -28.13808368591026 0 -28.13808368591026 131.62333083902786 0 0 0 0 75.547071393200895 -14.352907901184153 0 -14.352907901184153 96.063629337857208 0 0 0 0 76.233366754982853 -40.415027911737525 0 -40.415027911737525 131.37061149874717 0 0 0 0 40.363190342031885 -50.893562749084822 0 -50.893562749084822 89.376710694216627 0 0 0 0 16.694958843203494 -14.466329170718495 0 -14.466329170718495 43.659319197420984 0 0 0 0 15.911250778954127 -13.415175647194587 0 -13.415175647194587 45.892610588162597 0 0 0 0 124.9915177823309 18.617316178309427 0 18.617316178309427 8.7879298270759136 0 0 0 0 30.666817372402875 21.267608732979909 0 21.267608732979909 20.38726965651253 0 0 0 0 118.60830706253182 -67.329500368842446 0 -67.329500368842446 54.325029648446048 0 0 0 0 57.714631834091051 -18.447061411105039 0 -18.447061411105039 17.931964236741806 0 0 0 0 -0.82495366413566273 -0.29267636807280439 0 -0.29267636807280439 1.8958287730642538 0 0 0 0 10.391004809738661 -9.6506629202350496 0 -9.6506629202350496 -14.760267184121176 0 0 0 0 -0.095902016679701774 10.607645209300458 0 10.607645209300458 1.9314678850407745 0 0 0 0 0.9648957515339589 -0.8713254669728272 0 -0.8713254669728272 2.4628189661375299 0 0 0 0 14.710748390155075 3.9056046907624165 0 3.9056046907624165 -1.4348514585943968 0 0 0 0 25.168842239592777 10.16362998547973 0 10.16362998547973 3.5487459026400074 0 0 0 0 25.104486503059888 11.983099251938697 0 11.983099251938697 4.0104075245030231 0 0 0 0 25.228853590953804 5.1374272620780559 0 5.1374272620780559 -1.889886095255207 0 0 0 0 40.201604517234955 -9.214746802444779 0 -9.214746802444779 27.70310979222532 0 0 0 0 58.178678648946516 5.7911628678766363 0 5.7911628678766363 -2.6068388034919394 0 0 0 0 39.059790306317154 48.520009533740904 0 48.520009533740904 35.386410889760555 0 0 0 0 51.537984752154443 34.150775595625305 0 34.150775595625305 29.313803196714616 0 0 0 0 3028.4586402744671 1816.0427040234088 0 1816.0427040234088 1029.7609700467215 0 0 0 0 -2.2107021007664116 1.4669817546936805 0 1.4669817546936805 1.7739324794848028 0 0 0 0 3.8354872936748272 8.8757825926698075 0 8.8757825926698075 15.183299333588659 0 0 0 0 36.393409829986922 31.426987558842029 0 31.426987558842029 31.732070411560017 0 0 0 0 2525.5905644760333 -447.7304448964116 0 -447.7304448964116 -9.6853781597582174 0 0 0 0 101.34123881635605 66.346347594742497 0 66.346347594742497 31.006780975685615 0 0 0 0 57.092830783862155 25.649719286989466 0 25.649719286989466 5.6250091777101261 0 0 0 0 132.58107971672143 -10.239192701895718 0 -10.239192701895718 -95.022543703214751 0 0 0 0 161.63831972223124 46.874214101786038 0 46.874214101786038 -42.985301902688434 0 0 0 0 243.41916097018111 81.385312525124277 0 81.385312525124277 -34.595631895276256 0 0 0 0 86.407458209083416 -163.76396161597978 0 -163.76396161597978 -44.239111931276057 0 0 0 0 129.44334442071704 154.76192915017174 0 154.76192915017174 158.86219328295033 0 0 0 0 1.3790107317623779 1.4790939914097123 0 1.4790939914097123 -0.16540264024315054 0 0 0 0 945.72992841951782 411.95761492026969 0 411.95761492026969 173.87176655685073 0 0 0 0 -70.403373146356898 17.379883926735488 0 17.379883926735488 158.72830369703763 0 0 0 0 482.80042870974466 -4.3057070373460462 0 -4.3057070373460462 30.629782609205904 0 0 0 0 922.03707752047922 -139.58683840696381 0 -139.58683840696381 -107.50573727431035 0 0 0 0 -182.46418089733925 -83.91087035052476 0 -83.91087035052476 183.94450716069474 0 0 0 0 471.71051377335243 93.597260866183163 0 93.597260866183163 32.336588061028806 0 0 0 0 1481.3026242677879 466.38208235833366 0 466.38208235833366 -17.053837348125427 0 0 0 0 867.12187534972327 508.13479502193502 0 508.13479502193502 198.16230788548529 0 0 0 0 808.39073867682055 559.16240129315293 0 559.16240129315293 190.60887646176388 0 0 0 0 2496.6984295645016 1763.1628491822978 0 1763.1628491822978 1045.3313968110483 0 0 0 0 5.999645366976381 1.5699238549938173 0 1.5699238549938173 -1.5394764248469983 0 0 0 0 2494.7405977617072 1177.9601120594964 0 1177.9601120594964 -43.893676351964494 0 0 0 0 1311.8615547186328 111.31593732144248 0 111.31593732144248 0.29547001728967381 0 0 0 0 1994.7191417792728 337.36586508565313 0 337.36586508565313 -371.26098596341996 0 0 0 0 4.9018963689686359 1.0902015654175017 0 1.0902015654175017 -1.2397028651843125 0 0 0 0 1144.0980830619083 909.28166251157222 0 909.28166251157222 682.45601421561685 0 0 0 0 348.87476835993584 408.89116992597616 0 408.89116992597616 192.43111322124631 0 0 0 0 733.00761148819583 247.21038947020887 0 247.21038947020887 227.38262400224477 0 0 0 0 2176.9978796690557 986.65047272501624 0 986.65047272501624 550.68926854380379 0 0 0 0 1853.8864020762485 458.38522071213953 0 458.38522071213953 209.2431189908782 0 0 0 0 356.54236630746163 525.33739490396317 0 525.33739490396317 452.49033754336381 0 0 0 0 2.5271106209763445 2.3116687446313975 0 2.3116687446313975 2.0207614681637636 0 0 0 0 -26.966879365099885 265.84877768101819 0 265.84877768101819 582.38378962243041 0 0 0 0 343.06793293615192 123.83834000877829 0 123.83834000877829 0.20928019861624886 0 0 0 0 6.3861063677977654 2.7918378461330491 0 2.7918378461330491 7.0677194456245331 0 0 0 0 107.374732100252 38.351761998758064 0 38.351761998758064 -29.235086338759515 0 0 0 0 33.591767765043187 94.120950624489922 0 94.120950624489922 176.41893765074877 0 0 0 0 410.30869238718151 396.07163186372759 0 396.07163186372759 73.152635501515746 0 0 0 0 424.81213877648224 147.22040833429878 0 147.22040833429878 -169.63517431982743 0 0 0 0 312.01511706564997 29.891153272547143 0 29.891153272547143 -143.58284761644919 0 0 0 0 0.59589603653549261 0.46884264366219952 0 0.46884264366219952 -2.2622415000983871 0 0 0 0 600.79625074139403 337.34622499403264 0 337.34622499403264 99.69685253591706 0 0 0 0 -112.27412430827098 -184.97387221823686 0 -184.97387221823686 -138.95181152318045 0 0 0 0 94.262988873575523 87.868407823155792 0 87.868407823155792 52.120065844479576 0 0 0 0 25.860978485812666 -62.436155325813871 0 -62.436155325813871 -67.288668108073693 0 0 0 0 568.00092043830591 151.06184329505459 0 151.06184329505459 -49.115157776822798 0 0 0 0 0.72521872091613204 0.9938677409507477 0 0.9938677409507477 -7.4419209929889156 0 0 0 0 688.73992534895297 328.38482275296434 0 328.38482275296434 95.583758434040419 0 0 0 0 653.76220557532361 395.07761070799688 0 395.07761070799688 -2.3246315527374009 0 0 0 0 660.99488313506299 562.6100155081383 0 562.6100155081383 -3.1932401068761465 0 0 0 0 862.86940267164391 479.1191777072554 0 479.1191777072554 25.864886529972864 0 0 0 0 1619.3872417350512 960.98646258866415 0 960.98646258866415 152.42289548203644 0 0 0 0 99.751723695895635 1030.269120311264 0 1030.269120311264 1085.2971178722755 0 0 0 0 16.87877122380732 12.080889550261801 0 12.080889550261801 3.7912205874983389 0 0 0 0 196.10070728718711 416.7369049994586 0 416.7369049994586 826.87146709821127 0 0 0 0 1415.8497015956309 -179.97103396578814 0 -179.97103396578814 22.215275221903084 0 0 0 0 245.52684831802617 -71.342568892652025 0 -71.342568892652025 64.930208062974543 0 0 0 0 978.43814341622419 216.63628442505143 0 216.63628442505143 -109.32200162260278 0 0 0 0 21.972878535641939 -9.2108388386313891 0 -9.2108388386313891 -52.358881716519136 0 0 0 0 31.742652207394713 -11.555433670052309 0 -11.555433670052309 -55.486824123852784 0 0 0 0 8.7182816851652518 7.8234664846626742 0 7.8234664846626742 -10.702056847001655 0 0 0 0 6.8428712233959175 2.427010897182889 0 2.427010897182889 0.41662471910675469 0 0 0 0 -101.26097640127409 162.49385454412356 0 162.49385454412356 -34.815358061561597 0 0 0 0 60.480381718596618 66.649863558305015 0 66.649863558305015 -74.666458495938116 0 0 0 0 17.052452219274286 -5.9696685790572559 0 -5.9696685790572559 -13.420452780759636 0 0 0 0 -133.05403681381722 -89.702627686893493 0 -89.702627686893493 32.543904605094724 0 0 0 0 17.336088965082197 -3.7532983166029794 0 -3.7532983166029794 -18.238745545756004 0 0 0 0 49.146333693344786 17.620360193249724 0 17.620360193249724 -7.067650611232807 0 0 0 0 26.654426154030006 15.125156910780468 0 15.125156910780468 -4.4075227076616343 0 0 0 0 35.997399458356085 13.456597542957212 0 13.456597542957212 8.8464413077033157 0 0 0 0 -80.182171344349626 -70.653378627832808 0 -70.653378627832808 429.27633098002389 0 0 0 0 725.86328492166649 522.92156393387813 0 522.92156393387813 -74.594261740642196 0 0 0 0 64.831242701766314 11.004158415768813 0 11.004158415768813 -16.83262904317121 0 0 0 0 15.232947591511419 -11.720368584460957 0 -11.720368584460957 -10.178166639182514 0 0 0 0 5.154462617392511 0.033774960916304053 0 0.033774960916304053 -4.1760055556568449 0 0 0 0 99.764615306376072 -53.016557627827922 0 -53.016557627827922 10.522546375184447 0 0 0 0 38.908557766946615 2.2796845623720401 0 2.2796845623720401 7.3343981170178267 0 0 0 0 17.191314177174078 -9.1672003718401101 0 -9.1672003718401101 -12.800927587993309 0 0 0 0 921.44075646474084 560.77914788922942 0 560.77914788922942 183.35268275638737 0 0 0 0 664.6982092831131 669.31438368494912 0 669.31438368494912 110.62128107890726 0 0 0 0 757.86182665239539 561.15949968221332 0 561.15949968221332 156.42038686466003 0 0 0 0 857.38992064497143 447.07348111201486 0 447.07348111201486 234.91526527038923 0 0 0 0 713.32771644497552 425.53643060564428 0 425.53643060564428 17.182647837534205 0 0 0 0 1038.3642413437046 629.08750977145814 0 629.08750977145814 119.88925666095869 0 0 0 0 259.35916076105786 665.14952109863111 0 665.14952109863111 -359.31494494123808 0 0 0 0 -172.8774173347083 -379.72711313513014 0 -379.72711313513014 356.44566319261048 0 0 0 0 3.3792658996427321 0.3620281675331114 0 0.3620281675331114 -10.776493899194186 0 0 0 0 -0.089991530752058679 1.0492547726676236 0 1.0492547726676236 -1.0225047678571642 0 0 0 0 1122.5835213218379 54.536948310043499 0 54.536948310043499 -35.890909621008177 0 0 0 0 1907.4230268277024 60.143237161569232 0 60.143237161569232 -277.07687487891872 0 0 0 0 988.88583851268049 -892.91679726526741 0 -892.91679726526741 353.81011529824173 0 0 0 0 1459.521562012329 1183.8618176393773 0 1183.8618176393773 545.23037772099087 0 0 0 0 728.51467280930956 597.74045307054848 0 597.74045307054848 122.22529863693518 0 0 0 0 67.88634708164318 -44.249869007504003 0 -44.249869007504003 -1.1850537838095079 0 0 0 0 108.1988276818447 -23.488015295753939 0 -23.488015295753939 -18.535225770614943 0 0 0 0 51.988414919644129 -13.614310010713325 0 -13.614310010713325 -7.7406333008616457 0 0 0 0 109.44497971747478 54.502021052257533 0 54.502021052257533 59.429713303161861 0 0 0 0 50.073037574853515 -4.6753981818374086 0 -4.6753981818374086 10.92543713527175 0 0 0 0 55.370906028620084 10.253121125315829 0 10.253121125315829 -3.9070787509845104 0 0 0 0 60.343381102880812 4.1509864905615359 0 4.1509864905615359 -25.217353647701202 0 0 0 0 53.53027598591143 -4.0022494546617509 0 -4.0022494546617509 -8.0953637819384312 0 0 0 0 23.516435867190012 -11.399099055934585 0 -11.399099055934585 -20.307375514552859 0 0 0 0 71.342123320362589 -26.026014249463287 0 -26.026014249463287 -18.519618203145001 0 0 0 0 -5.7574786988407141 -15.207571859415111 0 -15.207571859415111 -1.1678276263119187 0 0 0 0 30.381079315916395 -4.4352189151233503 0 -4.4352189151233503 -1.8379244585540544 0 0 0 0 32.034016353056359 -24.564744366208288 0 -24.564744366208288 -22.049737435192583 0 0 0 0 6.4401956858082769 0.11795122992114671 0 0.11795122992114671 3.1681299871522945 0 0 0 0 25.260967436384533 -7.3686657592011571 0 -7.3686657592011571 -1.554496387133975 0 0 0 0 42.882560510974145 -5.7650019801876624 0 -5.7650019801876624 -4.2274433201619104 0 0 0 0 9.48002467999342 0.35939507263508119 0 0.35939507263508119 -1.9567915886023073 0 0 0 0 38.592548536456889 -10.698374316091758 0 -10.698374316091758 -0.71129323620789364 0 0 0 0 6.4057073653398788 -1.1249190185719016 0 -1.1249190185719016 -2.777325660938839 0 0 0 0 -34.520100421090319 21.745172227522289 0 21.745172227522289 182.65504440956101 0 0 0 0 38.786845263457508 -10.414682094879026 0 -10.414682094879026 -0.35753921528703358 0 0 0 0 38.515762585841003 -10.38422463853658 0 -10.38422463853658 -0.18901468554031453 0 0 0 0 7.2449687159719076 -0.99665148978395735 0 -0.99665148978395735 -5.9451739686010434 0 0 0 0 12.034601472812938 -43.617072145184466 0 -43.617072145184466 7.0995739343097739 0 0 0 0 38.621297445159144 -10.17410661785857 0 -10.17410661785857 0.10618676632566348 0 0 0 0 36.647166126211232 -15.849167152093742 0 -15.849167152093742 1.2657494932863642 0 0 0 0 1.4386482378217238 2.0183265546065456 0 2.0183265546065456 -2.2548920559197949 0 0 0 0 39.329788381714025 2.4290016880419216 0 2.4290016880419216 -116.80967209301753 0 0 0 0 0.49749246540291381 0.76818804763389892 0 0.76818804763389892 -1.1314382162419427 0 0 0 0 237.10846076185408 -171.92961719171672 0 -171.92961719171672 -11.347845596756997 0 0 0 0 416.12255748372991 -297.90403576803374 0 -297.90403576803374 54.062412155364655 0 0 0 0 449.47940863467375 -240.97250748139504 0 -240.97250748139504 -84.303745716357753 0 0 0 0 220.9262402823224 -150.27261287684098 0 -150.27261287684098 -65.919094266793763 0 0 0 0 330.55294836436951 -42.084235793135349 0 -42.084235793135349 -128.80839402972333 0 0 0 0 812.70125276285398 240.29722415015306 0 240.29722415015306 29.148424353274166 0 0 0 0 1.8370360437911302 1.7624032644306311 0 1.7624032644306311 -0.71403410302086634 0 0 0 0 -161.59194250910514 213.25317498240099 0 213.25317498240099 59.106802490530526 0 0 0 0 134.98427785591775 -36.319935718128818 0 -36.319935718128818 -2.1880974905930088 0 0 0 0 2.0597974337142659 37.552495188178227 0 37.552495188178227 68.480856581107219 0 0 0 0 382.29069683968555 372.55974095113834 0 372.55974095113834 351.98035064889973 0 0 0 0 -61.028458346801926 13.220724127575522 0 13.220724127575522 127.88909761952618 0 0 0 0 653.72521733539179 464.30758953025975 0 464.30758953025975 91.486746647938617 0 0 0 0 664.54414011615881 464.88576289617822 0 464.88576289617822 87.018021487151373 0 0 0 0 653.85633707547311 419.8283557317464 0 419.8283557317464 148.23472822462077 0 0 0 0 606.98393103653507 393.21354026834183 0 393.21354026834183 61.81030041899794 0 0 0 0 619.51945630943248 283.87846486915186 0 283.87846486915186 193.73523670772556 0 0 0 0 620.42042725945066 353.15587028009821 0 353.15587028009821 106.37002240104269 0 0 0 0 632.98132595383868 369.58033055117608 0 369.58033055117608 74.846655793061075 0 0 0 0 723.21713176747198 -50.261051244470075 0 -50.261051244470075 405.51392537146694 0 0 0 0 709.66218976310483 31.274744354698406 0 31.274744354698406 -83.746279099733187 0 0 0 0 1247.9111216274323 193.24345362681598 0 193.24345362681598 -12.992364338373122 0 0 0 0 514.81653329050459 8.4862478355009632 0 8.4862478355009632 -0.054909345719585459 0 0 0 0 141.62740394511638 -419.4357944416231 0 -419.4357944416231 502.04025754488811 0 0 0 0 6.3017848645097274 -3.1955480129325551 0 -3.1955480129325551 1.9217977517183078 0 0 0 0 909.56179411591438 -533.14108258749991 0 -533.14108258749991 125.29242272241891 0 0 0 0 696.93970520795847 390.9525770720528 0 390.9525770720528 318.2013956352402 0 0 0 0 1138.0074239589158 204.45199344894877 0 204.45199344894877 68.544211999809477 0 0 0 0 361.84706506874136 -75.425969497009191 0 -75.425969497009191 -11.560190397449787 0 0 0 0 385.68294224231795 -230.88111018496954 0 -230.88111018496954 31.334069043794671 0 0 0 0 606.10451210888277 -157.78867141486171 0 -157.78867141486171 -90.308520309713799 0 0 0 0 413.87872101240646 -287.66113313071457 0 -287.66113313071457 12.394668518786602 0 0 0 0 324.5131390857423 -154.24718369936522 0 -154.24718369936522 37.353921443131981 0 0 0 0 150.64394360913138 -99.878165255243317 0 -99.878165255243317 29.373161624020778 0 0 0 0 195.47864723921521 -53.507419233289397 0 -53.507419233289397 37.730640976273264 0 0 0 0 90.933641455660108 17.279020184467413 0 17.279020184467413 64.257346624897423 0 0 0 0 283.23205368504568 -278.030127292229 0 -278.030127292229 200.94487289912323 0 0 0 0 3.9075186291229329 3.4114821704822589 0 3.4114821704822589 148.83933214610491 0 0 0 0 17.335465811393505 -7.7859331205074653 0 -7.7859331205074653 3.6646160716415044 0 0 0 0 61.27028672589222 -102.65118859676181 0 -102.65118859676181 -119.68630944015035 0 0 0 0 113.17352617041615 -46.570355054451966 0 -46.570355054451966 -98.624636811203345 0 0 0 0 72.132382006740954 -14.855020666042085 0 -14.855020666042085 0.13658578096301277 0 0 0 0 112.81247310934313 37.148250692328276 0 37.148250692328276 -19.717554400211839 0 0 0 0 73.87762692112301 86.462955105300523 0 86.462955105300523 -52.977838817996599 0 0 0 0 -10.710668057363364 -40.425656054673482 0 -40.425656054673482 -39.756247645954147 0 0 0 0 439.17837259227235 167.26211664854716 0 167.26211664854716 34.086446029151148 0 0 0 0 31.461514382201131 12.09363513243942 0 12.09363513243942 -1.9214710990109398 0 0 0 0 38.482971137753339 -1.3895623511854718 0 -1.3895623511854718 0.022093298180643837 0 0 0 0 3.1114322741007072 3.3868546698658903 0 3.3868546698658903 -0.6738513527675335 0 0 0 0 52.03586846547114 17.688879583416568 0 17.688879583416568 -1.418405950537428 0 0 0 0 79.367324281629408 -58.98265469263697 0 -58.98265469263697 -61.11797789931552 0 0 0 0 24.771673844836187 -1.4842040503956024 0 -1.4842040503956024 5.5324938674356972 0 0 0 0 26.431409332556825 -8.9926504286853728 0 -8.9926504286853728 1.9632698766329146 0 0 0 0 15.415288168471307 0.54439875755620493 0 0.54439875755620493 -0.0047994515284206403 0 0 0 0 17.249143865401976 -3.9121156490813291 0 -3.9121156490813291 0.56745409078471798 0 0 0 0 0.16507020938905548 1.801462462862375 0 1.801462462862375 0.80201230163785864 0 0 0 0 -34.839043023763224 38.870220802213794 0 38.870220802213794 -2.5605347188721908 0 0 0 0 -62.57847331429366 26.508898031844126 0 26.508898031844126 5.4789826266362738 0 0 0 0 169.44301263850502 28.311524926256538 0 28.311524926256538 -44.299770052330985 0 0 0 0 13.794075529549104 12.926301313929841 0 12.926301313929841 -6.1943383407336325 0 0 0 0 34.818088520049059 7.3092732175156581 0 7.3092732175156581 -0.54350199419961154 0 0 0 0 43.663045543900807 9.9484487577969585 0 9.9484487577969585 -1.2471568125692802 0 0 0 0 11.362371537001422 17.113494315948117 0 17.113494315948117 -0.82560717796916638 0 0 0 0 -15.034217444946989 7.4175771238421362 0 7.4175771238421362 -5.1228861755864727 0 0 0 0 -11.924859901948366 14.98772189855265 0 14.98772189855265 2.0016317767455121 0 0 0 0 139.01920257438178 -20.747014446048411 0 -20.747014446048411 30.494345385758606 0 0 0 0 0.20959491242765083 2.4747561019263173 0 2.4747561019263173 2.2546476975874219 0 0 0 0 11.47264671663288 8.0221149593787686 0 8.0221149593787686 -2.0993366013062769 0 0 0 0 18.543310268738423 10.56425711728798 0 10.56425711728798 12.350696392791178 0 0 0 0 42.838901720188005 36.478862769343777 0 36.478862769343777 7.4749186865615229 0 0 0 0 5.8737363643039515 4.899785044936408 0 4.899785044936408 -4.456964425626861 0 0 0 0 53.592451480522868 19.205715752593733 0 19.205715752593733 6.736932786120633 0 0 0 0 70.927277645649156 44.005948437536176 0 44.005948437536176 12.878846877307296 0 0 0 0 0.34746667977377932 2.6185743566031761 0 2.6185743566031761 2.6313805712020741 0 0 0 0 3.6186507582533523 9.0471991230401727 0 9.0471991230401727 1.1703519533182316 0 0 0 0 102.59478126297472 76.107710757725727 0 76.107710757725727 49.494431013687063 0 0 0 0 -0.68270930360064597 0.80117193841185497 0 0.80117193841185497 -1.2963691623631064 0 0 0 0 373.54751832486363 -56.345953073869623 0 -56.345953073869623 -59.957684918699961 0 0 0 0 249.02790953698423 0.84919180699603203 0 0.84919180699603203 -58.618523924220426 0 0 0 0 445.55471663443313 -242.47442983586961 0 -242.47442983586961 -62.115135772330405 0 0 0 0 403.1539028629486 -238.7665143121078 0 -238.7665143121078 -58.063749063705018 0 0 0 0 402.18200178108236 -171.49228753270745 0 -171.49228753270745 -71.676003578277687 0 0 0 0 528.68828442841186 -168.6617550489832 0 -168.6617550489832 -72.43146707210434 0 0 0 0 674.21538712756592 -290.0822789461904 0 -290.0822789461904 -78.218405915024505 0 0 0 0 445.27558635194873 -233.9489764316445 0 -233.9489764316445 -91.857140118372627 0 0 0 0 420.31479839832173 -283.15762396627406 0 -283.15762396627406 30.429536973719223 0 0 0 0 379.75946972543898 -48.407664431862031 0 -48.407664431862031 -76.488652544355318 0 0 0 0 672.6824562474352 -9.2865536433397757 0 -9.2865536433397757 -109.80684846639724 0 0 0 0 537.95063944966387 -76.353275283820949 0 -76.353275283820949 31.705763291568928 0 0 0 0 1168.3924104048328 296.55894491254651 0 296.55894491254651 224.94393084614603 0 0 0 0 758.82667441894591 -570.31565484978 0 -570.31565484978 824.72457132064528 0 0 0 0 205.2636804375652 -294.89484523506371 0 -294.89484523506371 472.62353006335024 0 0 0 0 935.69786537666732 -495.28823814996429 0 -495.28823814996429 114.04718939158829 0 0 0 0 693.14919392633601 289.20071720189844 0 289.20071720189844 150.34981558708114 0 0 0 0 143.74109827702341 195.12129985830097 0 195.12129985830097 162.34107787041557 0 0 0 0 8.862127066100669 -3.6608244777516745 0 -3.6608244777516745 1.8982773351945585 0 0 0 0 734.96000691817608 42.355467243754902 0 42.355467243754902 -59.975391971821864 0 0 0 0 452.60730583359691 -117.25517996174767 0 -117.25517996174767 235.03119297256126 0 0 0 0 1152.7713221013546 -55.654000174795328 0 -55.654000174795328 -44.200433980520756 0 0 0 0 855.26020829623303 -130.83356246500807 0 -130.83356246500807 -10.985576321931148 0 0 0 0 705.14207021609764 -288.18179461433192 0 -288.18179461433192 172.06131951777479 0 0 0 0 476.01174002351763 -250.03044504696209 0 -250.03044504696209 284.30552813675786 0 0 0 0 260.21503200161169 -199.04797350793069 0 -199.04797350793069 25.805411909594113 0 0 0 0 453.6143960809859 -180.262261408423 0 -180.262261408423 206.84455961425778 0 0 0 0 222.87734431830177 -236.46732124798655 0 -236.46732124798655 264.90842387889097 0 0 0 0 398.65795709053054 -136.87138820291875 0 -136.87138820291875 206.66770956023265 0 0 0 0 25.622139815066475 -87.344875879965912 0 -87.344875879965912 356.05000056354538 0 0 0 0 -0.024974314858411617 -0.51463024638022148 0 -0.51463024638022148 -0.056620756560640473 0 0 0 0 40.361383856041357 15.410700504339729 0 15.410700504339729 352.77990449576464 0 0 0 0 41.870821238073404 96.992310741027268 0 96.992310741027268 82.313669629892843 0 0 0 0 99.783677500498015 -102.41881712771192 0 -102.41881712771192 460.44622460785331 0 0 0 0 -51.119401978219685 19.833173436277548 0 19.833173436277548 62.615070800827198 0 0 0 0 58.17010358693733 31.322484816668748 0 31.322484816668748 21.91901956336369 0 0 0 0 35.99228598488844 58.605236564710594 0 58.605236564710594 56.82150076520611 0 0 0 0 0.40473574542014035 0.51106776379711505 0 0.51106776379711505 0.5552993454537436 0 0 0 0 0.55946153134920173 0.40813489718374285 0 0.40813489718374285 0.90613710096687683 0 0 0 0 231.54353975594131 -380.58144265444685 0 -380.58144265444685 374.9750234605026 0 0 0 0 563.63470272327322 182.92699685283648 0 182.92699685283648 -152.95629801575978 0 0 0 0 180.26817945041694 70.015417570225054 0 70.015417570225054 15.32396501978792 0 0 0 0 271.56353419381776 -79.04473903125654 0 -79.04473903125654 19.791668581949125 0 0 0 0 278.93170912178357 -125.77907005445354 0 -125.77907005445354 7.9466623743483069 0 0 0 0 386.08627664671099 -38.085222890748412 0 -38.085222890748412 27.219748769646685 0 0 0 0 385.12178829216282 -89.563916617350515 0 -89.563916617350515 9.8509438745536499 0 0 0 0 313.61628989888413 -102.11276874453188 0 -102.11276874453188 0.2440366303853807 0 0 0 0 371.14721832217765 -50.964910294153924 0 -50.964910294153924 -33.339886017160097 0 0 0 0 252.26354261615779 -102.2812452761209 0 -102.2812452761209 -18.095054906493715 0 0 0 0 188.53061106163659 -119.53964066228173 0 -119.53964066228173 20.235209139746985 0 0 0 0 265.85565196748939 -73.969745801644422 0 -73.969745801644422 -10.755009569400499 0 0 0 0 90.026750632299809 -109.59107210642469 0 -109.59107210642469 9.2986255894538772 0 0 0 0 166.72212582387147 -89.615742108313498 0 -89.615742108313498 -10.166365583766492 0 0 0 0 -6.0858250494638924 -82.104252290617751 0 -82.104252290617751 13.925492119450098 0 0 0 0 89.961259269504808 -131.72052717136103 0 -131.72052717136103 7.9625961137469972 0 0 0 0 154.27750179995201 -92.11170201400364 0 -92.11170201400364 41.852875735423822 0 0 0 0 161.2917888018419 -126.39529738190049 0 -126.39529738190049 -8.0733900556060689 0 0 0 0 63.077468164163292 -151.55948781215739 0 -151.55948781215739 34.519766764928136 0 0 0 0 194.3778010804017 -59.38706258143975 0 -59.38706258143975 73.764217932895917 0 0 0 0 112.39659504892188 -160.25285339200218 0 -160.25285339200218 144.62087023169261 0 0 0 0 -55.976522318873322 -50.176641741740241 0 -50.176641741740241 95.055202882948834 0 0 0 0 -106.89131675260433 -233.54479304598863 0 -233.54479304598863 131.51528659733412 0 0 0 0 91.729856268022559 -42.460222018974491 0 -42.460222018974491 -65.817886647732848 0 0 0 0 52.695408955310995 41.103067406598484 0 41.103067406598484 288.89706721225957 0 0 0 0 126.5467033466557 -43.813154598203255 0 -43.813154598203255 121.37902238521224 0 0 0 0 157.11458540474996 -150.19705867112953 0 -150.19705867112953 340.76276808990951 0 0 0 0 382.25312078071875 -223.76544650048527 0 -223.76544650048527 265.16966527927434 0 0 0 0 238.52527460743295 -93.913414927261783 0 -93.913414927261783 176.62113283326289 0 0 0 0 318.75546841151663 -173.16133852902749 0 -173.16133852902749 253.72924025027351 0 0 0 0 284.85098251901218 -142.6477366191175 0 -142.6477366191175 46.010251100358801 0 0 0 0 284.49276951503731 -88.880022899305473 0 -88.880022899305473 68.258069166990026 0 0 0 0 367.59399269054848 -79.726904172019204 0 -79.726904172019204 64.952387415240082 0 0 0 0 279.49720101305866 -151.4442662802403 0 -151.4442662802403 171.78717684089338 0 0 0 0 457.85287307327235 -59.191598348339994 0 -59.191598348339994 49.099738170991259 0 0 0 0 425.45987379511644 -138.24683818860831 0 -138.24683818860831 122.16003325591373 0 0 0 0 380.65603228791588 -100.92433468566833 0 -100.92433468566833 151.57736269334782 0 0 0 0 423.63901626961888 -147.26363825400358 0 -147.26363825400358 176.10028956618953 0 0 0 0 509.38796881734743 -151.78138255049362 0 -151.78138255049362 88.322095230480045 0 0 0 0 585.41433529192 -138.40808316525181 0 -138.40808316525181 90.141373470556118 0 0 0 0 633.18059480187367 -24.716019526853415 0 -24.716019526853415 -56.495060520358493 0 0 0 0 639.50228186622553 8.3071999285343736 0 8.3071999285343736 -21.105620324538904 0 0 0 0 500.17017608293099 -77.429377741787903 0 -77.429377741787903 31.747412693352999 0 0 0 0 541.1495762993618 26.007979251466281 0 26.007979251466281 12.70554447651466 0 0 0 0 555.30894265700044 -46.466726033228269 0 -46.466726033228269 -45.751358784475087 0 0 0 0 641.27683994136169 24.983907484954671 0 24.983907484954671 -94.167241331481137 0 0 0 0 0.24784478272449206 0.34343854118033335 0 0.34343854118033335 1.5429329437872354 0 0 0 0 789.10595420637765 89.792854998753228 0 89.792854998753228 -66.464558447016316 0 0 0 0 530.92869385422091 125.50483798689811 0 125.50483798689811 80.843732324969096 0 0 0 0 483.48751025507227 -31.2862571618125 0 -31.2862571618125 -7.0734282236153376 0 0 0 0 459.75569848890882 2.1547659776742876 0 2.1547659776742876 12.123148150840706 0 0 0 0 522.57750925599703 17.049865690203148 0 17.049865690203148 -10.667294606681025 0 0 0 0 422.04012187843909 -0.021266190795358852 0 -0.021266190795358852 29.432110884743906 0 0 0 0 425.87243922165908 -39.991621973062848 0 -39.991621973062848 -42.046096545862383 0 0 0 0 364.74747439223574 -48.516907808345422 0 -48.516907808345422 8.6446943299429222 0 0 0 0 347.53323369582358 -33.675324953816016 0 -33.675324953816016 -22.214702607607251 0 0 0 0 458.16346232406795 -23.475021503184507 0 -23.475021503184507 -51.044218357121281 0 0 0 0 402.05544428739813 -16.056101528088391 0 -16.056101528088391 -46.900545076381604 0 0 0 0 408.2550799093151 -37.234374019407369 0 -37.234374019407369 -75.699699345631416 0 0 0 0 393.83930353692995 -47.935650721348225 0 -47.935650721348225 -73.748886462297378 0 0 0 0 338.83355999394553 -19.566607773805117 0 -19.566607773805117 -71.570347935709833 0 0 0 0 463.77898496246416 9.8331269427560528 0 9.8331269427560528 -35.765537856837909 0 0 0 0 438.12472986629291 26.002912886741342 0 26.002912886741342 56.773798165974426 0 0 0 0 376.43081677028385 27.498224821799795 0 27.498224821799795 -29.798184959256218 0 0 0 0 427.86874163942412 0.64512852665075116 0 0.64512852665075116 -28.650438052103709 0 0 0 0 396.79663257121138 51.230119692298331 0 51.230119692298331 -29.386044113914977 0 0 0 0 324.22243918152526 37.851502682311775 0 37.851502682311775 35.269087971824774 0 0 0 0 325.66149853085517 67.260229628818252 0 67.260229628818252 -8.9872724715592085 0 0 0 0 340.52394765324425 -8.9277418308661254 0 -8.9277418308661254 16.025703730502755 0 0 0 0 351.82991175998177 -20.792230697111791 0 -20.792230697111791 -31.914383209480548 0 0 0 0 282.62931695525185 -15.777120984410885 0 -15.777120984410885 16.783983504586615 0 0 0 0 315.49557651510986 -57.19658808762415 0 -57.19658808762415 52.896142169346604 0 0 0 0 291.37775257450994 -2.7320783223565286 0 -2.7320783223565286 36.226575800711998 0 0 0 0 258.79352878667123 21.759454342540266 0 21.759454342540266 35.581864094297089 0 0 0 0 391.76583795531769 -58.64140701170345 0 -58.64140701170345 -102.31622821216115 0 0 0 0 392.7902760619545 -53.671247278371084 0 -53.671247278371084 -84.354066570822397 0 0 0 0 388.63189356816292 -60.554480870278894 0 -60.554480870278894 -5.7174771030204283 0 0 0 0 396.70646336885693 -64.957673314996555 0 -64.957673314996555 -52.336600586251279 0 0 0 0 331.58325367930229 -73.909666192864279 0 -73.909666192864279 -2.2480891560012424 0 0 0 0 354.88167134232935 -130.2783101754253 0 -130.2783101754253 89.660396695048803 0 0 0 0 447.3567153965414 -147.81739437127908 0 -147.81739437127908 -48.445990510753518 0 0 0 0 422.75209142080712 -71.840208468456126 0 -71.840208468456126 -179.92808602160403 0 0 0 0 232.75707149211667 136.97607430609605 0 136.97607430609605 -205.67979274217737 0 0 0 0 602.22477764275391 -72.264954655299334 0 -72.264954655299334 -276.44385947376611 0 0 0 0 392.76443807470787 -55.882408789789224 0 -55.882408789789224 -105.57716684226489 0 0 0 0 115.65650772031222 -58.606104275723283 0 -58.606104275723283 -137.9361955067543 0 0 0 0 12.826907970782486 68.33797949245718 0 68.33797949245718 -230.14486233267644 0 0 0 0 85.751929813050083 -51.551095636015816 0 -51.551095636015816 -56.117803533225015 0 0 0 0 173.60400243609911 -11.491864185208215 0 -11.491864185208215 -68.883125132851092 0 0 0 0 236.00804925849661 -62.841743508171703 0 -62.841743508171703 -43.619819907438796 0 0 0 0 352.48413004173199 -3.746675652228987 0 -3.746675652228987 -134.62359394541545 0 0 0 0 251.52838866980164 -5.383068578305938 0 -5.383068578305938 -73.841653052398215 0 0 0 0 273.45301043750078 -78.35224575563916 0 -78.35224575563916 -42.656567522631121 0 0 0 0 276.84474874095758 -35.24965962170063 0 -35.24965962170063 -38.236528496589017 0 0 0 0 333.99246674978713 -37.880952307844723 0 -37.880952307844723 -77.692742346713203 0 0 0 0 196.05930323244138 -85.652997162422366 0 -85.652997162422366 -36.733927111700723 0 0 0 0 186.00161650442169 -33.258856451504471 0 -33.258856451504471 -47.537250739981005 0 0 0 0 254.13625476001471 -54.568762511810746 0 -54.568762511810746 -36.800557667693283 0 0 0 0 183.32388891996379 -85.964372398749674 0 -85.964372398749674 -8.7479558308696141 0 0 0 0 307.17895303187834 -63.63420576460112 0 -63.63420576460112 -49.827942010686456 0 0 0 0 305.05565140745603 -64.10759458335815 0 -64.10759458335815 -9.9097652266345904 0 0 0 0 349.6060916224651 -58.21945454503782 0 -58.21945454503782 -55.41480642163333 0 0 0 0 44.310628210951108 -112.67752477632894 0 -112.67752477632894 1.7554657352623053 0 0 0 0 -0.11652558659989154 -88.218078956255795 0 -88.218078956255795 8.3514726990224517 0 0 0 0 97.062633578170789 -103.06047434532502 0 -103.06047434532502 -9.2130911582246426 0 0 0 0 189.08415434939161 -96.550311813281496 0 -96.550311813281496 -16.568106974389593 0 0 0 0 128.15517734438617 -96.851925257139669 0 -96.851925257139669 -34.820574190531261 0 0 0 0 93.475092517292069 -92.635115684977904 0 -92.635115684977904 -17.070310828474248 0 0 0 0 43.020690587902209 -96.182929033400796 0 -96.182929033400796 -15.726710657947251 0 0 0 0 82.091283128858777 -82.386998257157757 0 -82.386998257157757 -48.678237988513729 0 0 0 0 95.666593455476686 -95.953900393573349 0 -95.953900393573349 -45.031235748590007 0 0 0 0 92.443420538795181 -71.232676701536548 0 -71.232676701536548 -50.049649256841803 0 0 0 0 82.292340101412265 -92.748832575929555 0 -92.748832575929555 -49.844373863118115 0 0 0 0 61.461524019483477 -29.862931649735401 0 -29.862931649735401 -107.72462505403129 0 0 0 0 93.885983381202095 -77.18814375449665 0 -77.18814375449665 -108.79902831226445 0 0 0 0 67.290841338901373 -61.814477736098752 0 -61.814477736098752 -76.51246475877997 0 0 0 0 -14.41523885327905 -12.678815034867753 0 -12.678815034867753 10.9451889240889 0 0 0 0 46.101410959148694 -16.942021618418778 0 -16.942021618418778 1.185620461100819 0 0 0 0 66.334204728598706 -47.651001863317333 0 -47.651001863317333 -78.35167266848498 0 0 0 0 70.594527601166192 -35.587736061096336 0 -35.587736061096336 8.9047685983023257 0 0 0 0 464.13381740529439 -347.84094639781324 0 -347.84094639781324 340.6551808791998 0 0 0 0 583.05811949459894 -286.88753807589774 0 -286.88753807589774 -2.8002533715816753 0 0 0 0 1.1710044009592195 -5.774632850991849 0 -5.774632850991849 5.7059380846190155 0 0 0 0 132.69433808301983 71.269806516094604 0 71.269806516094604 86.25508784016165 0 0 0 0 4.8320075769175048 -5.1305884229248591 0 -5.1305884229248591 3.2279202141921299 0 0 0 0 183.48604536020139 -155.52319353385906 0 -155.52319353385906 215.12111534911446 0 0 0 0 413.43984752528195 -110.80014752403213 0 -110.80014752403213 53.594462847090199 0 0 0 0 225.01238710554026 -102.15986171339364 0 -102.15986171339364 -45.956341946530756 0 0 0 0 154.06116689611372 -44.708362705692252 0 -44.708362705692252 45.950739594618426 0 0 0 0 80.290323219451238 -31.710866137789274 0 -31.710866137789274 10.32261787419877 0 0 0 0 27.256316558661638 -225.063103880874 0 -225.063103880874 223.98910517809145 0 0 0 0 234.35797695468136 -250.15676806818306 0 -250.15676806818306 172.4486801343769 0 0 0 0 -69.678417429837282 -81.493950773287679 0 -81.493950773287679 169.6511691130595 0 0 0 0 179.53748089614965 -20.658400233808152 0 -20.658400233808152 25.38098072966568 0 0 0 0 367.794141663755 -179.66600719364067 0 -179.66600719364067 -172.80725357726988 0 0 0 0 -158.28692783045699 -209.01561363233651 0 -209.01561363233651 -123.19496974394758 0 0 0 0 72.547777125313587 72.171358023823529 0 72.171358023823529 -143.66908389094715 0 0 0 0 67.380535718519241 -189.31036895864827 0 -189.31036895864827 -334.71175610478133 0 0 0 0 170.54024004418898 -24.119255587029329 0 -24.119255587029329 -184.31716339323793 0 0 0 0 73.501673609818681 -109.29503840124187 0 -109.29503840124187 -235.87551487486166 0 0 0 0 0.14971606287325301 0.50113404814126739 0 0.50113404814126739 -3.0059694506328687 0 0 0 0 219.23650846259989 140.77879508541264 0 140.77879508541264 91.215137509955639 0 0 0 0 -130.36117042378464 -93.802384545089751 0 -93.802384545089751 -88.062970934440045 0 0 0 0 -13.194125590467593 -15.799153008299044 0 -15.799153008299044 -56.556641773687033 0 0 0 0 41.728330732221366 -83.154073252624414 0 -83.154073252624414 -169.19670454096013 0 0 0 0 43.201646779954899 9.9613268182014281 0 9.9613268182014281 -51.731387242193492 0 0 0 0 -217.6792260606162 -69.847696241169388 0 -69.847696241169388 295.92788121767717 0 0 0 0 121.51482181527535 -11.626649818976603 0 -11.626649818976603 -152.79852457956713 0 0 0 0 122.42460883087188 -37.687090813178429 0 -37.687090813178429 28.037685050764594 0 0 0 0 216.55710302878288 17.658047057351041 0 17.658047057351041 15.596557330704854 0 0 0 0 122.13629219500581 -29.182630185104699 0 -29.182630185104699 -30.159822480223056 0 0 0 0 149.46911813886254 28.008572800449542 0 28.008572800449542 39.661281239895288 0 0 0 0 152.27830688693211 27.113238890494131 0 27.113238890494131 -153.65973116703344 0 0 0 0 206.62686941654829 34.44636289692059 0 34.44636289692059 -158.71472976643099 0 0 0 0 156.90212513305596 91.935620673864094 0 91.935620673864094 -215.35244192168662 0 0 0 0 198.28072444698046 51.823054536466032 0 51.823054536466032 -191.5783290342506 0 0 0 0 105.09836121389526 57.386030571681317 0 57.386030571681317 -128.7611383558978 0 0 0 0 55.593212080129888 -19.95203996466671 0 -19.95203996466671 -93.973465028330509 0 0 0 0 106.20816277875565 -12.035401337231406 0 -12.035401337231406 -100.98114635988156 0 0 0 0 128.50785879368777 -16.535515939723552 0 -16.535515939723552 -158.89710137173029 0 0 0 0 133.01006724359468 -21.511942384305257 0 -21.511942384305257 -166.67580030356837 0 0 0 0 161.28243258837028 17.127230448423006 0 17.127230448423006 -143.27036334352664 0 0 0 0 174.23391310698935 14.234778805700898 0 14.234778805700898 -144.16998413632155 0 0 0 0 183.13306410891528 5.4925089472424133 0 5.4925089472424133 -157.92583800233933 0 0 0 0 142.07826592501078 -34.649668791799741 0 -34.649668791799741 -160.06739428939636 0 0 0 0 193.17166227841517 -20.133174404659485 0 -20.133174404659485 -114.56980126534404 0 0 0 0 140.53432845775387 9.4219885197289841 0 9.4219885197289841 -131.13386803370258 0 0 0 0 240.579359205527 28.841750179146402 0 28.841750179146402 -156.95985478754415 0 0 0 0 212.43860623793444 62.999687527610604 0 62.999687527610604 -115.94358342010287 0 0 0 0 197.92266246402869 35.915013337065375 0 35.915013337065375 -153.32426705189891 0 0 0 0 192.28388027177425 34.040367976663674 0 34.040367976663674 -136.80033379546035 0 0 0 0 186.35658574262925 59.103375046901533 0 59.103375046901533 -118.47375297444336 0 0 0 0 205.65872683835187 52.350810934348885 0 52.350810934348885 -152.10234943692149 0 0 0 0 199.9734139140528 73.695856371186409 0 73.695856371186409 -90.318900742059441 0 0 0 0 212.57842476991937 34.500823183047828 0 34.500823183047828 -63.462634601564332 0 0 0 0 248.43636155003333 54.54674175092623 0 54.54674175092623 -70.192981952063519 0 0 0 0 219.60840154496327 31.739335513997844 0 31.739335513997844 -81.969538350100265 0 0 0 0 203.13030992885615 58.869656243337204 0 58.869656243337204 -5.66416653869328 0 0 0 0 282.06916802206251 33.889510502125631 0 33.889510502125631 -98.335657445864967 0 0 0 0 212.45692362754198 10.936666413029513 0 10.936666413029513 22.036311554301392 0 0 0 0 298.97707855360932 23.906197108199876 0 23.906197108199876 23.372401084886178 0 0 0 0 427.99450983523093 20.587413037231428 0 20.587413037231428 137.86592994408602 0 0 0 0 259.8486696035252 -37.831560763963353 0 -37.831560763963353 117.69325842283388 0 0 0 0 233.8053419879725 -17.012037677824537 0 -17.012037677824537 117.11751172036975 0 0 0 0 302.21984348395199 -75.1747545923281 0 -75.1747545923281 89.11665343354025 0 0 0 0 298.52788452520326 -82.251521563503047 0 -82.251521563503047 75.594732979941 0 0 0 0 323.81722979608458 -171.26606519370216 0 -171.26606519370216 388.79815023188667 0 0 0 0 221.05564117204631 8.896500053667296 0 8.896500053667296 34.590720988413295 0 0 0 0 249.48406841981341 17.396730134498171 0 17.396730134498171 -4.1640774701118062 0 0 0 0 227.98907244942166 27.499171310330183 0 27.499171310330183 40.161054838460586 0 0 0 0 265.45289562427206 -33.244686523409882 0 -33.244686523409882 49.449472455347859 0 0 0 0 265.29612620433909 -26.021358818188219 0 -26.021358818188219 66.129757532546819 0 0 0 0 245.28868594831874 17.791483027647587 0 17.791483027647587 31.960082017917557 0 0 0 0 207.66605945008632 34.695805960815733 0 34.695805960815733 44.023971867434284 0 0 0 0 201.43856091588532 94.55005529916798 0 94.55005529916798 37.509273811619778 0 0 0 0 220.43542770808563 61.072090193073564 0 61.072090193073564 -5.4376259448031306 0 0 0 0 72.844615199166583 49.909126122644921 0 49.909126122644921 58.245427027743517 0 0 0 0 115.62834587073303 45.357223654511245 0 45.357223654511245 9.621599681130192 0 0 0 0 88.443981712334789 88.452692666785879 0 88.452692666785879 18.560672591470848 0 0 0 0 63.280326114705531 94.985422766384545 0 94.985422766384545 -66.19522569338551 0 0 0 0 56.27441169731901 42.026915840253878 0 42.026915840253878 -43.231513808076443 0 0 0 0 93.460117653186899 44.835396258107835 0 44.835396258107835 -60.532233782249477 0 0 0 0 146.51848592191527 83.306091162557777 0 83.306091162557777 -34.07076127632854 0 0 0 0 114.27763401022821 91.64945247111234 0 91.64945247111234 -90.5405007878079 0 0 0 0 -6.7043948264617939 116.30230763369798 0 116.30230763369798 -93.257524926246333 0 0 0 0 174.06728998885956 33.088353672402377 0 33.088353672402377 -22.28137604224321 0 0 0 0 150.06589715748851 47.358528546833554 0 47.358528546833554 -91.470061839196433 0 0 0 0 180.50424114456109 79.108424104631581 0 79.108424104631581 -59.707742464317903 0 0 0 0 182.50246982183307 49.818060376137055 0 49.818060376137055 -112.62299322574086 0 0 0 0 183.21382762641588 49.543842986018035 0 49.543842986018035 -122.41995617553857 0 0 0 0 186.886070796696 58.17704371659147 0 58.17704371659147 -131.17769994242735 0 0 0 0 155.74742426611192 80.258773980662568 0 80.258773980662568 -108.05228026072336 0 0 0 0 55.398163308942458 57.095111859801705 0 57.095111859801705 -104.06911823338646 0 0 0 0 4.1798483827587916 86.312963398000079 0 86.312963398000079 -94.521519328243073 0 0 0 0 76.922869141275442 99.68418585657048 0 99.68418585657048 -125.00638024204932 0 0 0 0 106.6315430605755 56.458414646890958 0 56.458414646890958 -106.848651492729 0 0 0 0 100.79349007694691 76.147051077331668 0 76.147051077331668 -113.28838343221967 0 0 0 0 66.490676050176262 51.369636109375264 0 51.369636109375264 -77.834114861329908 0 0 0 0 -4.0227790909993928 92.640582030014571 0 92.640582030014571 -64.67678883877791 0 0 0 0 44.869424743614218 89.987256491130978 0 89.987256491130978 -102.05013055183713 0 0 0 0 11.104453671199735 70.93318297355961 0 70.93318297355961 -64.601273158106792 0 0 0 0 83.59227806913259 50.663089159396279 0 50.663089159396279 -99.222540083515298 0 0 0 0 161.15008464679704 3.379672168074805 0 3.379672168074805 -145.0681836228477 0 0 0 0 138.17170442087081 -2.3892748543515729 0 -2.3892748543515729 -59.577400783639234 0 0 0 0 152.99706767690077 49.208527947263292 0 49.208527947263292 -132.77165016042591 0 0 0 0 190.34869773910032 23.510648319972233 0 23.510648319972233 -136.06226290883768 0 0 0 0 142.89831411709747 37.650984452884046 0 37.650984452884046 -99.471867449754939 0 0 0 0 20.275467475774349 121.82499420760359 0 121.82499420760359 -195.16441589297938 0 0 0 0 -24.51050403033878 84.396382944274592 0 84.396382944274592 -146.10479040872451 0 0 0 0 3.2499492165190986 126.73691579112784 0 126.73691579112784 -103.84053997640149 0 0 0 0 -43.72530160986571 127.25625283700629 0 127.25625283700629 -50.868128497813814 0 0 0 0 -49.557347493377165 103.60851249843972 0 103.60851249843972 -82.051593583410067 0 0 0 0 20.407854130701963 -2.7460434231162196 0 -2.7460434231162196 2.6427031258280906 0 0 0 0 84.573364280318557 32.161780848993331 0 32.161780848993331 -24.326020055305619 0 0 0 0 329.52019177246984 1.8878103611079382 0 1.8878103611079382 -48.535226490888249 0 0 0 0 -2.3503469070783467 96.898262432531226 0 96.898262432531226 -91.664711164100112 0 0 0 0 -16.245681433862046 156.19553402572433 0 156.19553402572433 -54.694636014713979 0 0 0 0 -192.30961676184234 258.85712612775592 0 258.85712612775592 -143.69690968776149 0 0 0 0 3.3916286703315563 66.28075011853025 0 66.28075011853025 -120.99877275976678 0 0 0 0 3.7760158932105696 133.06984699807856 0 133.06984699807856 -134.62256060567643 0 0 0 0 -185.12761710696213 83.342739141988659 0 83.342739141988659 -77.451213477722604 0 0 0 0 535.45308561662387 -222.9837876866643 0 -222.9837876866643 -146.59029184794645 0 0 0 0 -1.5995912157429615 1.2092598027546302 0 1.2092598027546302 0.58491268813621788 0 0 0 0 -37.455137879442191 188.5221543265543 0 188.5221543265543 -170.95068375302071 0 0 0 0 251.06669591082755 125.0216118000281 0 125.0216118000281 -171.04890108387235 0 0 0 0 83.402664577624847 19.783707455352257 0 19.783707455352257 -30.32225417406044 0 0 0 0 -168.9684676957404 -158.244021597771 0 -158.244021597771 264.64833568955947 0 0 0 0 480.91184419754609 68.064010615979157 0 68.064010615979157 -378.56693022196623 0 0 0 0 155.11980312678497 -94.349885424747981 0 -94.349885424747981 -101.16183090745108 0 0 0 0 111.12588053019135 209.35244546015724 0 209.35244546015724 111.12912227017966 0 0 0 0 1.3610849149364697 0.79506385627157528 0 0.79506385627157528 -1.6793958862124199 0 0 0 0 -30.770316318725236 177.75470513266555 0 177.75470513266555 -269.09419349618975 0 0 0 0 -4.2127571141318185 57.691331620371784 0 57.691331620371784 -246.2425401266247 0 0 0 0 10.186499635048676 68.674921511465527 0 68.674921511465527 -76.405887789913322 0 0 0 0 19.832358623796608 85.933636499101567 0 85.933636499101567 -131.87224476720144 0 0 0 0 -77.40065654891805 135.7086927060426 0 135.7086927060426 -96.389736226386958 0 0 0 0 -16.979610187845537 -5.5612065061718567 0 -5.5612065061718567 -84.670011231309246 0 0 0 0 1.8257920966991321 1.0849920752533393 0 1.0849920752533393 -2.2099028691729052 0 0 0 0 138.36636954752612 64.348679005843906 0 64.348679005843906 41.543988824031203 0 0 0 0 42.912829923137906 91.811699958629788 0 91.811699958629788 52.125533470418901 0 0 0 0 -21.38935434850282 75.319983760672244 0 75.319983760672244 54.560558721714187 0 0 0 0 0.85559154083466638 0.35619581873839223 0 0.35619581873839223 1.1935130586591538 0 0 0 0 75.570312679996277 100.06493105316645 0 100.06493105316645 152.5760932558087 0 0 0 0 41.724164728278993 119.65545890442604 0 119.65545890442604 173.97597825306627 0 0 0 0 24.417415831742801 -3.6268179512714482 0 -3.6268179512714482 -70.503870001621181 0 0 0 0 41.543919709525653 -29.771747849846633 0 -29.771747849846633 -135.19167231770803 0 0 0 0 -13.606770583457546 -29.3211988759424 0 -29.3211988759424 -75.369685520219889 0 0 0 0 24.730180955628384 -1.4956087705808159 0 -1.4956087705808159 -64.418536944917378 0 0 0 0 17.963244870403287 1.0710961557051633 0 1.0710961557051633 -49.489818566715712 0 0 0 0 18.914735875310726 -5.0166153705440593 0 -5.0166153705440593 -55.87957833108544 0 0 0 0 27.06957286393299 13.208964441001399 0 13.208964441001399 -45.401573606105558 0 0 0 0 9.3976340604494908 9.6599430062847205 0 9.6599430062847205 -57.265878197694747 0 0 0 0 94.135255005858198 16.088635900732015 0 16.088635900732015 -97.305319841192158 0 0 0 0 52.012727696102957 105.0252285863632 0 105.0252285863632 27.542027346056329 0 0 0 0 -3.9119124587596161 32.239375575519034 0 32.239375575519034 -61.497752850581946 0 0 0 0 99.473162961236085 99.364986963015667 0 99.364986963015667 147.10255311055471 0 0 0 0 133.22425099203247 -60.116899885322255 0 -60.116899885322255 -98.182563668374314 0 0 0 0 256.3131183689984 171.05751565587434 0 171.05751565587434 130.86708964742849 0 0 0 0 1.4446196720297451 0.61856957760576847 0 0.61856957760576847 -1.4031848030933975 0 0 0 0 267.14402571548999 71.255054490874045 0 71.255054490874045 64.95246159922408 0 0 0 0 337.09497176141303 91.854392693617683 0 91.854392693617683 34.667744605114422 0 0 0 0 387.42095322170644 120.61873435094049 0 120.61873435094049 0.82439603848524712 0 0 0 0 168.5023965274595 19.056309991542093 0 19.056309991542093 -114.05443175705977 0 0 0 0 228.69567617148277 104.656963208668 0 104.656963208668 6.4370615654634094 0 0 0 0 -4.6558404889074154 74.116017455188057 0 74.116017455188057 -73.274357051076095 0 0 0 0 -1.3675219567175532 0.60684896463516225 0 0.60684896463516225 1.5159853941869592 0 0 0 0 186.28632603970254 -31.907915991934487 0 -31.907915991934487 30.297691905439024 0 0 0 0 77.890226333161991 -44.32836032992725 0 -44.32836032992725 30.23528012650786 0 0 0 0 52.88790872291429 -29.50964432333069 0 -29.50964432333069 23.471512185432857 0 0 0 0 -49.168420552818134 19.324983756986057 0 19.324983756986057 11.4784755251967 0 0 0 0 27.488686924232752 65.978585121508331 0 65.978585121508331 32.774638757202638 0 0 0 0 170.13841394534393 106.83238676625206 0 106.83238676625206 43.949517412599562 0 0 0 0 20.408512643560243 16.683673959280213 0 16.683673959280213 -23.416536050401191 0 0 0 0 45.479912014645379 2.2862424354018458 0 2.2862424354018458 -36.290355792145419 0 0 0 0 104.85819757388526 0.96985262450834853 0 0.96985262450834853 -37.955031196526761 0 0 0 0 63.971164637448965 39.007229581246975 0 39.007229581246975 -12.020008068371226 0 0 0 0 37.090674557548482 -4.5108131962888365 0 -4.5108131962888365 -15.018729671024857 0 0 0 0 58.133724733950658 -21.538669548502185 0 -21.538669548502185 -39.477317024162403 0 0 0 0 33.715226668144169 12.817753710217175 0 12.817753710217175 -45.259651692929765 0 0 0 0 36.405064318579718 -5.4005993160900445 0 -5.4005993160900445 -2.6719873402070453 0 0 0 0 59.615704562194878 -13.775220845247077 0 -13.775220845247077 -31.212969708904438 0 0 0 0 37.341936157165037 -35.802890747287165 0 -35.802890747287165 -9.0514533353282332 0 0 0 0 42.011075535177952 4.2720310553768286 0 4.2720310553768286 -25.186192588834103 0 0 0 0 22.663540200576136 0.5634065773608512 0 0.5634065773608512 -13.662247173896573 0 0 0 0 22.713637528038817 15.115563444682152 0 15.115563444682152 -26.73747888201342 0 0 0 0 25.047987496171118 16.282276901692398 0 16.282276901692398 -47.469042082697342 0 0 0 0 5.3195445726908019 -1.2736904385484067 0 -1.2736904385484067 -0.73027004818279373 0 0 0 0 572.92345842762734 314.83136853778547 0 314.83136853778547 51.734924499602357 0 0 0 0 21.965682926577898 -5.3017031062323277 0 -5.3017031062323277 -10.88968565946556 0 0 0 0 21.991971889741677 2.3006179327556922 0 2.3006179327556922 -16.209417620850186 0 0 0 0 35.317311210106709 4.6717407925175394 0 4.6717407925175394 -37.371900123639762 0 0 0 0 23.884141970280325 -4.9669270455579451 0 -4.9669270455579451 -21.800622924305884 0 0 0 0 298.04268068763122 -82.513084541024682 0 -82.513084541024682 21.015047610362217 0 0 0 0 14.328275741759349 -5.789202437782734 0 -5.789202437782734 -18.151570999193329 0 0 0 0 545.62202633263951 373.07390319013746 0 373.07390319013746 176.11417259902805 0 0 0 0 911.66729509196011 489.01962433140625 0 489.01962433140625 113.84586472405999 0 0 0 0 904.44875826295902 486.28867392060585 0 486.28867392060585 162.44938722317056 0 0 0 0 594.3645768003189 336.63878915649366 0 336.63878915649366 157.78364641407643 0 0 0 0 491.34670724067655 39.57024651893164 0 39.57024651893164 -32.946498403009173 0 0 0 0 8.0618746238410068 -0.085793274207574655 0 -0.085793274207574655 -4.0701520958298936 0 0 0 0 1332.7349658737439 392.91653542825679 0 392.91653542825679 -4.7224077877135642 0 0 0 0 545.62327662220923 424.63736378753947 0 424.63736378753947 130.59726997065445 0 0 0 0 849.03640103284852 110.04379059200664 0 110.04379059200664 320.92623422374163 0 0 0 0 10.18548403648569 1.079343222366294 0 1.079343222366294 -1.7279228235827109 0 0 0 0 549.15023794299486 469.17235191999612 0 469.17235191999612 225.57985948718851 0 0 0 0 1214.0345122695217 1012.8175887876905 0 1012.8175887876905 670.08432488768995 0 0 0 0 277.19183095311746 -225.54390788166256 0 -225.54390788166256 -170.80911700735851 0 0 0 0 1159.4702833085103 71.299318166799821 0 71.299318166799821 -264.92110709147983 0 0 0 0 950.77751139734755 768.60426997852028 0 768.60426997852028 261.54912637427788 0 0 0 0 577.40762961888686 335.9799183972782 0 335.9799183972782 113.82686619500237 0 0 0 0 682.31128879595781 575.96788447441395 0 575.96788447441395 627.99626542216902 0 0 0 0 859.3555481377698 657.13975790788663 0 657.13975790788663 138.02919686071982 0 0 0 0 151.77692568529164 200.79068101545454 0 200.79068101545454 -2.587071360781465 0 0 0 0 412.58397862127458 259.18026650020511 0 259.18026650020511 -21.443817879498965 0 0 0 0 50.001159871171694 6.6568941175463578 0 6.6568941175463578 -91.068882597835454 0 0 0 0 8.680977632087405 5.6299326440198314 0 5.6299326440198314 -54.484195453873497 0 0 0 0 -39.383957296275184 -28.770403771139172 0 -28.770403771139172 3.0092393485138018 0 0 0 0 30.333885500149336 -85.933388643188664 0 -85.933388643188664 15.623210029963957 0 0 0 0 235.63344118431996 -76.117849915006218 0 -76.117849915006218 -60.620149668096929 0 0 0 0 16.729154598342575 75.295081107827627 0 75.295081107827627 -2.9681685138639295 0 0 0 0 -1.0582884206814924 35.023697949261987 0 35.023697949261987 -92.663182752536613 0 0 0 0 6.7314417638272701 3.586198887037483 0 3.586198887037483 -46.947251335572133 0 0 0 0 53.16950587813335 22.710810036300927 0 22.710810036300927 -47.449104124505538 0 0 0 0 21.649977417910122 21.041096230963376 0 21.041096230963376 -33.957308490861578 0 0 0 0 -3.6455501404270763 17.757706175129442 0 17.757706175129442 -73.879497017347376 0 0 0 0 28.027989080699626 -8.0262686383505297 0 -8.0262686383505297 -53.004205469348108 0 0 0 0 38.441272179814405 15.723813115042162 0 15.723813115042162 -98.010613363913876 0 0 0 0 3.355489645323388 4.151211116868204 0 4.151211116868204 -12.854159303817806 0 0 0 0 29.307905610985472 31.482798038833607 0 31.482798038833607 -77.613681103297949 0 0 0 0 8.7297088091290789 39.562074608628336 0 39.562074608628336 -80.31393274921038 0 0 0 0 4.37973513151519 49.086470047781404 0 49.086470047781404 49.855511826149268 0 0 0 0 27.68556630036619 14.105170992856984 0 14.105170992856984 -40.813643634818163 0 0 0 0 -10.904461748810718 -29.637225904181832 0 -29.637225904181832 -209.17579966636549 0 0 0 0 -1.4986689836805454 16.427392345109183 0 16.427392345109183 -145.69632801607077 0 0 0 0 -18.393161433690693 -25.373696433334771 0 -25.373696433334771 -135.39386049152017 0 0 0 0 69.680626223475571 14.003389867320621 0 14.003389867320621 -54.20628755275149 0 0 0 0 18.566382618206042 -11.914055820707766 0 -11.914055820707766 -8.5811560471229313 0 0 0 0 51.728205885468924 64.95091199628223 0 64.95091199628223 -77.359583560450119 0 0 0 0 61.306086153485623 8.0576696035291491 0 8.0576696035291491 -38.258603070048267 0 0 0 0 34.099306171745411 1.5471833964438702 0 1.5471833964438702 -39.290367180627072 0 0 0 0 41.948369933754407 18.810065422020344 0 18.810065422020344 -68.079330588387322 0 0 0 0 73.620465005557321 8.9726137304772067 0 8.9726137304772067 -41.808493827946528 0 0 0 0 -12.87782979127951 106.40661194553354 0 106.40661194553354 -84.351090709023111 0 0 0 0 57.285024692479055 122.99236662131261 0 122.99236662131261 -201.13974792355293 0 0 0 0 33.320351286849473 101.13544712584735 0 101.13544712584735 -202.55552005840582 0 0 0 0 84.520438905630726 89.897118782344478 0 89.897118782344478 -223.83779030885671 0 0 0 0 45.6892860102962 64.277598054419286 0 64.277598054419286 -233.72482423674228 0 0 0 0 78.214314755117812 138.14616742118551 0 138.14616742118551 -180.68780899957346 0 0 0 0 85.439707348672528 120.81065051855239 0 120.81065051855239 -195.62026803899789 0 0 0 0 111.74244185550197 143.6871540032007 0 143.6871540032007 -175.87556321652664 0 0 0 0 137.02547466348915 102.50497740503579 0 102.50497740503579 -210.26770041426789 0 0 0 0 83.074094396550208 123.39667575174462 0 123.39667575174462 -197.10173320295871 0 0 0 0 83.121155831050643 83.619247863412667 0 83.619247863412667 -215.95464973671187 0 0 0 0 -47.592435547325294 112.12863136098781 0 112.12863136098781 14.44175791106727 0 0 0 0 203.06657428943436 168.61744110298787 0 168.61744110298787 -2.9995050680488475 0 0 0 0 46.233941619604593 109.11276864125739 0 109.11276864125739 22.438992559125097 0 0 0 0 54.492376017005881 148.96353558420401 0 148.96353558420401 75.663254643916389 0 0 0 0 49.803946528604683 67.463658621454016 0 67.463658621454016 27.417729108560707 0 0 0 0 9.0582698403159156 93.726350685186617 0 93.726350685186617 -66.728637101874625 0 0 0 0 8.606936458585551 103.36353347006002 0 103.36353347006002 7.1168656745433054 0 0 0 0 54.253982041533163 111.40037760527412 0 111.40037760527412 -209.31164504784101 0 0 0 0 -15.076498014503159 30.975013339311317 0 30.975013339311317 -204.27733290686592 0 0 0 0 -3.1653140737471404 -99.143169717208139 0 -99.143169717208139 -80.460403921028956 0 0 0 0 -80.774543410676415 31.743922910155561 0 31.743922910155561 24.028873117732473 0 0 0 0 159.0376863139536 -3.7478104651894455 0 -3.7478104651894455 -69.462072286770308 0 0 0 0 -75.810016115272447 129.80251202369891 0 129.80251202369891 -116.10885169009998 0 0 0 0 -20.771667283770512 151.64876941008515 0 151.64876941008515 -125.42339876291203 0 0 0 0 20.865407925561158 102.81949940871345 0 102.81949940871345 -140.18145487002766 0 0 0 0 -44.931056568013446 77.441289555685216 0 77.441289555685216 -154.94873226000345 0 0 0 0 -6.3279641027038451 80.600411392631941 0 80.600411392631941 -194.62323744323294 0 0 0 0 -18.856715194022399 110.44039953547872 0 110.44039953547872 -135.85027936827828 0 0 0 0 57.318796067571384 117.4013869578539 0 117.4013869578539 -174.56709524152393 0 0 0 0 64.365503791370429 105.52297191822072 0 105.52297191822072 -182.36217541156395 0 0 0 0 73.976625483963289 128.32094328078074 0 128.32094328078074 -137.74584484778097 0 0 0 0 156.26315563533899 120.0095907665775 0 120.0095907665775 -135.61206509996282 0 0 0 0 128.24824211790838 84.933500729840489 0 84.933500729840489 -147.9917392350219 0 0 0 0 58.382818992409739 144.77363928100522 0 144.77363928100522 -118.74504024681301 0 0 0 0 169.22969860819103 96.424763323944262 0 96.424763323944262 -124.01426913768773 0 0 0 0 117.48224941039916 163.47577114403748 0 163.47577114403748 -82.198292470879096 0 0 0 0 0.94897834382902602 83.030418446296892 0 83.030418446296892 -75.953175626269513 0 0 0 0 -17.556940027348901 140.19924301915898 0 140.19924301915898 -102.17688250994979 0 0 0 0 14.691968919752981 116.94191188643254 0 116.94191188643254 -100.50551141057804 0 0 0 0 17.618166014770395 123.32662879992949 0 123.32662879992949 -122.13770575756121 0 0 0 0 621.18285005080543 -95.078614357612878 0 -95.078614357612878 -213.85775111082808 0 0 0 0 399.54769997361655 116.25513217346997 0 116.25513217346997 -171.76847784366646 0 0 0 0 373.01251551404494 -24.388078356817459 0 -24.388078356817459 -136.71650892727121 0 0 0 0 89.524151241974323 70.933857427047769 0 70.933857427047769 -139.16358455341719 0 0 0 0 733.09652903606548 -226.46324918187156 0 -226.46324918187156 -151.63566626138754 0 0 0 0 353.28650959762126 -64.854535478443267 0 -64.854535478443267 -205.30330872906234 0 0 0 0 147.00342080900123 -131.04712501504542 0 -131.04712501504542 -12.364442892258012 0 0 0 0 -117.385060686418 70.303574015181766 0 70.303574015181766 -120.11317451712966 0 0 0 0 182.2747607938727 109.40101855932335 0 109.40101855932335 -368.82468661056373 0 0 0 0 125.27593564301787 111.81966503831063 0 111.81966503831063 -225.86220014699211 0 0 0 0 84.898626812922885 45.402428863399109 0 45.402428863399109 -238.02416484882997 0 0 0 0 83.314728739474958 41.207651410502876 0 41.207651410502876 -272.17654956837941 0 0 0 0 110.83459435200348 62.637900622135021 0 62.637900622135021 -262.62834315886721 0 0 0 0 148.60882297673379 1.8633959569597209 0 1.8633959569597209 -406.07564241268119 0 0 0 0 68.765625392682068 -4.7392774569977618 0 -4.7392774569977618 -7.4950715934897474 0 0 0 0 10.653445620773709 145.2754941939329 0 145.2754941939329 -24.420948263203172 0 0 0 0 7.9871216713762294 -2.2695491660784484 0 -2.2695491660784484 -4.2929297287722648 0 0 0 0 528.50129425966225 84.796116574465486 0 84.796116574465486 -10.297444674306462 0 0 0 0 6.5507805812994775 -26.217804600436466 0 -26.217804600436466 -205.9652361264707 0 0 0 0 300.42556190073083 385.50301643791818 0 385.50301643791818 210.83262518061747 0 0 0 0 884.63324546578224 1097.1054102648059 0 1097.1054102648059 998.10046397408519 0 0 0 0 1319.5188683788365 -758.77511465502721 0 -758.77511465502721 89.358161227046367 0 0 0 0 1950.264918786308 512.46788280635133 0 512.46788280635133 -110.28981333906631 0 0 0 0 1230.9458643132684 1097.7806301030698 0 1097.7806301030698 321.86828955767669 0 0 0 0 511.20439271966461 -545.36138638894954 0 -545.36138638894954 64.422265720091218 0 0 0 0 2006.8416501294269 -401.89068776690419 0 -401.89068776690419 -341.54092045007928 0 0 0 0 24.740127546470035 -3.3300951006121711 0 -3.3300951006121711 2.1618802929533842 0 0 0 0 1237.6300615647706 113.90829159309396 0 113.90829159309396 -289.08715293633213 0 0 0 0 759.65585080375604 6.1817080576770422 0 6.1817080576770422 -298.94678189237095 0 0 0 0 717.90407662655343 -168.45465650534788 0 -168.45465650534788 -371.40911152761282 0 0 0 0 5.9715130728517707 13.968179737731369 0 13.968179737731369 30.281062714201489 0 0 0 0 1881.7356503583724 -6.4528584340697535 0 -6.4528584340697535 -100.62945004993655 0 0 0 0 -447.93972523907723 438.40144876112117 0 438.40144876112117 163.85704090106356 0 0 0 0 4.1088157425990488 10.442837187068008 0 10.442837187068008 45.246154081360544 0 0 0 0 2499.1329183764319 -208.23394266815336 0 -208.23394266815336 -37.84768196213426 0 0 0 0 2272.2314702925978 -265.87272820204043 0 -265.87272820204043 23.200325637655808 0 0 0 0 2500.8411768725127 -351.62682734272346 0 -351.62682734272346 54.774448779895472 0 0 0 0 -139.72632808322669 -721.90076484120254 0 -721.90076484120254 843.36135692779635 0 0 0 0 -1147.3268797971505 -10.837223395723868 0 -10.837223395723868 768.63690657807456 0 0 0 0 -0.70684197629343259 0.94279049142414806 0 0.94279049142414806 50.220342792947697 0 0 0 0 157.29258586411743 44.146409474874417 0 44.146409474874417 -86.155553235470506 0 0 0 0 2333.9896142147772 -481.16245533116972 0 -481.16245533116972 -29.793191998831734 0 0 0 0 2496.4706125651392 -479.20250218650676 0 -479.20250218650676 -67.544802740464831 0 0 0 0 1476.3911842561356 -979.11287992834139 0 -979.11287992834139 711.03326231100368 0 0 0 0 7.6065063242087341 -8.6865394390478912 0 -8.6865394390478912 39.611965087399369 0 0 0 0 5.996258767482459 5.2595202508257373 0 5.2595202508257373 15.895364679497144 0 0 0 0 -107.4032401379809 -274.84034729510358 0 -274.84034729510358 15.687417838762485 0 0 0 0 -239.37837508341545 -111.24984862630095 0 -111.24984862630095 -1.6574778647664061 0 0 0 0 202.19279098573315 -221.63536031955664 0 -221.63536031955664 -139.60019557019587 0 0 0 0 358.05539558734745 -350.33607840246532 0 -350.33607840246532 -92.288210895960844 0 0 0 0 662.98577666522033 222.45917510102754 0 222.45917510102754 -65.963661603802393 0 0 0 0 595.13040571782767 263.58057830048983 0 263.58057830048983 -68.121648036994884 0 0 0 0 782.59878611120803 345.5512088732512 0 345.5512088732512 -69.649283648110213 0 0 0 0 821.18529833312641 662.27144583815971 0 662.27144583815971 198.96188174544113 0 0 0 0 476.99261736804328 371.50200277626573 0 371.50200277626573 102.48410938629604 0 0 0 0 288.46416491767741 87.221837147782935 0 87.221837147782935 -9.3785106655159325 0 0 0 0 490.97750374049065 368.2835139639983 0 368.2835139639983 181.85126538288569 0 0 0 0 392.49112656942452 70.052728965323695 0 70.052728965323695 -124.45318464110551 0 0 0 0 369.55160786704801 65.724538527523691 0 65.724538527523691 -254.41808044901427 0 0 0 0 121.13934307096497 100.15492975545476 0 100.15492975545476 -52.480219530452814 0 0 0 0 15.626213990435517 2.7031213200372122 0 2.7031213200372122 -5.0341551041493986 0 0 0 0 63.51505983466302 -17.087202554876601 0 -17.087202554876601 -4.9423611948762254 0 0 0 0 177.6419294039224 16.94302093247461 0 16.94302093247461 -76.292001818488643 0 0 0 0 3.459129152695823 -212.22088325609684 0 -212.22088325609684 -95.200324184962483 0 0 0 0 205.34056456353574 0.92006961694187339 0 0.92006961694187339 45.88973038606764 0 0 0 0 151.93914759812469 75.103063745669715 0 75.103063745669715 -55.919921605033778 0 0 0 0 67.493327976844739 -54.055465146911502 0 -54.055465146911502 -60.307208767595966 0 0 0 0 52.419313187216176 1.5613751210687496 0 1.5613751210687496 -10.122892318262984 0 0 0 0 29.302777531846374 -10.268510311097714 0 -10.268510311097714 -6.0328366314112412 0 0 0 0 53.670898413787654 18.811318920966642 0 18.811318920966642 -85.609078136601966 0 0 0 0 30.906568734734833 -7.3289973802752755 0 -7.3289973802752755 -7.3702935774406715 0 0 0 0 90.767063939900254 -4.891607565290542 0 -4.891607565290542 -25.146090656928664 0 0 0 0 87.210448024859943 5.9852239461065437 0 5.9852239461065437 -9.0874734766111942 0 0 0 0 87.486949987156549 11.933553000705615 0 11.933553000705615 16.476244752855564 0 0 0 0 87.678210781632515 14.356715455344784 0 14.356715455344784 8.7396499476371901 0 0 0 0 2500.0188070457007 -466.85407603692033 0 -466.85407603692033 -9.7480298853913645 0 0 0 0 13.900326932578981 15.953615451100703 0 15.953615451100703 27.55585181701133 0 0 0 0 2496.9769815656036 456.29118202420915 0 456.29118202420915 57.839935354082726 0 0 0 0 82.119078844720207 17.913509675294563 0 17.913509675294563 19.109481235583189 0 0 0 0 2055.3005762938956 94.697616342026365 0 94.697616342026365 33.089618620543433 0 0 0 0 81.750781789967732 16.654718441375735 0 16.654718441375735 26.715995594619017 0 0 0 0 67.157258802011526 -14.353322459236214 0 -14.353322459236214 3.6807020582326722 0 0 0 0 28.799203077367565 -126.5987571468886 0 -126.5987571468886 -20.606594164278249 0 0 0 0 42.652876775711775 -113.05638492993057 0 -113.05638492993057 -199.16561459542118 0 0 0 0 20.239405170756505 10.338772180017862 0 10.338772180017862 -10.824143517085204 0 0 0 0 44.369526557111385 385.04073790607663 0 385.04073790607663 380.93762814714751 0 0 0 0 -31.291718519514689 23.578155347331403 0 23.578155347331403 -16.078819971186022 0 0 0 0 1361.404715029319 -471.23895084360788 0 -471.23895084360788 -423.45903122600475 0 0 0 0 2495.2045336185693 222.39127554470969 0 222.39127554470969 -386.84312493121547 0 0 0 0 1578.2133695396042 -66.797070560406993 0 -66.797070560406993 -459.02870529602137 0 0 0 0 11.68503931050563 0.058456942510041188 0 0.058456942510041188 -1.428282126915966 0 0 0 0 1322.3911869727308 721.03705410078453 0 721.03705410078453 403.01467707845433 0 0 0 0 623.57254203722914 -518.21358635518391 0 -518.21358635518391 -1.3432876445046986 0 0 0 0 10.69696602090853 2.6432104336393749 0 2.6432104336393749 -4.7437985933223779 0 0 0 0 -222.52614424110197 503.35344655279505 0 503.35344655279505 -272.74276501794145 0 0 0 0 287.53463224320149 36.701316278381228 0 36.701316278381228 101.63822250184421 0 0 0 0 223.05383403252927 131.59206005622838 0 131.59206005622838 207.8170107872055 0 0 0 0 225.86018584138583 152.61808255024192 0 152.61808255024192 86.225774832627849 0 0 0 0 450.62953695039869 543.63207172045009 0 543.63207172045009 451.38861227479856 0 0 0 0 1226.352728187132 533.54436834242597 0 533.54436834242597 -23.653388239429546 0 0 0 0 13.31887849735098 -2.7696987014805394 0 -2.7696987014805394 1.4713447409150731 0 0 0 0 1264.7664965831573 979.02912021342831 0 979.02912021342831 679.84122016447577 0 0 0 0 191.19179785987035 -383.03832825452002 0 -383.03832825452002 113.38497977067937 0 0 0 0 -21.638921934099926 7.1636889819847056 0 7.1636889819847056 -28.938727069747529 0 0 0 0 35.306403332519579 -4.7020645590181829 0 -4.7020645590181829 -2.5966404753654562 0 0 0 0 292.77005373976863 65.163983637290812 0 65.163983637290812 -3.9509225718798007 0 0 0 0 255.90694759579492 64.935373213723324 0 64.935373213723324 -274.8146905317567 0 0 0 0 -15.344962476388901 284.86227553657977 0 284.86227553657977 5.9071376104734554 0 0 0 0 0.3198635667598424 0.97264026787339475 0 0.97264026787339475 0.83699168644322164 0 0 0 0 -11.358112243266078 19.231924373924699 0 19.231924373924699 -17.171453428876703 0 0 0 0 66.518182841808994 148.70643187378971 0 148.70643187378971 196.8482822775718 0 0 0 0 285.72140938885423 -60.923359580820943 0 -60.923359580820943 -60.770551042957209 0 0 0 0 1378.9705890241785 -440.99232016954352 0 -440.99232016954352 -59.650512054801766 0 0 0 0 344.67993759243836 99.97308804531724 0 99.97308804531724 116.49333527836893 0 0 0 0 282.27789046298858 -136.68521562724663 0 -136.68521562724663 117.85314874466746 0 0 0 0 -55.354331195823761 -13.440530638705582 0 -13.440530638705582 90.50158653959943 0 0 0 0 5.5788675586569383 1.9460946021236296 0 1.9460946021236296 1.536871156475911 0 0 0 0 10.965274175478953 5.519779324327942 0 5.519779324327942 -1.6898734032870379 0 0 0 0 256.66265506400669 -22.491128167734701 0 -22.491128167734701 -64.979353440634668 0 0 0 0 -2.4733387982232671 18.905092249145127 0 18.905092249145127 -5.8827916394375279 0 0 0 0 119.31395891697321 -58.33376017503349 0 -58.33376017503349 -98.205701962131229 0 0 0 0 3.4619161954821038 10.717653773097114 0 10.717653773097114 -6.5273213133976027 0 0 0 0 -9.918729982975492 20.013239727602354 0 20.013239727602354 -3.6249790753240632 0 0 0 0 -16.47971168836375 16.03333152875166 0 16.03333152875166 -0.016089143382089333 0 0 0 0 -8.5099488043779274 23.758601703056456 0 23.758601703056456 -16.13882906705021 0 0 0 0 14.391430971048248 14.390479125558763 0 14.390479125558763 -9.9124266121593063 0 0 0 0 2497.6098207857904 -572.41119908641429 0 -572.41119908641429 -670.10023154927796 0 0 0 0 557.37295059941971 40.632368983552624 0 40.632368983552624 -12.91552147625336 0 0 0 0 1019.4159385095081 -1180.3930886456633 0 -1180.3930886456633 762.32411574172306 0 0 0 0 2494.5979433341581 11.361884261649497 0 11.361884261649497 -0.44062508062099992 0 0 0 0 7.6454881585096075 3.9331177677306322 0 3.9331177677306322 0.46366128493705289 0 0 0 0 4.0630368343878942 5.01694941639051 0 5.01694941639051 5.7275372598588055 0 0 0 0 -56.139707725133121 2.9242139954291702 0 2.9242139954291702 351.18804206777668 0 0 0 0 -27.104976637685468 279.12924202367503 0 279.12924202367503 553.92438137780368 0 0 0 0 183.07513359177756 235.05404680735114 0 235.05404680735114 181.21914686166815 0 0 0 0 2493.1600627999869 745.79353394420184 0 745.79353394420184 -124.43877940835799 0 0 0 0 1112.6577466998606 337.56300754784718 0 337.56300754784718 -169.29261764644662 0 0 0 0 5.0257002686038916 13.68586008286271 0 13.68586008286271 14.095063942617536 0 0 0 0 2501.4009788563912 118.97699822804383 0 118.97699822804383 -203.38709343035237 0 0 0 0 902.36915243961994 -110.67168826666784 0 -110.67168826666784 -266.48584502329322 0 0 0 0 793.09113056352362 -41.856910122289719 0 -41.856910122289719 -261.72764084683195 0 0 0 0 679.32129100358725 -142.5616992389464 0 -142.5616992389464 -24.970325130488845 0 0 0 0 543.37801644073625 34.933277519135686 0 34.933277519135686 -118.69264273094541 0 0 0 0 434.99427884767556 -189.25750450817088 0 -189.25750450817088 11.772414255259719 0 0 0 0 694.49605183141739 -161.46568253787257 0 -161.46568253787257 -166.94330283213003 0 0 0 0 780.23565142400184 -246.46420858102522 0 -246.46420858102522 -138.83255012353499 0 0 0 0 869.77500215215332 -340.22173487993263 0 -340.22173487993263 -93.005266525448178 0 0 0 0 1757.3283140921485 -391.38103926390841 0 -391.38103926390841 -90.509734892946199 0 0 0 0 254.05543858472447 -22.903054105795263 0 -22.903054105795263 124.41484521932558 0 0 0 0 642.29195248906035 -348.27885425062289 0 -348.27885425062289 100.28074843665445 0 0 0 0 7.3695181480212177 9.939864554563556 0 9.939864554563556 -7.3004252483824272 0 0 0 0 159.6240831227251 -101.42033474077624 0 -101.42033474077624 66.796031644741561 0 0 0 0 20.033837127020661 -8.3271611933258001 0 -8.3271611933258001 0.26628557413779808 0 0 0 0 386.69951545857202 -795.07660872204781 0 -795.07660872204781 792.17964987371374 0 0 0 0 1597.4875370226182 425.98920530162275 0 425.98920530162275 -123.26065155819629 0 0 0 0 6.6400989900874663 -4.5580724111293804 0 -4.5580724111293804 2.6696328975647123 0 0 0 0 911.62024626696439 -220.53512188352681 0 -220.53512188352681 737.6013992979407 0 0 0 0 348.73683476238239 30.615405995825043 0 30.615405995825043 259.017042315239 0 0 0 0 946.57009697806643 -141.45631491701943 0 -141.45631491701943 75.089275744329356 0 0 0 0 641.35557288800373 240.46716021005747 0 240.46716021005747 146.51409205958444 0 0 0 0 938.97861000395278 -122.93629390106389 0 -122.93629390106389 -73.074851937051562 0 0 0 0 1375.5741570598984 276.47369086346328 0 276.47369086346328 292.14207142897806 0 0 0 0 637.33042827115059 -13.569698170447282 0 -13.569698170447282 -225.51266919074988 0 0 0 0 1163.8592613890869 61.705202712430548 0 61.705202712430548 -268.01633995720204 0 0 0 0 763.35997934071202 135.16171597539665 0 135.16171597539665 -297.40028724392596 0 0 0 0 225.17355748502086 166.97685658566161 0 166.97685658566161 -184.9944859872744 0 0 0 0 -13.036214763313183 123.06366398977752 0 123.06366398977752 -36.817143481137009 0 0 0 0 -8.5203719759410887 51.095909564349313 0 51.095909564349313 81.886103548595202 0 0 0 0 -9.6658249124739086 147.08446854992008 0 147.08446854992008 -59.033600664768528 0 0 0 0 224.03850006786161 247.60966527612072 0 247.60966527612072 -34.68199788121774 0 0 0 0 295.86886670908825 441.80932688574012 0 441.80932688574012 -390.68085433354076 0 0 0 0 -209.44811594273051 378.76632713389881 0 378.76632713389881 -73.903168286364235 0 0 0 0 -166.12036018903564 190.79966530274669 0 190.79966530274669 111.54581350519857 0 0 0 0 -352.19237551079459 160.11415850038281 0 160.11415850038281 206.2908809349621 0 0 0 0 460.17150667124952 -67.619087746522752 0 -67.619087746522752 -375.72420510857427 0 0 0 0 407.508955266665 157.58937026259542 0 157.58937026259542 158.84549304424425 0 0 0 0 -136.75237267701959 118.50847229598656 0 118.50847229598656 364.97290065073867 0 0 0 0 236.94002457843453 69.961874497650342 0 69.961874497650342 312.42617390059809 0 0 0 0 463.4124459314462 276.37267212564279 0 276.37267212564279 344.17745174480683 0 0 0 0 1219.8889470971189 -38.560358968499713 0 -38.560358968499713 201.87499533240629 0 0 0 0 1211.2412399620298 -175.31069506506947 0 -175.31069506506947 -158.45978948176958 0 0 0 0 1681.6296863294865 -530.5369858330771 0 -530.5369858330771 77.26198754171071 0 0 0 0 1814.516210089816 111.66750154406031 0 111.66750154406031 -40.418730780133728 0 0 0 0 1143.9751015610091 419.06657243965583 0 419.06657243965583 674.90193278615789 0 0 0 0 691.45631009432145 -30.751355907778873 0 -30.751355907778873 356.50179486530374 0 0 0 0 1128.5180185836907 -332.46325071754916 0 -332.46325071754916 754.66765824695369 0 0 0 0 800.46137928755888 106.0087612754902 0 106.0087612754902 265.31907181121574 0 0 0 0 1980.6549834013931 281.99771083824891 0 281.99771083824891 68.608319082567732 0 0 0 0 1048.9187083037687 242.87934052809214 0 242.87934052809214 67.54771850582101 0 0 0 0 696.293147028362 -192.10711552880349 0 -192.10711552880349 244.80901444743452 0 0 0 0 345.11320811775659 -269.35862524341525 0 -269.35862524341525 -4.8922034054517809 0 0 0 0 157.38726958314055 131.52418211661305 0 131.52418211661305 148.81927692374131 0 0 0 0 408.16453689735499 -188.22780722168193 0 -188.22780722168193 449.41231349087923 0 0 0 0 -125.61319414885656 3.8117082339866215 0 3.8117082339866215 4.6988648832632478 0 0 0 0 -104.04238875326746 10.553905445374973 0 10.553905445374973 -2.1290199674028258 0 0 0 0 -231.52280990706822 -145.48196128421654 0 -145.48196128421654 186.80723639607129 0 0 0 0 -0.17975181741183377 -1.2363935162266131 0 -1.2363935162266131 6.0464921281734068 0 0 0 0 -57.764261054388044 -13.560797709129417 0 -13.560797709129417 8.7374374085852367 0 0 0 0 13.015545408490652 0.57164357881794103 0 0.57164357881794103 1.429201875414833 0 0 0 0 -182.34183184467111 -12.138128929969469 0 -12.138128929969469 8.935032818451063 0 0 0 0 -0.22398674599062218 0.15998462139082648 0 0.15998462139082648 -0.60726682008911603 0 0 0 0 -94.69019096509146 5.1003722687538868 0 5.1003722687538868 7.5048445994710846 0 0 0 0 -94.139916278472811 4.9990836394034659 0 4.9990836394034659 4.656277052770065 0 0 0 0 0.63455804808700833 1.1587550966109816 0 1.1587550966109816 -1.5604991850813545 0 0 0 0 -103.32713665736446 6.9347996601473483 0 6.9347996601473483 9.5179137504318874 0 0 0 0 -109.98264142854532 -3.606560853212585 0 -3.606560853212585 47.071509005934331 0 0 0 0 -26.652985934309982 19.158351661666643 0 19.158351661666643 4.5771427651665135 0 0 0 0 -88.859910028334767 3.630993346657903 0 3.630993346657903 7.5461049647939262 0 0 0 0 -88.800910542890051 12.909121218159981 0 12.909121218159981 11.967296911238549 0 0 0 0 -13.369657399929565 33.233002329095712 0 33.233002329095712 88.991244650183319 0 0 0 0 -88.002637704355038 60.085321493607822 0 60.085321493607822 -22.654941567928688 0 0 0 0 -2.2143934986138731 3.2654608781596437 0 3.2654608781596437 1.8800209393139209 0 0 0 0 -97.672629171838707 58.162929216075248 0 58.162929216075248 96.656845074343494 0 0 0 0 -143.59555830282989 90.844739223078903 0 90.844739223078903 73.410303007563272 0 0 0 0 -144.54653085604514 149.10298234282183 0 149.10298234282183 368.72261029708136 0 0 0 0 -113.64885959698677 -17.493554422673348 0 -17.493554422673348 -4.6889349763191603 0 0 0 0 -238.08824224452655 -44.495864857118193 0 -44.495864857118193 102.95203679291387 0 0 0 0 -0.29964275202691226 -0.21683873495224049 0 -0.21683873495224049 3.0905990849709344 0 0 0 0 -25.671550782099075 259.37056384965575 0 259.37056384965575 239.29026226197945 0 0 0 0 -54.822610308769072 279.12771486324749 0 279.12771486324749 311.93914392683706 0 0 0 0 -80.932502256956468 257.84760427201155 0 257.84760427201155 333.18527228953576 0 0 0 0 -107.44582742612693 91.993370289942192 0 91.993370289942192 167.73952815571212 0 0 0 0 58.987579372629625 296.03778497496472 0 296.03778497496472 36.112616891459311 0 0 0 0 -27.717965995288978 170.16188430598655 0 170.16188430598655 -65.336776822223101 0 0 0 0 52.747397221121673 216.57150542055282 0 216.57150542055282 -146.29544340122175 0 0 0 0 -73.058832422062551 478.52274177532598 0 478.52274177532598 -200.91695790088221 0 0 0 0 40.209322529652127 46.815845210366888 0 46.815845210366888 -766.96232312297047 0 0 0 0 -110.76224244926561 77.947879327085047 0 77.947879327085047 288.76609006022682 0 0 0 0 -8.2521453306353578 0.49434680909907502 0 0.49434680909907502 -0.41726008859981234 0 0 0 0 19.053355469717644 88.246126836197448 0 88.246126836197448 -327.70653657911953 0 0 0 0 -20.07793871641789 10.620057128433162 0 10.620057128433162 -2.0193453928425491 0 0 0 0 31.274933849844274 133.75736261649951 0 133.75736261649951 -67.27217455531536 0 0 0 0 -13.690571412224017 102.98099636978009 0 102.98099636978009 69.430133141383067 0 0 0 0 3.2280582379025873 120.0759705041819 0 120.0759705041819 -50.793695989556561 0 0 0 0 47.578854390260858 55.472813299007441 0 55.472813299007441 32.72409119432632 0 0 0 0 85.60623562175897 -45.38344812711648 0 -45.38344812711648 74.457120316286307 0 0 0 0 40.878001354198204 28.237671546529782 0 28.237671546529782 -0.40836203465011067 0 0 0 0 55.361974466635729 13.209309169942912 0 13.209309169942912 12.400640928064036 0 0 0 0 97.109900039431523 1.3320875522302558 0 1.3320875522302558 -59.243155254238104 0 0 0 0 136.65539966861252 -44.997540893342688 0 -44.997540893342688 -4.9736482376241327 0 0 0 0 62.756145691630081 34.806179023322514 0 34.806179023322514 -40.013186959646823 0 0 0 0 36.248906128392264 27.855815678380935 0 27.855815678380935 -18.769763835271533 0 0 0 0 43.795046759244855 22.766047411444475 0 22.766047411444475 -3.9999919240171238 0 0 0 0 39.603670310287271 53.835591089578259 0 53.835591089578259 -37.393327975134646 0 0 0 0 66.702982964972279 19.440418552578087 0 19.440418552578087 -13.481951693990363 0 0 0 0 -75.558520563568891 182.30031573603048 0 182.30031573603048 -91.630877360122668 0 0 0 0 61.752896241869806 42.27983583013588 0 42.27983583013588 -11.390408658481993 0 0 0 0 -81.878523085681081 125.0702070603927 0 125.0702070603927 -98.177708687412178 0 0 0 0 2.3248080335844037 2.4323219889046825 0 2.4323219889046825 -1.5022854642487746 0 0 0 0 50.226103368928307 157.13109594398938 0 157.13109594398938 156.9241982219456 0 0 0 0 203.75944076717133 -67.43616371536902 0 -67.43616371536902 -5.9521230628864004 0 0 0 0 267.8161696465686 48.149069741135349 0 48.149069741135349 -120.69947591862865 0 0 0 0 85.001911538696731 29.795721605434604 0 29.795721605434604 2.566523156234056 0 0 0 0 19.278659310162766 194.31705112378805 0 194.31705112378805 82.56582784260479 0 0 0 0 18.471932784705132 230.52992630884984 0 230.52992630884984 -68.807521265980995 0 0 0 0 156.40263835457154 152.36198984119892 0 152.36198984119892 -31.131076215187022 0 0 0 0 17.832420280261431 58.167526115203771 0 58.167526115203771 -9.2395685063925157 0 0 0 0 96.769405407932936 35.221065817132626 0 35.221065817132626 -27.117779875948827 0 0 0 0 -8.2202815849705075 222.5630280745174 0 222.5630280745174 -20.307972774441538 0 0 0 0 -8.8756816862514825 139.83965801375251 0 139.83965801375251 -116.77213565908932 0 0 0 0 -92.755336052956409 132.55590573964201 0 132.55590573964201 106.58994773192825 0 0 0 0 -23.48748356766373 190.3282564052511 0 190.3282564052511 92.329509549716704 0 0 0 0 56.803294826571801 87.512282782512045 0 87.512282782512045 12.452780391044485 0 0 0 0 1.4321659181587165 162.07159917773129 0 162.07159917773129 -28.911793880591141 0 0 0 0 -51.875208206041862 65.307981425739115 0 65.307981425739115 67.642005422897 0 0 0 0 17.424267464324657 72.41264872819454 0 72.41264872819454 33.187613550687558 0 0 0 0 21.615141234731709 52.212983299409018 0 52.212983299409018 18.922226137717416 0 0 0 0 110.93331548021524 57.91159129247194 0 57.91159129247194 -16.011147622699127 0 0 0 0 87.520949657293386 3.313346769512691 0 3.313346769512691 36.417242671655913 0 0 0 0 128.01526926631777 21.920687674657074 0 21.920687674657074 -3.0580955390787494 0 0 0 0 82.365759724503732 52.496717540543386 0 52.496717540543386 -1.2539968686001544 0 0 0 0 30.480086381703586 25.790664606550763 0 25.790664606550763 7.995927850210137 0 0 0 0 37.826424873488577 4.5757399348198078 0 4.5757399348198078 2.8064838755055916 0 0 0 0 7.5654666491150486 3.6694402202600713 0 3.6694402202600713 -3.9306298475272285 0 0 0 0 96.555035703233443 36.785035368803619 0 36.785035368803619 -1.9361576997052907 0 0 0 0 -1.1488274361783866 0.029651574926504054 0 0.029651574926504054 0.14307480864827049 0 0 0 0 2.4397721783731754 1.1533756136815327 0 1.1533756136815327 -1.9888696610442862 0 0 0 0 65.841137303570576 -0.74301537484006985 0 -0.74301537484006985 -32.23969984222731 0 0 0 0 95.421521255491825 37.039703652508138 0 37.039703652508138 -8.5142824939266575 0 0 0 0 12.733145819394991 8.9716145325131578 0 8.9716145325131578 2.4446868815684422 0 0 0 0 42.916960905880842 7.0462344392343539 0 7.0462344392343539 0.67036221676016794 0 0 0 0 113.62281427927519 61.178447761054713 0 61.178447761054713 19.053885035432813 0 0 0 0 29.79564424553763 -4.0169668415112199 0 -4.0169668415112199 -10.239151731677731 0 0 0 0 114.77859049133258 30.193433999523222 0 30.193433999523222 -15.42524963140238 0 0 0 0 64.854241432519075 6.9463545813019785 0 6.9463545813019785 -10.478431021304658 0 0 0 0 100.14794788249492 83.891957239924679 0 83.891957239924679 -47.202431824057953 0 0 0 0 17.000307529766097 24.30730288397217 0 24.30730288397217 -8.3999116451040301 0 0 0 0 14.481554491202587 23.921732832221409 0 23.921732832221409 -3.2676633403394488 0 0 0 0 23.193050185180709 106.99187863634928 0 106.99187863634928 -49.986382675499499 0 0 0 0 86.247731399431359 85.303893573220876 0 85.303893573220876 -82.509666636422821 0 0 0 0 86.247731399576878 85.303893573162895 0 85.303893573162895 -82.509666636475231 0 0 0 0 86.247731399489567 85.303893573227469 0 85.303893573227469 -82.50966663642329 0 0 0 0 88.631872197729535 50.19105850697531 0 50.19105850697531 48.908000102804635 0 0 0 0 110.08323426140123 -16.864378263271192 0 -16.864378263271192 31.222245881988783 0 0 0 0 124.17134527434668 13.896612204439581 0 13.896612204439581 -28.675641139836237 0 0 0 0 3.9647630316967479 133.88625571820538 0 133.88625571820538 -3.3707244484676266 0 0 0 0 82.597191231619092 37.502082839890818 0 37.502082839890818 6.2430163535886791 0 0 0 0 118.69951870566001 51.189356238823621 0 51.189356238823621 -15.467829215593156 0 0 0 0 26.133939443639822 3.9681827491287436 0 3.9681827491287436 -4.1257097453806644 0 0 0 0 156.690173115785 41.31596332654135 0 41.31596332654135 -28.020088589450552 0 0 0 0 295.71648984840431 242.81372924920515 0 242.81372924920515 -256.63603347591589 0 0 0 0 156.69017311569769 41.315963326536121 0 41.315963326536121 -28.020088589449131 0 0 0 0 176.42784237011801 20.870784433168183 0 20.870784433168183 -29.417946995518832 0 0 0 0 129.44657531146368 19.063614811293206 0 19.063614811293206 -14.079002836867858 0 0 0 0 156.69017311577772 41.315963326481381 0 41.315963326481381 -28.020088589466241 0 0 0 0 90.295824178610928 31.369096989307423 0 31.369096989307423 -5.565841905518937 0 0 0 0 64.167095748445718 4.7994296349921317 0 4.7994296349921317 12.947498565840874 0 0 0 0 12.945548240049931 4.8141062089067788 0 4.8141062089067788 -6.7164746302302163 0 0 0 0 39.528631528872467 2.3095859941500976 0 2.3095859941500976 -6.7182022741937955 0 0 0 0 65.341841387851673 17.183276148716999 0 17.183276148716999 16.888506141896869 0 0 0 0 79.479745489150446 10.283372041263931 0 10.283372041263931 -8.6747727442376004 0 0 0 0 78.898259669716936 13.946368962814233 0 13.946368962814233 18.180746157903059 0 0 0 0 105.59590349375503 34.050224754879991 0 34.050224754879991 19.736993932968339 0 0 0 0 114.09685949989944 4.0607744586940271 0 4.0607744586940271 10.388543427845434 0 0 0 0 94.658792643313063 11.541747926498658 0 11.541747926498658 31.23289487668535 0 0 0 0 94.473435831867391 14.034774415290826 0 14.034774415290826 9.9930375083932859 0 0 0 0 0.22679607259281198 -0.83873989490355427 0 -0.83873989490355427 -1.5028358393015959 0 0 0 0 155.25501096669177 27.679331644179143 0 27.679331644179143 -28.533590862358039 0 0 0 0 108.29720118697878 19.719902530367236 0 19.719902530367236 -9.7391382238694177 0 0 0 0 37.985610881718458 19.193895035392302 0 19.193895035392302 -4.7894657944490291 0 0 0 0 71.572837961473851 27.392367513427644 0 27.392367513427644 -11.940631858399115 0 0 0 0 83.350229489093181 8.2467269122302707 0 8.2467269122302707 -10.102519917591792 0 0 0 0 90.824197186748279 17.67894089905996 0 17.67894089905996 -55.704345019138373 0 0 0 0 68.450713281199569 -8.7889739761184273 0 -8.7889739761184273 -35.134495868509134 0 0 0 0 99.252188329468481 21.175339606987052 0 21.175339606987052 -21.285783065780493 0 0 0 0 119.22819689082098 -10.264991459578695 0 -10.264991459578695 -37.545645143792058 0 0 0 0 89.353112504046294 10.189585292909946 0 10.189585292909946 -21.750192312981881 0 0 0 0 224.65385171772505 -124.47086149868983 0 -124.47086149868983 751.55232897460883 0 0 0 0 387.72552345032454 -188.62515974124949 0 -188.62515974124949 -200.62729671885734 0 0 0 0 267.2821970024961 1.7068469544718141 0 1.7068469544718141 -302.86765588697307 0 0 0 0 8.8814173480510874 8.9476098093523611 0 8.9476098093523611 -0.054617104579520515 0 0 0 0 138.65603399897736 -46.952342299182803 0 -46.952342299182803 -68.185745103007633 0 0 0 0 240.05580937163904 -66.36605454106126 0 -66.36605454106126 -89.350002555063014 0 0 0 0 183.0542373409553 -154.91948321842131 0 -154.91948321842131 39.055832420996808 0 0 0 0 75.418333613837603 25.987555960144618 0 25.987555960144618 -30.567998676884145 0 0 0 0 69.50610809486534 34.337941140280009 0 34.337941140280009 -7.1623742422616488 0 0 0 0 60.969565236882772 25.003452935915448 0 25.003452935915448 -26.035119914980896 0 0 0 0 52.85731527133612 1.4762639977325307 0 1.4762639977325307 -35.248015535124296 0 0 0 0 92.613247503701132 9.026018335448498 0 9.026018335448498 -33.834409826569981 0 0 0 0 111.34350580935461 -22.569863110895994 0 -22.569863110895994 -20.44669817304657 0 0 0 0 77.483824148461281 -9.1793918927801315 0 -9.1793918927801315 -23.698987863189359 0 0 0 0 100.56044977527927 37.085069949259378 0 37.085069949259378 -60.883598785089816 0 0 0 0 118.94920894474308 15.351308029006077 0 15.351308029006077 -35.660410863549259 0 0 0 0 72.879650488539482 22.992435876426043 0 22.992435876426043 -33.904983662558152 0 0 0 0 99.714442060096189 37.42738273412283 0 37.42738273412283 -35.213637467748413 0 0 0 0 146.80868692274089 97.09195263757897 0 97.09195263757897 20.70624359602607 0 0 0 0 82.581932673827396 50.636969660135833 0 50.636969660135833 -27.94529084388887 0 0 0 0 31.616275165535626 1.1759155455618213 0 1.1759155455618213 -32.492435544000557 0 0 0 0 332.00107370200567 2.5410600982863798 0 2.5410600982863798 -217.15356979008834 0 0 0 0 0.049543275134354303 0.53846948571812447 0 0.53846948571812447 -7.0797186950038498 0 0 0 0 0.048751556983319233 0.73386408379595025 0 0.73386408379595025 -1.8532989955227235 0 0 0 0 90.134532930765999 59.14397923926208 0 59.14397923926208 -82.848621551076121 0 0 0 0 78.136533927405253 46.148765976471623 0 46.148765976471623 -30.454562121138679 0 0 0 0 78.121932415833726 45.674841252453355 0 45.674841252453355 -2.2007027417075733 0 0 0 0 69.066468060496845 38.189029530234393 0 38.189029530234393 14.27607305874244 0 0 0 0 73.544090232695453 -3.0575189628361841 0 -3.0575189628361841 3.8785935431324106 0 0 0 0 11.28348528992241 3.5260753144341663 0 3.5260753144341663 -5.6855246687124641 0 0 0 0 82.989812996318506 -2.9846387307441091 0 -2.9846387307441091 -20.593614530236664 0 0 0 0 81.727586260931275 -31.142619010026351 0 -31.142619010026351 30.559180849721265 0 0 0 0 73.663425183884101 10.600309195504451 0 10.600309195504451 -21.843468137016316 0 0 0 0 74.779698668542551 -12.319062277145349 0 -12.319062277145349 -28.215313313345177 0 0 0 0 66.979997989532421 -3.1638998712223838 0 -3.1638998712223838 -10.040089445998092 0 0 0 0 35.452204634407309 -6.1504380832502505 0 -6.1504380832502505 -2.9645087908696617 0 0 0 0 101.52480616071261 32.715517880650623 0 32.715517880650623 -7.5034787094214153 0 0 0 0 83.645119699714996 -4.5107501426689396 0 -4.5107501426689396 -17.362238038455871 0 0 0 0 24.408591987856198 -4.143083214361468 0 -4.143083214361468 -3.1801299560247571 0 0 0 0 46.465510809401167 -10.498063901587557 0 -10.498063901587557 -12.062162547832486 0 0 0 0 13.83870660089277 2.8665013266788009 0 2.8665013266788009 -1.0142324536894751 0 0 0 0 22.500816850020783 -30.787324012904719 0 -30.787324012904719 -29.219862326031034 0 0 0 0 68.179451790230814 -2.1943490222683977 0 -2.1943490222683977 -51.511689765849951 0 0 0 0 79.375271985118161 -5.8732844124863277 0 -5.8732844124863277 -52.822884236876234 0 0 0 0 68.15550611364597 8.94945262274382 0 8.94945262274382 -41.963840062217059 0 0 0 0 33.990399886008959 -9.6740611816014024 0 -9.6740611816014024 -7.6105100098385901 0 0 0 0 28.696401958488309 -6.9668594900938672 0 -6.9668594900938672 -2.5018522465558135 0 0 0 0 10.980752022596789 -9.993689017876477 0 -9.993689017876477 -12.766190921036468 0 0 0 0 66.733739713711458 -4.5082058697464618 0 -4.5082058697464618 -6.2208735977123055 0 0 0 0 41.785163376294804 -4.4267386196704592 0 -4.4267386196704592 -4.8169024658327544 0 0 0 0 86.353417792243818 17.808882135866043 0 17.808882135866043 28.600402684372966 0 0 0 0 10.086780609240606 -4.6721746708345648 0 -4.6721746708345648 -2.8417439766541435 0 0 0 0 26.796344434424356 -6.0517768464671917 0 -6.0517768464671917 -3.9535067092549507 0 0 0 0 32.117282158345915 -4.9892489687986199 0 -4.9892489687986199 -3.0928229387474175 0 0 0 0 31.200833204380146 1.637678027819149 0 1.637678027819149 -1.5374567650407265 0 0 0 0 42.143609538514283 6.3441053004301011 0 6.3441053004301011 0.10395778159693236 0 0 0 0 28.03669989158152 -3.1093180520869055 0 -3.1093180520869055 -4.329306357657515 0 0 0 0 30.168482435405167 -0.55218286738909228 0 -0.55218286738909228 -1.807132604546041 0 0 0 0 -1.5992543402437072 -4.6429186168835628 0 -4.6429186168835628 -0.86261388263061001 0 0 0 0 38.747684171499714 -2.0839209334767475 0 -2.0839209334767475 -6.1439785707730152 0 0 0 0 7.1340416584789637 10.46216457734954 0 10.46216457734954 -8.9771076505203382 0 0 0 0 21.870343926380883 2.5871414524269767 0 2.5871414524269767 -3.3719080058021973 0 0 0 0 11.528949887609599 4.8627383817915089 0 4.8627383817915089 -0.59246828815616626 0 0 0 0 -0.66549253374316564 -4.1755396580803392 0 -4.1755396580803392 0.9109585580747126 0 0 0 0 52.656587818371918 0.15124439056236483 0 0.15124439056236483 -6.1057209070711949 0 0 0 0 13.248817358157506 9.7461269745476713 0 9.7461269745476713 -10.048092213248379 0 0 0 0 23.287724801484728 5.2999134652557132 0 5.2999134652557132 -5.4953078105995132 0 0 0 0 6.2520855124437418 1.1209349383524767 0 1.1209349383524767 -7.0948942957504588 0 0 0 0 28.022827360808151 -0.82960915385797307 0 -0.82960915385797307 -1.4898236333681325 0 0 0 0 1.7599773885787364 -1.6488244562991952 0 -1.6488244562991952 -0.75933477548788364 0 0 0 0 69.78612857789085 10.041289955315307 0 10.041289955315307 -22.414504631745103 0 0 0 0 3.5695221681817202 -4.4495765177377962 0 -4.4495765177377962 -14.107608385162166 0 0 0 0 42.980239768439787 12.422763145838644 0 12.422763145838644 -22.615274327537009 0 0 0 0 11.244537699320063 38.357916569221715 0 38.357916569221715 42.420856530687558 0 0 0 0 16.207977927058103 -1.5133624291600398 0 -1.5133624291600398 -13.238800514058829 0 0 0 0 108.92140212170671 32.549669020459362 0 32.549669020459362 9.4768188461712271 0 0 0 0 -1.2386790478167242 20.594719036923848 0 20.594719036923848 4.323169784100088 0 0 0 0 26.605857756793213 21.383958101190402 0 21.383958101190402 -6.0078417402430579 0 0 0 0 2.4817508014936251 5.5590818498916761 0 5.5590818498916761 0.94163154446321307 0 0 0 0 10.207981083465441 -1.0946210128480161 0 -1.0946210128480161 -3.259641706283257 0 0 0 0 25.604561985070177 10.236902298459711 0 10.236902298459711 -0.79781646392146399 0 0 0 0 38.170800370899087 5.1734109027473352 0 5.1734109027473352 -1.8526810169499299 0 0 0 0 37.742621372537542 1.7203078994219467 0 1.7203078994219467 -2.1534227331060265 0 0 0 0 42.788138259678817 5.1049346551237065 0 5.1049346551237065 -4.7778527831401512 0 0 0 0 31.787506161642696 6.4547436112155925 0 6.4547436112155925 -4.4357134445794477 0 0 0 0 45.44770702056303 1.7936835107832749 0 1.7936835107832749 -3.6508486487274041 0 0 0 0 43.083617788630363 -1.1262314231921096 0 -1.1262314231921096 -3.1411293282713473 0 0 0 0 22.554905997505557 2.9237440294135766 0 2.9237440294135766 0.57655218363206018 0 0 0 0 19.198800814308925 7.1028966991663651 0 7.1028966991663651 -0.6299020022681816 0 0 0 0 27.925106677983422 0.85855259295951214 0 0.85855259295951214 0.26075809776968484 0 0 0 0 35.718846565670901 2.2386816943820822 0 2.2386816943820822 -3.7539235256025165 0 0 0 0 30.766317695830367 7.1786541047416534 0 7.1786541047416534 -4.3591229671984166 0 0 0 0 0.27739505564373346 0.71470343579378692 0 0.71470343579378692 0.20814371335215065 0 0 0 0 34.92422082037956 4.1888971133542441 0 4.1888971133542441 -1.9024853982010743 0 0 0 0 34.812716553844439 3.5491225532091573 0 3.5491225532091573 -4.5594788473482311 0 0 0 0 31.794252350062379 -3.0488443350716921 0 -3.0488443350716921 2.3510452517894009 0 0 0 0 22.445592964235402 6.8114909759799502 0 6.8114909759799502 -1.2670454273796423 0 0 0 0 40.183359985378047 3.3721710361118653 0 3.3721710361118653 -1.9901056317466299 0 0 0 0 58.531175093092315 -2.0391722913612966 0 -2.0391722913612966 -4.887209308337205 0 0 0 0 46.476679612025691 -2.9916187830786782 0 -2.9916187830786782 -0.019198505571011992 0 0 0 0 25.187971366274724 17.483146022432948 0 17.483146022432948 -1.6091567649762055 0 0 0 0 5.7087720642564719 12.410092046571393 0 12.410092046571393 -6.0214910194921174 0 0 0 0 13.94945748954342 23.435172073910508 0 23.435172073910508 -0.8701259586103447 0 0 0 0 36.427690927437652 74.918354953514239 0 74.918354953514239 52.995222671668444 0 0 0 0 -49.658939551765798 19.831094084142705 0 19.831094084142705 17.786122650987409 0 0 0 0 7.5480785382551403 7.8030569313606293 0 7.8030569313606293 -6.2907220304286966 0 0 0 0 10.737962124385376 15.073792748550773 0 15.073792748550773 -10.537425694310514 0 0 0 0 -7.8353776529766037 14.685821168380244 0 14.685821168380244 -6.4541020821754955 0 0 0 0 11.288835387967993 12.213967884180192 0 12.213967884180192 -9.603661183623899 0 0 0 0 60.595121918486257 5.5897454628047853 0 5.5897454628047853 -100.3233191069512 0 0 0 0 46.725372983590205 8.8740000998725463 0 8.8740000998725463 22.118776949790231 0 0 0 0 35.875191839651364 -13.368336952717852 0 -13.368336952717852 6.7259862642466661 0 0 0 0 13.114168520330601 -4.0921745223868733 0 -4.0921745223868733 -0.29010421147964749 0 0 0 0 37.018500874763049 -39.136171173282946 0 -39.136171173282946 -5.7832666621807221 0 0 0 0 19.567950159441892 9.4580404749561779 0 9.4580404749561779 -0.44309860868008366 0 0 0 0 64.995368326917742 15.904540405599846 0 15.904540405599846 -16.691560490270035 0 0 0 0 105.71657450856583 0.51204191254096187 0 0.51204191254096187 -127.1392204917572 0 0 0 0 66.05109096881624 -18.942961178137665 0 -18.942961178137665 4.2354698412648677 0 0 0 0 52.465661643655039 1.3701841083696991 0 1.3701841083696991 -0.38048087183082657 0 0 0 0 50.800122429376643 -3.7621914463829143 0 -3.7621914463829143 11.217517134997593 0 0 0 0 33.919224483732251 -4.597440620966438 0 -4.597440620966438 8.9234078946811906 0 0 0 0 21.960306417480751 6.2416983102840504 0 6.2416983102840504 2.3464242488187077 0 0 0 0 21.962982562166872 5.4876869249854536 0 5.4876869249854536 -3.8747259181608342 0 0 0 0 6.7887096901831683 14.168400915321342 0 14.168400915321342 50.602078899706271 0 0 0 0 53.164958491666766 -1.4790931191092795 0 -1.4790931191092795 6.4929147461150478 0 0 0 0 32.811801036663937 -15.640187576102894 0 -15.640187576102894 7.0060044887559396 0 0 0 0 118.3395763151093 -108.82428054977436 0 -108.82428054977436 -179.84750652052935 0 0 0 0 24.365135762536738 -48.641697308940138 0 -48.641697308940138 -27.231321004649544 0 0 0 0 -10.244233309640549 23.258253199583123 0 23.258253199583123 46.217211723985656 0 0 0 0 32.098614034017373 -131.23827632216467 0 -131.23827632216467 266.76601402118649 0 0 0 0 86.978005512843083 1.1531331748456068 0 1.1531331748456068 -4.1477230841010169 0 0 0 0 143.10898261357943 -24.906335476853201 0 -24.906335476853201 -25.823589417369703 0 0 0 0 71.305682336464088 26.04262291799796 0 26.04262291799796 74.116523196448497 0 0 0 0 71.388679469433555 -82.94544833560667 0 -82.94544833560667 15.981487088258291 0 0 0 0 71.987445379103519 7.0154466720268829 0 7.0154466720268829 -100.90926918240893 0 0 0 0 68.762591171314853 -11.46567216176345 0 -11.46567216176345 -32.058157591203781 0 0 0 0 22.827128332313805 49.292316547111113 0 49.292316547111113 -119.14629452479585 0 0 0 0 111.78755042451485 15.597438019886113 0 15.597438019886113 -165.51407438336355 0 0 0 0 139.81224634890168 -74.976181810166054 0 -74.976181810166054 -101.11211605036669 0 0 0 0 75.030609071353084 22.685847143960274 0 22.685847143960274 -13.118889834649963 0 0 0 0 105.63637577838952 43.568234185768716 0 43.568234185768716 12.046231474902925 0 0 0 0 83.793117029449462 -62.439357336809564 0 -62.439357336809564 -93.745939474473744 0 0 0 0 55.127165592820788 -15.470967055079626 0 -15.470967055079626 -6.5461073286895548 0 0 0 0 123.31568629255389 28.753275356705899 0 28.753275356705899 -95.559708627856708 0 0 0 0 80.123960163790343 -27.791300700228476 0 -27.791300700228476 -12.208258870048212 0 0 0 0 42.826972970316092 53.851063993002754 0 53.851063993002754 -21.047928289432093 0 0 0 0 118.97024968459391 51.397618826348207 0 51.397618826348207 -0.86650343328210511 0 0 0 0 115.25111791799321 0.26635933570391046 0 0.26635933570391046 10.175402063970068 0 0 0 0 110.36537509567825 32.718733616218969 0 32.718733616218969 48.024341695135263 0 0 0 0 174.04662157991061 51.854784061293913 0 51.854784061293913 2.8734073567602536 0 0 0 0 104.67531463267642 -9.5251493182381637 0 -9.5251493182381637 -22.869059164660939 0 0 0 0 161.17344867401789 95.515288425374592 0 95.515288425374592 34.309630713181832 0 0 0 0 177.53318419040625 54.496156458686869 0 54.496156458686869 123.28500724137029 0 0 0 0 147.20846545016184 98.287353255759399 0 98.287353255759399 79.482041334666064 0 0 0 0 185.9740068423672 45.298231466198558 0 45.298231466198558 -72.812733842578382 0 0 0 0 172.18039893839386 185.90419492038609 0 185.90419492038609 144.34747343026902 0 0 0 0 113.75788614186195 76.005105036004807 0 76.005105036004807 49.315986213587166 0 0 0 0 123.76008663090238 123.33564481613053 0 123.33564481613053 64.142928979523958 0 0 0 0 188.86796674294283 126.08981556462277 0 126.08981556462277 73.031480812801874 0 0 0 0 65.507927068546906 31.706083401058095 0 31.706083401058095 -65.682976091798196 0 0 0 0 112.88471048861311 -36.395000452184831 0 -36.395000452184831 32.039186809033708 0 0 0 0 211.73867364118314 69.184087046613513 0 69.184087046613513 -47.013405601028126 0 0 0 0 154.024392825414 70.789857218338057 0 70.789857218338057 -14.805028049870316 0 0 0 0 179.85102016554242 76.803913867048323 0 76.803913867048323 70.727375136668343 0 0 0 0 270.54735316551614 90.689215199084629 0 90.689215199084629 -24.301178412430772 0 0 0 0 134.95475935897457 -35.555551479970291 0 -35.555551479970291 -75.692425119566451 0 0 0 0 5.7517294519215056 -111.31672975174752 0 -111.31672975174752 -98.84290498075552 0 0 0 0 51.592947372412709 18.070968959237916 0 18.070968959237916 -98.59196793721776 0 0 0 0 146.05113819409098 -28.482215359782003 0 -28.482215359782003 -211.78335252776833 0 0 0 0 58.510593508836486 -14.099755906715316 0 -14.099755906715316 -4.5130598319363742 0 0 0 0 4.8196771078896745 -151.67802333078544 0 -151.67802333078544 22.102544633488151 0 0 0 0 -1.3170241940295586 -6.4052984315732466 0 -6.4052984315732466 -0.28455294677737397 0 0 0 0 68.294008088199917 15.342372081602662 0 15.342372081602662 67.897303427804218 0 0 0 0 0.69219172360403292 -0.76947434308614326 0 -0.76947434308614326 -0.045838185340746906 0 0 0 0 105.96770900754018 92.372779670786031 0 92.372779670786031 -224.36839006696027 0 0 0 0 45.537366199676399 -94.964457141741605 0 -94.964457141741605 -43.101307228778751 0 0 0 0 92.839072481696348 -3.7773351629721219 0 -3.7773351629721219 -334.5368968414914 0 0 0 0 50.498310239056082 -71.560194989933279 0 -71.560194989933279 -229.53266089907629 0 0 0 0 -37.748984343372285 -33.854805778818445 0 -33.854805778818445 -78.197983558217857 0 0 0 0 114.48454401674462 16.979173138966871 0 16.979173138966871 -68.122651812857043 0 0 0 0 53.21187147013913 -5.3692230432142329 0 -5.3692230432142329 -1.9821855330166422 0 0 0 0 -32.497158608121026 29.601155313031086 0 29.601155313031086 169.48765698117495 0 0 0 0 70.836610800541791 21.852747677568459 0 21.852747677568459 -48.252181959033351 0 0 0 0 22.296400349664964 -102.50841018649953 0 -102.50841018649953 -241.16276676023244 0 0 0 0 17.68206547188624 -1.5661849558796526 0 -1.5661849558796526 -0.27768214565583982 0 0 0 0 34.446598872124184 77.570412077601077 0 77.570412077601077 76.205753693438055 0 0 0 0 9.8281383307674854 -4.4992937374446065 0 -4.4992937374446065 0.55441793422817831 0 0 0 0 -42.094073952677689 -199.48476646753636 0 -199.48476646753636 -235.55189449273621 0 0 0 0 38.061979770904145 -22.170579824767174 0 -22.170579824767174 -145.46290426545875 0 0 0 0 -63.270338970872672 -57.019097321960999 0 -57.019097321960999 -66.357915429126479 0 0 0 0 55.404129333287983 -83.052570373361505 0 -83.052570373361505 -101.11817851092201 0 0 0 0 64.167487442710538 -9.4963691039260993 0 -9.4963691039260993 19.092127732548761 0 0 0 0 72.705329118570035 120.59816585408066 0 120.59816585408066 84.785050325090651 0 0 0 0 7.3756717183265907 -3.0735096731348115 0 -3.0735096731348115 0.51822419487005256 0 0 0 0 60.345284879205998 -2.1586466239955744 0 -2.1586466239955744 -0.66732122741420818 0 0 0 0 113.90888190611443 19.561913458893628 0 19.561913458893628 -122.15110617900382 0 0 0 0 -28.336014335229265 -71.86557906773487 0 -71.86557906773487 -83.126719601695186 0 0 0 0 57.154773190991818 -80.577562106647633 0 -80.577562106647633 -86.644503280370373 0 0 0 0 40.65835563307246 -101.23116927279716 0 -101.23116927279716 -50.539610770929357 0 0 0 0 13.497813273486827 -7.889220114800537 0 -7.889220114800537 62.157672510565135 0 0 0 0 -0.78598752540710848 -28.805781275874324 0 -28.805781275874324 -86.243834655359933 0 0 0 0 28.252414513293388 -97.092722783866407 0 -97.092722783866407 -132.79750452428198 0 0 0 0 19.488836789297451 -8.7823486142981384 0 -8.7823486142981384 2.3846384284941706 0 0 0 0 -18.791404801413591 -56.958585335527005 0 -56.958585335527005 27.046121464338341 0 0 0 0 95.101777055186176 -120.52561116530728 0 -120.52561116530728 -346.69947999879537 0 0 0 0 6.7468168228070482 -6.4161709712945827 0 -6.4161709712945827 2.2053740151982528 0 0 0 0 -45.17642423932557 -116.46598471489881 0 -116.46598471489881 -27.246346984987639 0 0 0 0 -43.552331135833811 -124.11910373133804 0 -124.11910373133804 4.9333637378250614 0 0 0 0 27.619815144340876 -13.653296575289847 0 -13.653296575289847 5.0768035937826639 0 0 0 0 -20.196209584413737 -131.50705494274354 0 -131.50705494274354 -102.68336327008797 0 0 0 0 -31.590556438270141 -129.97475266124491 0 -129.97475266124491 -29.271925549074481 0 0 0 0 2.4274289986618101 -6.7402626459567223 0 -6.7402626459567223 2.6777910564197676 0 0 0 0 -11.308953244173608 -90.433603298047274 0 -90.433603298047274 8.5532463139148831 0 0 0 0 28.553906575766177 -123.42225731538991 0 -123.42225731538991 -47.435491806120808 0 0 0 0 1.6557391240280666 -1.246468825780072 0 -1.246468825780072 -0.53628009016807909 0 0 0 0 -40.311396981254802 15.126832084155467 0 15.126832084155467 142.86429409809847 0 0 0 0 -38.300403455345077 -39.027052072271317 0 -39.027052072271317 30.010653562444986 0 0 0 0 30.720055085906246 -15.029945225049818 0 -15.029945225049818 7.2784794933248556 0 0 0 0 -13.348109144950286 -76.897719794550767 0 -76.897719794550767 -54.594461011621092 0 0 0 0 -19.976593467923522 -69.013308478290185 0 -69.013308478290185 7.6294985480199102 0 0 0 0 -98.989100137347123 -67.7033985173818 0 -67.7033985173818 98.350580226904867 0 0 0 0 -51.495803918223828 -112.9380492588669 0 -112.9380492588669 63.991763163296355 0 0 0 0 -78.629831060628931 -64.072443392554646 0 -64.072443392554646 57.597159645053807 0 0 0 0 -112.9111074073262 -39.564857812934861 0 -39.564857812934861 65.781689688781512 0 0 0 0 -96.313593236816814 6.3935225778665199 0 6.3935225778665199 32.879832344518093 0 0 0 0 25.654251084088173 -25.638841640558269 0 -25.638841640558269 27.211027323559051 0 0 0 0 -120.43090556748939 32.258459552222064 0 32.258459552222064 25.500444364066141 0 0 0 0 -80.785038123751292 -49.268361051862712 0 -49.268361051862712 31.270047839437098 0 0 0 0 -49.41493122486645 66.859678936027962 0 66.859678936027962 114.66582303524947 0 0 0 0 0.25123825542972611 -1.1419777305018712 0 -1.1419777305018712 2.8717934205075393 0 0 0 0 10.785328774218215 -266.87380882503305 0 -266.87380882503305 175.97501527092516 0 0 0 0 -117.99980379604449 -43.687762422934568 0 -43.687762422934568 246.03349661802099 0 0 0 0 158.11913398119759 16.44711801375081 0 16.44711801375081 75.406591988157402 0 0 0 0 115.39408267551698 -191.53025591681401 0 -191.53025591681401 265.81268677248437 0 0 0 0 -11.872993378645333 -306.24585203845555 0 -306.24585203845555 176.46970029455863 0 0 0 0 450.96479061206264 0.23494192469583197 0 0.23494192469583197 172.2130322041516 0 0 0 0 351.86180749963751 -131.82572827664288 0 -131.82572827664288 151.34087250233236 0 0 0 0 1007.5500730656804 269.77864228857743 0 269.77864228857743 73.755238160943691 0 0 0 0 712.54235018486543 152.2374223482943 0 152.2374223482943 35.75648467560481 0 0 0 0 708.11434741147241 497.29421121697425 0 497.29421121697425 195.17557890332165 0 0 0 0 584.22399517278973 218.29286543509241 0 218.29286543509241 48.859986288974028 0 0 0 0 194.78652760460682 127.30574424405199 0 127.30574424405199 74.436043403944893 0 0 0 0 596.23559874767784 167.30282385068892 0 167.30282385068892 184.20082786072953 0 0 0 0 593.85655784102346 66.94004699624179 0 66.94004699624179 -256.30021845518854 0 0 0 0 3.3862875864470681 0.32744590497932791 0 0.32744590497932791 -0.12490500047351072 0 0 0 0 340.37636475271574 302.44388932204197 0 302.44388932204197 -475.03765978138063 0 0 0 0 6.9498126614722651 -0.83465441106480842 0 -0.83465441106480842 -0.83249100243967944 0 0 0 0 -67.988991944665031 -20.058458532122131 0 -20.058458532122131 101.40597822403544 0 0 0 0 162.53198842928941 -14.547709780754417 0 -14.547709780754417 -560.32306750213183 0 0 0 0 368.74051186022189 -26.116035026341848 0 -26.116035026341848 -103.74834348109403 0 0 0 0 -90.598835921218779 -27.92479123209597 0 -27.92479123209597 -91.828597000093623 0 0 0 0 -35.009012414462632 -124.50499847527772 0 -124.50499847527772 -90.967004838925106 0 0 0 0 177.66939294620261 -83.47825999221979 0 -83.47825999221979 -83.990137163281815 0 0 0 0 12.303103696151624 -6.2401077701199945 0 -6.2401077701199945 3.0228081278822572 0 0 0 0 56.859827427888376 48.742020651073403 0 48.742020651073403 -1.0218694210925605 0 0 0 0 -14.534132764689275 -75.243332212472978 0 -75.243332212472978 -57.589878016248122 0 0 0 0 -48.798895781976171 -49.755149056938535 0 -49.755149056938535 56.801842748259332 0 0 0 0 9.0486155628859706 -71.714001764756631 0 -71.714001764756631 -63.10446940931979 0 0 0 0 -30.182094059568044 -72.631416072403681 0 -72.631416072403681 -54.161721104684602 0 0 0 0 200.56042674156711 5.7547896026303533 0 5.7547896026303533 -229.9003698756012 0 0 0 0 -17.804932167346124 -108.87878837993094 0 -108.87878837993094 -93.983157741935884 0 0 0 0 65.553710036085931 -4.7835433755476791 0 -4.7835433755476791 -0.54370247360313684 0 0 0 0 252.50877210345425 -247.13365456058455 0 -247.13365456058455 -531.27087791314352 0 0 0 0 -103.11836992198732 -54.597877266449814 0 -54.597877266449814 -64.28345847096125 0 0 0 0 61.92012319765692 -93.591696151836686 0 -93.591696151836686 -96.057271444066487 0 0 0 0 29.479402033246942 -70.200546856015535 0 -70.200546856015535 47.53648318482783 0 0 0 0 55.749809855547483 -35.304872182925465 0 -35.304872182925465 -21.305728647130309 0 0 0 0 64.567369929087633 0.27926766648877077 0 0.27926766648877077 1.6628082421075376 0 0 0 0 24.179599120667035 -45.194964642266314 0 -45.194964642266314 6.1851957969938667 0 0 0 0 39.66692125185773 -24.75904819597099 0 -24.75904819597099 31.958359662212388 0 0 0 0 18.576661978124584 -48.591724733909587 0 -48.591724733909587 56.134276333031266 0 0 0 0 68.118216123248146 -4.9769383461408498 0 -4.9769383461408498 -1.4304530752455538 0 0 0 0 253.61385437970239 -502.37893279146647 0 -502.37893279146647 -75.840015181824128 0 0 0 0 200.80826923281347 318.49803071954557 0 318.49803071954557 -197.4538617415169 0 0 0 0 205.59166814920536 117.24815819445985 0 117.24815819445985 -471.94296148111198 0 0 0 0 153.39885862239316 -61.013163631173484 0 -61.013163631173484 145.65318556037619 0 0 0 0 442.56712616613663 -133.18231024931185 0 -133.18231024931185 -96.740671601707618 0 0 0 0 -72.525453880680288 -52.180671767291869 0 -52.180671767291869 251.48854119436874 0 0 0 0 4.6922834049318567 -2.0203103843841266 0 -2.0203103843841266 0.8725758479167105 0 0 0 0 438.41341774466491 -98.26669302969367 0 -98.26669302969367 -114.65702755569464 0 0 0 0 316.30255642608245 -245.33211806700911 0 -245.33211806700911 283.44917698814248 0 0 0 0 -1.5048620889137965 20.763270022826987 0 20.763270022826987 65.189808139186425 0 0 0 0 629.90279531135639 -217.54149215375264 0 -217.54149215375264 -60.938382176450432 0 0 0 0 -19.932359506618013 59.89200574259894 0 59.89200574259894 -40.370521444810038 0 0 0 0 400.61459904234562 159.13732693686995 0 159.13732693686995 -107.490140374975 0 0 0 0 -284.48769239572448 520.03896565185357 0 520.03896565185357 -259.39453124355805 0 0 0 0 21.705872927784622 23.523019542597059 0 23.523019542597059 17.945918553056387 0 0 0 0 148.87427435650866 186.52590559990293 0 186.52590559990293 -225.93868516150087 0 0 0 0 -118.44943717321075 231.05045271948848 0 231.05045271948848 -184.49945435169775 0 0 0 0 31.18054736143889 29.688336035926195 0 29.688336035926195 23.733816897729142 0 0 0 0 594.25795985193781 75.763823642910936 0 75.763823642910936 113.24746134360578 0 0 0 0 1090.2561484560279 71.012507539107162 0 71.012507539107162 -3.4749902785444391 0 0 0 0 -0.47789461797961863 8.9278210717468376 0 8.9278210717468376 8.8152852181046324 0 0 0 0 182.38851545410944 31.875444146939685 0 31.875444146939685 -180.61836457083132 0 0 0 0 1172.0570102745075 606.36585336989845 0 606.36585336989845 141.52839333386942 0 0 0 0 -142.53335287756272 111.85999898682508 0 111.85999898682508 76.926388178708635 0 0 0 0 -86.973721366428435 -91.404374026545838 0 -91.404374026545838 116.60416401268796 0 0 0 0 67.81955213396941 -17.608894382901781 0 -17.608894382901781 -29.382323779953367 0 0 0 0 78.523812889759029 -15.989645049279716 0 -15.989645049279716 5.2127393840964942 0 0 0 0 22.09205239433777 9.2500964692917478 0 9.2500964692917478 28.422607117367079 0 0 0 0 -0.11806294385813443 -2.0590475583809376 0 -2.0590475583809376 2.3871427109363523 0 0 0 0 -2.3748334963844302 4.2819762916543098 0 4.2819762916543098 1.2538490826020663 0 0 0 0 80.373379493054927 -6.0913278793823338 0 -6.0913278793823338 1.8372923352603721 0 0 0 0 16.945272556662086 -1.8249569157360188 0 -1.8249569157360188 15.58689063935914 0 0 0 0 -16.15102323868166 19.341690381891794 0 19.341690381891794 -23.044544007771037 0 0 0 0 2112.0020093589383 -224.5049201971683 0 -224.5049201971683 -305.56002584512567 0 0 0 0 2499.0186954034511 27.932040908856699 0 27.932040908856699 -257.27204275198 0 0 0 0 1898.8913792025714 -282.7646033955366 0 -282.7646033955366 87.694022976441389 0 0 0 0 2268.0246603669939 3.4005693242401662 0 3.4005693242401662 -468.49139957341617 0 0 0 0 1270.646479206001 294.87224763862298 0 294.87224763862298 -289.15626943362554 0 0 0 0 2060.0500642668312 -74.289849829397141 0 -74.289849829397141 -282.46557786756034 0 0 0 0 2020.082863382529 -212.3028920205075 0 -212.3028920205075 -299.90250995027424 0 0 0 0 1368.2854194552301 -421.1732062097899 0 -421.1732062097899 24.726514201827683 0 0 0 0 1721.3545749092759 -229.8773770654297 0 -229.8773770654297 -266.88794626495269 0 0 0 0 2015.0703646356446 -168.67704889644116 0 -168.67704889644116 -281.61782010581925 0 0 0 0 2500.4033109123893 -384.94426965745481 0 -384.94426965745481 -218.84751411770796 0 0 0 0 1841.1371349975352 -349.97160534861416 0 -349.97160534861416 28.364891042822322 0 0 0 0 1866.3533993480437 -408.55865776621516 0 -408.55865776621516 159.99218665808357 0 0 0 0 3363.2050302230637 -629.78985584464056 0 -629.78985584464056 173.05052136425448 0 0 0 0 2500.2869189595385 -138.34306518273868 0 -138.34306518273868 846.09618753831228 0 0 0 0 3432.856652110444 574.99879032076433 0 574.99879032076433 1114.2181928111165 0 0 0 0 2500.2881286418979 515.93365471417621 0 515.93365471417621 1135.1779237425828 0 0 0 0 962.49734457093473 1374.6862539566769 0 1374.6862539566769 848.18299328080525 0 0 0 0 4112.0431547369935 -407.09586871936148 0 -407.09586871936148 205.93594616127046 0 0 0 0 9.4262908626024657 8.3394761075548249 0 8.3394761075548249 8.0193119347652217 0 0 0 0 -677.68025299061537 615.51672159679526 0 615.51672159679526 784.99483620287447 0 0 0 0 14.109582088305615 -3.4059970081642632 0 -3.4059970081642632 -129.00112898738277 0 0 0 0 107.01833050106507 229.97005147318487 0 229.97005147318487 391.93455879446469 0 0 0 0 293.23519137813855 -37.780490088542592 0 -37.780490088542592 46.774459057480158 0 0 0 0 441.48653861752246 266.44004972322796 0 266.44004972322796 137.9166661971791 0 0 0 0 550.70625791671591 423.93750345706587 0 423.93750345706587 340.99951361291363 0 0 0 0 392.3343812481462 666.95714352906407 0 666.95714352906407 280.50337973536273 0 0 0 0 -747.17664572358444 1013.931692817814 0 1013.931692817814 364.98046170698831 0 0 0 0 893.31042337203326 606.54460045750125 0 606.54460045750125 211.42657004181342 0 0 0 0 986.59673261682838 535.95929758169973 0 535.95929758169973 26.104142329855165 0 0 0 0 1571.7152267869351 387.70029622166919 0 387.70029622166919 -46.418516378641357 0 0 0 0 0.63540622404217117 2.1406716408499591 0 2.1406716408499591 1.0164608683547118 0 0 0 0 875.2576758983887 235.722651635511 0 235.722651635511 -56.277424308186937 0 0 0 0 829.24556961439703 -254.25837977794947 0 -254.25837977794947 -409.00051704223654 0 0 0 0 2495.7833793376649 -387.80666892268914 0 -387.80666892268914 -742.98230044840091 0 0 0 0 2412.9671676569224 31.438100059646189 0 31.438100059646189 -412.67933764044608 0 0 0 0 1076.5600846665384 111.60316696642636 0 111.60316696642636 -340.82126989159593 0 0 0 0 39.152607973912403 -9.1666004375975394 0 -9.1666004375975394 1.1875900774257313 0 0 0 0 37.286814031815979 -10.036311788072933 0 -10.036311788072933 -0.65160033150613339 0 0 0 0 63.376744410434185 -34.078511808089161 0 -34.078511808089161 -40.342129831194256 0 0 0 0 538.67101967389863 -402.83152185734798 0 -402.83152185734798 -967.65730336887987 0 0 0 0 52.164908254818684 -12.432254981862357 0 -12.432254981862357 -0.86269006865790043 0 0 0 0 17.220833633669482 4.2087702437353434 0 4.2087702437353434 -12.611327367337999 0 0 0 0 -631.77576484249948 -567.88009734412117 0 -567.88009734412117 -665.81755841191898 0 0 0 0 -290.18182975935997 66.79180944221298 0 66.79180944221298 -225.82671489562927 0 0 0 0 43.810929531951842 -0.1824664804074132 0 -0.1824664804074132 -11.985795268333023 0 0 0 0 481.18531839460053 868.31439420824427 0 868.31439420824427 92.850455585378768 0 0 0 0 35.898536709675682 -83.350667048291484 0 -83.350667048291484 -21.135694651056383 0 0 0 0 48.518060169619275 -51.993306983832554 0 -51.993306983832554 12.517374512923197 0 0 0 0 16.621445688257324 -40.319709918891974 0 -40.319709918891974 14.807896225078489 0 0 0 0 34.95909865061185 -13.083239968895178 0 -13.083239968895178 36.273083899265828 0 0 0 0 -14.081842831773329 -14.708387095052181 0 -14.708387095052181 13.862770546216064 0 0 0 0 32.239864604671311 -50.531794880653251 0 -50.531794880653251 44.283148147798784 0 0 0 0 -0.25439527862934597 -19.98890689607093 0 -19.98890689607093 -8.9299814845087244 0 0 0 0 31.49882470346347 -54.298263042036524 0 -54.298263042036524 26.722698070565457 0 0 0 0 -11.687588962002337 -92.477692323935571 0 -92.477692323935571 -46.919068675596009 0 0 0 0 35.199008388502989 -24.739688369892974 0 -24.739688369892974 -27.133333407320606 0 0 0 0 -92.441191672092828 -3.2985789235269749 0 -3.2985789235269749 47.674903089986742 0 0 0 0 -15.196052997955121 -9.0430697611855066 0 -9.0430697611855066 43.736214165127876 0 0 0 0 -16.077180836826301 50.535447193860591 0 50.535447193860591 -3.4666437243076871 0 0 0 0 138.94597849779529 -106.75157924249129 0 -106.75157924249129 4.7647525144011524 0 0 0 0 92.663448664941825 -22.248150784048448 0 -22.248150784048448 -5.9644158963255762 0 0 0 0 -8.3141673881036695 -42.075523788085775 0 -42.075523788085775 34.774416095921879 0 0 0 0 113.55127341869229 -18.456908674419537 0 -18.456908674419537 -5.8823733093805544 0 0 0 0 292.00662896475842 -122.13628370181391 0 -122.13628370181391 -92.599482902033742 0 0 0 0 187.16473200573819 -1.1274259946640086 0 -1.1274259946640086 -77.181572065204819 0 0 0 0 152.22178827861353 47.485319937287613 0 47.485319937287613 -72.400884224543915 0 0 0 0 73.357902988519157 -9.7484490929034262 0 -9.7484490929034262 -0.7951250457955521 0 0 0 0 228.08454290716327 -527.08109169689669 0 -527.08109169689669 -50.459638914741348 0 0 0 0 60.278250091279915 -25.281129478122466 0 -25.281129478122466 -59.998514901339831 0 0 0 0 49.63218573570353 -16.943431003063694 0 -16.943431003063694 4.519820044730281 0 0 0 0 348.18281925994961 -31.730983825968451 0 -31.730983825968451 -74.55232207467418 0 0 0 0 -74.388538243882067 -227.40108436426362 0 -227.40108436426362 -320.18786073116189 0 0 0 0 37.218450003740145 -26.182572378170335 0 -26.182572378170335 -30.527095412402502 0 0 0 0 64.719656122907736 -9.6954684554687169 0 -9.6954684554687169 0.13143573023244937 0 0 0 0 78.558286404379032 -34.107808462455068 0 -34.107808462455068 -337.9335925410478 0 0 0 0 30.105552016566435 -53.023694341299688 0 -53.023694341299688 -161.20919028251956 0 0 0 0 -14.836735734823833 -64.09657346957124 0 -64.09657346957124 -40.614462118782285 0 0 0 0 81.710997388149281 -82.429653995268836 0 -82.429653995268836 -229.25231992137196 0 0 0 0 28.371391584941193 -43.111288320897984 0 -43.111288320897984 -76.759176973750982 0 0 0 0 126.05995180151331 -62.752884789717427 0 -62.752884789717427 -80.836519312954806 0 0 0 0 83.090739439696335 1.2987917975260643 0 1.2987917975260643 -29.941458662375396 0 0 0 0 40.619551168392718 -46.514612937587344 0 -46.514612937587344 6.4017650379819315 0 0 0 0 121.37410442063083 9.9789825911871048 0 9.9789825911871048 38.05553185847657 0 0 0 0 -54.606572520803638 27.090900206647348 0 27.090900206647348 129.18502081223323 0 0 0 0 141.31076072311043 131.04473223933064 0 131.04473223933064 118.97782749284141 0 0 0 0 250.99385236327089 288.3079095053281 0 288.3079095053281 186.94946914919251 0 0 0 0 52.686511608046658 124.76279405793002 0 124.76279405793002 171.43330517299364 0 0 0 0 -1.1170900805664132 163.51466275167991 0 163.51466275167991 217.58053257912798 0 0 0 0 -250.91819907361969 -79.641083592799077 0 -79.641083592799077 224.38487391487615 0 0 0 0 6.9772769714390961 7.474851623836912 0 7.474851623836912 -216.5205155473177 0 0 0 0 -186.13033182426079 -204.61227974506619 0 -204.61227974506619 59.423103480276041 0 0 0 0 -133.98750203476402 -59.27577921216016 0 -59.27577921216016 -149.0037669766607 0 0 0 0 -72.085116713869866 -236.02031885362089 0 -236.02031885362089 871.40685831500377 0 0 0 0 482.31410303506254 -822.57321658276669 0 -822.57321658276669 -215.35806274935203 0 0 0 0 356.49674578476152 582.25913382258204 0 582.25913382258204 638.81446001978372 0 0 0 0 949.53118050973808 254.82403173407397 0 254.82403173407397 13.187015577299462 0 0 0 0 349.17667528946913 145.95027460896017 0 145.95027460896017 43.92283015656426 0 0 0 0 75.271685342213459 -121.41091230513439 0 -121.41091230513439 136.34198137076464 0 0 0 0 468.39622810264973 -0.73624222722332888 0 -0.73624222722332888 13.449228597148249 0 0 0 0 33.689933040671285 10.771786787583306 0 10.771786787583306 13.042158624198448 0 0 0 0 16.929920851899624 42.711864166146825 0 42.711864166146825 31.723712444945022 0 0 0 0 4.9586179050002102 173.93887002812494 0 173.93887002812494 164.71017801148037 0 0 0 0 176.4998755207198 140.75812634026352 0 140.75812634026352 77.467552635316679 0 0 0 0 9.8539041353013275 6.6775482422088484 0 6.6775482422088484 3.6904126842180363 0 0 0 0 559.1040092862404 -158.75851924143194 0 -158.75851924143194 57.562570524041803 0 0 0 0 -74.164981336249184 287.50528937470835 0 287.50528937470835 1126.603175056852 0 0 0 0 210.98683449076998 -11.053578061219923 0 -11.053578061219923 -25.27265995523415 0 0 0 0 88.130460081154524 69.465428555204198 0 69.465428555204198 33.662787130106153 0 0 0 0 79.982231923766676 16.841945661730023 0 16.841945661730023 11.083578940951224 0 0 0 0 99.05444442803946 -5.4460440701859625 0 -5.4460440701859625 17.583525624211688 0 0 0 0 50.608540029184041 -102.20033490446087 0 -102.20033490446087 -107.15356777355328 0 0 0 0 18.745263725028124 -8.5047286387311321 0 -8.5047286387311321 24.072234253756928 0 0 0 0 68.419969475717153 13.399100777087369 0 13.399100777087369 82.963568608786773 0 0 0 0 155.69986721127361 19.086997344969859 0 19.086997344969859 30.545071307791659 0 0 0 0 5.869067086702298 -16.264843798670434 0 -16.264843798670434 32.197319846577756 0 0 0 0 -330.81307008822296 -273.79008090422667 0 -273.79008090422667 927.65697520574713 0 0 0 0 122.41667853169201 22.432366729119167 0 22.432366729119167 30.710270293499661 0 0 0 0 869.86077679978553 379.12413662541894 0 379.12413662541894 -430.28930349926213 0 0 0 0 226.31527690936855 43.644154603832476 0 43.644154603832476 -30.420997601055888 0 0 0 0 809.76588110491957 -133.81259870494682 0 -133.81259870494682 16.441825704919282 0 0 0 0 570.90836213794319 304.99009351191268 0 304.99009351191268 -26.936774632753327 0 0 0 0 457.25059699702433 328.00046257119993 0 328.00046257119993 -624.83564736774338 0 0 0 0 1.8129100252735952 -1.0521365601013315 0 -1.0521365601013315 15.728007780704026 0 0 0 0 31.337466959823239 -0.37985219097849843 0 -0.37985219097849843 -1.0032472455766055 0 0 0 0 192.35953758052165 582.95032754679232 0 582.95032754679232 647.40950077609409 0 0 0 0 -1.3187367322025239 286.37749431954757 0 286.37749431954757 197.5242251531804 0 0 0 0 11.651433985631805 1.6463254196531336 0 1.6463254196531336 -0.20543227047155754 0 0 0 0 267.0508570023012 -148.68365390410884 0 -148.68365390410884 94.826304531498465 0 0 0 0 -17.07510652498604 10.380664037150261 0 10.380664037150261 125.76611952290239 0 0 0 0 208.68092397736473 -161.60247751718509 0 -161.60247751718509 237.18580061221974 0 0 0 0 37.899606288010773 -31.068072065577219 0 -31.068072065577219 39.244847301602704 0 0 0 0 51.534340062161696 -36.274390619053221 0 -36.274390619053221 21.193769954373689 0 0 0 0 6.1498888829228235 -101.33531685583807 0 -101.33531685583807 47.357743312916071 0 0 0 0 0.57632663467438761 -3.2609029538989542 0 -3.2609029538989542 17.705150108956445 0 0 0 0 175.92644743196797 -116.1513127733258 0 -116.1513127733258 -14.858745789484772 0 0 0 0 35.100495763734216 -56.870932036687009 0 -56.870932036687009 -38.484435222264437 0 0 0 0 41.06047887828754 -42.784303232273032 0 -42.784303232273032 -32.726204126850462 0 0 0 0 43.100207851881976 -29.350259615492803 0 -29.350259615492803 18.373995773226532 0 0 0 0 39.057087695662631 -52.572273478577017 0 -52.572273478577017 -18.325071118501 0 0 0 0 86.007757320257952 176.86388689008544 0 176.86388689008544 85.459929102574051 0 0 0 0 220.8629622499684 315.82320236343537 0 315.82320236343537 -17.446749011581687 0 0 0 0 414.83733613593358 78.887849773868538 0 78.887849773868538 -41.243799773357523 0 0 0 0 157.35105017710714 91.021724166154726 0 91.021724166154726 27.371983381606469 0 0 0 0 188.30765990504005 105.5284621925 0 105.5284621925 33.538993274112499 0 0 0 0 192.58441457639492 135.76215312714612 0 135.76215312714612 139.7189949240651 0 0 0 0 263.50198634520683 171.80004199330367 0 171.80004199330367 147.03368186178523 0 0 0 0 7.6460174277235637 -73.076393566149818 0 -73.076393566149818 -63.572994341177036 0 0 0 0 35.382857417006875 -22.342695641862932 0 -22.342695641862932 11.988444087765252 0 0 0 0 -76.501250129556865 -87.515377370580609 0 -87.515377370580609 -59.802296571983334 0 0 0 0 24.758519763112417 -111.05367587439559 0 -111.05367587439559 -123.73800703495363 0 0 0 0 124.48648944768865 -44.705561998129269 0 -44.705561998129269 -90.044242666663195 0 0 0 0 0.77236453785866388 0.38251902987237685 0 0.38251902987237685 -1.5790399520614997 0 0 0 0 98.099367766364594 -78.365201878627886 0 -78.365201878627886 -126.37904790365451 0 0 0 0 -14.3496212095597 -94.445883524121655 0 -94.445883524121655 -128.00967816231059 0 0 0 0 26.241048822851994 -15.343922675425247 0 -15.343922675425247 6.9459432190908608 0 0 0 0 -9.3901959908725985 -109.99861188130353 0 -109.99861188130353 -142.07829402114294 0 0 0 0 60.681480391140212 -24.630726821611461 0 -24.630726821611461 -88.994973875376672 0 0 0 0 38.329493183191516 -23.169868273980683 0 -23.169868273980683 -60.687567881011091 0 0 0 0 49.96559552214012 -38.479378244596546 0 -38.479378244596546 -58.421836966044793 0 0 0 0 49.780027525053811 -36.351541161545299 0 -36.351541161545299 -73.095464405016173 0 0 0 0 15.375476437129691 -85.234943488346971 0 -85.234943488346971 -78.670578508012113 0 0 0 0 72.872076691608527 -66.006658720723863 0 -66.006658720723863 -86.733071338511763 0 0 0 0 60.603796085790236 -51.917543480363292 0 -51.917543480363292 -100.96230332718005 0 0 0 0 66.226765583647648 -39.224175179786471 0 -39.224175179786471 -76.290584542957731 0 0 0 0 84.445730569247871 -18.407611684068911 0 -18.407611684068911 -92.617283579640571 0 0 0 0 83.766135905417968 -39.229728890081518 0 -39.229728890081518 -105.9627558728298 0 0 0 0 110.06170874226518 -28.260349556725487 0 -28.260349556725487 -103.67759282604129 0 0 0 0 95.391366971001844 -28.921495790039444 0 -28.921495790039444 -93.521473903398146 0 0 0 0 100.80086097030107 -11.093698772411017 0 -11.093698772411017 -101.94756554857304 0 0 0 0 65.254035118152387 1.1427196683824832 0 1.1427196683824832 -99.024255320096927 0 0 0 0 73.263607676970423 -13.031026940061565 0 -13.031026940061565 -90.364544164629478 0 0 0 0 73.653432061202693 -13.236927487913817 0 -13.236927487913817 -108.73822941072831 0 0 0 0 68.792362309657619 -14.863684056262173 0 -14.863684056262173 -93.297245856623704 0 0 0 0 58.139597458868593 -18.606788961792518 0 -18.606788961792518 -78.842271151776004 0 0 0 0 42.264656571416708 -11.163186232746739 0 -11.163186232746739 -81.573270974429306 0 0 0 0 41.670103432883479 -9.056377474339115 0 -9.056377474339115 -89.00022354448447 0 0 0 0 21.740865127096185 0.71757331751996389 0 0.71757331751996389 -93.600465922641888 0 0 0 0 26.76124631203129 -13.709882062787983 0 -13.709882062787983 -93.415157072921374 0 0 0 0 24.839689096610527 -9.3777414668911661 0 -9.3777414668911661 -86.283433342359785 0 0 0 0 24.601532790184137 -23.309025004054092 0 -23.309025004054092 -86.025651718658992 0 0 0 0 14.998457408008107 -23.070305221706349 0 -23.070305221706349 -62.634654637964559 0 0 0 0 37.42829999402602 -29.191640021619605 0 -29.191640021619605 -69.032188940800552 0 0 0 0 35.616039168082352 -18.368596675312801 0 -18.368596675312801 -67.729635004040119 0 0 0 0 29.30551985805505 -18.982707328842935 0 -18.982707328842935 -67.671748761145864 0 0 0 0 39.283049868041417 -31.523106071330403 0 -31.523106071330403 -68.890536398585937 0 0 0 0 37.833381974976874 -34.05094492215585 0 -34.05094492215585 -54.029849842332624 0 0 0 0 22.567113449487806 -29.837213888021097 0 -29.837213888021097 -65.153887774065879 0 0 0 0 39.274023250538448 -35.132484703251066 0 -35.132484703251066 -50.673921455781056 0 0 0 0 36.090504690444504 -35.555388331374616 0 -35.555388331374616 -45.359861977613036 0 0 0 0 32.663381003483664 -37.990345812167561 0 -37.990345812167561 -28.140837625387576 0 0 0 0 27.419071707026887 -31.902117184896269 0 -31.902117184896269 -49.270407819663887 0 0 0 0 40.430284933790972 -33.168867406530808 0 -33.168867406530808 -45.050880246078123 0 0 0 0 37.137592716451763 -43.90837928036342 0 -43.90837928036342 -29.409995106805582 0 0 0 0 37.169035376071406 -38.920757301334561 0 -38.920757301334561 -23.869108166803017 0 0 0 0 35.51217458537576 -40.600839831821759 0 -40.600839831821759 -28.265085665692823 0 0 0 0 27.781179641693598 -38.363869599764257 0 -38.363869599764257 -11.802740329821972 0 0 0 0 33.938663283130154 -45.743508415642282 0 -45.743508415642282 -13.644730285424885 0 0 0 0 30.213706505058781 -40.851311649305273 0 -40.851311649305273 -6.8327488808481576 0 0 0 0 21.843967492008233 -45.531013378191346 0 -45.531013378191346 23.728324901827364 0 0 0 0 30.072247681470117 -46.05388960110777 0 -46.05388960110777 -3.084877827695891 0 0 0 0 19.928234832441376 -38.212192456101548 0 -38.212192456101548 6.2094464014553523 0 0 0 0 37.547926359264238 -50.760409639156933 0 -50.760409639156933 1.2337389632903069 0 0 0 0 34.075185414025327 -40.859497973169709 0 -40.859497973169709 7.5062377270060097 0 0 0 0 44.495460995633039 -36.186260242172466 0 -36.186260242172466 6.9746507188556279 0 0 0 0 35.048101956032042 -41.881543392902131 0 -41.881543392902131 5.1853204319177166 0 0 0 0 38.076432632758952 -49.426530613079422 0 -49.426530613079422 -10.200611656411638 0 0 0 0 71.817323896219023 -89.765395310974554 0 -89.765395310974554 54.406617218043266 0 0 0 0 143.77648823215713 -15.025477536874405 0 -15.025477536874405 38.273625734518134 0 0 0 0 10.418095059834485 2.2770341087657151 0 2.2770341087657151 -3.1291122947644094 0 0 0 0 183.12559231610794 -110.17714956890859 0 -110.17714956890859 1.318963258747317 0 0 0 0 -74.439903725520708 1.3008038567754738 0 1.3008038567754738 29.17532137674425 0 0 0 0 -0.037045007941991059 -3.247311699053526 0 -3.247311699053526 3.052511587780252 0 0 0 0 -0.023550371559281302 -11.380129371256075 0 -11.380129371256075 -14.700673447482746 0 0 0 0 8.2863463166577276 -28.296369830910407 0 -28.296369830910407 34.502858065564396 0 0 0 0 21.084868115525751 -35.904371917480603 0 -35.904371917480603 0.40813848184643575 0 0 0 0 26.207610029174248 -34.243257713300409 0 -34.243257713300409 -1.9092799066738735 0 0 0 0 27.901771508841193 -38.682137562216667 0 -38.682137562216667 -12.544874400909976 0 0 0 0 28.981786311589531 -30.218217734489372 0 -30.218217734489372 -21.814767533586746 0 0 0 0 28.792628284150851 -31.13525704488984 0 -31.13525704488984 -6.1993157336419245 0 0 0 0 32.226387637234438 -27.668399040223221 0 -27.668399040223221 -80.874624547440817 0 0 0 0 -1.4247474163071558 -9.0624356571758895 0 -9.0624356571758895 -17.217243615364211 0 0 0 0 27.040678603460037 -34.347117076193399 0 -34.347117076193399 -8.559607858268464 0 0 0 0 34.196871104495585 -6.2786520472777738 0 -6.2786520472777738 -44.681973525925969 0 0 0 0 35.319522053101537 -12.123367086571761 0 -12.123367086571761 -20.658618068944634 0 0 0 0 41.035006273159524 -22.876686405869805 0 -22.876686405869805 -46.345888354484487 0 0 0 0 35.545997925204574 -33.847632415066073 0 -33.847632415066073 -26.449793099340241 0 0 0 0 41.134381531453982 -23.591018272026304 0 -23.591018272026304 -43.694508423587649 0 0 0 0 41.51015579943487 -28.609487354810881 0 -28.609487354810881 -48.077329217025635 0 0 0 0 42.196648053124591 -30.092450447643841 0 -30.092450447643841 -54.475707566605706 0 0 0 0 53.261718965397449 -25.536703557368583 0 -25.536703557368583 -59.21862885681503 0 0 0 0 51.365039956217515 -20.663855599585531 0 -20.663855599585531 -67.344425524281178 0 0 0 0 49.212915949727176 -32.468626390775626 0 -32.468626390775626 -71.083401258416416 0 0 0 0 45.985388427953012 -12.56661415294522 0 -12.56661415294522 -53.022112855350315 0 0 0 0 46.119372375222156 -14.967996133482757 0 -14.967996133482757 -51.825910605075478 0 0 0 0 0.055560001792912317 -0.93218847956886464 0 -0.93218847956886464 -3.9391865398272365 0 0 0 0 45.890554615663859 -1.5634794509871881 0 -1.5634794509871881 -61.221601778379409 0 0 0 0 -1.4361902231801196 -3.9084201495345638 0 -3.9084201495345638 -11.26583921766936 0 0 0 0 59.904430517204673 -83.911785931052691 0 -83.911785931052691 58.443184314365681 0 0 0 0 10.536332921030407 8.9919861600883451 0 8.9919861600883451 42.257359483153778 0 0 0 0 548.05541029571395 113.89991035897833 0 113.89991035897833 -154.22484171266115 0 0 0 0 339.6475776023799 -52.006254771646582 0 -52.006254771646582 -13.164480270732838 0 0 0 0 384.23975450406579 -50.9362443601417 0 -50.9362443601417 -42.262262299127315 0 0 0 0 106.96933553532654 -84.088933412881715 0 -84.088933412881715 -16.885628302161876 0 0 0 0 7.9403002541415475 5.9178020375900999 0 5.9178020375900999 2.7564359432236145 0 0 0 0 315.82895109898527 -114.40917520554876 0 -114.40917520554876 52.041749582991542 0 0 0 0 385.26734883154859 -173.76601999064815 0 -173.76601999064815 -77.183543779472416 0 0 0 0 25.288535404148206 4.5392836344244643 0 4.5392836344244643 4.6550192400982269 0 0 0 0 -104.02789441041023 -24.279558631558302 0 -24.279558631558302 62.614319282316501 0 0 0 0 4.9412274055864316 -1.2790418340577077 0 -1.2790418340577077 1.7872226213964062 0 0 0 0 20.092104470335471 -5.6877291325854458 0 -5.6877291325854458 -6.6968953616747058 0 0 0 0 12.371245502814418 7.505096497257 0 7.505096497257 -13.151152795515372 0 0 0 0 12.847957349069475 4.3783158156415993 0 4.3783158156415993 5.3139238769333588 0 0 0 0 5.108182811480205 4.2213010485526823 0 4.2213010485526823 1.9993121838952685 0 0 0 0 1247.2802869681036 144.11392044737659 0 144.11392044737659 442.06259880644211 0 0 0 0 860.67822782121948 -318.95465330724164 0 -318.95465330724164 -22.698684750249527 0 0 0 0 21.273836905154894 1.2417811297946173 0 1.2417811297946173 -21.927982275666182 0 0 0 0 20.023035764421365 -0.65325147728242428 0 -0.65325147728242428 -17.321908483958396 0 0 0 0 31.726567512712791 -7.5312341132366782 0 -7.5312341132366782 -22.552003889217303 0 0 0 0 -15.575389575373265 6.9628093175183494 0 6.9628093175183494 -17.694314699956976 0 0 0 0 54.843707163247018 26.071402998112717 0 26.071402998112717 -20.504815489308385 0 0 0 0 21.454824024675872 -5.537922961422737 0 -5.537922961422737 -9.9964409073709248 0 0 0 0 21.904097623291818 -2.1777032758099608 0 -2.1777032758099608 -8.29184599738619 0 0 0 0 11.844191177122411 -12.667987525234366 0 -12.667987525234366 -9.2891723694773987 0 0 0 0 23.214571357944806 -18.201798129676035 0 -18.201798129676035 -24.326919909044591 0 0 0 0 13.767223465680217 -6.2464097180596809 0 -6.2464097180596809 0.02434544268908212 0 0 0 0 23.423483702623344 -23.338309222132921 0 -23.338309222132921 -39.523056451842876 0 0 0 0 22.458922592057206 -22.462228689740414 0 -22.462228689740414 -29.204968685126005 0 0 0 0 39.530499343280098 -14.231113399615424 0 -14.231113399615424 -26.771469174653475 0 0 0 0 36.303261225075403 -8.7770575286083385 0 -8.7770575286083385 -24.947788535932887 0 0 0 0 38.921114203272737 -4.1667819561021133 0 -4.1667819561021133 -21.915649339578977 0 0 0 0 50.495978940940404 -9.5119446445405629 0 -9.5119446445405629 -20.705873576216163 0 0 0 0 -8.4004721613746369 50.721711683120702 0 50.721711683120702 -9.7414141903113887 0 0 0 0 227.34015875949262 67.863870175701777 0 67.863870175701777 -24.851615969254453 0 0 0 0 77.51892287012015 71.658353352590439 0 71.658353352590439 -4.6640586233754675 0 0 0 0 248.75266573675617 -244.74517237828104 0 -244.74517237828104 204.83143158208674 0 0 0 0 134.56429173132346 12.827839795080763 0 12.827839795080763 224.32225395032918 0 0 0 0 -7.1565544159529964 65.480832302494036 0 65.480832302494036 -37.661456692154616 0 0 0 0 -56.219218325197289 -35.363964351872255 0 -35.363964351872255 16.688320511469556 0 0 0 0 524.16470457671676 -878.79201592875506 0 -878.79201592875506 141.73467061268093 0 0 0 0 4.3708270110791432 0.77913066606456383 0 0.77913066606456383 0.53499595598561367 0 0 0 0 -27.582205314465682 49.706450699506604 0 49.706450699506604 0.92411558269668603 0 0 0 0 887.8284204424599 -543.41216818049645 0 -543.41216818049645 337.19352860919435 0 0 0 0 206.87406137142534 154.02611088170852 0 154.02611088170852 -158.03790937189387 0 0 0 0 2.4253073478496248 1.4875504850831689 0 1.4875504850831689 1.0524186624387646 0 0 0 0 78.098987131721515 70.521506925687845 0 70.521506925687845 102.11174455152059 0 0 0 0 43.71473930477805 -24.272572215763375 0 -24.272572215763375 -9.856512181313974 0 0 0 0 206.98578440071287 46.379499566201048 0 46.379499566201048 -8.5392680177619695 0 0 0 0 45.890326046542185 -8.5411304400571382 0 -8.5411304400571382 -6.5224616018373665 0 0 0 0 77.263184919902457 -47.690003159603393 0 -47.690003159603393 -24.210750455446941 0 0 0 0 77.185017277879524 -2.4046962667005118 0 -2.4046962667005118 -38.785616842013951 0 0 0 0 -67.837511466510477 -53.371276978388778 0 -53.371276978388778 54.133505814921591 0 0 0 0 -37.147845342500659 -87.567415826619708 0 -87.567415826619708 508.20347364772169 0 0 0 0 -7.8526683164546824 -8.1403715686280691 0 -8.1403715686280691 2.1298397743307191 0 0 0 0 961.03737636510778 3.7868904611859762 0 3.7868904611859762 -157.66574168982515 0 0 0 0 5.4939218224013473 -7.4242135303721071 0 -7.4242135303721071 -0.24905460890496123 0 0 0 0 473.12203168640553 149.12750073807365 0 149.12750073807365 -6.5721736608902575 0 0 0 0 220.08032347029075 167.83170532029089 0 167.83170532029089 153.15238694509981 0 0 0 0 209.7746834691643 61.20244032480241 0 61.20244032480241 14.02189976837326 0 0 0 0 219.88263540952903 66.69339567229963 0 66.69339567229963 1.1121444674545273 0 0 0 0 -371.15486353321103 12.858722333860783 0 12.858722333860783 177.27380047591123 0 0 0 0 45.905480594658002 -149.69998843049825 0 -149.69998843049825 -41.719556333251489 0 0 0 0 571.08614012991893 -86.478597410935663 0 -86.478597410935663 -49.847487490686035 0 0 0 0 -50.69096751602774 -482.09949698667197 0 -482.09949698667197 32.841908365613563 0 0 0 0 753.8499256317773 493.45160081266135 0 493.45160081266135 -314.68484357811758 0 0 0 0 327.12641685160634 -45.626395643156684 0 -45.626395643156684 9.2590483252461127 0 0 0 0 159.72741845078417 -41.360241158521603 0 -41.360241158521603 130.36063656853548 0 0 0 0 125.07636405441804 -25.05796838889907 0 -25.05796838889907 63.1034104193659 0 0 0 0 231.10060539795086 24.564896620611762 0 24.564896620611762 73.664136960722317 0 0 0 0 22.75417217946233 -10.625230801984799 0 -10.625230801984799 36.800087353110484 0 0 0 0 126.94357543508772 45.182293688714338 0 45.182293688714338 32.937565100583015 0 0 0 0 -13.31314317840588 103.52447552995864 0 103.52447552995864 -8.4101072912544623 0 0 0 0 167.23263456996938 -38.297089624693399 0 -38.297089624693399 19.878895160297475 0 0 0 0 1.3599451880615803 1.772987989937576 0 1.772987989937576 2.0810115848385458 0 0 0 0 382.80069474451011 -6.5468932777425835 0 -6.5468932777425835 -231.64532695149546 0 0 0 0 427.96487339129817 -212.31083675276386 0 -212.31083675276386 -58.686832557310936 0 0 0 0 1.6671613793080837 -3.9321055741752531 0 -3.9321055741752531 4.8750976384691747 0 0 0 0 -86.690941782653681 -89.999690539288167 0 -89.999690539288167 387.94112016396139 0 0 0 0 151.13835475583619 184.39543910769589 0 184.39543910769589 -99.551148161821402 0 0 0 0 268.6628398540488 82.194629889438147 0 82.194629889438147 -201.85952481243476 0 0 0 0 -21.690663458241033 -24.79973800776952 0 -24.79973800776952 -9.5818888131229869 0 0 0 0 150.52001229854068 -57.01856446812053 0 -57.01856446812053 -87.769327219259139 0 0 0 0 2.4562073619233615 -3.9476469354340367 0 -3.9476469354340367 3.8537936187167112 0 0 0 0 -32.637324752437053 -50.885591287290026 0 -50.885591287290026 -26.364147650389896 0 0 0 0 188.15225726981953 42.890829612686048 0 42.890829612686048 65.786194344150317 0 0 0 0 0.79227205242646903 -1.1681257491011081 0 -1.1681257491011081 -0.3378110808763104 0 0 0 0 347.4842734939084 65.376378208394271 0 65.376378208394271 -120.88313571739491 0 0 0 0 74.317616229211126 -69.18150333288952 0 -69.18150333288952 -49.122681579757227 0 0 0 0 298.78935646587706 20.158005182179295 0 20.158005182179295 -75.766117932850648 0 0 0 0 186.05567449531372 115.43641666104668 0 115.43641666104668 33.332397664215023 0 0 0 0 46.740113051171647 71.225194278103572 0 71.225194278103572 61.089152933633159 0 0 0 0 219.54761830691496 61.66919323283696 0 61.66919323283696 -25.567663985891159 0 0 0 0 270.99697166007536 -18.72475063581669 0 -18.72475063581669 -67.584274397993795 0 0 0 0 163.80959270431777 17.920832287807116 0 17.920832287807116 -27.041599340812809 0 0 0 0 153.58340646198485 16.462463197341549 0 16.462463197341549 -25.308061131039722 0 0 0 0 159.07055911306816 4.938174104439895 0 4.938174104439895 -9.0496841783169657 0 0 0 0 173.57489403462932 2.0126113255943778 0 2.0126113255943778 -20.121100303341336 0 0 0 0 160.81819706613169 17.025045121912854 0 17.025045121912854 -39.547850209537501 0 0 0 0 136.20946255901799 9.0448482945625983 0 9.0448482945625983 -19.008420322082316 0 0 0 0 227.01795948042309 -9.9414173342125309 0 -9.9414173342125309 -4.7506337733539112 0 0 0 0 225.33589784019568 -27.054030535339507 0 -27.054030535339507 19.115322647003495 0 0 0 0 244.59595940512372 -1.8424496844847909 0 -1.8424496844847909 -3.2288707059258286 0 0 0 0 190.31829835067765 1.425621341826627 0 1.425621341826627 6.6578259163356961 0 0 0 0 223.042941096086 -15.425676539102142 0 -15.425676539102142 -11.293489833391504 0 0 0 0 192.35648903174297 -16.762886916590105 0 -16.762886916590105 -2.9838658032876992 0 0 0 0 131.01972912241035 2.1695939736055152 0 2.1695939736055152 -8.766740324748298 0 0 0 0 152.31988347773949 22.196960371902946 0 22.196960371902946 2.2325739785551377 0 0 0 0 175.59732285766222 7.8156063243310427 0 7.8156063243310427 11.864953481968087 0 0 0 0 201.00689183109353 14.55050714711615 0 14.55050714711615 -6.1167431290512013 0 0 0 0 1.0452911502601978 -1.9585775781464463 0 -1.9585775781464463 0.42088496967062383 0 0 0 0 -148.60706936935458 -126.55451148059842 0 -126.55451148059842 38.807403962383432 0 0 0 0 382.35042352149321 30.148660734326427 0 30.148660734326427 -66.8137869771449 0 0 0 0 65.773406329804857 -18.289418102509899 0 -18.289418102509899 205.09234869848842 0 0 0 0 1.306668810761245 -1.8437516049017404 0 -1.8437516049017404 1.0897004627108551 0 0 0 0 -71.161956219264539 -153.63782114345349 0 -153.63782114345349 41.262472400778734 0 0 0 0 251.11590819035337 19.345307429212653 0 19.345307429212653 6.7354894892878292 0 0 0 0 1.1662544126782244 -1.9593246756998468 0 -1.9593246756998468 0.11643013586062878 0 0 0 0 -104.13221724047617 -38.858618126162128 0 -38.858618126162128 -20.643911771355306 0 0 0 0 3.421517269591277 -21.71042684649592 0 -21.71042684649592 -64.847371005242167 0 0 0 0 -2.6929141044311109 -49.574811254371298 0 -49.574811254371298 -56.557679814322 0 0 0 0 13.680346922410536 -104.81663700953095 0 -104.81663700953095 -8.8650885804217978 0 0 0 0 40.373433266049688 -41.147458767606054 0 -41.147458767606054 -59.774388299778366 0 0 0 0 -66.338152973403339 -156.88453820642212 0 -156.88453820642212 20.553613169834534 0 0 0 0 -15.659459617381799 -98.97583237727622 0 -98.97583237727622 -4.0792029024250951 0 0 0 0 83.011883418046637 -167.16336070856414 0 -167.16336070856414 -8.4465109401835434 0 0 0 0 161.10320544469505 -55.07138733971442 0 -55.07138733971442 -266.92717701872425 0 0 0 0 3.9746158465641201 -105.34196749020316 0 -105.34196749020316 -107.45400367958246 0 0 0 0 1.3847331067554478 -89.363364939729763 0 -89.363364939729763 59.335802987092393 0 0 0 0 -13.133949649069109 -174.9240344672852 0 -174.9240344672852 -179.47805407972328 0 0 0 0 -6.2881816843437264 -121.12845131761514 0 -121.12845131761514 4.2690177077045064 0 0 0 0 27.502046710207651 20.707482613092566 0 20.707482613092566 -209.9337050454169 0 0 0 0 27.756766533697373 33.578016145620495 0 33.578016145620495 -27.229881740385963 0 0 0 0 80.645032339598401 -155.6719651753267 0 -155.6719651753267 75.444014653187878 0 0 0 0 62.463533198995719 -31.855429477971484 0 -31.855429477971484 -28.850999495860378 0 0 0 0 5.5439371097586587 -29.738864148338017 0 -29.738864148338017 0.5070269014044726 0 0 0 0 -1.5822497136232414 -32.707866979591017 0 -32.707866979591017 -14.800133294727743 0 0 0 0 20.502514334906266 -11.368789235661339 0 -11.368789235661339 1.792005775949681 0 0 0 0 -16.944853180153586 -98.590992431363361 0 -98.590992431363361 -25.30716636117711 0 0 0 0 42.834103267967294 -20.739072784608652 0 -20.739072784608652 12.436775644971021 0 0 0 0 -9.7308513384705293 -132.77929638054502 0 -132.77929638054502 -32.473863402156383 0 0 0 0 -7.8005822334453114 -132.84631764437108 0 -132.84631764437108 -70.062140440687585 0 0 0 0 65.118925473502145 -23.538711743526072 0 -23.538711743526072 7.1314536024396684 0 0 0 0 -10.117981439827417 -92.518336231573358 0 -92.518336231573358 -50.560423806023636 0 0 0 0 53.870404111708922 -103.49578215211841 0 -103.49578215211841 -200.04430465629821 0 0 0 0 -44.916982896640548 -213.45769671941366 0 -213.45769671941366 2.75619736337012 0 0 0 0 153.12390039264574 53.287303688718794 0 53.287303688718794 -86.364217698651373 0 0 0 0 86.007886338062235 -7.3768905019479689 0 -7.3768905019479689 14.579949603020395 0 0 0 0 197.12372569683794 28.221967123734885 0 28.221967123734885 8.9340646739883596 0 0 0 0 277.94396587485971 25.173108030400272 0 25.173108030400272 -11.170596923883295 0 0 0 0 59.732714598639859 15.109994037738105 0 15.109994037738105 -1.5780432875330916 0 0 0 0 292.66604106684099 -3.331126090035184 0 -3.331126090035184 15.833275035495035 0 0 0 0 0.71457712111667959 -1.336027245670067 0 -1.336027245670067 -0.10262540182670943 0 0 0 0 -31.859432954151998 -72.437241024444575 0 -72.437241024444575 -84.080481947214366 0 0 0 0 -27.829564024810679 -38.28064806935447 0 -38.28064806935447 -157.33014136097131 0 0 0 0 290.40854063739971 -0.014902223418488347 0 -0.014902223418488347 39.00905981443816 0 0 0 0 335.51681625314814 -12.967450337873288 0 -12.967450337873288 6.7391309741142322 0 0 0 0 0.11197621143798742 -0.68553365354856055 0 -0.68553365354856055 0.86840101296123962 0 0 0 0 265.975922143567 -26.12103408074131 0 -26.12103408074131 14.192839736975202 0 0 0 0 3.2340469902827547 -0.78165108287625173 0 -0.78165108287625173 2.2229681672562442 0 0 0 0 282.41740229911011 -21.061571686268621 0 -21.061571686268621 -6.1224742138492729 0 0 0 0 46.183241100181476 -30.173454960333402 0 -30.173454960333402 -51.739218961529332 0 0 0 0 61.788532776670763 -20.996599975861045 0 -20.996599975861045 -87.504520352187683 0 0 0 0 89.476843988843029 -177.04139149856246 0 -177.04139149856246 -65.05914145282145 0 0 0 0 -9.8377972165180836 -40.024948270533059 0 -40.024948270533059 -92.462465926758796 0 0 0 0 38.161317776000942 0.19433816282116823 0 0.19433816282116823 -114.4856728218947 0 0 0 0 101.96684487248422 36.296705217783256 0 36.296705217783256 -105.89381789433719 0 0 0 0 54.868537615911919 11.356601537340794 0 11.356601537340794 -208.11887844722696 0 0 0 0 -107.9196843100608 -117.93805187795419 0 -117.93805187795419 -82.31654967068971 0 0 0 0 14.010284324234817 45.642571265172592 0 45.642571265172592 -231.95381056381848 0 0 0 0 -94.871855418328778 30.281257490491953 0 30.281257490491953 -149.51616483010639 0 0 0 0 4.0056316730624815 -1.7979830753687338 0 -1.7979830753687338 0.87713103007576088 0 0 0 0 92.908686805938487 -237.48962709269108 0 -237.48962709269108 -128.29301250572735 0 0 0 0 161.37109349855746 650.35596913758059 0 650.35596913758059 -1.4199452161415138 0 0 0 0 338.47961051673337 -256.82404741551409 0 -256.82404741551409 -135.84686299287387 0 0 0 0 430.12092806855071 -133.97199058798969 0 -133.97199058798969 -101.7887828361545 0 0 0 0 149.17773578190099 -146.95903621283492 0 -146.95903621283492 -74.566085319093872 0 0 0 0 306.49333759710862 -191.1568855485657 0 -191.1568855485657 -63.733974126442718 0 0 0 0 180.04946185574954 -117.23186449066537 0 -117.23186449066537 22.283089572509198 0 0 0 0 248.77014581972253 -193.29416542514264 0 -193.29416542514264 28.498561945487381 0 0 0 0 215.16439484000148 -132.7542820859594 0 -132.7542820859594 -60.934161842275898 0 0 0 0 169.90496239715139 -51.38771681033063 0 -51.38771681033063 -53.105850435493267 0 0 0 0 473.75272584371123 -132.43983690646519 0 -132.43983690646519 -33.970246932789905 0 0 0 0 174.96356623638712 -48.362438272696636 0 -48.362438272696636 -53.186099742642 0 0 0 0 136.7229223242648 54.846932280067449 0 54.846932280067449 -45.260389509050583 0 0 0 0 69.849242574797245 30.663870542895893 0 30.663870542895893 -54.005500606577698 0 0 0 0 70.583888176450273 43.422947160866897 0 43.422947160866897 1.5129001168866125 0 0 0 0 70.249552012246568 32.425788834936156 0 32.425788834936156 -44.738022547782748 0 0 0 0 55.528560739694512 20.35756534217262 0 20.35756534217262 -4.0567820997625859 0 0 0 0 50.566271563202463 4.703078911359853 0 4.703078911359853 -48.282009919097618 0 0 0 0 80.303532300575171 36.535557673603762 0 36.535557673603762 -43.22819066339116 0 0 0 0 62.175957588930032 -6.1824756586011063 0 -6.1824756586011063 -55.621562205840291 0 0 0 0 80.750461337782326 -11.038425669011758 0 -11.038425669011758 -83.75538644799326 0 0 0 0 84.743439479861991 18.160197153792978 0 18.160197153792978 -48.439576937597849 0 0 0 0 43.550126181187807 -55.715664217471158 0 -55.715664217471158 -68.995734781087776 0 0 0 0 59.262925242335768 -6.7176995034640186 0 -6.7176995034640186 -55.382474559305592 0 0 0 0 123.41218634478355 28.35022299018263 0 28.35022299018263 -87.101013966549544 0 0 0 0 131.65730659509427 -13.46108222487328 0 -13.46108222487328 -83.839923316618183 0 0 0 0 153.53414516102202 31.337064794988009 0 31.337064794988009 -73.681818914084943 0 0 0 0 234.51430011590128 -54.55842889290625 0 -54.55842889290625 -69.05046074362599 0 0 0 0 128.75731288318639 -85.924198701474779 0 -85.924198701474779 -55.493962930097041 0 0 0 0 134.32468867216085 -70.873910789011461 0 -70.873910789011461 -43.227672774638677 0 0 0 0 118.90402643292327 -17.983616751244881 0 -17.983616751244881 -80.107779313460014 0 0 0 0 55.406816376344068 26.983007546336921 0 26.983007546336921 -77.03706922715503 0 0 0 0 80.85909806694508 52.717543733754098 0 52.717543733754098 -82.605617159458234 0 0 0 0 80.070988010462315 33.687671539927351 0 33.687671539927351 -76.470479756002533 0 0 0 0 107.45542006746837 49.749459686382124 0 49.749459686382124 -105.73581168897545 0 0 0 0 130.75635138065263 14.236599395677786 0 14.236599395677786 -76.215783076899925 0 0 0 0 2.1746645912353415 -66.027271700159417 0 -66.027271700159417 -149.99897034091765 0 0 0 0 70.336423201646539 31.729710956801 0 31.729710956801 -134.87191520464239 0 0 0 0 109.13753172144162 -27.976126702865137 0 -27.976126702865137 6.9301449957965326 0 0 0 0 146.77955248104263 26.395144747392351 0 26.395144747392351 -59.030733169116729 0 0 0 0 198.31107522592538 -155.43417865279662 0 -155.43417865279662 -287.88019890147234 0 0 0 0 28.582013671555615 11.328040534896786 0 11.328040534896786 -51.475889152591662 0 0 0 0 1.9762679207039469 -12.062381213118924 0 -12.062381213118924 4.8347763211929955 0 0 0 0 66.712125116933294 -29.295625132628174 0 -29.295625132628174 -55.324430839601519 0 0 0 0 -165.17347000075097 -379.49235429927239 0 -379.49235429927239 209.38713368007393 0 0 0 0 326.68183346012665 -197.95076408808291 0 -197.95076408808291 37.96704005133256 0 0 0 0 139.45448506518733 -9.5782755880636614 0 -9.5782755880636614 433.05626030902295 0 0 0 0 141.25483241041366 -83.052405699684186 0 -83.052405699684186 -22.001965331608517 0 0 0 0 281.60276265308494 -20.251386680422456 0 -20.251386680422456 -74.536893824525208 0 0 0 0 454.32807706017047 261.16742208234791 0 261.16742208234791 -161.18873764774071 0 0 0 0 649.62534630199661 597.60995728584294 0 597.60995728584294 222.23436317178675 0 0 0 0 98.151413872230961 -38.832514112960666 0 -38.832514112960666 10.36692422542812 0 0 0 0 33.188321958248707 -260.47827099192364 0 -260.47827099192364 -81.916568920624741 0 0 0 0 -22.085654715232522 -283.0935015677419 0 -283.0935015677419 199.62891097269039 0 0 0 0 -0.70146454207830189 -1.48109725350224 0 -1.48109725350224 5.2175176775567165 0 0 0 0 -26.7440145043347 -12.575161530488458 0 -12.575161530488458 279.74343683378947 0 0 0 0 79.363606996789713 -1.3774401332616435 0 -1.3774401332616435 168.3581963574652 0 0 0 0 139.20423888680671 -160.59252436505358 0 -160.59252436505358 154.22281050350705 0 0 0 0 130.36826077053865 -54.580652980106152 0 -54.580652980106152 -52.033749058070498 0 0 0 0 346.27292523264487 78.71124447234547 0 78.71124447234547 -172.59463914542175 0 0 0 0 142.71024610463246 -87.89203272476334 0 -87.89203272476334 35.477334126422079 0 0 0 0 127.20396715339302 -42.31945930068332 0 -42.31945930068332 8.8740775437290722 0 0 0 0 148.92537632471885 -33.297580856350123 0 -33.297580856350123 -62.894000042197149 0 0 0 0 75.13568296863923 -37.340213072497136 0 -37.340213072497136 23.734396876445771 0 0 0 0 176.37726221376215 261.67737458747024 0 261.67737458747024 -118.38724712740873 0 0 0 0 21.560012651279976 -147.12245721125601 0 -147.12245721125601 -222.95706001673943 0 0 0 0 134.57091501906507 -17.348405867866859 0 -17.348405867866859 -142.88659583852677 0 0 0 0 23.456649015367162 4.2758584254031717 0 4.2758584254031717 -4.4079297646480242 0 0 0 0 56.778516956677777 -60.187365347002697 0 -60.187365347002697 -258.49831859396971 0 0 0 0 103.27499442125473 -27.021404424493983 0 -27.021404424493983 6.4463213786787321 0 0 0 0 53.243971356561815 -30.405996040493847 0 -30.405996040493847 -62.352745728019727 0 0 0 0 -108.74621612021383 198.56637483788563 0 198.56637483788563 38.273929523933475 0 0 0 0 504.622807986525 -1.4619721472718084 0 -1.4619721472718084 -344.0563363512847 0 0 0 0 115.9956089095851 -21.36178351386172 0 -21.36178351386172 2.4203138339791721 0 0 0 0 209.90932603147326 -328.21157208348421 0 -328.21157208348421 -278.95635684727517 0 0 0 0 18.334681304658414 17.884586455989854 0 17.884586455989854 -12.152686750714265 0 0 0 0 121.58956975996989 -162.65123182849766 0 -162.65123182849766 -153.18232819984041 0 0 0 0 326.55555333725329 -80.595042830061971 0 -80.595042830061971 -126.43154660308937 0 0 0 0 359.13631706525302 47.89611034995778 0 47.89611034995778 -114.1158973860347 0 0 0 0 256.20162211229035 20.310222711796087 0 20.310222711796087 -115.78063165851449 0 0 0 0 211.79093721093159 -98.951666766176459 0 -98.951666766176459 -120.03084359351237 0 0 0 0 109.61076998324916 -74.103304024562931 0 -74.103304024562931 -57.608965284017358 0 0 0 0 155.0617220883305 -39.979866135367047 0 -39.979866135367047 -40.631498967438347 0 0 0 0 146.43063829651783 -59.199064888516205 0 -59.199064888516205 -10.390471652684937 0 0 0 0 111.37854681394037 -51.368423896286913 0 -51.368423896286913 5.7087023546200726 0 0 0 0 188.95190833234255 -12.545933233469327 0 -12.545933233469327 23.003716052325217 0 0 0 0 164.42569602986759 -77.774411420813522 0 -77.774411420813522 35.070637360524415 0 0 0 0 208.06090033124974 -7.9569586217731967 0 -7.9569586217731967 67.210384465997777 0 0 0 0 265.94218078469248 -90.737655100731217 0 -90.737655100731217 50.008134493448779 0 0 0 0 391.46521486405254 -3.2114294715283904 0 -3.2114294715283904 63.202439557718208 0 0 0 0 179.07728679333377 -135.14907227898755 0 -135.14907227898755 69.931383645247934 0 0 0 0 181.84469618985077 -102.17335959332149 0 -102.17335959332149 77.840831160771813 0 0 0 0 358.23574309510332 -138.84617155006208 0 -138.84617155006208 77.455970156664534 0 0 0 0 153.33333309057343 -67.954335327392528 0 -67.954335327392528 48.369913318121235 0 0 0 0 175.04903605027812 -122.66325574043469 0 -122.66325574043469 65.057195566518203 0 0 0 0 104.03369864756132 -89.688929754601304 0 -89.688929754601304 54.094935995874948 0 0 0 0 104.20245313871783 -104.17585287808492 0 -104.17585287808492 64.3346308060284 0 0 0 0 125.23311281926635 -134.58836099623204 0 -134.58836099623204 78.209264158616861 0 0 0 0 240.218974781621 -150.64444673274329 0 -150.64444673274329 68.175240660727468 0 0 0 0 9.86829423894096 6.2178053871564316 0 6.2178053871564316 9.6507911864878739 0 0 0 0 147.20251206171906 -20.783618838726852 0 -20.783618838726852 28.045730637976703 0 0 0 0 259.71994985909259 -47.230638406806065 0 -47.230638406806065 4.9866619800927765 0 0 0 0 1.4618510614313891 4.7124718230960525 0 4.7124718230960525 10.381987904627749 0 0 0 0 39.695895449966429 7.2083055276654591 0 7.2083055276654591 10.544870916125774 0 0 0 0 1.5811020268715428 2.402382479470285 0 2.402382479470285 4.4573613200285509 0 0 0 0 15.447497504444414 6.0510345893836757 0 6.0510345893836757 3.1126592597556737 0 0 0 0 5.2106527803780409 -6.2291652026613065 0 -6.2291652026613065 5.2892141534921393 0 0 0 0 3.5206850245771353 1.6339362702995057 0 1.6339362702995057 0.84585416641357147 0 0 0 0 -31.145721272634091 -51.183523010307454 0 -51.183523010307454 167.89375167322919 0 0 0 0 21.798904591155406 -61.368920124927399 0 -61.368920124927399 55.221735680791426 0 0 0 0 0.80418309104224761 1.738381656306097 0 1.738381656306097 2.0331095849735679 0 0 0 0 -33.583259002678915 42.195621700918309 0 42.195621700918309 38.356057505298281 0 0 0 0 65.946674042377253 -74.647000393590815 0 -74.647000393590815 82.811266286554201 0 0 0 0 -70.659497217985518 -21.57814759974417 0 -21.57814759974417 117.80656537510413 0 0 0 0 -6.5132109409887562 -75.143355607834565 0 -75.143355607834565 94.971892973226659 0 0 0 0 25.307869773630046 -11.771478896768258 0 -11.771478896768258 106.73596141851749 0 0 0 0 103.61567353777536 -31.229637500209492 0 -31.229637500209492 105.84065259322324 0 0 0 0 71.125102168397461 121.6281541992787 0 121.6281541992787 320.58594995233352 0 0 0 0 3.5290301342384467 0.057114971504606871 0 0.057114971504606871 0.308335043951383 0 0 0 0 448.809811742649 -101.96961158664197 0 -101.96961158664197 212.80962427153418 0 0 0 0 534.27104356563677 152.68788853788669 0 152.68788853788669 68.576088281950433 0 0 0 0 518.52370432302291 151.68845647120122 0 151.68845647120122 156.73887139733597 0 0 0 0 654.65234285332099 -65.981212051591001 0 -65.981212051591001 54.988222279314869 0 0 0 0 323.79607385956206 -41.215511696651447 0 -41.215511696651447 79.390217296137962 0 0 0 0 129.40367060325934 -174.68455523660919 0 -174.68455523660919 196.88078355050584 0 0 0 0 110.07462139101335 -73.131247629725749 0 -73.131247629725749 109.75622440396523 0 0 0 0 5.5353507326933293 2.4574100643618255 0 2.4574100643618255 1.4277465758658288 0 0 0 0 442.34716872445279 -295.46229607861039 0 -295.46229607861039 200.99805113144794 0 0 0 0 61.559611323104036 -29.413245007063779 0 -29.413245007063779 -2.222490098077742 0 0 0 0 78.599501501241321 -46.901723805428901 0 -46.901723805428901 -21.200323349989048 0 0 0 0 68.21513966917064 -33.560970396862103 0 -33.560970396862103 -30.691281776761571 0 0 0 0 -32.2714713642672 -139.04340585472076 0 -139.04340585472076 -20.020298510529642 0 0 0 0 168.24818844062247 78.101579800633047 0 78.101579800633047 -75.546305462952816 0 0 0 0 66.241637318980153 -21.42670786019805 0 -21.42670786019805 5.8136182487984298 0 0 0 0 66.275207248871084 -19.99590337555901 0 -19.99590337555901 -3.4317744112654509 0 0 0 0 65.021649528920534 -8.1311919278198275 0 -8.1311919278198275 -42.195916950391862 0 0 0 0 235.42055062284635 -176.83880376908792 0 -176.83880376908792 -118.25086669885536 0 0 0 0 55.136947935481558 -13.31973164995677 0 -13.31973164995677 -8.4346095184297631 0 0 0 0 128.98024611348961 -133.41426473928274 0 -133.41426473928274 125.6446496538706 0 0 0 0 77.012085818365449 -40.798616568514262 0 -40.798616568514262 -44.183951695669833 0 0 0 0 1.1587139722684014 163.39266267038471 0 163.39266267038471 11.10268238655317 0 0 0 0 28.04898800661249 -45.846663582485007 0 -45.846663582485007 2.1359723384575773 0 0 0 0 39.099799721144791 13.981065572153966 0 13.981065572153966 -24.185306898554472 0 0 0 0 44.896018078481575 -58.271082015317006 0 -58.271082015317006 -27.371177857807197 0 0 0 0 49.779414259058896 -13.96158244169756 0 -13.96158244169756 -8.99583426845847 0 0 0 0 1.3710373419494317 25.928693353563176 0 25.928693353563176 101.67117868896457 0 0 0 0 -14.70207417101733 -31.611819192509302 0 -31.611819192509302 170.82462160133241 0 0 0 0 18.270817543226769 -9.8900697982389829 0 -9.8900697982389829 158.82127646662502 0 0 0 0 33.580940883569383 -20.815166370789029 0 -20.815166370789029 159.17389831641776 0 0 0 0 -0.029449917199407372 0.90276626357263101 0 0.90276626357263101 1.4073784790268533 0 0 0 0 0.68165182324532392 1.2343829656212639 0 1.2343829656212639 0.79975582241680687 0 0 0 0 42.273694200275258 -10.009891435020563 0 -10.009891435020563 -13.069046923533222 0 0 0 0 122.22875564428944 12.518354216419766 0 12.518354216419766 -16.586754083668353 0 0 0 0 91.177901239082075 46.326802013326187 0 46.326802013326187 12.032052613663382 0 0 0 0 140.05855078468502 77.527880327911987 0 77.527880327911987 -1.1285750192428168 0 0 0 0 137.49230278891451 33.039275179632568 0 33.039275179632568 172.11284873624845 0 0 0 0 171.71102743584086 -46.101529075575712 0 -46.101529075575712 51.108895622246337 0 0 0 0 83.896138847516227 92.467662608173896 0 92.467662608173896 41.11833380612461 0 0 0 0 44.809550125781129 63.980800833863441 0 63.980800833863441 23.520719736839283 0 0 0 0 76.387876034936895 66.495551970458678 0 66.495551970458678 7.1429916173337915 0 0 0 0 88.56230005762518 58.218977063018883 0 58.218977063018883 -8.3685665874349979 0 0 0 0 91.336058237798397 70.99607674670392 0 70.99607674670392 6.6963975526780359 0 0 0 0 53.221180029639754 13.953163807575265 0 13.953163807575265 -9.9577837169708658 0 0 0 0 102.23068542173291 33.506310889324141 0 33.506310889324141 -10.893336037845202 0 0 0 0 56.591967645808836 -52.401361164128275 0 -52.401361164128275 -12.613306463660592 0 0 0 0 55.052915267908311 -14.068868947845182 0 -14.068868947845182 -7.6573241300623129 0 0 0 0 42.854180773558255 106.81693286240022 0 106.81693286240022 -75.177923992874639 0 0 0 0 206.37128712411527 89.592893088787378 0 89.592893088787378 26.939006145829808 0 0 0 0 135.72139318123845 81.070097749775414 0 81.070097749775414 100.93888440935348 0 0 0 0 162.23681380232847 30.478263151683677 0 30.478263151683677 -22.081514488475932 0 0 0 0 98.553449391280992 80.600630538187602 0 80.600630538187602 26.572643493139822 0 0 0 0 72.067894684165779 74.461605228330995 0 74.461605228330995 42.220190075696337 0 0 0 0 83.893763035793654 63.920877251847287 0 63.920877251847287 7.8890548579788629 0 0 0 0 22.459570830343182 109.99854792570977 0 109.99854792570977 139.57177134339327 0 0 0 0 13.457640940383328 43.822324742547806 0 43.822324742547806 41.158651291676506 0 0 0 0 -3.0870969251454881 43.917858987977979 0 43.917858987977979 52.509490767804436 0 0 0 0 9.8636701493306873 25.666176628617222 0 25.666176628617222 38.215102950140135 0 0 0 0 26.43361078559434 33.145006099498005 0 33.145006099498005 9.7617158834318616 0 0 0 0 31.254944496922576 21.206690941646002 0 21.206690941646002 39.206123575506354 0 0 0 0 -10.286713369485483 -2.5201447032802662 0 -2.5201447032802662 26.054798819672669 0 0 0 0 -13.382645767380325 5.0866457570238026 0 5.0866457570238026 67.314606515096784 0 0 0 0 -16.355721779021906 13.557163018462234 0 13.557163018462234 43.374144267248084 0 0 0 0 -19.384806683013146 11.75772522580823 0 11.75772522580823 10.820694342524803 0 0 0 0 -18.220932400312144 47.935048130821855 0 47.935048130821855 -10.160182539972084 0 0 0 0 2.5197144621489969 59.264764012827669 0 59.264764012827669 -0.1401289577179341 0 0 0 0 5.1123273846361936 32.397162854428075 0 32.397162854428075 27.339413829650766 0 0 0 0 0.11835756381423335 0.63370892443554183 0 0.63370892443554183 -0.51002432209732618 0 0 0 0 19.346947167766814 22.071505486519982 0 22.071505486519982 11.729274652356708 0 0 0 0 15.553275656804146 10.78823783853295 0 10.78823783853295 4.6372979935645162 0 0 0 0 -2.2212224237607927 7.9150280171645591 0 7.9150280171645591 -8.3494412724876383 0 0 0 0 -23.567194580169371 24.568095212334811 0 24.568095212334811 38.186681970154552 0 0 0 0 7.9926567380268807 9.8146870161544939 0 9.8146870161544939 -82.881596595022529 0 0 0 0 5.0400830302495478 24.543027366081787 0 24.543027366081787 -15.396958430750601 0 0 0 0 -5.8220852701682588 18.263292983106567 0 18.263292983106567 -15.594018745179937 0 0 0 0 -4.2920270026364165 20.137731027272821 0 20.137731027272821 53.388623963380724 0 0 0 0 -43.80008726215442 18.962012519350083 0 18.962012519350083 80.780653575006454 0 0 0 0 4.2539633044788161 3.5365544827418489 0 3.5365544827418489 -12.137107258518881 0 0 0 0 0.043006219148138181 1.7445742342746708 0 1.7445742342746708 -0.4484965221939694 0 0 0 0 9.5993011018280185 -0.27726028598863195 0 -0.27726028598863195 0.26397417701446102 0 0 0 0 4.8917125050454615 8.5814285558826668 0 8.5814285558826668 -22.530059463757425 0 0 0 0 6.7866689271521983 2.3449170695045662 0 2.3449170695045662 1.4886275688831079 0 0 0 0 0.060051544784010868 0.19460451335302609 0 0.19460451335302609 2.1014436518593769 0 0 0 0 1.8916217291604154 -0.18060087284605819 0 -0.18060087284605819 1.1229541448126028 0 0 0 0 7.1921067278849478 2.1379881923526227 0 2.1379881923526227 48.80865054590501 0 0 0 0 203.02761981328621 52.32166242032099 0 52.32166242032099 16.78731593730663 0 0 0 0 163.61117841298619 41.869076889536245 0 41.869076889536245 14.119127963647543 0 0 0 0 204.51872165025782 149.48421876396924 0 149.48421876396924 58.570430872350698 0 0 0 0 -0.21480277698994432 -0.19864343402921114 0 -0.19864343402921114 1.1409357082320764 0 0 0 0 203.91089500630511 145.50881179843157 0 145.50881179843157 69.407933869668341 0 0 0 0 274.37035886996136 0.46202082988997972 0 0.46202082988997972 27.54021551406754 0 0 0 0 336.01758583981473 82.275463567026236 0 82.275463567026236 100.67883837836712 0 0 0 0 255.64453586233765 118.55446633805983 0 118.55446633805983 90.289070852991699 0 0 0 0 0.31783297142176092 0.97417691145313334 0 0.97417691145313334 1.2850948280969963 0 0 0 0 246.61308879401309 69.910115821190601 0 69.910115821190601 -27.754866193805356 0 0 0 0 7.2959841159936332 -10.610014625878193 0 -10.610014625878193 32.216519819997529 0 0 0 0 -10.736896302485846 21.771839338633267 0 21.771839338633267 12.612347707720346 0 0 0 0 141.50429010711696 142.97145762831633 0 142.97145762831633 112.70690548651464 0 0 0 0 -11.82529312444467 18.506783820545252 0 18.506783820545252 168.6207784768053 0 0 0 0 37.123185576004062 45.573445883049999 0 45.573445883049999 22.643280838055944 0 0 0 0 26.119245414838588 53.632013985037247 0 53.632013985037247 47.933786573379393 0 0 0 0 50.696613667338625 58.558021502351949 0 58.558021502351949 -21.788029840550962 0 0 0 0 56.447159286725309 77.345527369577667 0 77.345527369577667 24.801034798544293 0 0 0 0 149.04143792095601 72.762670645054641 0 72.762670645054641 -31.421259568145615 0 0 0 0 133.72895023404908 29.445972320204419 0 29.445972320204419 -58.380947996297436 0 0 0 0 137.48652650647864 12.150614277887598 0 12.150614277887598 -35.809588632045234 0 0 0 0 175.37880972459789 57.876654080367643 0 57.876654080367643 -0.62939221954957247 0 0 0 0 318.95361520636561 -58.573075164134934 0 -58.573075164134934 -96.656336918982561 0 0 0 0 163.95845884597475 -39.29659570783906 0 -39.29659570783906 -128.42012123185486 0 0 0 0 60.565705870249985 -128.57225272685537 0 -128.57225272685537 -115.61672306331411 0 0 0 0 602.11432428073113 62.14693342893861 0 62.14693342893861 -59.887135090550373 0 0 0 0 9.5598355107511637 -11.448249446048788 0 -11.448249446048788 9.1057308175594009 0 0 0 0 -350.6552164788074 -396.91191325732348 0 -396.91191325732348 -41.916639561804004 0 0 0 0 307.06252745995766 6.8833880310407949 0 6.8833880310407949 14.051365299985264 0 0 0 0 336.06186772944443 -15.769727312905957 0 -15.769727312905957 7.815335299279468 0 0 0 0 234.59913492350597 -334.69228712668746 0 -334.69228712668746 -12.244827805985551 0 0 0 0 -190.91839401169409 -71.650204190427758 0 -71.650204190427758 -105.66727219656559 0 0 0 0 -33.739722537201942 -242.65492650579381 0 -242.65492650579381 -121.20408442672681 0 0 0 0 13.461626622637166 -16.438909511290358 0 -16.438909511290358 13.839036441216365 0 0 0 0 262.34092454569236 -10.818896320814474 0 -10.818896320814474 20.959220029336393 0 0 0 0 113.75067827695716 -4.1406821672683236 0 -4.1406821672683236 -92.956457513228997 0 0 0 0 173.63271845474651 30.233622597749559 0 30.233622597749559 64.047020822113154 0 0 0 0 79.810889487840541 3.5346128768860581 0 3.5346128768860581 -77.689693200928104 0 0 0 0 116.80976829690485 -26.964589304900642 0 -26.964589304900642 61.721138046417764 0 0 0 0 15.444546457810286 -19.323438940603378 0 -19.323438940603378 18.077210170351833 0 0 0 0 25.803045088195177 -34.631493498738109 0 -34.631493498738109 -48.14183089258222 0 0 0 0 294.74773033757492 -10.888992706667068 0 -10.888992706667068 16.528948327944818 0 0 0 0 295.3157830175528 -10.553165005497249 0 -10.553165005497249 8.9111408444799167 0 0 0 0 306.59196555689419 -43.865439151432611 0 -43.865439151432611 70.475376133123063 0 0 0 0 294.95874931435401 -25.053846901818133 0 -25.053846901818133 88.899232771781953 0 0 0 0 309.37050869366522 24.363259429143909 0 24.363259429143909 101.00580278352118 0 0 0 0 279.49274185871946 101.55756410943741 0 101.55756410943741 351.59868608628472 0 0 0 0 267.46502073100214 51.540751233932269 0 51.540751233932269 143.8263366518172 0 0 0 0 273.15740254540287 69.422232389508736 0 69.422232389508736 129.62811004257128 0 0 0 0 206.53590284928578 134.90269731455237 0 134.90269731455237 165.88421703493702 0 0 0 0 191.54862291477093 77.494213489374943 0 77.494213489374943 167.55341707347998 0 0 0 0 167.58599132373865 56.360033746608678 0 56.360033746608678 53.104379925909598 0 0 0 0 178.2225874882165 41.497674155850291 0 41.497674155850291 71.496711274191512 0 0 0 0 64.542194108891636 23.992592945219485 0 23.992592945219485 69.35924781705603 0 0 0 0 164.27727173156404 52.755906468411467 0 52.755906468411467 35.020829476163726 0 0 0 0 147.20938773569196 84.571238224182025 0 84.571238224182025 131.10824667074303 0 0 0 0 201.60779821104097 125.22925122827428 0 125.22925122827428 74.417910178178317 0 0 0 0 222.7889214433003 150.0049539491265 0 150.0049539491265 93.21073301735305 0 0 0 0 205.65237728111504 90.447351607175506 0 90.447351607175506 16.564648758067051 0 0 0 0 154.17907362648475 82.568004900937694 0 82.568004900937694 56.50977909911353 0 0 0 0 287.96676376309279 138.11298594123764 0 138.11298594123764 40.682235399199271 0 0 0 0 351.57747721441501 137.83837503985956 0 137.83837503985956 25.580212857561037 0 0 0 0 113.80601289674405 155.87125693607754 0 155.87125693607754 104.90716835881767 0 0 0 0 190.93000694136299 161.63254567351487 0 161.63254567351487 105.33728360760023 0 0 0 0 200.45986463224199 100.4301624972818 0 100.4301624972818 92.201967406144377 0 0 0 0 153.94319806355725 5.3736587581083768 0 5.3736587581083768 35.303504944559791 0 0 0 0 90.997227214398208 84.619076977318628 0 84.619076977318628 98.39313834441873 0 0 0 0 138.1221118807498 2.5296690223276528 0 2.5296690223276528 55.055663395103693 0 0 0 0 257.38462469969727 22.140661096670556 0 22.140661096670556 55.715855806463978 0 0 0 0 180.1557763159758 85.66066526563236 0 85.66066526563236 100.4543047499219 0 0 0 0 294.94216090936789 96.499654048481034 0 96.499654048481034 101.46640840442615 0 0 0 0 202.50528474576595 117.39451462626494 0 117.39451462626494 122.36237622043154 0 0 0 0 163.37899540252238 143.22812482261406 0 143.22812482261406 118.20517911439765 0 0 0 0 117.4281695946226 -16.097797807463536 0 -16.097797807463536 9.2743187438954919 0 0 0 0 116.6165070459092 2.3536980908866099 0 2.3536980908866099 14.776697993929702 0 0 0 0 119.96526549509053 2.1123947873147699 0 2.1123947873147699 11.070650453003395 0 0 0 0 142.81090036654359 20.57510360973356 0 20.57510360973356 5.4143776956116199 0 0 0 0 105.19547904638875 29.003443954644354 0 29.003443954644354 8.876640453417167 0 0 0 0 87.489301856677329 21.335751278408871 0 21.335751278408871 4.5191846878534925 0 0 0 0 100.79976524803897 -3.2506459618010695 0 -3.2506459618010695 12.793013973107008 0 0 0 0 93.395629089319982 -17.77744228115921 0 -17.77744228115921 13.819196981257846 0 0 0 0 15.35240059882608 -33.823014240560497 0 -33.823014240560497 92.642398682057319 0 0 0 0 29.200991280077996 -19.518967310627321 0 -19.518967310627321 27.671388344261029 0 0 0 0 147.96066565236697 36.740096707198973 0 36.740096707198973 11.60736016247256 0 0 0 0 202.98346149695317 -12.806164369690123 0 -12.806164369690123 23.868659186843388 0 0 0 0 16.010472787636765 -23.365290390843093 0 -23.365290390843093 24.475927275713513 0 0 0 0 76.942732494464508 -24.136105416752116 0 -24.136105416752116 29.38424698924058 0 0 0 0 39.397420545603381 -33.055476447790625 0 -33.055476447790625 52.128895024680787 0 0 0 0 66.109568170325019 4.8391099178911645 0 4.8391099178911645 30.146849276309695 0 0 0 0 28.97356869063492 -15.768413390815113 0 -15.768413390815113 38.12217287538715 0 0 0 0 16.866163059396911 -21.313797356562532 0 -21.313797356562532 21.646741545942241 0 0 0 0 115.22338902489719 73.512664673254221 0 73.512664673254221 68.747606292362889 0 0 0 0 105.44056335402365 -58.193618218411984 0 -58.193618218411984 112.35308377749971 0 0 0 0 -2.3973661355771938 -0.066681681043167629 0 -0.066681681043167629 2.3124246591517306 0 0 0 0 240.65152039875829 7.2777839426007631 0 7.2777839426007631 9.930580646531098 0 0 0 0 89.653156133800849 26.574466754177365 0 26.574466754177365 122.58615865558932 0 0 0 0 263.94145202424716 -104.46078747456977 0 -104.46078747456977 21.249386921856512 0 0 0 0 115.15807148268914 -30.598795606049521 0 -30.598795606049521 -14.24089827897842 0 0 0 0 65.646053944488813 11.822284954103452 0 11.822284954103452 17.712559225627956 0 0 0 0 88.99338023462586 62.899290323146914 0 62.899290323146914 -39.543692193137758 0 0 0 0 83.172860305216091 14.112003205217661 0 14.112003205217661 -96.062237113464107 0 0 0 0 13.567458544763667 9.1287007457659683 0 9.1287007457659683 -93.944826527849727 0 0 0 0 94.024354272066375 -66.418631517806716 0 -66.418631517806716 -40.059472716824075 0 0 0 0 47.760714376925534 10.268609301772813 0 10.268609301772813 32.891266864537101 0 0 0 0 71.112681591782348 29.637839463265664 0 29.637839463265664 -38.249151229710151 0 0 0 0 83.858744501570072 41.93515657069247 0 41.93515657069247 -92.307232339242546 0 0 0 0 79.742425694086705 14.451722607907868 0 14.451722607907868 -42.279503934010791 0 0 0 0 100.10357166421181 10.655507078982737 0 10.655507078982737 -103.66943687704816 0 0 0 0 6.831084363920553 -1.7578446308945459 0 -1.7578446308945459 0.085627763610832019 0 0 0 0 86.884449800944367 32.065818622992083 0 32.065818622992083 -132.1520957818193 0 0 0 0 101.96873940200476 11.381332605298667 0 11.381332605298667 -109.92477824027128 0 0 0 0 399.55561303832928 188.24460538912672 0 188.24460538912672 -13.115533184739888 0 0 0 0 6.2212030985246685 -1.6073237937496287 0 -1.6073237937496287 0.082611601889187369 0 0 0 0 54.328525443441322 -74.022020491659987 0 -74.022020491659987 -219.22410227791715 0 0 0 0 18.592432068420749 26.473886877805398 0 26.473886877805398 -92.917933530774462 0 0 0 0 53.831433416321488 -8.2224635009956728 0 -8.2224635009956728 -211.92764362005778 0 0 0 0 84.598597403195527 23.456375885477428 0 23.456375885477428 -92.062130524283475 0 0 0 0 41.040553292277764 108.95503440081893 0 108.95503440081893 10.759710416130929 0 0 0 0 47.347301912325747 65.053900791591332 0 65.053900791591332 81.819235061255313 0 0 0 0 21.499132583557184 40.693768336965832 0 40.693768336965832 95.001024748506552 0 0 0 0 32.356357754495548 -48.845854145918565 0 -48.845854145918565 269.89414727047551 0 0 0 0 74.786850923264865 63.290589807198558 0 63.290589807198558 81.308279146139284 0 0 0 0 282.551725547204 -376.56860944935408 0 -376.56860944935408 -195.11419351927088 0 0 0 0 2.7936400532941512 -1.4788523965351796 0 -1.4788523965351796 0.47653874091696657 0 0 0 0 65.537964282754729 227.65219322117991 0 227.65219322117991 118.21649188859919 0 0 0 0 287.2210198924563 -25.881557352268828 0 -25.881557352268828 336.24831614018467 0 0 0 0 389.85751734513269 99.137464053210465 0 99.137464053210465 30.760435338603429 0 0 0 0 0.12441288598747313 0.97483618931483385 0 0.97483618931483385 5.8126309807914822 0 0 0 0 334.76208588940972 49.315542830500021 0 49.315542830500021 29.911580581308499 0 0 0 0 219.86991152587404 -86.172348046193662 0 -86.172348046193662 70.641871957279363 0 0 0 0 114.68262062893155 -2.6978391520081004 0 -2.6978391520081004 33.197546650417621 0 0 0 0 265.70748498802732 59.162704811504909 0 59.162704811504909 28.533640118571839 0 0 0 0 76.487249585436984 21.991984008729105 0 21.991984008729105 97.246960981729899 0 0 0 0 119.81357574759022 -17.994045961491111 0 -17.994045961491111 44.391853283820637 0 0 0 0 106.22685609266773 -14.843344194837073 0 -14.843344194837073 82.203504851085199 0 0 0 0 116.3928386331354 -12.274415072396891 0 -12.274415072396891 32.092501437346073 0 0 0 0 107.74924886652298 -8.5346743518073254 0 -8.5346743518073254 31.74236963106577 0 0 0 0 97.613803324626133 1.984377878392479 0 1.984377878392479 31.253939614193541 0 0 0 0 108.55959970498043 -2.353481243075521 0 -2.353481243075521 40.030345523012329 0 0 0 0 108.19741117970807 -5.0905781393294092 0 -5.0905781393294092 34.578771732285986 0 0 0 0 107.80783282802577 3.9646942666597909 0 3.9646942666597909 25.449535468705108 0 0 0 0 104.86946236408039 -2.2465219889340915 0 -2.2465219889340915 38.578773778331197 0 0 0 0 -0.012029088622247386 0.14210715949626795 0 0.14210715949626795 16.590968657254042 0 0 0 0 109.6569707075414 0.12779504704599276 0 0.12779504704599276 24.850464985795952 0 0 0 0 145.13649095219944 169.92739882772952 0 169.92739882772952 -63.586256119954243 0 0 0 0 0.0052201924611035011 -1.7108888603449515 0 -1.7108888603449515 21.171140251836587 0 0 0 0 -180.49263435947182 -96.690889071789229 0 -96.690889071789229 1191.7789739722839 0 0 0 0 98.978052884943281 4.8924852302907311 0 4.8924852302907311 30.863377159643278 0 0 0 0 99.108187565081607 15.064634564132348 0 15.064634564132348 22.228191813830904 0 0 0 0 92.722111319430041 13.867989331462695 0 13.867989331462695 27.654816262596796 0 0 0 0 92.366779999692881 14.405120323108122 0 14.405120323108122 27.694559099653361 0 0 0 0 92.916169668375005 14.22313181400807 0 14.22313181400807 27.721938585568751 0 0 0 0 123.4812042913909 27.314389256221943 0 27.314389256221943 8.81242004708065 0 0 0 0 0.91969274514886035 -2.232684035316618 0 -2.232684035316618 13.417729147054144 0 0 0 0 108.59542873401097 13.374925430824192 0 13.374925430824192 24.533353525975144 0 0 0 0 86.403353144927678 27.126729006408141 0 27.126729006408141 20.0998304375521 0 0 0 0 82.683459031322855 11.519338040758612 0 11.519338040758612 27.182718585567955 0 0 0 0 95.033953888914766 -5.1179635224393678 0 -5.1179635224393678 28.574145390599483 0 0 0 0 76.108789639522001 -0.75961573041217889 0 -0.75961573041217889 27.856038137177507 0 0 0 0 84.484202967904366 -21.905644416504771 0 -21.905644416504771 24.922397244722561 0 0 0 0 105.26543489750793 -11.632681989334287 0 -11.632681989334287 27.87962637679675 0 0 0 0 86.588776051413333 -11.504184726918766 0 -11.504184726918766 28.519437226262198 0 0 0 0 82.215373692882167 5.3407639696433762 0 5.3407639696433762 30.121386093465389 0 0 0 0 101.4822457801738 4.530611282864129 0 4.530611282864129 29.319514438209353 0 0 0 0 159.7761948537227 79.755223052897691 0 79.755223052897691 35.542330323609121 0 0 0 0 123.15749229751964 83.884833960136575 0 83.884833960136575 66.962052247858082 0 0 0 0 34.704756376899695 0.92831235597772999 0 0.92831235597772999 -2.2279440530679939 0 0 0 0 26.631698835662974 33.411143235962157 0 33.411143235962157 -35.812595113660336 0 0 0 0 68.187972276981782 43.552131276165198 0 43.552131276165198 50.020619799756901 0 0 0 0 7.8189556586118325 1.3514096437340797 0 1.3514096437340797 -5.2392350388364362 0 0 0 0 24.999069129660526 4.3775435134041034 0 4.3775435134041034 -4.3059951515634864 0 0 0 0 152.66759358920899 49.302508008652467 0 49.302508008652467 -5.9781248099502591 0 0 0 0 145.97485703901566 90.45498613922399 0 90.45498613922399 45.905232555131533 0 0 0 0 199.71159717909177 104.73481035918473 0 104.73481035918473 3.5512370460558031 0 0 0 0 196.07734422471367 118.76134643401576 0 118.76134643401576 -9.3605601286284355 0 0 0 0 374.40416448857286 156.53208236599858 0 156.53208236599858 -69.171846174236862 0 0 0 0 267.10218189054467 193.69917852319827 0 193.69917852319827 69.600841072432104 0 0 0 0 159.00895295844293 -123.45964796729737 0 -123.45964796729737 -135.15404262523603 0 0 0 0 336.86899656801916 65.711934196532525 0 65.711934196532525 -199.32810291277474 0 0 0 0 559.59671723603606 229.74426817263065 0 229.74426817263065 -82.919011407652533 0 0 0 0 439.55845137301185 -123.08218853725657 0 -123.08218853725657 -545.07359805237684 0 0 0 0 374.21754734067326 651.47989365848616 0 651.47989365848616 643.96037642378883 0 0 0 0 758.23004808648511 392.38219954020406 0 392.38219954020406 -327.41658406674514 0 0 0 0 220.09866643366513 206.99641475173962 0 206.99641475173962 219.27651991156563 0 0 0 0 152.9282111326047 110.30376717277659 0 110.30376717277659 82.419075046785991 0 0 0 0 12.123873758349582 -0.68263621153152787 0 -0.68263621153152787 0.91852868377451946 0 0 0 0 -50.24561944862262 -4.0652165096922772 0 -4.0652165096922772 62.342054776586338 0 0 0 0 233.12771357702422 -267.13329187604177 0 -267.13329187604177 262.3070872417311 0 0 0 0 174.53075824460529 -96.393780583586249 0 -96.393780583586249 74.005048797755535 0 0 0 0 719.36088277200906 -378.8053908497709 0 -378.8053908497709 -74.756171939302021 0 0 0 0 395.86926314571792 -120.16102256446754 0 -120.16102256446754 -164.79985291000941 0 0 0 0 788.67039073828346 -69.439896854642939 0 -69.439896854642939 -388.30903506177719 0 0 0 0 445.65315573940279 230.9610873620606 0 230.9610873620606 -441.34006134199325 0 0 0 0 561.41446540837933 -49.055662824834229 0 -49.055662824834229 -153.40465967168916 0 0 0 0 378.91986420368903 31.791949090113235 0 31.791949090113235 -179.98799929592064 0 0 0 0 317.55905253518824 -60.387454895229595 0 -60.387454895229595 -22.309374335882694 0 0 0 0 317.20296133725606 -105.29507345988793 0 -105.29507345988793 -16.058798203905326 0 0 0 0 319.3886866182911 -55.067136808881401 0 -55.067136808881401 -74.273337334316523 0 0 0 0 320.37817066902517 -101.72288687633352 0 -101.72288687633352 -62.920755559420513 0 0 0 0 390.52007006521399 -19.292459884355708 0 -19.292459884355708 -61.428344535080441 0 0 0 0 238.27556418448512 -8.2736206593938277 0 -8.2736206593938277 4.2076441397495614 0 0 0 0 215.86292906774815 -20.440832202660545 0 -20.440832202660545 9.0814905477470802 0 0 0 0 5.3010103928227181 39.987690544393899 0 39.987690544393899 81.720988346114609 0 0 0 0 235.91479138203067 4.9388264149483803 0 4.9388264149483803 12.206360397168964 0 0 0 0 -1.8337654406503932 0.41966878650091877 0 0.41966878650091877 2.6199966170886455 0 0 0 0 187.58846740070385 43.144372367916276 0 43.144372367916276 48.113371673329425 0 0 0 0 1.5173103396281657 -0.74684797030406125 0 -0.74684797030406125 3.8250040488963664 0 0 0 0 -1.9230535318592956 -48.788680625400048 0 -48.788680625400048 -150.49309401800269 0 0 0 0 52.89797424139374 67.46537257057463 0 67.46537257057463 45.278109792906434 0 0 0 0 166.0834222845433 -16.033373727031972 0 -16.033373727031972 45.101294797844275 0 0 0 0 213.85809216496364 -3.8664041411793733 0 -3.8664041411793733 26.316914288425096 0 0 0 0 69.666669231948617 29.248531934762013 0 29.248531934762013 -82.158304808754338 0 0 0 0 46.033776777079765 35.4866835222183 0 35.4866835222183 25.556011871895407 0 0 0 0 49.872742687623031 23.351248952219976 0 23.351248952219976 -6.8688862370186143 0 0 0 0 30.312985707657788 45.763425689678172 0 45.763425689678172 24.653301724766152 0 0 0 0 83.571828206590908 71.123355720489144 0 71.123355720489144 -42.076592032501139 0 0 0 0 26.821303851105995 14.414127123290179 0 14.414127123290179 10.720136860089497 0 0 0 0 13.994418309284166 1.4279039905179651 0 1.4279039905179651 -3.0560881522107834 0 0 0 0 10.527166265021378 17.293707946498557 0 17.293707946498557 -13.916824383675703 0 0 0 0 29.605324026529615 10.806581428437795 0 10.806581428437795 -0.092110331845333349 0 0 0 0 10.407137576351937 9.7085028541459462 0 9.7085028541459462 -0.97426792473521839 0 0 0 0 87.02112892374771 34.793561123396103 0 34.793561123396103 -3.5685012766233513 0 0 0 0 12.131576922460226 7.9788811233271986 0 7.9788811233271986 4.0300670296572321 0 0 0 0 1.739868086121203 3.7353364357785814 0 3.7353364357785814 0.47246292423368352 0 0 0 0 -41.603989741727673 22.769564044970593 0 22.769564044970593 29.23222982883334 0 0 0 0 0.9798248547318793 2.713622206738501 0 2.713622206738501 7.3208721687491973 0 0 0 0 -0.60005419446702035 -0.86531179979374429 0 -0.86531179979374429 3.9419894071306771 0 0 0 0 1.3537666045763315 -0.068924414660738176 0 -0.068924414660738176 4.7744492901696427 0 0 0 0 21.642271938079872 5.5085144043379337 0 5.5085144043379337 5.8044798661347858 0 0 0 0 -97.384088194802928 -94.693829818175587 0 -94.693829818175587 -66.619892291960511 0 0 0 0 65.708615677171338 51.948300215722156 0 51.948300215722156 -159.59863783513731 0 0 0 0 -0.61342051130122854 -46.963381912346534 0 -46.963381912346534 -178.41970848464371 0 0 0 0 138.96483864166964 -18.385008318760839 0 -18.385008318760839 -98.034725348522443 0 0 0 0 134.72371978633629 32.943728011118552 0 32.943728011118552 -46.28431601596958 0 0 0 0 163.49776820245324 52.53109011282254 0 52.53109011282254 -14.361955550758466 0 0 0 0 207.95842633242819 79.314687285783293 0 79.314687285783293 -58.010103301252002 0 0 0 0 171.77182115833887 62.837124472126789 0 62.837124472126789 -92.179066199955287 0 0 0 0 69.795792921051543 -69.297752558648654 0 -69.297752558648654 -13.752515498431137 0 0 0 0 26.94275473580268 -24.818776918612684 0 -24.818776918612684 -54.188405952337689 0 0 0 0 -81.75588786365492 -70.121064153000361 0 -70.121064153000361 -36.531871185454293 0 0 0 0 -16.838329334220873 -93.712103095896467 0 -93.712103095896467 -112.49416883463346 0 0 0 0 -76.0544049002674 -52.890531701046484 0 -52.890531701046484 -45.934592405956664 0 0 0 0 -17.123276242082284 -98.864561184657987 0 -98.864561184657987 -166.22125910247354 0 0 0 0 419.73175162881125 104.74537959579357 0 104.74537959579357 -3.8204556978109849 0 0 0 0 -111.9458152699608 -185.85392417595051 0 -185.85392417595051 43.97816884881513 0 0 0 0 -0.87707075175094218 -0.33259457638176748 0 -0.33259457638176748 2.3387054783865731 0 0 0 0 -34.887716680501399 -101.73719362194686 0 -101.73719362194686 11.515670131874685 0 0 0 0 74.136230295344944 -119.84293860361504 0 -119.84293860361504 13.607336676580758 0 0 0 0 70.580723327767146 -311.33685896058614 0 -311.33685896058614 -83.315948065809607 0 0 0 0 11.526045016884382 -190.96308732505031 0 -190.96308732505031 42.998341844393053 0 0 0 0 -41.498528671202166 -160.71924309258884 0 -160.71924309258884 100.57788533135772 0 0 0 0 -116.16622899865865 -175.10767919718774 0 -175.10767919718774 101.95138746873033 0 0 0 0 -33.928480290589505 -58.947376742664346 0 -58.947376742664346 52.203366369054493 0 0 0 0 447.14783717608111 -111.66104315161783 0 -111.66104315161783 -79.424383473412945 0 0 0 0 372.90739781252876 209.41528908300779 0 209.41528908300779 44.604206617559612 0 0 0 0 233.25895564053371 196.04235228389553 0 196.04235228389553 267.22993740598736 0 0 0 0 433.65381410675218 -109.24187262906344 0 -109.24187262906344 423.56336735828882 0 0 0 0 35.148709138037361 -57.584303769611324 0 -57.584303769611324 -7.367358906145455 0 0 0 0 266.90800549856885 110.60528794667856 0 110.60528794667856 -26.026156534630445 0 0 0 0 274.81988004914001 72.081511130849321 0 72.081511130849321 33.30821063030362 0 0 0 0 271.21235982954204 56.36000153539203 0 56.36000153539203 43.083193980786291 0 0 0 0 333.8529750392986 -25.916026812014252 0 -25.916026812014252 149.25901745425108 0 0 0 0 365.32565051977508 -20.271437867315399 0 -20.271437867315399 -49.111488284406278 0 0 0 0 342.55377386643954 48.758492298081194 0 48.758492298081194 -11.248471275582688 0 0 0 0 469.65169588500339 39.688408454478122 0 39.688408454478122 -23.198748150886331 0 0 0 0 221.2024481964836 31.51662936035973 0 31.51662936035973 -2.4150533687961797 0 0 0 0 202.00016010797935 -126.96615323247852 0 -126.96615323247852 14.841989594997358 0 0 0 0 184.41321823601896 80.077655650863974 0 80.077655650863974 102.23733760982668 0 0 0 0 219.88465956745131 101.62809308065243 0 101.62809308065243 127.10182592648744 0 0 0 0 307.34766320106564 108.4981740256984 0 108.4981740256984 66.788549550288735 0 0 0 0 293.9605019872597 -52.345305339390961 0 -52.345305339390961 10.95545262516157 0 0 0 0 248.39837662452464 22.48690402586135 0 22.48690402586135 -70.590492734341751 0 0 0 0 -2.1734070927182074 60.927727851928921 0 60.927727851928921 52.565301545076636 0 0 0 0 -85.334928372542151 -164.51163010048208 0 -164.51163010048208 -38.950932228590318 0 0 0 0 -132.94453574561703 -22.003514534820852 0 -22.003514534820852 117.08687325903793 0 0 0 0 3.1688041766738726 -3.5540275909443526 0 -3.5540275909443526 4.0166095020922761 0 0 0 0 1257.5783134245073 -121.68716204839484 0 -121.68716204839484 -208.30802282170589 0 0 0 0 1274.7153633258467 480.00537413494112 0 480.00537413494112 -84.654584307716505 0 0 0 0 749.47328402725543 -438.63128967509874 0 -438.63128967509874 171.71362573688384 0 0 0 0 659.88735585176664 -106.72737256232972 0 -106.72737256232972 -149.55965208090856 0 0 0 0 251.97734104823576 225.89162346511966 0 225.89162346511966 -32.613553775299806 0 0 0 0 -353.79561529375303 -48.059790945953864 0 -48.059790945953864 19.972471443581526 0 0 0 0 -486.97756025920921 -443.57838276507437 0 -443.57838276507437 -22.557350037921424 0 0 0 0 -71.942574163306574 -108.56548772420365 0 -108.56548772420365 -299.47229779771624 0 0 0 0 691.68838487488301 242.33374724024998 0 242.33374724024998 188.58172573779484 0 0 0 0 0.56343575561742654 -0.46930803083022288 0 -0.46930803083022288 -1.2034772218515783 0 0 0 0 645.36718400865163 73.492537543203753 0 73.492537543203753 -44.654908479038568 0 0 0 0 640.79381217672426 366.02551038557203 0 366.02551038557203 66.01028757630047 0 0 0 0 -113.8622525603605 -139.09145929971919 0 -139.09145929971919 -57.039724423391817 0 0 0 0 35.812417945373227 -59.681828497091146 0 -59.681828497091146 -83.380517636731383 0 0 0 0 17.569886313231336 -25.812143457760158 0 -25.812143457760158 -57.662294798607036 0 0 0 0 45.820941558808954 -29.692735259201982 0 -29.692735259201982 -57.160230557720752 0 0 0 0 12.446543031374649 3.8718816468918407 0 3.8718816468918407 -3.0366922183018161 0 0 0 0 30.313867348194435 -23.685901298689714 0 -23.685901298689714 -40.086298790702131 0 0 0 0 169.34222442078317 58.76261548833736 0 58.76261548833736 13.259654929483077 0 0 0 0 257.21708285792124 -156.02255541904151 0 -156.02255541904151 141.05044365548383 0 0 0 0 50.613887047244475 -19.744167421569159 0 -19.744167421569159 -60.123267647089961 0 0 0 0 33.383849241233634 -10.070077745799608 0 -10.070077745799608 -60.072580239895615 0 0 0 0 23.703683207407622 42.719873390881425 0 42.719873390881425 4.8326091093836983 0 0 0 0 -180.45488691415449 -92.378880092828695 0 -92.378880092828695 -16.571071307214879 0 0 0 0 1.2131771354173448 9.2814527913816001 0 9.2814527913816001 -0.35691841258228574 0 0 0 0 -213.95662614106914 -166.68067761015482 0 -166.68067761015482 -165.59282066203605 0 0 0 0 -360.01955688553971 -1.1040486931910891 0 -1.1040486931910891 30.30560459795015 0 0 0 0 43.307783728800132 212.759253167922 0 212.759253167922 12.488062075462949 0 0 0 0 12.391635996390454 5.9874388480746195 0 5.9874388480746195 -1.4665090352611045 0 0 0 0 77.764893133350597 -9.8931485189077648 0 -9.8931485189077648 -67.963810453063161 0 0 0 0 63.799963245648399 4.7321778496003208 0 4.7321778496003208 -3.1810693714049454 0 0 0 0 89.727891654379619 -24.433977155727007 0 -24.433977155727007 -73.454875560328219 0 0 0 0 83.232983976894047 -14.444151675569856 0 -14.444151675569856 -77.251415143206032 0 0 0 0 110.46197939761248 22.080426039133272 0 22.080426039133272 -56.348136255110148 0 0 0 0 66.182198379633064 38.916195782462637 0 38.916195782462637 -43.020954451395255 0 0 0 0 67.358249438789699 44.715114819065093 0 44.715114819065093 -22.202766313122083 0 0 0 0 49.946772514680674 20.921321207429401 0 20.921321207429401 -30.024988694099193 0 0 0 0 75.326339747385305 17.944090055796778 0 17.944090055796778 -56.030113656221147 0 0 0 0 51.586960751415063 -1.7731659613173179 0 -1.7731659613173179 -64.908305203265627 0 0 0 0 110.78515991198401 22.208978324101281 0 22.208978324101281 -28.175047404392899 0 0 0 0 81.397986920932453 -18.434815582381248 0 -18.434815582381248 -82.969788242649884 0 0 0 0 36.336804969739205 16.098421879601574 0 16.098421879601574 -24.785029982369906 0 0 0 0 58.02243212635949 7.8064672018713281 0 7.8064672018713281 -47.241037827922355 0 0 0 0 55.311413531839101 2.1125905761325914 0 2.1125905761325914 -0.84498143676349535 0 0 0 0 37.076215563600272 -9.9222448895113757 0 -9.9222448895113757 -26.419269305926719 0 0 0 0 66.424530200956724 -13.806827563883189 0 -13.806827563883189 -26.010089244856317 0 0 0 0 57.351674842071589 -8.8297745916642043 0 -8.8297745916642043 -13.199626695256484 0 0 0 0 81.659477434379369 2.8880240114315257 0 2.8880240114315257 -15.033425679566619 0 0 0 0 61.669170731787744 13.381627376011011 0 13.381627376011011 -4.0740515942275124 0 0 0 0 82.880423617851193 -10.980175740919549 0 -10.980175740919549 -38.667079777968638 0 0 0 0 93.343392310875061 25.781176848445057 0 25.781176848445057 5.1659065978633407 0 0 0 0 102.76371863417808 24.444428387572771 0 24.444428387572771 7.001277503426536 0 0 0 0 112.20831339209326 19.617451450251792 0 19.617451450251792 -14.107871528832447 0 0 0 0 108.73641359922112 19.378828674584838 0 19.378828674584838 8.4301879242416362 0 0 0 0 108.15706283440522 44.65549175649744 0 44.65549175649744 37.745007156783686 0 0 0 0 115.98443612862684 42.396192178081492 0 42.396192178081492 -0.097407782484879135 0 0 0 0 114.42402049212615 12.038623207548426 0 12.038623207548426 -11.364864923431696 0 0 0 0 97.855774141864458 27.197211611309665 0 27.197211611309665 36.149342205390226 0 0 0 0 149.62049420949188 65.352163044548149 0 65.352163044548149 -3.6279185056802135 0 0 0 0 201.10389181846767 27.315122714919994 0 27.315122714919994 15.367584946069655 0 0 0 0 196.70645548131688 51.220366590453523 0 51.220366590453523 -90.857147899702795 0 0 0 0 205.91559738793831 108.19930270167242 0 108.19930270167242 -5.183615680509547 0 0 0 0 8.9609244011371274 5.9112351371193093 0 5.9112351371193093 -8.4759680378973563 0 0 0 0 115.91215665343134 137.04257848054021 0 137.04257848054021 63.316041902615325 0 0 0 0 110.52536463300885 140.28339036484203 0 140.28339036484203 94.020190705186906 0 0 0 0 -7.4248501462729504 33.922737781602933 0 33.922737781602933 9.5089998417195911 0 0 0 0 227.70881318607758 228.34492967130427 0 228.34492967130427 92.461097826984769 0 0 0 0 48.990440180959013 204.34701369214417 0 204.34701369214417 59.306146083191379 0 0 0 0 -40.030857712442867 -21.964255029486594 0 -21.964255029486594 -72.539810390633647 0 0 0 0 26.055436409307731 200.79444738355051 0 200.79444738355051 228.18222420858001 0 0 0 0 51.909826433344278 19.573119160111673 0 19.573119160111673 29.102933508451315 0 0 0 0 122.55450462174849 41.267838556389734 0 41.267838556389734 -37.763540751701839 0 0 0 0 109.25955657601662 35.221220491558597 0 35.221220491558597 -43.413524560769986 0 0 0 0 1.918174344063118 -6.7637414955166832 0 -6.7637414955166832 16.598001085249052 0 0 0 0 7.9823686664954039 -15.671825577732307 0 -15.671825577732307 7.7548210783365903 0 0 0 0 7.2212074926619012 -1.4987472993355713 0 -1.4987472993355713 0.47021189480450865 0 0 0 0 11.591673844669629 -0.11410669697590947 0 -0.11410669697590947 21.05161079388472 0 0 0 0 24.502370169227717 13.269014414031744 0 13.269014414031744 4.3911542741998346 0 0 0 0 5.2870330388156184 3.2355207674044539 0 3.2355207674044539 1.5511335039285221 0 0 0 0 14.258130048275689 -9.9444684730578388 0 -9.9444684730578388 9.9724601224206708 0 0 0 0 10.840011635264773 -1.7296136462307459 0 -1.7296136462307459 2.5006699597024635 0 0 0 0 5.2006815635455244 3.1854254171639194 0 3.1854254171639194 2.1843202153238828 0 0 0 0 52.345255962581518 8.5685060478326704 0 8.5685060478326704 0.36515320977446208 0 0 0 0 27.114860984235008 12.166545243162091 0 12.166545243162091 -0.054197691288209171 0 0 0 0 20.724454242655142 9.8007223322322332 0 9.8007223322322332 2.4094384184466691 0 0 0 0 22.223728628930985 -0.15520576471408276 0 -0.15520576471408276 -0.094557457949122181 0 0 0 0 14.428144386138344 -1.4315467459726268 0 -1.4315467459726268 0.24211614002740589 0 0 0 0 20.319213222582221 28.542906868077353 0 28.542906868077353 1.0780830692219752 0 0 0 0 36.499134829220338 50.08851097841125 0 50.08851097841125 0.88970717516895093 0 0 0 0 37.430707170142227 24.096489290892123 0 24.096489290892123 -3.3916591090965085 0 0 0 0 43.052649859589167 18.778112707244873 0 18.778112707244873 -5.5064876967799137 0 0 0 0 46.037376411943114 20.533490992550469 0 20.533490992550469 -4.4742128859661534 0 0 0 0 53.352381857210275 -29.332343314793434 0 -29.332343314793434 -28.260362170382905 0 0 0 0 58.688690870072037 -29.586712273143974 0 -29.586712273143974 -29.652487277326145 0 0 0 0 47.109638157665614 4.8941221056290836 0 4.8941221056290836 -0.19574925906226293 0 0 0 0 45.222335751153878 -27.213598619659024 0 -27.213598619659024 -26.800689220103777 0 0 0 0 59.339365879352044 -22.239677045020471 0 -22.239677045020471 -27.553137219192195 0 0 0 0 55.41645508293368 -21.835497230666988 0 -21.835497230666988 -23.88330735072941 0 0 0 0 57.227272974701918 -5.4048872656042022 0 -5.4048872656042022 -22.982549186734104 0 0 0 0 39.275593039339583 -51.595109706993753 0 -51.595109706993753 -22.684950697836499 0 0 0 0 381.35476912906597 151.96936819025495 0 151.96936819025495 -19.279908275797425 0 0 0 0 43.051463798899931 29.538553009404268 0 29.538553009404268 -27.84358383025652 0 0 0 0 199.90573059781673 -13.211235721921184 0 -13.211235721921184 -62.492811735325176 0 0 0 0 7.7285768947757276 -1.2308856497335228 0 -1.2308856497335228 -2.7236254752299258 0 0 0 0 10.005148289762364 3.3230513424800172 0 3.3230513424800172 -8.3532475499641521 0 0 0 0 -89.775381692699739 -252.17070586226873 0 -252.17070586226873 924.59775642796012 0 0 0 0 34.271220907521638 -10.373236139087908 0 -10.373236139087908 -8.0330856244745519 0 0 0 0 17.950707401832773 7.8234165008427112 0 7.8234165008427112 2.1824808221369882 0 0 0 0 -174.61986891735614 -223.09390273115241 0 -223.09390273115241 -88.845313820681895 0 0 0 0 29.617148676356464 -7.6780806091213663 0 -7.6780806091213663 -9.1981399716978558 0 0 0 0 -115.68750045381057 -263.58814401328527 0 -263.58814401328527 -126.12090738109873 0 0 0 0 27.213462744713304 -4.4631322023448181 0 -4.4631322023448181 -0.58899448456546954 0 0 0 0 492.80408398975851 -807.90308085048855 0 -807.90308085048855 289.55797715689187 0 0 0 0 3.3619242345345057 -2.9689326421176716 0 -2.9689326421176716 2.9809840175068718 0 0 0 0 311.84477785917625 274.02040240253189 0 274.02040240253189 105.8395495171635 0 0 0 0 147.4140048620211 140.61641100881025 0 140.61641100881025 190.34805532239852 0 0 0 0 15.834844454519953 3.5230170291608829 0 3.5230170291608829 -96.745398241001112 0 0 0 0 -188.77566959544765 -206.16100730544895 0 -206.16100730544895 -92.820094629131745 0 0 0 0 105.52710558283707 65.026290159743894 0 65.026290159743894 79.697175074033112 0 0 0 0 101.17827297427357 0.34424237116400036 0 0.34424237116400036 20.010405654819806 0 0 0 0 8.4513876368378789 -9.6784836152070746 0 -9.6784836152070746 8.6847914817116827 0 0 0 0 195.14450308259723 120.89814373399167 0 120.89814373399167 40.362069478268495 0 0 0 0 121.66385231734239 64.690292679163576 0 64.690292679163576 8.7546543873086193 0 0 0 0 190.98583436409706 23.86722739206968 0 23.86722739206968 32.574055656204109 0 0 0 0 89.159464511991246 -12.328430949802168 0 -12.328430949802168 -22.530148645608278 0 0 0 0 161.96314852744035 12.161405379054258 0 12.161405379054258 -54.129690665409726 0 0 0 0 104.05829941076263 -43.745803805375317 0 -43.745803805375317 -2.3348729589661161 0 0 0 0 14.26879539731469 9.9187050308387157 0 9.9187050308387157 -0.2468301523335974 0 0 0 0 49.130834126659465 14.185571042530682 0 14.185571042530682 -11.568647282816755 0 0 0 0 2.7477363160772441 1.0741446021177126 0 1.0741446021177126 -0.47656781671382831 0 0 0 0 -120.26001097145854 36.907222475635535 0 36.907222475635535 -6.3013496516637133 0 0 0 0 29.466664771145588 129.42171623538934 0 129.42171623538934 -44.851121711331871 0 0 0 0 2.1101086404134151 -1.2324721211099492 0 -1.2324721211099492 -1.9437545101499261 0 0 0 0 5.674664904774545 -17.523677293274886 0 -17.523677293274886 -101.19428608133239 0 0 0 0 130.11444071450956 -11.765469344997712 0 -11.765469344997712 -108.46324905182337 0 0 0 0 3.6505175034617423 1.5418787316216367 0 1.5418787316216367 20.29367969527857 0 0 0 0 17.663248144254794 -109.23303037173866 0 -109.23303037173866 -25.220500081370119 0 0 0 0 2.5376967631162195 3.0853552735286058 0 3.0853552735286058 -11.346202407597808 0 0 0 0 48.708783637361194 -21.620451490976848 0 -21.620451490976848 -2.4618773095448887 0 0 0 0 62.302925536732801 -36.104119826974056 0 -36.104119826974056 -14.224597069854099 0 0 0 0 56.191922169771715 -14.311521591399242 0 -14.311521591399242 0.63659314937160616 0 0 0 0 30.22988178642936 -20.615820280676132 0 -20.615820280676132 -0.63354078478505471 0 0 0 0 62.082848861935418 -19.425678304643043 0 -19.425678304643043 0.86549494106475322 0 0 0 0 59.181384595038253 -9.3962214456048514 0 -9.3962214456048514 -8.3764710064258452 0 0 0 0 60.178148668959693 -5.4497449391519126 0 -5.4497449391519126 6.7803223541095576 0 0 0 0 8.1431197422624919 3.0841793994974118 0 3.0841793994974118 -15.638689075214701 0 0 0 0 23.716161804601143 -2.6008585730261871 0 -2.6008585730261871 18.973415935535826 0 0 0 0 100.01609131235091 30.842121073324051 0 30.842121073324051 -61.24038736251714 0 0 0 0 43.376373186254568 -32.0119420799262 0 -32.0119420799262 22.597551778832894 0 0 0 0 13.669600999563045 16.426209406349415 0 16.426209406349415 -16.224100780206072 0 0 0 0 -26.921532937780285 30.798887221097175 0 30.798887221097175 -2.9956629581879497 0 0 0 0 74.014361477817147 -36.100174238327611 0 -36.100174238327611 9.2509032665577706 0 0 0 0 -16.679326547382516 21.372512359925167 0 21.372512359925167 -40.419052259689124 0 0 0 0 12.097279645616748 3.1190426381648209 0 3.1190426381648209 -19.992776914689312 0 0 0 0 -0.020019805592511375 0.61696450674730396 0 0.61696450674730396 -0.83491418437663034 0 0 0 0 0.51243911304027989 0.98874428920614577 0 0.98874428920614577 3.767917189143315 0 0 0 0 -3.7709600280504674 10.211222603149224 0 10.211222603149224 8.4152563564182401 0 0 0 0 54.909248768166435 -1.7635942661912054 0 -1.7635942661912054 -1.7833388822644665 0 0 0 0 -61.814145751159231 28.479634236682728 0 28.479634236682728 35.53944116308719 0 0 0 0 -27.387870251572167 90.730977903097369 0 90.730977903097369 -68.343040126713504 0 0 0 0 10.025782257478546 39.471066415940321 0 39.471066415940321 -36.391305992171233 0 0 0 0 28.02152829658371 46.030896036748345 0 46.030896036748345 -36.700017165613758 0 0 0 0 55.628359389549587 -8.4166476200684883 0 -8.4166476200684883 -19.678235426892115 0 0 0 0 7.9936075009399872 14.915751880516988 0 14.915751880516988 -5.8862292486275747 0 0 0 0 20.562348283963871 -2.3613535845405593 0 -2.3613535845405593 -12.339663732971172 0 0 0 0 26.240952556570846 16.159026106955139 0 16.159026106955139 -17.306711121859962 0 0 0 0 131.56226378137217 185.5703946440035 0 185.5703946440035 -281.05995076713407 0 0 0 0 104.65356186532335 -8.6170659086239993 0 -8.6170659086239993 -68.702278909513552 0 0 0 0 94.915972571092212 -1.0599210699199446 0 -1.0599210699199446 -8.9648124702688428 0 0 0 0 34.30576083559572 84.188179153492456 0 84.188179153492456 -160.932959603575 0 0 0 0 2.436915687059809 59.445005087361551 0 59.445005087361551 -21.294968869678996 0 0 0 0 -5.7911181534098546 7.3333487770998218 0 7.3333487770998218 -7.6143941944680806 0 0 0 0 61.381104740052251 170.89059119024478 0 170.89059119024478 -4.0957417094905395 0 0 0 0 96.32634691799467 52.754238703514602 0 52.754238703514602 -14.253276906001361 0 0 0 0 53.186163899314124 238.3366549445891 0 238.3366549445891 -67.019899431256817 0 0 0 0 175.50633343947993 78.556402071957564 0 78.556402071957564 34.468826210309999 0 0 0 0 81.590410334773878 80.672170231883911 0 80.672170231883911 49.205417776985996 0 0 0 0 167.57500339763646 112.90399466591862 0 112.90399466591862 192.70787569996719 0 0 0 0 305.34570739467745 -87.814169738542205 0 -87.814169738542205 113.60542897076448 0 0 0 0 108.72483399179328 -213.3772868704678 0 -213.3772868704678 -163.11304028708582 0 0 0 0 69.771841014747224 28.245555589303649 0 28.245555589303649 1.4011566324334126 0 0 0 0 104.55764234788876 -31.481732121483219 0 -31.481732121483219 -41.095902053359168 0 0 0 0 85.602621394644302 38.478767664882611 0 38.478767664882611 0.45000583662718441 0 0 0 0 138.65286683613886 54.989008725200819 0 54.989008725200819 -1.9846027719640915 0 0 0 0 118.43082378082636 -35.181541033322674 0 -35.181541033322674 -18.22720042395369 0 0 0 0 28.298630383827931 -6.3058096102543528 0 -6.3058096102543528 -0.77288655549916729 0 0 0 0 27.934730622353527 13.539176028624297 0 13.539176028624297 11.407599672996867 0 0 0 0 2.4747261110785428 32.780841569236131 0 32.780841569236131 -6.5864272271394277 0 0 0 0 49.651141467220441 60.647601125668267 0 60.647601125668267 29.476334672226358 0 0 0 0 284.57526416676592 31.305147552744188 0 31.305147552744188 -105.28412499254318 0 0 0 0 -3.2564890865400007 33.493172970343515 0 33.493172970343515 1.1164263009990956 0 0 0 0 245.21976510569084 73.628349570830096 0 73.628349570830096 -111.67677574460561 0 0 0 0 156.02835698140962 33.154457378823849 0 33.154457378823849 1.2476994377439041 0 0 0 0 128.71607575008966 57.039568809523999 0 57.039568809523999 -21.888216986473736 0 0 0 0 160.59770059193579 66.81569807448966 0 66.81569807448966 8.849857136195169 0 0 0 0 -1.8382388384122876 2.1426071350441127 0 2.1426071350441127 -5.914004446832446 0 0 0 0 131.44524915642251 46.632105040227088 0 46.632105040227088 7.5657181512015086 0 0 0 0 119.65975945202717 15.52680780135961 0 15.52680780135961 -0.94340485955581244 0 0 0 0 119.74925006437661 1.8181319334130421 0 1.8181319334130421 4.407606641555958 0 0 0 0 134.78566636061441 33.827377525594329 0 33.827377525594329 5.4742126511375204 0 0 0 0 136.72976051828118 26.473868644675235 0 26.473868644675235 25.394420369514592 0 0 0 0 62.63392365463551 -16.361018695685402 0 -16.361018695685402 -1.006285268666943 0 0 0 0 88.959989436556953 -6.6595851632552296 0 -6.6595851632552296 -2.551771038870811 0 0 0 0 102.807979026471 15.134347776778668 0 15.134347776778668 1.0031845143224984 0 0 0 0 78.063759235654288 -2.1829148644465022 0 -2.1829148644465022 -4.3118093914075075 0 0 0 0 89.438850491684207 -12.948229413377248 0 -12.948229413377248 1.039608123355265 0 0 0 0 80.388366028339078 -19.400823829353385 0 -19.400823829353385 5.3904011688705395 0 0 0 0 93.638728646590607 5.1315937461700969 0 5.1315937461700969 7.2344256208947968 0 0 0 0 117.21270978487519 -7.203630346981754 0 -7.203630346981754 -0.19133986313818241 0 0 0 0 126.6414694045634 9.7853958157535885 0 9.7853958157535885 8.3216699446599307 0 0 0 0 117.56551401136312 -25.864999521309898 0 -25.864999521309898 -1.0321380394592552 0 0 0 0 72.518680939319893 -6.7406240949628682 0 -6.7406240949628682 9.5650052602807705 0 0 0 0 233.15566522522386 67.717264443944998 0 67.717264443944998 -10.129506709083159 0 0 0 0 164.40408608400321 63.388086883003893 0 63.388086883003893 34.911227898099355 0 0 0 0 132.67619302567255 25.697461974655369 0 25.697461974655369 10.255143049353137 0 0 0 0 170.39886396676957 37.176404551706824 0 37.176404551706824 8.6235886727177018 0 0 0 0 156.86592950712657 16.094014073302503 0 16.094014073302503 -1.686243081872135 0 0 0 0 -0.069151851755258065 1.1059055457834397 0 1.1059055457834397 -1.8943774697149138 0 0 0 0 210.37017943863611 15.381377336655277 0 15.381377336655277 -25.590712487421285 0 0 0 0 186.08053153590663 1.4509455563261326 0 1.4509455563261326 -33.449927658472063 0 0 0 0 141.89769389138382 -34.192666368020753 0 -34.192666368020753 8.1917561104260415 0 0 0 0 28.389717047553859 52.216753914654873 0 52.216753914654873 -21.546946912716521 0 0 0 0 15.351827955780209 10.27956251972741 0 10.27956251972741 1.0518132630725852 0 0 0 0 155.53293180369474 2.3913119155899238 0 2.3913119155899238 -8.3379963191001707 0 0 0 0 175.40306465836693 6.5658981961943255 0 6.5658981961943255 -8.0717314170484542 0 0 0 0 -33.117022296200957 -12.478728795031003 0 -12.478728795031003 56.356814673545841 0 0 0 0 54.52182702663049 -12.594854095488472 0 -12.594854095488472 -85.257949973914521 0 0 0 0 325.95554808403358 -410.50712330286905 0 -410.50712330286905 186.94684740348657 0 0 0 0 60.992894747529135 143.15298876290859 0 143.15298876290859 142.61992980660648 0 0 0 0 635.88629401073376 -16.907496824391558 0 -16.907496824391558 -345.18350547059401 0 0 0 0 5.1697509396863808 2.8151722849451222 0 2.8151722849451222 2.5744242224872202 0 0 0 0 327.94758249523875 372.49778159012021 0 372.49778159012021 292.1486662489927 0 0 0 0 193.86312035424635 95.209337824563192 0 95.209337824563192 -261.42896549145098 0 0 0 0 89.83800116009661 161.0595336414267 0 161.0595336414267 -256.37847550494621 0 0 0 0 284.56874806554697 53.8598375830327 0 53.8598375830327 -208.28277985756938 0 0 0 0 98.656885510015854 -26.124749895792021 0 -26.124749895792021 0.97801648116387696 0 0 0 0 7.9814126859476353 4.9205249550495722 0 4.9205249550495722 -2.5048017818536037 0 0 0 0 231.26061205553196 112.66046241738592 0 112.66046241738592 23.057339802374315 0 0 0 0 30.321103448855865 -35.444553743114852 0 -35.444553743114852 -160.48596488895214 0 0 0 0 1.2953189947720603 10.57280050523825 0 10.57280050523825 -1.7518148583837039 0 0 0 0 93.578140863492081 91.586467994751615 0 91.586467994751615 27.312096189855083 0 0 0 0 10.158474527961882 1.4736319074500304 0 1.4736319074500304 -0.14403238311539818 0 0 0 0 34.58498488207988 7.008200870399719 0 7.008200870399719 8.6360061076172343 0 0 0 0 12.739534013795492 0.21304442257294909 0 0.21304442257294909 -0.28063869811949083 0 0 0 0 16.999274769215845 -90.722027536539827 0 -90.722027536539827 -63.935862853373123 0 0 0 0 10.961984741809712 6.0800819753936359 0 6.0800819753936359 1.0593678271991198 0 0 0 0 13.697499363205569 -2.5180351016688043 0 -2.5180351016688043 -2.3134125338137932 0 0 0 0 1.4142439378404759 0.60132344251972825 0 0.60132344251972825 0.085764343704626267 0 0 0 0 3.6270682297611998 1.057058752753445 0 1.057058752753445 -1.2940754306043445 0 0 0 0 34.46624457236976 10.774188624258045 0 10.774188624258045 -52.347130253217983 0 0 0 0 -9.0286983223013522 37.201950353019413 0 37.201950353019413 -1.4795291808476065 0 0 0 0 39.570802215996082 56.480689057552382 0 56.480689057552382 5.0655421032238337 0 0 0 0 63.028951623338799 81.190401841516291 0 81.190401841516291 -144.37259868207101 0 0 0 0 -3.6001345489712548 216.95986830611596 0 216.95986830611596 50.724891019465986 0 0 0 0 76.987386132230313 68.065335299467506 0 68.065335299467506 -406.89953665640633 0 0 0 0 -33.648251053848071 -99.414931993595474 0 -99.414931993595474 -191.24231587641771 0 0 0 0 5.8840410672710277 -25.309690901646093 0 -25.309690901646093 247.15020263811869 0 0 0 0 -41.975863261166523 -26.542918298053849 0 -26.542918298053849 97.639385656483569 0 0 0 0 91.164507085322839 -24.994448744005297 0 -24.994448744005297 -92.896351289648237 0 0 0 0 156.63164066274294 -60.765741464073471 0 -60.765741464073471 -87.05691471582486 0 0 0 0 279.32830479313998 39.822785075782107 0 39.822785075782107 -34.575829284557699 0 0 0 0 161.2255056613667 -148.61768157472287 0 -148.61768157472287 124.54429398662649 0 0 0 0 122.19715852269655 -17.682475458656654 0 -17.682475458656654 71.140721635904526 0 0 0 0 264.13418313183865 -268.80069254510437 0 -268.80069254510437 491.17154079710525 0 0 0 0 149.73894294744241 224.23563510673011 0 224.23563510673011 124.59407171761471 0 0 0 0 531.04925293252199 -37.210307553061227 0 -37.210307553061227 -12.473040360011737 0 0 0 0 99.470192821456294 159.53880029123172 0 159.53880029123172 75.89504836607739 0 0 0 0 -31.86638175653934 -6.9550330635727846 0 -6.9550330635727846 -271.01574858715412 0 0 0 0 198.74156712987315 82.592249793262766 0 82.592249793262766 58.166760091549094 0 0 0 0 278.58268868402229 90.918765802972302 0 90.918765802972302 26.642149029396023 0 0 0 0 -0.86132065006225744 -1.1329365252244195 0 -1.1329365252244195 2.1063437386741066 0 0 0 0 214.79798229254811 162.68579362947537 0 162.68579362947537 56.618436659333042 0 0 0 0 272.33140465948964 322.76026646333753 0 322.76026646333753 -91.903349614470699 0 0 0 0 223.46811943661305 274.55508264783748 0 274.55508264783748 -817.6805525933446 0 0 0 0 53.552117402479773 24.959616625407016 0 24.959616625407016 11.829123526942286 0 0 0 0 -33.035601381376182 275.77498826414171 0 275.77498826414171 5.185678560611791 0 0 0 0 46.825257316697389 -88.868812834218261 0 -88.868812834218261 -105.29234779353851 0 0 0 0 -473.95588102082002 286.60469816821399 0 286.60469816821399 29.587244626808911 0 0 0 0 443.72686912888457 -295.62235002876832 0 -295.62235002876832 -529.28454940044617 0 0 0 0 164.09494915117102 66.36767660493706 0 66.36767660493706 -58.680556747787705 0 0 0 0 279.00019756419351 346.85392048694757 0 346.85392048694757 634.46324524947556 0 0 0 0 248.7199417564625 -374.66939445601378 0 -374.66939445601378 627.93799695237203 0 0 0 0 786.2630746569921 731.01486178304731 0 731.01486178304731 169.408415750014 0 0 0 0 -117.01521095247153 -235.3642074198583 0 -235.3642074198583 1212.7540039998962 0 0 0 0 -0.28903861992591828 6.577625126911844 0 6.577625126911844 10.190827054688935 0 0 0 0 -434.53950569667722 -99.164327064975168 0 -99.164327064975168 62.427307740597939 0 0 0 0 36.418506868161785 133.09268098986104 0 133.09268098986104 176.75201610792101 0 0 0 0 -317.00837215426509 733.09790255905045 0 733.09790255905045 402.93981224452818 0 0 0 0 -294.97958696609612 349.85958226339335 0 349.85958226339335 454.43102823604977 0 0 0 0 11.994654142679266 9.2184769094909402 0 9.2184769094909402 7.0026323597365598 0 0 0 0 710.92376212207091 -481.06420085481022 0 -481.06420085481022 198.71431464814373 0 0 0 0 151.86756017742846 -108.96613840561179 0 -108.96613840561179 67.099445078908957 0 0 0 0 38.438000747440206 21.323401858829207 0 21.323401858829207 10.206232785427314 0 0 0 0 200.77080293563813 851.6125313523404 0 851.6125313523404 -652.89782202646632 0 0 0 0 196.20005761745051 -14.582911747187609 0 -14.582911747187609 -172.63750110502633 0 0 0 0 407.63067069500153 -49.582251336099731 0 -49.582251336099731 -5.7450280741295501 0 0 0 0 416.69487534539076 -140.47158449106973 0 -140.47158449106973 -70.25800619164329 0 0 0 0 228.82708888988418 -162.62920883656625 0 -162.62920883656625 147.46940855989982 0 0 0 0 225.42520101414993 -121.50490151138774 0 -121.50490151138774 217.90085024141626 0 0 0 0 252.05340036963025 -43.576167374522811 0 -43.576167374522811 436.39838045637043 0 0 0 0 75.745507148487377 61.710869324198029 0 61.710869324198029 148.27959675231796 0 0 0 0 196.92585289448471 -35.701496550864022 0 -35.701496550864022 80.912321103260183 0 0 0 0 6.412295580399352 5.2239563383724317 0 5.2239563383724317 -32.814858206313978 0 0 0 0 -7.9010365364993049 -34.674914168006353 0 -34.674914168006353 87.696339616803925 0 0 0 0 81.319281805874198 -23.392531860577037 0 -23.392531860577037 151.99811668035721 0 0 0 0 -15.686545214717626 156.91350310432881 0 156.91350310432881 -95.729547118729897 0 0 0 0 90.282870709505005 -26.359396487086769 0 -26.359396487086769 -37.746115378182367 0 0 0 0 368.61162282927398 -55.076796454047098 0 -55.076796454047098 -126.757503399092 0 0 0 0 90.043588225835265 38.605908890709543 0 38.605908890709543 -13.611129133868417 0 0 0 0 36.43951971266506 -44.512963034758968 0 -44.512963034758968 -163.55487016388315 0 0 0 0 54.350499716500053 -3.0318593106765093 0 -3.0318593106765093 -242.23551005837908 0 0 0 0 51.770858210127159 31.003332097347972 0 31.003332097347972 4.295081888382053 0 0 0 0 23.285474237527524 -19.661293859630405 0 -19.661293859630405 -198.87893360528142 0 0 0 0 -63.193921000882256 130.11401988362968 0 130.11401988362968 -64.280811049046875 0 0 0 0 -137.70733053927688 86.979073247592396 0 86.979073247592396 14.643097928787654 0 0 0 0 78.763132162537659 -33.96290902010287 0 -33.96290902010287 -237.5568286190308 0 0 0 0 -7.674920476765692 7.7751651455824913 0 7.7751651455824913 -210.83278507119167 0 0 0 0 121.99004594232974 -18.029297218994856 0 -18.029297218994856 -252.31165222713258 0 0 0 0 260.48695724269055 -206.60865326815212 0 -206.60865326815212 -75.367467104013031 0 0 0 0 146.82876401315298 -21.40593635521077 0 -21.40593635521077 289.3403484053481 0 0 0 0 606.31020737917424 27.376274427913813 0 27.376274427913813 186.41977775071064 0 0 0 0 261.11754390802889 -225.78812183122426 0 -225.78812183122426 -53.918170491388537 0 0 0 0 79.458185380979558 -116.84887766019938 0 -116.84887766019938 409.12627233610419 0 0 0 0 122.31468295170635 -132.17057142798592 0 -132.17057142798592 -156.91992811012577 0 0 0 0 -64.051173993604607 -111.40948904896533 0 -111.40948904896533 -4.4101714141208959 0 0 0 0 292.91613882780075 -61.536752574870661 0 -61.536752574870661 16.221107581937531 0 0 0 0 -287.94272547142828 -411.26708457948519 0 -411.26708457948519 29.324270749351399 0 0 0 0 -0.80582458637025667 -0.18383836167636503 0 -0.18383836167636503 -10.904625615708081 0 0 0 0 -547.74881480050317 -368.63548780701535 0 -368.63548780701535 595.98797571263276 0 0 0 0 201.7033741264313 -74.018459708408045 0 -74.018459708408045 -102.29811395908712 0 0 0 0 61.769189489757991 -1047.9902912399568 0 -1047.9902912399568 328.16030646481289 0 0 0 0 773.16157309646951 -273.58360898827891 0 -273.58360898827891 92.604083357212403 0 0 0 0 513.5668416331464 248.72401099169906 0 248.72401099169906 44.231614294953488 0 0 0 0 643.0188873834104 -231.64812120132365 0 -231.64812120132365 -20.320997039346821 0 0 0 0 330.07879914651494 71.332446060285292 0 71.332446060285292 85.252406193613524 0 0 0 0 262.69310106214834 -287.60452824476272 0 -287.60452824476272 289.91071229160974 0 0 0 0 71.496865619570599 -116.50327829107547 0 -116.50327829107547 166.6040343193437 0 0 0 0 7.5151998433548215 -2.2256783504902131 0 -2.2256783504902131 0.56654170838386753 0 0 0 0 392.55605946847481 -213.80939757421291 0 -213.80939757421291 56.95763364220511 0 0 0 0 349.016675178882 -128.17569527759218 0 -128.17569527759218 -38.619637441039231 0 0 0 0 410.47846453673992 -124.60637693583817 0 -124.60637693583817 -62.932286186067358 0 0 0 0 70.42607567984669 15.701006840764421 0 15.701006840764421 -3.8783040736580006 0 0 0 0 72.158920670874068 28.052297995584468 0 28.052297995584468 8.0266456822228065 0 0 0 0 79.118882263835985 20.396843580112545 0 20.396843580112545 -6.2690820461257317 0 0 0 0 73.38514359027613 17.163037309607716 0 17.163037309607716 -3.5825652735757103 0 0 0 0 80.86715349109727 5.5223325601796205 0 5.5223325601796205 -18.352328268851124 0 0 0 0 103.72291021670389 8.1408939961474971 0 8.1408939961474971 -21.676396343779743 0 0 0 0 78.643308532584342 0.29476812041320954 0 0.29476812041320954 -12.990788093211449 0 0 0 0 72.331773185607744 -18.919217915561603 0 -18.919217915561603 -19.549554459272258 0 0 0 0 68.540301600995008 -13.961318956688956 0 -13.961318956688956 -25.184316941559246 0 0 0 0 94.808185831061564 -1.7018177309237217 0 -1.7018177309237217 -30.041342712506776 0 0 0 0 99.793294124858221 12.350286216668792 0 12.350286216668792 -15.692591634132896 0 0 0 0 82.313167330255965 8.6220869464996213 0 8.6220869464996213 -14.34543812821903 0 0 0 0 114.81467564461855 15.115796851501671 0 15.115796851501671 -15.2242426398725 0 0 0 0 93.393981119894306 9.2786261579849452 0 9.2786261579849452 -11.821276125338045 0 0 0 0 107.15747586970974 40.391225601186306 0 40.391225601186306 6.4466351434812168 0 0 0 0 85.344438859756337 25.709624202985651 0 25.709624202985651 -1.8350414839715086 0 0 0 0 95.188634378486313 29.05185625663762 0 29.05185625663762 -4.1113907651406407 0 0 0 0 79.464540693588788 38.475273021695557 0 38.475273021695557 14.146618390883305 0 0 0 0 91.210779478191398 38.576897107175228 0 38.576897107175228 13.252460357044583 0 0 0 0 72.003095405685599 81.970020730543865 0 81.970020730543865 72.655190185272659 0 0 0 0 89.608790166283143 40.37790914625748 0 40.37790914625748 18.117550833488167 0 0 0 0 135.80344747050549 46.682877947181396 0 46.682877947181396 18.540662088182216 0 0 0 0 73.207946486363653 105.25605424600792 0 105.25605424600792 101.83622765133146 0 0 0 0 327.93218708620407 26.485106206072942 0 26.485106206072942 23.222749396807103 0 0 0 0 136.71558105456643 -136.26793610532513 0 -136.26793610532513 74.570405225949344 0 0 0 0 132.54030702669115 37.051732680391524 0 37.051732680391524 4.6530889834375557 0 0 0 0 105.12525080857449 31.592719265301639 0 31.592719265301639 28.751949662434981 0 0 0 0 0.21401457415240444 -1.5961448499181756 0 -1.5961448499181756 2.6771340070205536 0 0 0 0 -121.9679060088456 16.720647801219229 0 16.720647801219229 262.03496140562356 0 0 0 0 103.30790292324673 -38.28973998753554 0 -38.28973998753554 111.74191051726314 0 0 0 0 50.497118315906846 -82.014838143511497 0 -82.014838143511497 107.5706636556454 0 0 0 0 -30.285230220841186 -199.77688974616717 0 -199.77688974616717 603.72264984880576 0 0 0 0 2.1249174314720811 -2.5936535946513999 0 -2.5936535946513999 6.5248627935575101 0 0 0 0 -46.145355131200631 -12.341148081808115 0 -12.341148081808115 8.587703353856341 0 0 0 0 113.58562192295722 -29.147151305636953 0 -29.147151305636953 -58.270480941571805 0 0 0 0 64.686366450361675 -62.153699226772915 0 -62.153699226772915 -65.932843744733191 0 0 0 0 93.320183360621741 28.793531820423141 0 28.793531820423141 -58.284811173492926 0 0 0 0 49.09789437665313 -31.123676430111118 0 -31.123676430111118 -25.334379943400563 0 0 0 0 58.313348087569466 -33.595512328423865 0 -33.595512328423865 -27.588947386568179 0 0 0 0 21.98876265893341 -75.868216477310852 0 -75.868216477310852 -43.337964044403634 0 0 0 0 -34.471352973268949 -53.48733068404681 0 -53.48733068404681 -3.2281736087379613 0 0 0 0 28.107606425317499 -77.901369673462341 0 -77.901369673462341 323.64923170113457 0 0 0 0 2.89263672579402 -4.5833003430539918 0 -4.5833003430539918 2.295254858455646 0 0 0 0 86.77190792386682 37.229339796964268 0 37.229339796964268 -70.605168378969665 0 0 0 0 10.007153202059271 22.627300066071712 0 22.627300066071712 -8.6031696530080808 0 0 0 0 122.82899766117953 -224.64527722668362 0 -224.64527722668362 385.34190993995981 0 0 0 0 107.01769197529939 -204.01952952044121 0 -204.01952952044121 463.43908335414449 0 0 0 0 232.50385598684079 -328.30602751077299 0 -328.30602751077299 390.44544164881609 0 0 0 0 239.79601603032279 251.7030771222544 0 251.7030771222544 445.74274809992676 0 0 0 0 789.14596691578845 -30.945476484898336 0 -30.945476484898336 525.14191661874065 0 0 0 0 1090.5840471901465 49.969829606783605 0 49.969829606783605 -52.059432426306557 0 0 0 0 907.02459163465119 145.44400799215879 0 145.44400799215879 -87.7167120084614 0 0 0 0 865.28229736927551 -101.34134845212969 0 -101.34134845212969 -78.762499574986577 0 0 0 0 670.64474527716811 73.9259420033477 0 73.9259420033477 -90.532910869909756 0 0 0 0 822.41321329036145 107.38371408115745 0 107.38371408115745 9.4856205105734261 0 0 0 0 753.46429783658095 22.43813790475906 0 22.43813790475906 -68.767701516151647 0 0 0 0 1087.7402347276002 320.04256616826706 0 320.04256616826706 45.434748618441517 0 0 0 0 849.56113452397403 -450.79803962175356 0 -450.79803962175356 -13.655776805348978 0 0 0 0 1430.0415722164471 -800.87218119109093 0 -800.87218119109093 71.909869200288085 0 0 0 0 -13.80432027138886 230.56384309217583 0 230.56384309217583 42.931769125403662 0 0 0 0 -522.58840443580993 -1278.2557806123077 0 -1278.2557806123077 2349.4787848605483 0 0 0 0 1058.2379016209306 -293.53876344577657 0 -293.53876344577657 49.591360446906037 0 0 0 0 566.02739367168397 -369.49001579848846 0 -369.49001579848846 445.26114028989105 0 0 0 0 1433.3687600396224 23.957633114263444 0 23.957633114263444 -90.487711000736454 0 0 0 0 680.14355383931252 -140.725973619059 0 -140.725973619059 98.027001352056686 0 0 0 0 705.00617510239317 -199.56966924020116 0 -199.56966924020116 71.93955514272966 0 0 0 0 519.7090016441507 -336.82866439672125 0 -336.82866439672125 211.55826873198384 0 0 0 0 370.79451919648272 -152.24444991608607 0 -152.24444991608607 134.53476508761014 0 0 0 0 7.6617512305524187 4.0677847307483859 0 4.0677847307483859 5.5911832892806501 0 0 0 0 326.28695651502494 -28.870473478128588 0 -28.870473478128588 -23.071930482954485 0 0 0 0 319.04233514986117 60.204003866980202 0 60.204003866980202 -229.31186176954725 0 0 0 0 292.80183799541555 23.853145145702001 0 23.853145145702001 -43.789349302027404 0 0 0 0 199.26560838034493 -52.399804382033835 0 -52.399804382033835 -104.72587711805681 0 0 0 0 12.005002445701393 11.389262045184296 0 11.389262045184296 4.4616504153309506 0 0 0 0 20.442319911745813 7.4064695981767557 0 7.4064695981767557 6.3748320361392707 0 0 0 0 -272.03752837816137 151.63078296475942 0 151.63078296475942 -16.189075918163098 0 0 0 0 7.624881033276047 8.5650060401268746 0 8.5650060401268746 17.522100992800077 0 0 0 0 7.512584263714011 -6.2411593125771248 0 -6.2411593125771248 10.1821725145454 0 0 0 0 33.852839552826481 -4.330328112893767 0 -4.330328112893767 1.5934920783729467 0 0 0 0 445.11803656640404 32.762771843117207 0 32.762771843117207 40.238089418960953 0 0 0 0 0.20058074840123652 -1.5246251197931286 0 -1.5246251197931286 0.98213262040572324 0 0 0 0 27.835519910498988 -19.364480127183015 0 -19.364480127183015 -0.11597084577442729 0 0 0 0 46.83034407064406 -26.155251409538323 0 -26.155251409538323 -1.6495758086693968 0 0 0 0 33.390319958998589 -20.462408526683248 0 -20.462408526683248 7.4787161004833251 0 0 0 0 24.530018535331692 -37.471271484667909 0 -37.471271484667909 -12.741119094276655 0 0 0 0 50.433836195225012 -22.368185164670649 0 -22.368185164670649 -3.9711366859564805 0 0 0 0 45.401204404290183 -11.068667785810248 0 -11.068667785810248 3.1553694017570706 0 0 0 0 47.335633818285714 -7.4654318010104816 0 -7.4654318010104816 -5.7164759958850482 0 0 0 0 8.180832010060378 -6.82317956617824 0 -6.82317956617824 4.8204004486775176 0 0 0 0 30.564574279083899 0.22796792723147519 0 0.22796792723147519 10.060364584251147 0 0 0 0 22.814698912348831 3.7787346070908825 0 3.7787346070908825 9.2313966124129365 0 0 0 0 38.071008489881933 -5.7302373678408003 0 -5.7302373678408003 -6.3376032097403368 0 0 0 0 45.537909601414867 -9.8673901228353316 0 -9.8673901228353316 -8.9256739551019564 0 0 0 0 50.460476006910994 4.879755913334435 0 4.879755913334435 -3.363725792742116 0 0 0 0 51.328468624167726 -6.145838773703872 0 -6.145838773703872 -7.5552748078816876 0 0 0 0 45.74806284384249 -10.511650352987999 0 -10.511650352987999 -6.5207953342596738 0 0 0 0 50.503836167277768 -6.3391437292166302 0 -6.3391437292166302 -6.5435822092491662 0 0 0 0 58.128600780648412 -14.200438376056809 0 -14.200438376056809 -5.731086835368842 0 0 0 0 54.968797407222155 -5.7957375686005435 0 -5.7957375686005435 -9.2474364781319309 0 0 0 0 50.520400749079272 -22.621401589192828 0 -22.621401589192828 -15.003874591884596 0 0 0 0 61.18624982666006 10.50683449804319 0 10.50683449804319 -2.3053910975813778 0 0 0 0 68.34332114130666 -2.7643082841259456 0 -2.7643082841259456 -13.730227225411909 0 0 0 0 68.794717526707245 -98.45773722114501 0 -98.45773722114501 -352.97997207798926 0 0 0 0 59.690323033571246 -5.3010329821446334 0 -5.3010329821446334 -18.101350327904626 0 0 0 0 302.96702389046914 270.17374661726308 0 270.17374661726308 -327.13536533920751 0 0 0 0 30.633418551068914 12.072695761616558 0 12.072695761616558 3.7502196117337188 0 0 0 0 10.330967234539003 292.85985386092915 0 292.85985386092915 24.613342041975557 0 0 0 0 58.42407242187619 -38.938584636263272 0 -38.938584636263272 -0.050273979535859326 0 0 0 0 64.709713755523694 -3.9146917796922764 0 -3.9146917796922764 -16.004334978071249 0 0 0 0 24.874754024561668 9.8424963731813762 0 9.8424963731813762 5.4742083185409083 0 0 0 0 39.218477807375166 -39.6871780779029 0 -39.6871780779029 -16.978828972151405 0 0 0 0 20.090223810691725 -63.243585184344774 0 -63.243585184344774 352.11874163037828 0 0 0 0 386.69643392229773 -79.496260352829268 0 -79.496260352829268 -11.519799284220881 0 0 0 0 34.016591769428487 -21.038662697655127 0 -21.038662697655127 95.194926363949435 0 0 0 0 475.1199227820648 406.29912713505655 0 406.29912713505655 273.87526792107656 0 0 0 0 -94.847860713998671 78.379298307910631 0 78.379298307910631 113.46787830746598 0 0 0 0 -1.0510738955618422 -1.9139276145532307 0 -1.9139276145532307 1.0517225532071848 0 0 0 0 722.94631472272522 154.87438015372481 0 154.87438015372481 71.089125184620571 0 0 0 0 174.60291957562004 21.656417607293406 0 21.656417607293406 -65.80497386508614 0 0 0 0 51.884491856630873 -12.817318082584656 0 -12.817318082584656 -26.519798438264225 0 0 0 0 63.242290144138678 7.0485282550134798 0 7.0485282550134798 -67.711551338411937 0 0 0 0 -215.64636422291369 -372.48748903508965 0 -372.48748903508965 -197.93854524673964 0 0 0 0 215.64141489967733 39.831508394086995 0 39.831508394086995 63.178912547095933 0 0 0 0 807.42825361585801 246.19828524377749 0 246.19828524377749 95.465073272927839 0 0 0 0 13.234571822701405 -2.6174713505716696 0 -2.6174713505716696 -1.4624188506648892 0 0 0 0 199.19125831995916 -248.99963371227568 0 -248.99963371227568 -44.755019612472097 0 0 0 0 14.057638518692436 -10.755062251593117 0 -10.755062251593117 -52.553043837240153 0 0 0 0 18.429420776235233 -16.753021197373798 0 -16.753021197373798 4.0740953587823086 0 0 0 0 -151.26757531080511 88.976189640032317 0 88.976189640032317 -23.17754231022991 0 0 0 0 -362.22935199614585 114.39154036992397 0 114.39154036992397 203.77186369519279 0 0 0 0 -14.037006334176112 21.913936667035557 0 21.913936667035557 -92.412160501713515 0 0 0 0 299.43596674097353 433.21207521626195 0 433.21207521626195 237.36490069352334 0 0 0 0 654.27919852613195 8.7178226961630685 0 8.7178226961630685 -137.56435432285821 0 0 0 0 -257.9024076226342 -270.02341239962243 0 -270.02341239962243 588.50896860725118 0 0 0 0 894.75725079468248 212.60006712708542 0 212.60006712708542 -241.58357222932426 0 0 0 0 -104.68555097765056 131.76875472899314 0 131.76875472899314 468.89256665402218 0 0 0 0 331.01722850467922 -236.79772597278236 0 -236.79772597278236 150.84186639112704 0 0 0 0 9.3898372684749916 4.6231351437325614 0 4.6231351437325614 3.5003303334033582 0 0 0 0 -45.782827919079864 164.31462828628128 0 164.31462828628128 -80.989852961146653 0 0 0 0 88.924486949545098 121.91762898591787 0 121.91762898591787 -70.038133546784366 0 0 0 0 -242.17156255766167 -254.65614773845209 0 -254.65614773845209 -155.41369016348017 0 0 0 0 313.56948587259467 428.55185943482763 0 428.55185943482763 111.69414106603267 0 0 0 0 1073.0587508363169 -401.48271807214201 0 -401.48271807214201 -574.80605749758797 0 0 0 0 304.74483101948135 -208.63360070661531 0 -208.63360070661531 127.41024470708726 0 0 0 0 -134.35380025678023 272.79056062920608 0 272.79056062920608 123.57531170521729 0 0 0 0 5.3535070130322993 6.7614541354857494 0 6.7614541354857494 6.6391634156174471 0 0 0 0 -21.729709265055135 94.958311151874966 0 94.958311151874966 107.29629690909542 0 0 0 0 -269.87222409391688 40.938256093131031 0 40.938256093131031 104.39030675699746 0 0 0 0 104.04622636709246 -30.090392392803551 0 -30.090392392803551 -0.16957381097540747 0 0 0 0 103.93844539426937 -29.071854231721886 0 -29.071854231721886 16.181231778658571 0 0 0 0 431.486693109724 -13.786785532912205 0 -13.786785532912205 -130.28262804099518 0 0 0 0 150.32521483632445 117.22073905805263 0 117.22073905805263 -86.064944765920927 0 0 0 0 190.92576157419899 -31.574563033790071 0 -31.574563033790071 -16.343047563461823 0 0 0 0 231.57982036632529 40.188242806448102 0 40.188242806448102 -54.606990621433397 0 0 0 0 143.01578348342446 54.613458944255399 0 54.613458944255399 -54.553240656652342 0 0 0 0 122.81469280595775 57.438630596999701 0 57.438630596999701 -37.60572740158932 0 0 0 0 146.56419829748302 -4.7765918052492964 0 -4.7765918052492964 -30.461433940977258 0 0 0 0 155.70900849651662 42.580646601395301 0 42.580646601395301 -43.997925198117628 0 0 0 0 135.36317136327125 42.513798563315504 0 42.513798563315504 -22.325805089847563 0 0 0 0 107.45972984333639 -0.49021057930963252 0 -0.49021057930963252 -25.680954251451567 0 0 0 0 113.53567474727606 -10.336682040388496 0 -10.336682040388496 -22.111598285203172 0 0 0 0 76.403186680723365 13.867793928437949 0 13.867793928437949 -7.8096679122505597 0 0 0 0 98.862907453501975 -12.710723820526937 0 -12.710723820526937 -10.429520794206837 0 0 0 0 67.680437090591212 24.536730350652032 0 24.536730350652032 1.9595445591149465 0 0 0 0 119.63886643423211 58.402544840742564 0 58.402544840742564 -7.5893100517191669 0 0 0 0 16.983455129156084 17.837539312038992 0 17.837539312038992 5.1986630361728059 0 0 0 0 94.479818613956013 16.575396029517151 0 16.575396029517151 8.2886628709259185 0 0 0 0 64.856037298530282 78.063514994266257 0 78.063514994266257 -11.807788925494606 0 0 0 0 119.83957538770119 10.917648835021737 0 10.917648835021737 -13.206671997294507 0 0 0 0 18.757164274651466 0.47047665064575028 0 0.47047665064575028 2.594866318512894 0 0 0 0 108.51865819369777 -1.1629356713696097 0 -1.1629356713696097 -3.1844207770227513 0 0 0 0 91.176430171624816 2.208307365895962 0 2.208307365895962 13.077403307580425 0 0 0 0 107.23244171058832 23.704509217100963 0 23.704509217100963 11.529426357492412 0 0 0 0 92.620920596673386 8.5007813385891495 0 8.5007813385891495 9.7348033832322471 0 0 0 0 -2.1327206598341633 0.53063274390225246 0 0.53063274390225246 1.0038798409713987 0 0 0 0 92.50556537673765 16.88632364102159 0 16.88632364102159 21.249522328775129 0 0 0 0 96.404617479296576 11.912650291419141 0 11.912650291419141 12.54766447491329 0 0 0 0 -465.70909467704041 524.20190994522989 0 524.20190994522989 745.05644945328004 0 0 0 0 47.717650978644087 15.051402061337853 0 15.051402061337853 30.539039799888315 0 0 0 0 -8.4898211915580823 14.702423158051957 0 14.702423158051957 4.1205418908714888 0 0 0 0 116.3822025715308 17.798682840390029 0 17.798682840390029 -33.804860287301608 0 0 0 0 5.9854626666951312 17.268751265871181 0 17.268751265871181 -6.1608618869262823 0 0 0 0 2.1273606780996488 15.472929846423995 0 15.472929846423995 54.630357311101079 0 0 0 0 64.967212343206484 7.0228467835105448 0 7.0228467835105448 21.905405106980652 0 0 0 0 78.93688781443052 27.910792583467014 0 27.910792583467014 30.88794854324783 0 0 0 0 73.539413574888385 -8.102858854511851 0 -8.102858854511851 6.0180046577900157 0 0 0 0 77.388393596418609 -3.2679158898413334 0 -3.2679158898413334 11.720083838446385 0 0 0 0 68.531595674852724 -14.524028902585769 0 -14.524028902585769 14.481023819297207 0 0 0 0 91.428814928680367 -30.297373809795658 0 -30.297373809795658 11.044917879394234 0 0 0 0 4.9534364977209568 -15.006955773901296 0 -15.006955773901296 8.580815675858867 0 0 0 0 25.672882092400002 18.399702630025317 0 18.399702630025317 -11.916315487184438 0 0 0 0 21.7837165604241 -0.59080828167072497 0 -0.59080828167072497 -2.3524109655876648 0 0 0 0 94.104931956164364 -8.0502978876061206 0 -8.0502978876061206 -2.4115248033986063 0 0 0 0 94.990075692447135 -17.568205307166409 0 -17.568205307166409 4.5027700509988335 0 0 0 0 91.027446160718682 8.7569841111458118 0 8.7569841111458118 19.271944303625332 0 0 0 0 86.225602251102828 11.281390562154002 0 11.281390562154002 18.014326185346363 0 0 0 0 102.77898740272212 -0.83317138197298846 0 -0.83317138197298846 5.8832336902605675 0 0 0 0 63.010842032916116 -0.04966545132850797 0 -0.04966545132850797 1.1421181903899935 0 0 0 0 61.087671521630114 9.7654933511561026 0 9.7654933511561026 -7.3765127537830999 0 0 0 0 92.018176286272137 -1.5707437713425634 0 -1.5707437713425634 -13.049438039099755 0 0 0 0 256.2157808615375 139.33345048820684 0 139.33345048820684 62.831076105365355 0 0 0 0 -45.346090577753785 -54.005999263784815 0 -54.005999263784815 -60.89030018651124 0 0 0 0 1.0895614107529639 -0.79165960087756115 0 -0.79165960087756115 0.18134166993203538 0 0 0 0 84.089807999112054 119.73300930643143 0 119.73300930643143 66.574147206851649 0 0 0 0 183.7528107762646 100.93880189945924 0 100.93880189945924 -20.505297447978364 0 0 0 0 81.778278254769248 57.120366374661046 0 57.120366374661046 -26.752962713786147 0 0 0 0 34.9886917854883 -26.552063512934581 0 -26.552063512934581 -29.309293975142737 0 0 0 0 163.47641449482194 -15.384383208602799 0 -15.384383208602799 -59.90560683892636 0 0 0 0 42.227110334513782 25.523098457466027 0 25.523098457466027 -23.529143743189817 0 0 0 0 -15.405418784439462 9.137708410152527 0 9.137708410152527 -6.7871804505911655 0 0 0 0 47.280663414183437 10.352158791489053 0 10.352158791489053 -15.471849013607731 0 0 0 0 112.46981090198642 37.281759819506192 0 37.281759819506192 -28.861335677727311 0 0 0 0 126.91565857212845 2.4405218782577833 0 2.4405218782577833 -29.941291238155664 0 0 0 0 77.642691705358914 11.913850981370928 0 11.913850981370928 -7.2033555165907988 0 0 0 0 45.785865692145308 33.132584407313516 0 33.132584407313516 31.230977986358084 0 0 0 0 153.9167407444038 55.496816412257431 0 55.496816412257431 -7.785518221453458 0 0 0 0 52.561428394794348 -18.828455563985244 0 -18.828455563985244 10.866087050147144 0 0 0 0 90.494835119345225 2.9454927719048101 0 2.9454927719048101 21.061123272515488 0 0 0 0 86.695069907000288 6.3491610160037908 0 6.3491610160037908 18.06119982148266 0 0 0 0 122.10094742585716 41.912699762640614 0 41.912699762640614 21.634699473750516 0 0 0 0 143.84239629055628 -21.570111571572852 0 -21.570111571572852 -11.116767497093406 0 0 0 0 16.913133759692133 -0.90367108992656497 0 -0.90367108992656497 -2.1889781982331549 0 0 0 0 3.3703298949610883 -1.2610764537297925 0 -1.2610764537297925 0.84363438117865641 0 0 0 0 90.260134295152966 13.741462882115684 0 13.741462882115684 -15.816228869533461 0 0 0 0 33.684118205049678 4.2974213409788788 0 4.2974213409788788 -1.4499758265668454 0 0 0 0 150.29737156680494 -10.903845642403212 0 -10.903845642403212 2.5174555792082174 0 0 0 0 0.89670239995757584 2.6810681435181323 0 2.6810681435181323 -24.67538430906643 0 0 0 0 73.232892968363103 3.3066048023276409 0 3.3066048023276409 3.7122923325259762 0 0 0 0 103.87658943991119 -12.679196257548028 0 -12.679196257548028 31.424468446598439 0 0 0 0 54.58327037006444 18.071112801158691 0 18.071112801158691 -8.7610534786784626 0 0 0 0 9.5321814313123383 -2.6654673093665355 0 -2.6654673093665355 -0.17500033152980499 0 0 0 0 130.68391730718758 9.0652584375982883 0 9.0652584375982883 -18.326430248463602 0 0 0 0 119.21059168097963 -17.51795242913505 0 -17.51795242913505 20.063645578264811 0 0 0 0 127.85393897366521 2.011243563074288 0 2.011243563074288 -15.638827276440225 0 0 0 0 79.652303656144795 -9.5959074425821598 0 -9.5959074425821598 -5.8331790056710702 0 0 0 0 85.624747441042928 41.252692249208849 0 41.252692249208849 -31.333479845417088 0 0 0 0 107.67037885629907 17.119537207690257 0 17.119537207690257 -18.246033662405978 0 0 0 0 137.75844355389563 1.4235272391902072 0 1.4235272391902072 8.6894973148514509 0 0 0 0 136.3497182750325 -2.0578498369128511 0 -2.0578498369128511 3.3825632383496327 0 0 0 0 99.562213826348852 6.8284245722740877 0 6.8284245722740877 8.8759376373557188 0 0 0 0 -0.78752610507396525 1.6862846902518616 0 1.6862846902518616 -1.7555172568380377 0 0 0 0 174.65149377451144 -14.799834568869869 0 -14.799834568869869 -10.139246596452608 0 0 0 0 -20.613062947053777 21.738706050752832 0 21.738706050752832 -3.8564665515437042 0 0 0 0 0.44267210422029946 0.80320884584429564 0 0.80320884584429564 -0.65004637486187278 0 0 0 0 200.90613839087018 -19.854890936936613 0 -19.854890936936613 -7.0147538405112755 0 0 0 0 149.89794385726032 -1.1315803059261214 0 -1.1315803059261214 2.3738252184853081 0 0 0 0 114.36294750965044 22.362519565387402 0 22.362519565387402 2.2579812668257091 0 0 0 0 70.175428721816388 47.826729495867149 0 47.826729495867149 -6.1320800464536376 0 0 0 0 47.093373557689119 12.668393463014169 0 12.668393463014169 7.0709582817378873 0 0 0 0 35.44142950056812 30.348260893592567 0 30.348260893592567 -18.489739274125156 0 0 0 0 23.388611700014735 2.7350260676319067 0 2.7350260676319067 -9.3885907355365248 0 0 0 0 72.69260254015353 -17.191844325066086 0 -17.191844325066086 3.6220274096310163 0 0 0 0 64.692224255343717 -5.3332829084210687 0 -5.3332829084210687 25.621601584922473 0 0 0 0 50.841494054096529 21.577022115687953 0 21.577022115687953 -9.057201728138125 0 0 0 0 45.827101913187107 3.1952345968946929 0 3.1952345968946929 17.264615884452724 0 0 0 0 70.8123365066308 -7.2911556457175379 0 -7.2911556457175379 20.250855748350205 0 0 0 0 76.896241075072794 -8.9199928300165539 0 -8.9199928300165539 19.772031213154833 0 0 0 0 158.64734788071587 20.193673396777569 0 20.193673396777569 -19.785049219085067 0 0 0 0 144.89486867735332 6.8753467904674039 0 6.8753467904674039 -9.8064905732705938 0 0 0 0 121.69408578748335 41.280161278770493 0 41.280161278770493 -29.570659247156755 0 0 0 0 140.4841314479072 5.9522181300019952 0 5.9522181300019952 2.2652224256953559 0 0 0 0 61.832004552957642 13.191947657646097 0 13.191947657646097 -19.643231078360259 0 0 0 0 -58.763995380326378 57.93792996336731 0 57.93792996336731 -11.701354929315357 0 0 0 0 53.630848335204064 3.5168437902627829 0 3.5168437902627829 12.970198985755815 0 0 0 0 66.522476099794176 20.149384672239819 0 20.149384672239819 23.981270999225217 0 0 0 0 60.574812278330683 47.593880594541929 0 47.593880594541929 13.901057378677706 0 0 0 0 108.23520588746396 26.614224314720559 0 26.614224314720559 11.418979997606584 0 0 0 0 95.703041365559329 23.715384171664937 0 23.715384171664937 13.931218316290142 0 0 0 0 99.36331685616824 35.430857284312594 0 35.430857284312594 18.828396514130418 0 0 0 0 108.48755097798482 36.897096676186877 0 36.897096676186877 13.717170785437247 0 0 0 0 200.85800626347941 -58.668219535212984 0 -58.668219535212984 -111.17956827501007 0 0 0 0 248.67069731039737 42.890492716128804 0 42.890492716128804 -38.282505981841268 0 0 0 0 192.49174380696968 -16.282683411300027 0 -16.282683411300027 -100.01375663391478 0 0 0 0 -1.8797964059788668 -0.27027573466553534 0 -0.27027573466553534 0.96853719730409438 0 0 0 0 209.21669545503937 53.530048568570351 0 53.530048568570351 -17.694250571968496 0 0 0 0 147.84701027765277 86.382053216322674 0 86.382053216322674 90.837098294059615 0 0 0 0 -2.1542902919344815 -1.5242671991814145 0 -1.5242671991814145 -1.3710464368420991 0 0 0 0 250.43657995959484 19.822488162760123 0 19.822488162760123 -35.914005856827316 0 0 0 0 207.65008810087784 52.250281617525616 0 52.250281617525616 -1.4050102209289435 0 0 0 0 204.29362745046456 73.452075001929074 0 73.452075001929074 7.7947628783925893 0 0 0 0 165.62806466072652 72.230387646120107 0 72.230387646120107 9.6607261340341211 0 0 0 0 201.78479358370896 64.2382886371729 0 64.2382886371729 -25.885935465213151 0 0 0 0 200.35285552986352 84.141076688911397 0 84.141076688911397 -17.082717320626557 0 0 0 0 225.13880794871284 80.308388597635954 0 80.308388597635954 -27.377725462027115 0 0 0 0 222.02239623457535 53.584558621876667 0 53.584558621876667 -36.468977504841035 0 0 0 0 229.76207193835035 67.857617240986031 0 67.857617240986031 -25.449362608156761 0 0 0 0 255.89657018713842 63.386423776889274 0 63.386423776889274 -109.59150480134088 0 0 0 0 279.49013161166931 117.78810122757946 0 117.78810122757946 -25.511102152923741 0 0 0 0 223.98292792612847 89.921744241703891 0 89.921744241703891 -39.491911086478524 0 0 0 0 184.26195436306443 88.013085791237955 0 88.013085791237955 -4.8494617895345016 0 0 0 0 223.73397667024074 88.524205741048547 0 88.524205741048547 -40.177676728262213 0 0 0 0 -0.53413131475981501 -0.74816210347556122 0 -0.74816210347556122 -1.939368825346047 0 0 0 0 186.79786631235947 66.750777200558417 0 66.750777200558417 -2.3968741258501112 0 0 0 0 173.46840999168626 43.591489744515677 0 43.591489744515677 -38.930670389938371 0 0 0 0 240.25242324240389 96.522298747938294 0 96.522298747938294 -104.20829285673585 0 0 0 0 294.63415710303525 160.83361250298663 0 160.83361250298663 -39.711514502795126 0 0 0 0 227.31307327330842 125.10225281897721 0 125.10225281897721 -4.0325935975943139 0 0 0 0 205.05925481182749 99.255788554452408 0 99.255788554452408 8.2625631945820714 0 0 0 0 214.89591095731885 104.99031093024473 0 104.99031093024473 -36.256503942640791 0 0 0 0 175.25703201703618 95.314359025145677 0 95.314359025145677 10.112373532140282 0 0 0 0 182.71669703941097 157.2857565987099 0 157.2857565987099 69.82908118744399 0 0 0 0 182.14950637158108 120.78324247795808 0 120.78324247795808 22.565959479746198 0 0 0 0 83.153976762947423 71.63750264933833 0 71.63750264933833 149.43197810290076 0 0 0 0 133.00332367033843 71.789159821903013 0 71.789159821903013 121.94974692069445 0 0 0 0 128.12994197093212 59.289461389759936 0 59.289461389759936 61.535216277936343 0 0 0 0 126.77205532675725 53.17343570445064 0 53.17343570445064 42.418469899523188 0 0 0 0 1085.9332935542716 -38.662434838771333 0 -38.662434838771333 -426.06628388092622 0 0 0 0 197.21821719986474 228.73696299239873 0 228.73696299239873 -86.944175616305074 0 0 0 0 189.22108861728339 184.24530772335584 0 184.24530772335584 180.57468156821415 0 0 0 0 113.00720072408149 226.9372251747709 0 226.9372251747709 220.07776932331763 0 0 0 0 350.62186259215378 95.851198619386196 0 95.851198619386196 128.70201984463847 0 0 0 0 1076.37127538598 883.99348007688013 0 883.99348007688013 -1476.3970934930549 0 0 0 0 21.524518549377724 -19.243529340182544 0 -19.243529340182544 -12.452576640599641 0 0 0 0 -4.0176520568638807 124.62670428278943 0 124.62670428278943 239.95983898805707 0 0 0 0 187.2656359257544 2188.6826545719923 0 2188.6826545719923 -1744.6328934445737 0 0 0 0 105.62148323882138 -11.280984241025976 0 -11.280984241025976 -32.437320116833803 0 0 0 0 1539.3571202542516 -870.351161582852 0 -870.351161582852 1778.4608207240708 0 0 0 0 74.645536494125366 -22.988363499263599 0 -22.988363499263599 -8.1539767480185432 0 0 0 0 114.87288334562618 38.643605346656159 0 38.643605346656159 -10.996899342591774 0 0 0 0 135.21798947983189 32.986200176203056 0 32.986200176203056 -16.873567395386999 0 0 0 0 91.60569815698662 30.657942357312507 0 30.657942357312507 3.5174617554228096 0 0 0 0 109.14581355940027 2.5554441159729322 0 2.5554441159729322 34.494039627980783 0 0 0 0 112.57041872991249 10.724440316792425 0 10.724440316792425 37.963053007784765 0 0 0 0 81.344607056380482 -34.071205394820936 0 -34.071205394820936 -10.658649398541456 0 0 0 0 27.795846132343286 46.699396962759238 0 46.699396962759238 155.36463607605947 0 0 0 0 -98.758674796990817 -49.928978790978363 0 -49.928978790978363 121.72129092132036 0 0 0 0 104.03145082351693 26.456650896686369 0 26.456650896686369 -24.526326168393183 0 0 0 0 94.871810012926289 1.9816987372892072 0 1.9816987372892072 -25.667646183133456 0 0 0 0 136.78402500503944 48.741064839598039 0 48.741064839598039 3.3386745192383387 0 0 0 0 118.14332661390654 35.837057236754731 0 35.837057236754731 24.373994905997279 0 0 0 0 127.06533579961251 48.459905421900658 0 48.459905421900658 17.50846907822779 0 0 0 0 18.827961038637831 2.244023401394891 0 2.244023401394891 -2.9815958212425251 0 0 0 0 144.95638431694533 46.028863516528645 0 46.028863516528645 26.973952498324707 0 0 0 0 16.201116047997015 2.1683120838583587 0 2.1683120838583587 -9.9680088922482017 0 0 0 0 172.12420470244433 31.862059302689886 0 31.862059302689886 -3.6164936600270039 0 0 0 0 102.3461058099947 12.16643330188316 0 12.16643330188316 3.3382551496681572 0 0 0 0 185.84055073551281 44.23335097243671 0 44.23335097243671 11.369012079725962 0 0 0 0 173.27764264711186 87.31080764223384 0 87.31080764223384 39.360634013963136 0 0 0 0 131.67121522613888 62.073770619828792 0 62.073770619828792 50.188604988566567 0 0 0 0 148.06674020528953 58.653105924878673 0 58.653105924878673 32.586118143473868 0 0 0 0 137.20646262534683 44.982172669448801 0 44.982172669448801 18.700281056568201 0 0 0 0 145.92396786814788 30.483152482791411 0 30.483152482791411 13.108391718566395 0 0 0 0 1463.2809959330443 -578.95416862817819 0 -578.95416862817819 71.996172761255821 0 0 0 0 1427.3824469902174 -395.35182282969561 0 -395.35182282969561 -102.01587834248994 0 0 0 0 2499.6342351672956 -964.51028049754075 0 -964.51028049754075 95.704512972438835 0 0 0 0 1358.2052986069029 -297.26664363068227 0 -297.26664363068227 -138.31793925983095 0 0 0 0 1305.5609131860729 -445.234495337162 0 -445.234495337162 11.289568998574595 0 0 0 0 772.41221823203796 -104.23033735258431 0 -104.23033735258431 74.896846505213944 0 0 0 0 389.93456600322133 -308.90452360654814 0 -308.90452360654814 169.80426121390965 0 0 0 0 64.572784656729254 26.062491614960543 0 26.062491614960543 150.76471515571529 0 0 0 0 44.298716484041016 17.872528441902485 0 17.872528441902485 6.4971133652138064 0 0 0 0 819.19988086214198 -542.71296945747906 0 -542.71296945747906 401.23374517789608 0 0 0 0 15.481079687074587 2.9868721354219225 0 2.9868721354219225 1.3224042961334164 0 0 0 0 38.238204859221199 14.666795964906736 0 14.666795964906736 5.4796622162831046 0 0 0 0 39.366246682768178 19.215292468668167 0 19.215292468668167 9.0244900051814056 0 0 0 0 39.00628374726989 10.742573098201348 0 10.742573098201348 15.916547059394361 0 0 0 0 36.247191720547107 6.8704619449592883 0 6.8704619449592883 11.395198062075224 0 0 0 0 86.092172330080302 33.397748348080142 0 33.397748348080142 24.718418192097431 0 0 0 0 11.667209101981818 -4.0419367650809983 0 -4.0419367650809983 3.945799768625406 0 0 0 0 1099.083160023376 -465.2926775891649 0 -465.2926775891649 320.96124193356525 0 0 0 0 1042.2223730133221 -676.15916351058627 0 -676.15916351058627 353.0669052087249 0 0 0 0 2496.7278744550167 -1605.2287647828582 0 -1605.2287647828582 945.76289629191933 0 0 0 0 15.423609371225449 4.7258055253611424 0 4.7258055253611424 3.5617626752590335 0 0 0 0 325.93713862539471 963.8289621758563 0 963.8289621758563 1153.079587509651 0 0 0 0 515.94673211784084 10.229936168004336 0 10.229936168004336 -79.652116635680272 0 0 0 0 2493.8525837828379 988.94387803853442 0 988.94387803853442 -235.96503419554065 0 0 0 0 1653.5928013702251 766.3534792051405 0 766.3534792051405 -287.78918883809462 0 0 0 0 2501.1038474675229 414.01221022098525 0 414.01221022098525 -441.75712108793965 0 0 0 0 1306.7176920439385 123.89798903732407 0 123.89798903732407 -199.79448048278226 0 0 0 0 1833.9246168319403 106.61519264685255 0 106.61519264685255 203.20390351237359 0 0 0 0 1563.925693152594 420.50994604189401 0 420.50994604189401 -128.28853726027819 0 0 0 0 1890.017747013304 305.00840183696647 0 305.00840183696647 -355.55852776581185 0 0 0 0 40.234035868558919 -14.466762710056628 0 -14.466762710056628 35.230046684515401 0 0 0 0 9.2803683000380541 -2.6828230182246582 0 -2.6828230182246582 14.920055720906985 0 0 0 0 9.5001279794259474 1.9883321037124766 0 1.9883321037124766 4.0220039187953098 0 0 0 0 1154.2861699213906 -255.43744857925952 0 -255.43744857925952 -15.606591192536825 0 0 0 0 107.41797518218755 111.43427383203993 0 111.43427383203993 314.6763769769907 0 0 0 0 -51.789023694539082 -50.431454938324634 0 -50.431454938324634 201.13185295108835 0 0 0 0 5.4411932193956503 -5.0880519321696926 0 -5.0880519321696926 11.256133436096887 0 0 0 0 30.398185014697788 -1.2722044591635608 0 -1.2722044591635608 4.703269286540035 0 0 0 0 26.480159035790166 -4.7749927261252196 0 -4.7749927261252196 13.783332029587697 0 0 0 0 58.848190010025519 0.22751852741754419 0 0.22751852741754419 243.3641892845319 0 0 0 0 1034.3888743053956 397.62745404149848 0 397.62745404149848 -112.99009905652827 0 0 0 0 0.0099497628059630472 -7.1249596652853322 0 -7.1249596652853322 9.8602145758573361 0 0 0 0 29.804319525194558 -1.748452537914801 0 -1.748452537914801 16.97516617959991 0 0 0 0 42.018993358143234 13.417707175269697 0 13.417707175269697 21.54670154084306 0 0 0 0 13.982032296514262 -3.170862562820048 0 -3.170862562820048 20.179379144750783 0 0 0 0 25.755369547091959 8.0797105570813983 0 8.0797105570813983 28.216979200691185 0 0 0 0 27.633231338875703 -4.4320991747856624 0 -4.4320991747856624 13.797778029580059 0 0 0 0 25.814414469000894 -9.0225082015668931 0 -9.0225082015668931 2.3623957536919988 0 0 0 0 14.842016565062949 -15.388322191889642 0 -15.388322191889642 66.564091213494066 0 0 0 0 19.795076609520493 -17.071191852309312 0 -17.071191852309312 39.332377381347669 0 0 0 0 18.366617199558572 5.3925775958034388 0 5.3925775958034388 4.3980172509243536 0 0 0 0 31.05532649260158 -2.7858060678420316 0 -2.7858060678420316 -1.3608779543010314 0 0 0 0 303.77046378018764 -136.83188772827407 0 -136.83188772827407 54.328968769311587 0 0 0 0 327.69923697974349 212.79017005429824 0 212.79017005429824 151.82863337182334 0 0 0 0 -93.410055280611289 -59.603599084535063 0 -59.603599084535063 314.55620404324873 0 0 0 0 12.690424126963672 4.8613484662323128 0 4.8613484662323128 1.5157756410151135 0 0 0 0 27.485365328192074 4.3688047580743614 0 4.3688047580743614 -12.007246245448641 0 0 0 0 0.68117750299510504 5.1349223912627622 0 5.1349223912627622 44.837988748817452 0 0 0 0 338.72865363422602 -120.20445719645011 0 -120.20445719645011 -2.434450391945802 0 0 0 0 5.3258293371469474 1.5898495295093436 0 1.5898495295093436 0.71874692997290435 0 0 0 0 37.28473898321613 88.391129859543753 0 88.391129859543753 215.03412075198639 0 0 0 0 -10.553387292178741 17.638104622913488 0 17.638104622913488 110.52974519869986 0 0 0 0 77.690477829767588 107.41948546894173 0 107.41948546894173 125.98763832629925 0 0 0 0 31.796627228149191 42.587661682680391 0 42.587661682680391 40.004744182273498 0 0 0 0 -5.1492312619247969 -12.605168845243952 0 -12.605168845243952 68.752322122715668 0 0 0 0 66.438400195486793 53.215818980078211 0 53.215818980078211 43.036068974025738 0 0 0 0 36.836435087702512 21.922562385518404 0 21.922562385518404 26.811198749314372 0 0 0 0 117.30549158712165 102.46426872140285 0 102.46426872140285 -6.6795238317063195 0 0 0 0 97.659161180947649 44.875927173043237 0 44.875927173043237 -2.9955468126327105 0 0 0 0 118.50459366189352 62.116870473761992 0 62.116870473761992 -7.3989522401584509 0 0 0 0 109.2942101439794 33.19534910431571 0 33.19534910431571 -4.7871518033080065 0 0 0 0 122.58574310997255 24.612264711262696 0 24.612264711262696 -12.50334090414708 0 0 0 0 130.12709933141696 15.352791402695402 0 15.352791402695402 -19.006588323991309 0 0 0 0 105.54365274927341 3.189523489956855 0 3.189523489956855 8.0059184399869991 0 0 0 0 128.74615952067234 -13.521269451618991 0 -13.521269451618991 17.361994883769967 0 0 0 0 147.07618739281361 0.35786009210619341 0 0.35786009210619341 -7.0347198598110481 0 0 0 0 68.799917397208901 20.229889007885049 0 20.229889007885049 14.479217921060354 0 0 0 0 68.917990346697479 14.610653225774968 0 14.610653225774968 30.285609984048278 0 0 0 0 100.32165168895654 12.496411122587347 0 12.496411122587347 11.059414803133222 0 0 0 0 75.653883089103147 28.629873439639596 0 28.629873439639596 22.854757915476512 0 0 0 0 82.49412223291165 19.627236939263639 0 19.627236939263639 8.8615428344934344 0 0 0 0 34.554261698543996 12.153247160895262 0 12.153247160895262 25.658292652234195 0 0 0 0 39.323628143984024 19.074847849711205 0 19.074847849711205 23.768670984085929 0 0 0 0 47.320841668855792 16.032447050017936 0 16.032447050017936 24.209151751580976 0 0 0 0 46.782470251978793 18.133784115921571 0 18.133784115921571 17.796862409584719 0 0 0 0 49.068958825343543 27.882505470343631 0 27.882505470343631 -0.26280182054847501 0 0 0 0 80.691369603295243 28.645960744446683 0 28.645960744446683 104.41395209825619 0 0 0 0 45.566143205686558 27.796503384053381 0 27.796503384053381 25.844710450873208 0 0 0 0 47.590777752220987 21.934919053922055 0 21.934919053922055 8.375092138724046 0 0 0 0 88.608241181670564 21.133515404185346 0 21.133515404185346 -5.6607974544526769 0 0 0 0 84.215318951809422 15.26419496173412 0 15.26419496173412 13.592087990977916 0 0 0 0 118.9355741382883 16.553772603195284 0 16.553772603195284 5.4177791039728618 0 0 0 0 89.363698839838378 13.269625798587072 0 13.269625798587072 53.193929857901821 0 0 0 0 89.740517968809769 17.926703760419159 0 17.926703760419159 15.707113915625996 0 0 0 0 58.19710407516277 6.3400980100159359 0 6.3400980100159359 21.187581499264979 0 0 0 0 60.942422322124912 -12.693725951010492 0 -12.693725951010492 42.080768185442025 0 0 0 0 53.172917552151468 -19.409072821198894 0 -19.409072821198894 -0.67838763728337159 0 0 0 0 66.630399746898547 -5.1265224273224703 0 -5.1265224273224703 20.763454294059557 0 0 0 0 110.87478347940169 -35.373838652717893 0 -35.373838652717893 17.432401682606724 0 0 0 0 14.393765491179225 -22.389981922334485 0 -22.389981922334485 17.207122655456409 0 0 0 0 56.446493793865557 -23.183350793389991 0 -23.183350793389991 22.81461188835965 0 0 0 0 1.0786007992792435 -7.9950291932545525 0 -7.9950291932545525 2.4607619653126465 0 0 0 0 49.303187244695437 -2.4228185347947147 0 -2.4228185347947147 10.467543979086713 0 0 0 0 65.771881096477955 -17.075630541730561 0 -17.075630541730561 17.302906370016899 0 0 0 0 80.356790229789112 -3.6805082602468246 0 -3.6805082602468246 20.860378182725981 0 0 0 0 80.385870986425289 -13.411794799677864 0 -13.411794799677864 -15.402624600950276 0 0 0 0 76.15102133034452 -1.3157510544506295 0 -1.3157510544506295 19.633579701429426 0 0 0 0 67.187587520507805 36.294006177164192 0 36.294006177164192 15.125383214501653 0 0 0 0 58.262921048849421 -1.2933474199301145 0 -1.2933474199301145 87.242617021094702 0 0 0 0 65.391136584102952 -17.602983127269784 0 -17.602983127269784 -2.2757887464293258 0 0 0 0 102.38764237100168 74.69923374559994 0 74.69923374559994 -201.72403112465861 0 0 0 0 33.018872318460581 33.804285542554908 0 33.804285542554908 -73.095519822476035 0 0 0 0 61.69556951528557 10.878197324957398 0 10.878197324957398 -110.3672868262629 0 0 0 0 274.42081823781155 47.181602223124401 0 47.181602223124401 -120.35827909630507 0 0 0 0 97.64370374267196 145.20769498226059 0 145.20769498226059 65.22986106413282 0 0 0 0 70.97360081811803 87.034908706221472 0 87.034908706221472 -60.816544062283356 0 0 0 0 4.5260985091886141 97.148630753660882 0 97.148630753660882 35.192315224748072 0 0 0 0 -15.706266993500606 48.603901806403542 0 48.603901806403542 -1.1627637802598656 0 0 0 0 31.96604874844121 40.760444559552496 0 40.760444559552496 -46.772590996450162 0 0 0 0 26.253478823943169 24.87481410154578 0 24.87481410154578 -20.669030821083652 0 0 0 0 40.863524684969889 34.736580392235282 0 34.736580392235282 -70.011137806863474 0 0 0 0 6.1247717912409705 1.0319971190082526 0 1.0319971190082526 -7.177597043524008 0 0 0 0 31.753350758170882 23.822539629906032 0 23.822539629906032 -50.35606479185094 0 0 0 0 85.457846971541244 7.640839604722828 0 7.640839604722828 0.21671236287602369 0 0 0 0 117.40824965617003 61.584609356236342 0 61.584609356236342 37.439994866899895 0 0 0 0 146.93601169097337 42.813340586893219 0 42.813340586893219 -31.554216741756363 0 0 0 0 121.9516071397403 18.525049220132701 0 18.525049220132701 -44.701812799571599 0 0 0 0 30.80408637532264 -94.831447398091768 0 -94.831447398091768 -86.685867057395626 0 0 0 0 -105.32955754339764 35.228625602064767 0 35.228625602064767 43.5298651021767 0 0 0 0 -1.3772009886963343 1.0065852472799968 0 1.0065852472799968 0.17749910063199081 0 0 0 0 -46.540933578170552 91.433512585432027 0 91.433512585432027 28.78060994027237 0 0 0 0 -0.24982067823726961 0.0026477472497195009 0 0.0026477472497195009 1.3965504216895237 0 0 0 0 -170.78950784128142 60.583276803727131 0 60.583276803727131 490.46505434964047 0 0 0 0 -101.99081820768629 -142.39932739482595 0 -142.39932739482595 135.4389796044461 0 0 0 0 -11.769146526236 -21.490613640775337 0 -21.490613640775337 -34.968469224002092 0 0 0 0 213.69436279822753 222.57362423807945 0 222.57362423807945 135.33758413295436 0 0 0 0 434.92247832704334 43.661692212424441 0 43.661692212424441 -187.05258644347441 0 0 0 0 184.73530124886747 -196.43319881744128 0 -196.43319881744128 44.042073794837961 0 0 0 0 167.19531983315068 109.56071527069228 0 109.56071527069228 203.84282277962848 0 0 0 0 -119.24244857524445 -28.075632395501998 0 -28.075632395501998 158.65782506478831 0 0 0 0 -114.36896279222492 -196.6532332491854 0 -196.6532332491854 -149.94286892286254 0 0 0 0 56.9833600898844 -12.406140234270651 0 -12.406140234270651 -99.348812753810307 0 0 0 0 2.3377664201282466 -1.3953928876323669 0 -1.3953928876323669 0.8427042560712561 0 0 0 0 -79.261999795548036 -329.52741766949885 0 -329.52741766949885 -1.0971090679036024 0 0 0 0 -37.741838405720046 -47.910741128302107 0 -47.910741128302107 39.437183086597543 0 0 0 0 79.693787589716976 4.5939747593781703 0 4.5939747593781703 29.02701815140324 0 0 0 0 -67.279440683721532 -75.468471963143656 0 -75.468471963143656 264.49522689873083 0 0 0 0 -52.882849706920297 -39.102526869925214 0 -39.102526869925214 273.77433735598015 0 0 0 0 62.062861594154811 -3.4000948633887447 0 -3.4000948633887447 143.48125961277674 0 0 0 0 34.869940288317878 -74.752422472922177 0 -74.752422472922177 373.39609261400119 0 0 0 0 34.363718226731464 -61.471947682562472 0 -61.471947682562472 157.42452184157446 0 0 0 0 -11.936183074572909 -29.000340522432907 0 -29.000340522432907 207.1819588876092 0 0 0 0 44.884292159433926 93.395257812287923 0 93.395257812287923 75.606995815654955 0 0 0 0 1.2285018364027565 47.774217080970175 0 47.774217080970175 37.790961077955217 0 0 0 0 72.74192458748189 44.124468571084208 0 44.124468571084208 104.97677199826421 0 0 0 0 192.48578973595158 205.44833008936712 0 205.44833008936712 307.56651028754959 0 0 0 0 649.43715982917274 -98.501208323017181 0 -98.501208323017181 51.912405804241189 0 0 0 0 323.46071081684613 210.57963744337792 0 210.57963744337792 78.964237412331386 0 0 0 0 6.0790526256730217 -1.5746732700252384 0 -1.5746732700252384 0.55242907548825793 0 0 0 0 81.14411022866534 -128.27341088875164 0 -128.27341088875164 363.54239838588137 0 0 0 0 442.72579553745027 -69.122860670810269 0 -69.122860670810269 154.7602593822362 0 0 0 0 223.45066866197021 219.2043774020633 0 219.2043774020633 139.81322413156181 0 0 0 0 226.23006211515849 130.44792190465932 0 130.44792190465932 207.68765029310362 0 0 0 0 339.50932526216184 75.242814425620054 0 75.242814425620054 62.741314282971871 0 0 0 0 262.49260780556551 49.048627181229222 0 49.048627181229222 25.706126626573678 0 0 0 0 2.5956556833948312 -0.48942888280922681 0 -0.48942888280922681 0.32300205242703139 0 0 0 0 302.25367172651386 287.73726311682231 0 287.73726311682231 190.1778429718056 0 0 0 0 5.8710881105507724 -8.0646209200681369 0 -8.0646209200681369 89.025234142385671 0 0 0 0 61.816964635368095 -73.186320297353177 0 -73.186320297353177 27.094899800898702 0 0 0 0 5.9050206598471959 -6.2582384879965502 0 -6.2582384879965502 15.934079512555854 0 0 0 0 46.735824517797028 -28.178454602704505 0 -28.178454602704505 -53.570647014605129 0 0 0 0 16.796780432771456 -3.5900113912091154 0 -3.5900113912091154 0.72855957544491523 0 0 0 0 -44.26505743141297 -52.55930572663533 0 -52.55930572663533 117.87932182849909 0 0 0 0 23.715448312703302 16.426830090755175 0 16.426830090755175 128.60255484558047 0 0 0 0 -141.3508827311598 -201.22298591002891 0 -201.22298591002891 -64.939053577259671 0 0 0 0 22.966760740006521 -72.929226975712936 0 -72.929226975712936 -144.56670394370508 0 0 0 0 107.80360705833891 24.606854465617403 0 24.606854465617403 -21.777193260016247 0 0 0 0 27.27223044904472 -12.253527463566794 0 -12.253527463566794 9.6753146481803363 0 0 0 0 28.80960105997201 -162.67620798948639 0 -162.67620798948639 -135.84323404999205 0 0 0 0 137.39503779088864 -144.14472534639151 0 -144.14472534639151 -135.16485885680277 0 0 0 0 21.760619730842336 -94.035267821392381 0 -94.035267821392381 -150.1124685535089 0 0 0 0 138.03785604684435 -186.86784485868611 0 -186.86784485868611 35.162257443740259 0 0 0 0 29.169644481015439 -103.1882252276439 0 -103.1882252276439 -26.771078811437746 0 0 0 0 249.75644107333801 -41.29815361347579 0 -41.29815361347579 -105.84816052997758 0 0 0 0 165.29765980122556 -42.27635654001665 0 -42.27635654001665 46.738976476009384 0 0 0 0 175.13747625276392 -3.4756130008595676 0 -3.4756130008595676 -284.0352237997439 0 0 0 0 125.66856331759845 -32.470178564826824 0 -32.470178564826824 -102.98207979104626 0 0 0 0 80.979264754948417 -86.598808289636338 0 -86.598808289636338 -146.54022266060406 0 0 0 0 88.944773660828972 -19.041916506500378 0 -19.041916506500378 -2.1433376382250899 0 0 0 0 114.2582972994569 -69.506683421249278 0 -69.506683421249278 -199.01303945567253 0 0 0 0 15.633845032776662 -98.880746451147843 0 -98.880746451147843 67.547929702699548 0 0 0 0 161.61895648187783 -72.704254596152168 0 -72.704254596152168 64.259799735960314 0 0 0 0 19.296006898363885 -41.885179427217508 0 -41.885179427217508 119.0585348241766 0 0 0 0 77.381302356481498 -18.348083965303147 0 -18.348083965303147 -2.2799597102223155 0 0 0 0 -45.673050278146547 -22.127830984768252 0 -22.127830984768252 -1.7293812549900167 0 0 0 0 81.856285584239231 -22.568442874297943 0 -22.568442874297943 -2.4780454511683274 0 0 0 0 82.744997709472955 -104.55082638010026 0 -104.55082638010026 18.203620972275758 0 0 0 0 -29.285362595139304 -28.010775191175981 0 -28.010775191175981 9.1626664494714873 0 0 0 0 29.407791067133076 -213.6993088744639 0 -213.6993088744639 31.359798893206971 0 0 0 0 -72.842965099145658 -214.46101376739352 0 -214.46101376739352 164.33465804941079 0 0 0 0 -34.285110083867039 -81.155816256643902 0 -81.155816256643902 161.12588281175658 0 0 0 0 -23.991541960531322 -174.39800508733424 0 -174.39800508733424 369.67326419360961 0 0 0 0 761.06952493209974 15.998716100793899 0 15.998716100793899 -85.875477628143926 0 0 0 0 315.95964518263645 -393.87491745701118 0 -393.87491745701118 157.01014077173841 0 0 0 0 118.25762022072013 -165.01430938813246 0 -165.01430938813246 -81.880435661709271 0 0 0 0 386.34109496369274 -95.508284250784527 0 -95.508284250784527 -400.05583689408923 0 0 0 0 76.844761040297499 -11.094848096368471 0 -11.094848096368471 3.14264784395571 0 0 0 0 105.71120428140239 34.708224560770304 0 34.708224560770304 -29.828718182512603 0 0 0 0 30.63366295426286 3.4884188833481815 0 3.4884188833481815 -17.420579431669811 0 0 0 0 -196.15254056935373 -276.6035043904526 0 -276.6035043904526 20.639055470011954 0 0 0 0 -79.343733041816449 -46.902825812056108 0 -46.902825812056108 -71.909255202839859 0 0 0 0 -0.16703897095430875 38.925149599694464 0 38.925149599694464 49.976192625023828 0 0 0 0 66.626432770186511 21.362867752915008 0 21.362867752915008 34.38714446225822 0 0 0 0 762.48162679376401 -205.74028723939728 0 -205.74028723939728 23.430966957818782 0 0 0 0 -0.040962984859099549 -0.0097535776385626605 0 -0.0097535776385626605 5.5290085184313114 0 0 0 0 128.81090593430781 99.610647536647093 0 99.610647536647093 3.8294916491049662 0 0 0 0 46.470313428522786 95.160199956236738 0 95.160199956236738 44.065132643643665 0 0 0 0 585.69039230190003 -371.27398475862339 0 -371.27398475862339 -58.069579025128405 0 0 0 0 -0.0093592675721936303 -3.7863598465584829 0 -3.7863598465584829 2.3577296147187337 0 0 0 0 610.06680985823914 29.049698600092597 0 29.049698600092597 125.51889782303806 0 0 0 0 -89.919465324142948 37.656266470869468 0 37.656266470869468 63.833783758926529 0 0 0 0 1.7196603696029626 -5.3313422597269593 0 -5.3313422597269593 2.9454497303363709 0 0 0 0 37.835395993290149 -94.866188689070214 0 -94.866188689070214 -122.71885089453053 0 0 0 0 -37.350915240303948 -62.100516778986616 0 -62.100516778986616 -55.892077609083117 0 0 0 0 1.4105074479869586 -4.9208474453907662 0 -4.9208474453907662 2.7464254026028025 0 0 0 0 39.216051294526551 -69.840336351951692 0 -69.840336351951692 -145.38543430791333 0 0 0 0 3.2477421655603393 1.6310294595748474 0 1.6310294595748474 60.224078245347073 0 0 0 0 3.2689367026789569 -37.940965955864414 0 -37.940965955864414 -9.0128039105220523 0 0 0 0 -3.6495550223262399 10.563708806777072 0 10.563708806777072 21.595111340579848 0 0 0 0 33.686445920135156 -12.499125973720368 0 -12.499125973720368 50.819783468443916 0 0 0 0 -5.8479102214187151 -10.711201533392455 0 -10.711201533392455 52.107795588495151 0 0 0 0 50.735915092176583 -38.778414329462464 0 -38.778414329462464 54.673000319154482 0 0 0 0 35.884491883397914 -59.230201929739692 0 -59.230201929739692 92.448817869006234 0 0 0 0 31.804096964785131 -0.57993371458200471 0 -0.57993371458200471 -13.853727536185675 0 0 0 0 29.84024658765702 -14.214639592316701 0 -14.214639592316701 52.833170518929364 0 0 0 0 7.4338832127726491 -6.7614469499861656 0 -6.7614469499861656 20.72354378927929 0 0 0 0 41.182895108126104 -12.947031804924791 0 -12.947031804924791 43.511031260425625 0 0 0 0 21.097171680085012 10.519759065259109 0 10.519759065259109 28.808147419240925 0 0 0 0 49.242870436883095 30.828162901210192 0 30.828162901210192 42.383062709644491 0 0 0 0 163.94883140954335 -100.22895335766327 0 -100.22895335766327 89.67016920784954 0 0 0 0 206.03862739171018 -79.973355762254414 0 -79.973355762254414 -6.0432432742994706 0 0 0 0 -0.1366428182498467 -2.4310086694213027 0 -2.4310086694213027 14.661554815078633 0 0 0 0 18.275595821447496 6.2461910025365768 0 6.2461910025365768 7.1723936119488485 0 0 0 0 53.527230304680415 27.723737522166118 0 27.723737522166118 12.990148231949519 0 0 0 0 19.841049626556924 -18.23568526742406 0 -18.23568526742406 15.172214099538905 0 0 0 0 -37.57836594748369 43.201489386963431 0 43.201489386963431 88.497286204561078 0 0 0 0 19.195619592225029 -7.9521954638630454 0 -7.9521954638630454 6.824488197896823 0 0 0 0 -19.009269305199268 -16.175255669296348 0 -16.175255669296348 45.01815913410519 0 0 0 0 22.422062089317478 10.713843423451181 0 10.713843423451181 44.331841719440362 0 0 0 0 20.332223964076547 4.8360235132747675 0 4.8360235132747675 31.549429546295869 0 0 0 0 10.727730423550383 18.427752915113558 0 18.427752915113558 41.951048804472521 0 0 0 0 15.792792230262421 49.015082545621226 0 49.015082545621226 53.354788603993256 0 0 0 0 49.756298632557446 -10.380085159202281 0 -10.380085159202281 30.829612832963903 0 0 0 0 42.274300952267367 -4.8661972053232603 0 -4.8661972053232603 21.525927270150078 0 0 0 0 30.718997531279456 -3.4095081094628767 0 -3.4095081094628767 21.905096839560429 0 0 0 0 42.770940741844242 4.0272961276405113 0 4.0272961276405113 24.898347537037807 0 0 0 0 31.062186948882726 -13.949251056304018 0 -13.949251056304018 5.3353408781109968 0 0 0 0 15.464148451595975 -5.9289120292637847 0 -5.9289120292637847 -4.2706338597514559 0 0 0 0 43.829277498982265 16.42690043828452 0 16.42690043828452 11.895009958168885 0 0 0 0 33.365154015191365 -14.74656268732906 0 -14.74656268732906 15.236945800306785 0 0 0 0 25.144217504209259 -11.123358519135977 0 -11.123358519135977 4.0449140713272325 0 0 0 0 73.372705104120541 -11.575902120075625 0 -11.575902120075625 11.940827618846015 0 0 0 0 1.1865190594772059 -1.1568243502734887 0 -1.1568243502734887 0.7676455345737363 0 0 0 0 28.669394644955375 -5.4461435579937643 0 -5.4461435579937643 3.6834980791614722 0 0 0 0 2.2616890330279418 5.7657423251807245 0 5.7657423251807245 -1.2842904571510214 0 0 0 0 101.12608926041139 24.928086558865743 0 24.928086558865743 -23.451491387299029 0 0 0 0 42.077433410493541 11.491910641245113 0 11.491910641245113 10.348315129436742 0 0 0 0 44.599333581878454 18.502682991183519 0 18.502682991183519 12.133288864773476 0 0 0 0 45.27743085930706 6.649876761278847 0 6.649876761278847 17.187336439516912 0 0 0 0 37.477029381450848 3.6583363766549155 0 3.6583363766549155 24.882995080651654 0 0 0 0 36.104258070086871 9.5846247564454643 0 9.5846247564454643 19.469517055567849 0 0 0 0 43.127233240709757 13.109950637743168 0 13.109950637743168 7.5554378115002692 0 0 0 0 64.414608870341908 29.368275134352189 0 29.368275134352189 8.6778427625013137 0 0 0 0 58.982495026866673 35.258411129482738 0 35.258411129482738 24.595221178545216 0 0 0 0 65.486896248126868 58.871083111885582 0 58.871083111885582 41.996333205381234 0 0 0 0 36.897219113816391 26.476220188140587 0 26.476220188140587 41.128288056508609 0 0 0 0 32.647234003961785 34.647844296936455 0 34.647844296936455 27.36934066242975 0 0 0 0 35.008729720022529 13.115633647336381 0 13.115633647336381 31.197319650854098 0 0 0 0 32.651072219829075 18.545420660190302 0 18.545420660190302 27.799444871040578 0 0 0 0 42.257595825096359 15.63564265027162 0 15.63564265027162 20.133930455766176 0 0 0 0 45.990848029508925 22.270247153663036 0 22.270247153663036 21.699810433423409 0 0 0 0 42.376273740897886 15.893454465584 0 15.893454465584 13.955204546438836 0 0 0 0 51.402536326932022 17.780918209172341 0 17.780918209172341 5.3226097791493885 0 0 0 0 57.471488710390986 23.723262326330769 0 23.723262326330769 11.055300534804701 0 0 0 0 45.834327787124494 23.381940805256818 0 23.381940805256818 14.108163101074751 0 0 0 0 57.302663973823655 19.379215963120259 0 19.379215963120259 3.1517460486575146 0 0 0 0 46.154303406088729 11.889130065614609 0 11.889130065614609 0.88134732667003846 0 0 0 0 53.397902724980668 5.4214551987370214 0 5.4214551987370214 -5.3279809357673003 0 0 0 0 49.531303390203902 15.869172578347161 0 15.869172578347161 5.5591097283413546 0 0 0 0 41.513049529956334 19.4277782457699 0 19.4277782457699 1.9888595162838101 0 0 0 0 39.693732548679691 15.381488089880804 0 15.381488089880804 9.6920612676649398 0 0 0 0 37.205826544137381 17.804922567926042 0 17.804922567926042 2.8626201372769629 0 0 0 0 31.875458236147097 3.4763644722884237 0 3.4763644722884237 -6.7114350340079909 0 0 0 0 30.863418373097375 15.28902937560315 0 15.28902937560315 5.9083374534850464 0 0 0 0 38.851047737502086 11.256152985185508 0 11.256152985185508 1.3190747096321047 0 0 0 0 37.051362569443882 5.4504827697837754 0 5.4504827697837754 -9.2155959828014602 0 0 0 0 45.018157761609473 0.7386014108406016 0 0.7386014108406016 -6.4381939217282707 0 0 0 0 59.07014242348032 61.693016354653537 0 61.693016354653537 25.555240853753276 0 0 0 0 59.794489060110209 58.141995460478824 0 58.141995460478824 10.177027644208465 0 0 0 0 32.027848469209857 50.322265762893949 0 50.322265762893949 81.687879671831297 0 0 0 0 -0.74512697820284757 5.1090078705632607 0 5.1090078705632607 5.5663429759007919 0 0 0 0 39.265432911808603 42.80509883798868 0 42.80509883798868 47.041082609897785 0 0 0 0 106.52897748441319 60.070134998424237 0 60.070134998424237 -10.815260796884104 0 0 0 0 -4.3638285344898264 5.7531288681119293 0 5.7531288681119293 2.6902478480895908 0 0 0 0 66.967081317416159 39.941440950120068 0 39.941440950120068 7.4706185924765123 0 0 0 0 72.805617142104893 32.581813849832542 0 32.581813849832542 -63.716567894356558 0 0 0 0 67.469956450746395 45.656308776508013 0 45.656308776508013 17.027432866581648 0 0 0 0 67.606219622342905 54.075941664655147 0 54.075941664655147 -26.06853668511576 0 0 0 0 60.397799980179116 61.690607569395524 0 61.690607569395524 9.9182235297239458 0 0 0 0 45.525331439246656 30.52902505292468 0 30.52902505292468 -24.926709167111767 0 0 0 0 71.3209864812452 28.548547072281735 0 28.548547072281735 -78.51341506670542 0 0 0 0 22.961036311211501 -25.347773941378705 0 -25.347773941378705 -102.20889100534532 0 0 0 0 19.43704517637525 7.5407732175990532 0 7.5407732175990532 -153.30622877960468 0 0 0 0 41.178130574990064 28.365326159407687 0 28.365326159407687 -55.015294936531063 0 0 0 0 76.151157532207662 -0.13900705123759849 0 -0.13900705123759849 -94.30737787490034 0 0 0 0 22.328674671065528 -66.861995644108902 0 -66.861995644108902 -49.52729904099715 0 0 0 0 10.746487461260585 -2.7123601578565371 0 -2.7123601578565371 -1.2494217682623763 0 0 0 0 60.479541663953569 -21.012738279874156 0 -21.012738279874156 -38.395907263136337 0 0 0 0 97.75612511667714 -0.30099115353414163 0 -0.30099115353414163 -38.373739720052072 0 0 0 0 84.478385210662964 -5.0923911051895629 0 -5.0923911051895629 -23.831105033141284 0 0 0 0 76.019162797385661 4.8633395062554499 0 4.8633395062554499 -34.610451458692296 0 0 0 0 75.08771547604556 -20.883404386055417 0 -20.883404386055417 -46.095990153547632 0 0 0 0 51.885626480827341 -13.096786851462639 0 -13.096786851462639 -11.332465755452176 0 0 0 0 39.443251794520279 -13.172659687013052 0 -13.172659687013052 2.3032109888506249 0 0 0 0 33.002996846394808 -9.1849949654102332 0 -9.1849949654102332 -9.8994461469923216 0 0 0 0 45.91802676496809 -37.035186542927477 0 -37.035186542927477 67.913539311312888 0 0 0 0 43.775231235740648 -19.093426731147105 0 -19.093426731147105 3.6177379638687626 0 0 0 0 44.157817471670569 -14.746888089973254 0 -14.746888089973254 -0.14725906911269249 0 0 0 0 36.801589653483461 -9.9802576566706591 0 -9.9802576566706591 -1.8037545380417441 0 0 0 0 17.820107412465958 -4.7266755700291938 0 -4.7266755700291938 -5.4300876424684601 0 0 0 0 49.794723548518959 -15.581016703034265 0 -15.581016703034265 8.3487523970598829 0 0 0 0 34.53208060498946 -18.981123416800585 0 -18.981123416800585 8.6429914176441116 0 0 0 0 41.775136207175379 -19.394184213852188 0 -19.394184213852188 2.939006636483771 0 0 0 0 50.866242529089504 -13.338097814027833 0 -13.338097814027833 -12.389269355143142 0 0 0 0 66.518271442939295 -43.319749093474911 0 -43.319749093474911 -173.43355430155316 0 0 0 0 41.504525753842017 -11.238301457686603 0 -11.238301457686603 2.1749035034078026 0 0 0 0 48.394341552577316 -22.929333250789938 0 -22.929333250789938 -8.5884468771364482 0 0 0 0 46.314664548550354 -1.6374291439620947 0 -1.6374291439620947 -69.56136322743896 0 0 0 0 94.697166848825873 13.875250542201684 0 13.875250542201684 -156.7225569564406 0 0 0 0 104.01654251664877 33.000901215219073 0 33.000901215219073 -73.473557819488235 0 0 0 0 29.696659387980617 -11.077080650927428 0 -11.077080650927428 -75.028246083687463 0 0 0 0 92.604944066935786 -97.611985061308928 0 -97.611985061308928 -198.76295859127003 0 0 0 0 113.21199974429328 -39.2653860244518 0 -39.2653860244518 -71.12223441428705 0 0 0 0 202.50884286598739 4.8536968381888528 0 4.8536968381888528 -55.405475582076178 0 0 0 0 74.922868765475869 -43.896996937286303 0 -43.896996937286303 97.353756042609348 0 0 0 0 132.44036623311695 56.324866885040137 0 56.324866885040137 33.044481639279866 0 0 0 0 94.459979407562059 104.32027917707683 0 104.32027917707683 67.202755932887385 0 0 0 0 138.32190978743529 38.82886296510469 0 38.82886296510469 -19.629381443530292 0 0 0 0 91.057401707294048 51.246931073112592 0 51.246931073112592 -22.882747435594865 0 0 0 0 96.98447443250916 -92.255395559281396 0 -92.255395559281396 7.7640130806964862 0 0 0 0 -0.17610453209636034 -41.588097291853728 0 -41.588097291853728 -18.276816005438377 0 0 0 0 45.365688129524017 -12.499574331792765 0 -12.499574331792765 3.318770303227454 0 0 0 0 34.124641660033376 -18.412842807480047 0 -18.412842807480047 -3.7720911762118021 0 0 0 0 50.185914496103578 -21.121671368424941 0 -21.121671368424941 -29.093578409847055 0 0 0 0 44.390226405912472 -90.456378374548194 0 -90.456378374548194 -125.07051091418771 0 0 0 0 40.248536443271831 -17.251824195606574 0 -17.251824195606574 2.0366305126206403 0 0 0 0 45.353552468906855 -29.0148029537919 0 -29.0148029537919 -22.227577815570953 0 0 0 0 43.375426951418973 -13.087069427449386 0 -13.087069427449386 3.6591758241238148 0 0 0 0 43.437572030888987 -3.640173599237869 0 -3.640173599237869 7.2905504820877667 0 0 0 0 33.002879863750422 -22.248314836055272 0 -22.248314836055272 7.7649457618745146 0 0 0 0 -32.13609520666796 -131.64645873177204 0 -131.64645873177204 -46.961441490152069 0 0 0 0 42.742074963640832 -17.766629939614283 0 -17.766629939614283 2.4245951662124678 0 0 0 0 115.00445461344862 -62.536974356303205 0 -62.536974356303205 -48.137267268759693 0 0 0 0 68.995796494657043 19.187341840423592 0 19.187341840423592 -42.102037171193373 0 0 0 0 75.145880547515844 25.428605854855473 0 25.428605854855473 64.760174477262737 0 0 0 0 141.57962606151159 -132.04513654452307 0 -132.04513654452307 104.99198787614792 0 0 0 0 -52.146557964158546 -19.467960724537889 0 -19.467960724537889 171.39793312332191 0 0 0 0 -20.408663789206912 -32.339162845117556 0 -32.339162845117556 39.442660477925287 0 0 0 0 -21.662867177416047 77.441547628355664 0 77.441547628355664 4.4316307600172138 0 0 0 0 -24.298675572583306 -47.857526541189088 0 -47.857526541189088 56.391889629782781 0 0 0 0 24.99931528813795 -7.8377147304097843 0 -7.8377147304097843 43.289716033909421 0 0 0 0 -28.402033900236802 -75.340817439283242 0 -75.340817439283242 -6.1667146914632838 0 0 0 0 -22.656551573636534 -23.359603390979416 0 -23.359603390979416 15.07557275338435 0 0 0 0 39.848784050424001 -11.694462226543919 0 -11.694462226543919 0.62646777998969583 0 0 0 0 27.341373536328319 -15.473347370791771 0 -15.473347370791771 3.8408076839896239 0 0 0 0 17.195011652131882 -0.14419650211305424 0 -0.14419650211305424 -2.8023277530038548 0 0 0 0 44.466714211900353 -20.170120740177651 0 -20.170120740177651 3.4942854196310691 0 0 0 0 38.70990996681212 -17.71740271667295 0 -17.71740271667295 6.4299219141728372 0 0 0 0 20.066917709899016 -11.094699007933706 0 -11.094699007933706 3.5992407371553532 0 0 0 0 70.349001846002466 -83.912848339309946 0 -83.912848339309946 78.196090087338462 0 0 0 0 6.089913701144539 -9.9331704661564189 0 -9.9331704661564189 -0.5901711693981786 0 0 0 0 59.780960416279413 -98.446810184942535 0 -98.446810184942535 67.423812693069976 0 0 0 0 20.413427075041753 -5.1750053353751326 0 -5.1750053353751326 -6.8312285417491818 0 0 0 0 7.59098371618893 -92.794567712662911 0 -92.794567712662911 171.36873349301186 0 0 0 0 149.44790089829257 -49.550537199600058 0 -49.550537199600058 -128.2087065295002 0 0 0 0 148.4479636933963 -159.71946443559716 0 -159.71946443559716 -0.11059658545946149 0 0 0 0 5.2604643471140449 -0.28168542512857542 0 -0.28168542512857542 -1.1910794587156253 0 0 0 0 -0.376224806444867 -3.4662956786095052 0 -3.4662956786095052 2.1678100279165173 0 0 0 0 183.81502035268204 68.235188957323999 0 68.235188957323999 96.482038437079609 0 0 0 0 95.524216602224442 -146.66249790735557 0 -146.66249790735557 117.66685073287283 0 0 0 0 -25.042091286495634 -50.006246346663715 0 -50.006246346663715 116.08284540890941 0 0 0 0 1.2691134729734586 27.586962695528371 0 27.586962695528371 -36.622059021614405 0 0 0 0 100.17965986524541 -16.167015243886453 0 -16.167015243886453 13.666535222163475 0 0 0 0 76.941640060987993 0.55112678690784378 0 0.55112678690784378 22.863623920322425 0 0 0 0 80.346139624110947 -91.15513823147603 0 -91.15513823147603 25.61402580672668 0 0 0 0 36.753958486190641 5.3599524536709851 0 5.3599524536709851 2.2000546143090105 0 0 0 0 27.153565890672326 5.7705163968217903 0 5.7705163968217903 45.859402852447829 0 0 0 0 27.35546632306383 6.8277695720174449 0 6.8277695720174449 1.9649624959631518 0 0 0 0 156.30538208350481 78.115063522714877 0 78.115063522714877 -81.104840668119451 0 0 0 0 13.647583036970261 2.5641484458245642 0 2.5641484458245642 -1.2510907171709387 0 0 0 0 23.460179828944092 -6.5681769477275793 0 -6.5681769477275793 1.9049198261459424 0 0 0 0 2.8969411306078072 1.3042926571512901 0 1.3042926571512901 -2.4053816488288913 0 0 0 0 35.881325423594717 -16.665881130010888 0 -16.665881130010888 3.4331173284090255 0 0 0 0 97.399704532861506 -25.140524699251841 0 -25.140524699251841 9.287485412576892 0 0 0 0 72.88992772887832 -134.45534608107207 0 -134.45534608107207 -86.068355879942629 0 0 0 0 13.976883085335992 1.6095431481506708 0 1.6095431481506708 5.3182076369291575 0 0 0 0 104.1961609815944 -11.385251241713689 0 -11.385251241713689 29.592662970469945 0 0 0 0 20.152212396740733 -12.257601471696553 0 -12.257601471696553 6.433515048112902 0 0 0 0 30.69118901546517 -18.362023787129829 0 -18.362023787129829 34.597011303406362 0 0 0 0 52.893575589791823 22.053704334178061 0 22.053704334178061 8.8325059157181318 0 0 0 0 79.794206706865225 -3.3574309178712554 0 -3.3574309178712554 27.504905156817898 0 0 0 0 60.377937002953331 -34.581566290386412 0 -34.581566290386412 53.833673650937612 0 0 0 0 110.14140813749327 -103.78390103469943 0 -103.78390103469943 149.75848756452262 0 0 0 0 412.35765608658767 -51.836269370589477 0 -51.836269370589477 15.348364709435685 0 0 0 0 378.18662914226115 -158.6413712539059 0 -158.6413712539059 33.482716406668771 0 0 0 0 107.6654016286393 -63.053434207039814 0 -63.053434207039814 62.860200195964865 0 0 0 0 10.077982670076381 -71.477566549032531 0 -71.477566549032531 91.692479255024409 0 0 0 0 0.25844256184544534 -0.050871330209197652 0 -0.050871330209197652 -1.0874870054570578 0 0 0 0 172.56549002639167 -28.183365430129932 0 -28.183365430129932 18.563505370440453 0 0 0 0 393.90637696372141 -70.719622579591288 0 -70.719622579591288 -46.4168699989104 0 0 0 0 263.65263750774102 -61.221198580925936 0 -61.221198580925936 -37.139284472388653 0 0 0 0 121.08729835666418 45.570527423985922 0 45.570527423985922 -12.159986580358435 0 0 0 0 -0.084161733538280714 -0.59181238413007975 0 -0.59181238413007975 -4.6900127629193502 0 0 0 0 9.682979814508144 32.410471991720442 0 32.410471991720442 10.848404114394953 0 0 0 0 72.502442736666126 114.30249104914799 0 114.30249104914799 -53.586290815365146 0 0 0 0 -4.1538078186786151 91.497812714859492 0 91.497812714859492 114.16205700540331 0 0 0 0 313.2740898977936 -49.699215193515272 0 -49.699215193515272 12.075715289657978 0 0 0 0 129.10986896834038 -144.4248412711562 0 -144.4248412711562 92.821635551875033 0 0 0 0 -0.26366351325460613 -0.42439567999088013 0 -0.42439567999088013 2.0203060563772821 0 0 0 0 -241.59502797626737 -97.441842968749626 0 -97.441842968749626 142.47340997304781 0 0 0 0 397.32480895759181 45.691348168265591 0 45.691348168265591 10.244175060949971 0 0 0 0 0.78075355815681391 -1.3037635492456801 0 -1.3037635492456801 2.6598088343878592 0 0 0 0 -170.59109005424762 -189.40707996565811 0 -189.40707996565811 230.03853550859128 0 0 0 0 249.37286677543671 89.405597209035818 0 89.405597209035818 -36.759036691750438 0 0 0 0 155.22263560956344 -38.861575776387191 0 -38.861575776387191 -4.3277166065463391 0 0 0 0 -27.101062756428291 -61.27572726553251 0 -61.27572726553251 -41.649067360283198 0 0 0 0 64.693922594113246 14.212752676258788 0 14.212752676258788 -125.7764314083862 0 0 0 0 2.6268020528916551 -4.5435228450882903 0 -4.5435228450882903 6.2696994904648733 0 0 0 0 26.250936255332817 -15.623493565024035 0 -15.623493565024035 -17.384019645577382 0 0 0 0 0.86511421367811536 -2.5393304310202183 0 -2.5393304310202183 -10.094208226598008 0 0 0 0 1.5788295292247447 -7.4311484374914158 0 -7.4311484374914158 8.3940268942226002 0 0 0 0 56.242192432811862 -110.59223408051722 0 -110.59223408051722 -102.18634364084184 0 0 0 0 30.514594224528992 38.186935609054359 0 38.186935609054359 69.194364518328115 0 0 0 0 40.812903549808539 -19.362263114328535 0 -19.362263114328535 5.6035852979414509 0 0 0 0 36.679196840024815 -28.787783037316842 0 -28.787783037316842 -41.546055782384798 0 0 0 0 127.6469963179843 44.876595591872558 0 44.876595591872558 24.722375860072134 0 0 0 0 153.07612052709192 -36.838970673424427 0 -36.838970673424427 -77.636893847520241 0 0 0 0 46.723950599110552 -10.708965772341099 0 -10.708965772341099 -2.0625886708279273 0 0 0 0 127.85851695189422 44.347920680662696 0 44.347920680662696 -36.439241502303048 0 0 0 0 26.909001894573734 -4.8118661675463912 0 -4.8118661675463912 -5.6641889259455294 0 0 0 0 51.70699718880951 -46.55309377753133 0 -46.55309377753133 -11.024742158686422 0 0 0 0 52.702607982595509 -52.56773417107604 0 -52.56773417107604 5.3990441927853681 0 0 0 0 81.820529827012365 -32.19763602375059 0 -32.19763602375059 -2.8153896010873529 0 0 0 0 44.790856410676497 -65.088151834815562 0 -65.088151834815562 -12.611480698592516 0 0 0 0 38.727214326281683 -85.654170523403536 0 -85.654170523403536 -56.699222913431868 0 0 0 0 -2.5835564773478836 -71.240564334590999 0 -71.240564334590999 7.9604781228481443 0 0 0 0 -163.12233837596978 -59.919942354819966 0 -59.919942354819966 101.21827674755082 0 0 0 0 76.445752343730419 -47.484113586546073 0 -47.484113586546073 -4.6627149749506316 0 0 0 0 49.278035304583085 -13.246643617551845 0 -13.246643617551845 1.4027183527616041 0 0 0 0 35.697984820246347 -9.0782334056470972 0 -9.0782334056470972 0.087202496286408859 0 0 0 0 64.180358215278829 -18.257230760480525 0 -18.257230760480525 -9.3881353509806331 0 0 0 0 36.427041362777459 -20.706616138170965 0 -20.706616138170965 2.7216512989863979 0 0 0 0 -4.8609617287438596 -146.51558864552067 0 -146.51558864552067 -110.75087324144067 0 0 0 0 11.412545499213593 -48.920945859405947 0 -48.920945859405947 -41.219728316574674 0 0 0 0 1.2475947329148767 -72.189136218321664 0 -72.189136218321664 -0.71242541681249349 0 0 0 0 -14.407940214563496 -63.123641613993925 0 -63.123641613993925 -17.027191816730465 0 0 0 0 10.537444434219651 -25.427304112823776 0 -25.427304112823776 -38.29665985211966 0 0 0 0 7.468680891495751 1.8294704553811698 0 1.8294704553811698 78.017854934358411 0 0 0 0 233.81070421875847 79.504330722057261 0 79.504330722057261 40.914788674458578 0 0 0 0 19.272092482006428 78.564414527127084 0 78.564414527127084 126.86776025814402 0 0 0 0 111.33205641584914 77.228168644412818 0 77.228168644412818 103.15796414290753 0 0 0 0 308.69140283517481 140.92058684257279 0 140.92058684257279 1.1482859471589535 0 0 0 0 -7.5859098370056017 -22.185402345564867 0 -22.185402345564867 60.525313314320243 0 0 0 0 -31.472514895742279 23.37682024192425 0 23.37682024192425 45.356810175925517 0 0 0 0 105.78803889963069 6.828742482875839 0 6.828742482875839 18.635598016893709 0 0 0 0 197.52128300114055 -3.2860730125893411 0 -3.2860730125893411 -36.776118654672601 0 0 0 0 390.89481571729448 74.260918094049103 0 74.260918094049103 -82.109552967779933 0 0 0 0 396.17440825022459 41.870145327574768 0 41.870145327574768 -77.623149608415986 0 0 0 0 602.81660807244043 16.996052821597516 0 16.996052821597516 -129.88733719621143 0 0 0 0 694.41078826848388 81.48027846303853 0 81.48027846303853 -201.90163591160942 0 0 0 0 575.28881076104517 89.92374946712971 0 89.92374946712971 -68.491099993579212 0 0 0 0 671.99322811890943 -46.275908902591041 0 -46.275908902591041 65.570017312464415 0 0 0 0 484.13650893000158 139.33474507902412 0 139.33474507902412 -80.225809253723241 0 0 0 0 826.76213378266766 213.46376294208699 0 213.46376294208699 -64.699346797363091 0 0 0 0 212.84265519311839 239.92518882999633 0 239.92518882999633 239.78847403723967 0 0 0 0 667.3977146485995 231.24518287792148 0 231.24518287792148 108.70313588370004 0 0 0 0 1001.7983805093572 854.5971502898625 0 854.5971502898625 129.75693856838643 0 0 0 0 4.1826392499782372 4.9632934294441284 0 4.9632934294441284 4.0675307950769408 0 0 0 0 1979.4554557594283 -129.08782701252241 0 -129.08782701252241 -114.785129635506 0 0 0 0 -1.1259918484721538 2.7726204927778735 0 2.7726204927778735 -0.31593840032687825 0 0 0 0 1439.8316109943989 -160.24023938103255 0 -160.24023938103255 186.99523929916472 0 0 0 0 -323.5174593307238 221.81263356050295 0 221.81263356050295 226.33218629776673 0 0 0 0 580.50427249599306 -277.44399315158716 0 -277.44399315158716 -242.28104735762281 0 0 0 0 344.21209500206169 768.16060278417444 0 768.16060278417444 451.74908967788855 0 0 0 0 49.377073032494081 39.131669687057865 0 39.131669687057865 -183.72542123142921 0 0 0 0 -187.49780358618955 87.061206822431814 0 87.061206822431814 326.94495672056837 0 0 0 0 2495.4137004972254 1680.135434870911 0 1680.135434870911 442.83205444258169 0 0 0 0 -432.63810889780871 388.57725549519091 0 388.57725549519091 3196.6182029484248 0 0 0 0 -3.2758948451979819 5.3708581805943751 0 5.3708581805943751 7.6866827187825812 0 0 0 0 2477.3031762129103 23.882290917560297 0 23.882290917560297 10.492759279403213 0 0 0 0 42.428701102424384 1031.9758308769337 0 1031.9758308769337 1282.477416282904 0 0 0 0 -516.69733564919443 205.65158695934406 0 205.65158695934406 345.37341676734263 0 0 0 0 -6.0135225411379736 4.2941345219728326 0 4.2941345219728326 2.6041321190847189 0 0 0 0 -706.81110654571967 1257.4162141276906 0 1257.4162141276906 861.54876607697531 0 0 0 0 587.96115063035541 150.87693248121684 0 150.87693248121684 -645.84987385687396 0 0 0 0 2499.8899342005025 16.042945386965375 0 16.042945386965375 -896.64331450092993 0 0 0 0 1804.2618062627134 547.65117761484203 0 547.65117761484203 -766.38997576647751 0 0 0 0 829.77039846000116 574.59097691704835 0 574.59097691704835 -331.86126429712226 0 0 0 0 581.14452200470259 82.035232117864908 0 82.035232117864908 -166.34247013550635 0 0 0 0 10.647055765364499 11.033206554934132 0 11.033206554934132 4.198331098486018 0 0 0 0 612.08666543726849 26.804187822365776 0 26.804187822365776 -247.2044244255336 0 0 0 0 1435.6153395689107 -555.39601465153407 0 -555.39601465153407 -70.640951506200224 0 0 0 0 2498.5985714097551 -887.02813644035757 0 -887.02813644035757 -3.5007175033538336 0 0 0 0 -276.29718009631324 463.15888269053681 0 463.15888269053681 80.753972036730829 0 0 0 0 6.8586541606302802 4.761575214441919 0 4.761575214441919 1.3324220883907971 0 0 0 0 1207.9798244505328 699.30517215154828 0 699.30517215154828 -16.719466294791793 0 0 0 0 67.649496113386704 504.19716371412568 0 504.19716371412568 -48.492828159134682 0 0 0 0 746.49057994238137 -71.240242218383742 0 -71.240242218383742 -89.397272963989934 0 0 0 0 816.83720934278426 137.42334352377912 0 137.42334352377912 -296.69984517480373 0 0 0 0 175.22809931486699 -36.323354270637708 0 -36.323354270637708 -228.13938271779995 0 0 0 0 684.33401901099296 -30.389738183192794 0 -30.389738183192794 -179.66064095534946 0 0 0 0 598.57559066298563 26.869475827295688 0 26.869475827295688 -217.84988614378486 0 0 0 0 407.69062239112463 -10.087599442801036 0 -10.087599442801036 -100.68334743120377 0 0 0 0 520.06327419308036 -32.801678824692999 0 -32.801678824692999 -96.827500471597645 0 0 0 0 572.58696779732054 -129.13153225531426 0 -129.13153225531426 -58.85718212936132 0 0 0 0 656.937287296656 5.5714767471256437 0 5.5714767471256437 -144.31869662945502 0 0 0 0 680.45906576040124 -219.5099330938686 0 -219.5099330938686 54.955064628069294 0 0 0 0 834.11869139725422 -239.96226702487726 0 -239.96226702487726 69.078593535923829 0 0 0 0 788.76548171772674 36.519647996518763 0 36.519647996518763 3.000950134935465 0 0 0 0 462.03109221405612 -46.758174741444776 0 -46.758174741444776 -53.657328524121127 0 0 0 0 413.31519091558948 -70.340635080283292 0 -70.340635080283292 104.35499716986358 0 0 0 0 1402.8483241257527 40.604445870615663 0 40.604445870615663 -96.965314374561956 0 0 0 0 1382.7321859393123 115.64920958250113 0 115.64920958250113 -358.67344546882856 0 0 0 0 2500.6650342645262 -237.38524057000546 0 -237.38524057000546 -333.73587560616647 0 0 0 0 2493.8100471311855 381.20273657326612 0 381.20273657326612 -381.53841653678381 0 0 0 0 2499.7303647114059 -526.16946565421665 0 -526.16946565421665 -312.16831926741952 0 0 0 0 1737.7935927846556 -260.45727912303511 0 -260.45727912303511 -404.65345550066939 0 0 0 0 2498.942762750532 -162.42362899951806 0 -162.42362899951806 -576.44626961978543 0 0 0 0 1629.0059336645845 -462.43278523372578 0 -462.43278523372578 -56.141781714868785 0 0 0 0 1131.0096142670518 -199.56372299884632 0 -199.56372299884632 -87.439991694663675 0 0 0 0 753.9629176520466 -377.85472341690206 0 -377.85472341690206 -31.726273521019152 0 0 0 0 960.70783761470375 -526.19169941276743 0 -526.19169941276743 73.974700182400284 0 0 0 0 740.23488273876865 -413.33757681771078 0 -413.33757681771078 204.93708351340371 0 0 0 0 1026.9861746724673 -528.58172305707512 0 -528.58172305707512 242.34066709799836 0 0 0 0 1577.639007418773 -461.29884647577774 0 -461.29884647577774 -54.961881689843771 0 0 0 0 1092.9000219671216 -676.75807527077916 0 -676.75807527077916 364.24357239727993 0 0 0 0 669.07331530607917 -538.12460137777373 0 -538.12460137777373 432.62708783665266 0 0 0 0 19.19341947474129 5.912536277305378 0 5.912536277305378 -3.8934913286615109 0 0 0 0 940.71801687888001 -674.07520335400011 0 -674.07520335400011 500.03381973142791 0 0 0 0 1413.320703109488 -1022.7661825714407 0 -1022.7661825714407 677.04255063838218 0 0 0 0 949.32857889385195 -612.71544381929561 0 -612.71544381929561 389.08021533772342 0 0 0 0 1780.5102484614617 -744.62965686123027 0 -744.62965686123027 28.91111576522767 0 0 0 0 1814.9787145521877 -728.14920688445636 0 -728.14920688445636 31.251998823514771 0 0 0 0 2499.7906631004225 -1235.05849764912 0 -1235.05849764912 309.35475784471942 0 0 0 0 1747.5777468491651 -1179.7238894511779 0 -1179.7238894511779 510.75291162399247 0 0 0 0 1240.8109507155968 -1105.5411752224682 0 -1105.5411752224682 1031.2555470569641 0 0 0 0 1538.5404432940304 -1361.5012493833265 0 -1361.5012493833265 998.34167218947971 0 0 0 0 2497.0578325663046 -1755.5628215045681 0 -1755.5628215045681 929.98138078451063 0 0 0 0 13.87693081946054 5.2287377003441406 0 5.2287377003441406 10.406102981030244 0 0 0 0 1159.5353181912214 -2052.1011355969631 0 -2052.1011355969631 2594.8317936545495 0 0 0 0 47.680021294087055 48.513349738541237 0 48.513349738541237 103.69420554552889 0 0 0 0 7.2892873883172342 -3.9911327081958183 0 -3.9911327081958183 4.7505004378535212 0 0 0 0 2437.7543704095674 -307.75716004973663 0 -307.75716004973663 -293.02860311874207 0 0 0 0 0.64566461223301985 1.024456194468506 0 1.024456194468506 4.2977802107167529 0 0 0 0 9.615196996128816 -2.0204498399235078 0 -2.0204498399235078 7.5834606672547 0 0 0 0 21.678174233929894 -13.568490970069888 0 -13.568490970069888 13.81678083938732 0 0 0 0 9.5085889420381022 0.85810454363562627 0 0.85810454363562627 2.9922179455950797 0 0 0 0 30.453902704684879 7.4207781913883082 0 7.4207781913883082 -3.1421447920723296 0 0 0 0 16.583648222706756 -3.364289528243313 0 -3.364289528243313 2.4528308903675482 0 0 0 0 16.826013054903342 70.965305129892329 0 70.965305129892329 45.377378963507454 0 0 0 0 8.9994725631679842 0.63977690667903886 0 0.63977690667903886 4.7120331053772793 0 0 0 0 245.47905677461677 -10.857541040130471 0 -10.857541040130471 20.71938522573334 0 0 0 0 483.01837128884654 696.38023309497464 0 696.38023309497464 313.44299040602721 0 0 0 0 21.514100276727518 11.890455211978985 0 11.890455211978985 8.4377766550223132 0 0 0 0 2484.4557772817352 -1321.3295198589558 0 -1321.3295198589558 -719.60987448434753 0 0 0 0 2.9777105664412176 9.0507740343124681 0 9.0507740343124681 8.3176760822450468 0 0 0 0 2488.6125554527825 -0.58967593431638443 0 -0.58967593431638443 5.8397255296596304 0 0 0 0 4.996618436922347 -1.5372608493614877 0 -1.5372608493614877 2.8679415292897894 0 0 0 0 40.013490824938344 -9.2946795564398599 0 -9.2946795564398599 -9.3160616365230453 0 0 0 0 43.978970644938713 -6.2357340471311211 0 -6.2357340471311211 -1.2027680090232793 0 0 0 0 34.795850136204535 -3.2137393055684242 0 -3.2137393055684242 -1.7082045505472934 0 0 0 0 97.71970032745503 -55.531401449940347 0 -55.531401449940347 -14.323057180677097 0 0 0 0 32.699981140598538 1.0081104386851827 0 1.0081104386851827 -0.71389996099377528 0 0 0 0 35.263422211268335 -3.8345704984599251 0 -3.8345704984599251 -6.021653511307818 0 0 0 0 19.061318254185224 -2.116390561804387 0 -2.116390561804387 0.48730390050483674 0 0 0 0 24.340706082853103 -5.0816375572666175 0 -5.0816375572666175 2.5486662605144375 0 0 0 0 18.910796088128336 -12.243069716694436 0 -12.243069716694436 3.4434322311067262 0 0 0 0 18.627695713479909 -2.298716713996106 0 -2.298716713996106 0.039388298881290335 0 0 0 0 37.100575535310782 -6.8365773159107448 0 -6.8365773159107448 2.3684048723939668 0 0 0 0 25.218092215553042 8.7022615718301495 0 8.7022615718301495 8.8779992817867424 0 0 0 0 6.2521493212202017 -4.9868349648390264 0 -4.9868349648390264 -0.50061236378370388 0 0 0 0 35.22150554706559 -2.4625853574163599 0 -2.4625853574163599 -0.011766789236202099 0 0 0 0 92.021350422583055 -46.709307487947171 0 -46.709307487947171 -27.858774173746895 0 0 0 0 71.33146139204473 -9.0732148782976765 0 -9.0732148782976765 7.3946122168513284 0 0 0 0 41.003357512672665 -8.7348086902772479 0 -8.7348086902772479 7.527085785743111 0 0 0 0 39.847705626365496 6.100047409763647 0 6.100047409763647 9.237101433824364 0 0 0 0 31.587057319615269 -10.810785060634544 0 -10.810785060634544 15.256428633250835 0 0 0 0 40.344375187960395 -10.516324162135447 0 -10.516324162135447 15.23729265537753 0 0 0 0 22.430743524550053 -8.4502895755626923 0 -8.4502895755626923 15.045332655437051 0 0 0 0 1172.3581006721943 -904.09158602187699 0 -904.09158602187699 662.17264415555928 0 0 0 0 13.92201462509361 4.7668780546395482 0 4.7668780546395482 -1.0571002862116905 0 0 0 0 47.724801667602151 -14.489321592599765 0 -14.489321592599765 11.150984530637288 0 0 0 0 46.370270407023781 -22.125764126812356 0 -22.125764126812356 14.492437095697198 0 0 0 0 26.309415514522698 -15.112285457765999 0 -15.112285457765999 14.05233132830741 0 0 0 0 26.56718897306564 -8.6622883692393771 0 -8.6622883692393771 6.4032506308667507 0 0 0 0 23.817991179254022 -12.491568730412155 0 -12.491568730412155 1.0695742431744293 0 0 0 0 23.113233877787934 -7.1493247425908635 0 -7.1493247425908635 -1.087331400102812 0 0 0 0 39.471237666206434 -21.386451548819309 0 -21.386451548819309 10.940470934320729 0 0 0 0 33.389031415208592 -11.228789397867558 0 -11.228789397867558 5.1377306650019818 0 0 0 0 31.46574577598949 -8.8173773776634334 0 -8.8173773776634334 -1.7224890315792436 0 0 0 0 31.788229115481954 -8.9008261758781373 0 -8.9008261758781373 -1.7229002799716753 0 0 0 0 27.613464018242666 -12.080452952413907 0 -12.080452952413907 11.955507839481641 0 0 0 0 45.88273661313724 -30.53312079470652 0 -30.53312079470652 32.159677638353969 0 0 0 0 26.769099894721876 -5.8577311369440395 0 -5.8577311369440395 5.1802826768334853 0 0 0 0 38.003485647426373 -5.3304450634945617 0 -5.3304450634945617 -1.324825613591317 0 0 0 0 43.501149425414042 -8.3791006901772107 0 -8.3791006901772107 5.5940766953270824 0 0 0 0 3.6220628194059827 28.828519259199084 0 28.828519259199084 25.069938374834237 0 0 0 0 39.850911194276705 14.711800454053218 0 14.711800454053218 -38.44940921806392 0 0 0 0 33.167661573497753 -6.9094011220577158 0 -6.9094011220577158 -9.9075837214159037 0 0 0 0 32.267796979809646 -4.8272917234398847 0 -4.8272917234398847 -10.509841716326719 0 0 0 0 30.668652300795657 -11.387024450494778 0 -11.387024450494778 -6.3694430273817488 0 0 0 0 13.311898544081487 -7.8290295930196407 0 -7.8290295930196407 0.57797134091081404 0 0 0 0 21.118929039657814 -14.646543545783061 0 -14.646543545783061 -6.623545651185168 0 0 0 0 9.1134414759201121 -2.0176997099249974 0 -2.0176997099249974 -3.0583503533543741 0 0 0 0 7.379750395193696 -8.0411004942384352 0 -8.0411004942384352 -0.4810628623968114 0 0 0 0 22.008429525492829 -12.391899800051306 0 -12.391899800051306 -3.3717569841483055 0 0 0 0 11.747356006306319 -9.172282535293883 0 -9.172282535293883 0.95512687988318212 0 0 0 0 11.295244882594432 -11.726352417743819 0 -11.726352417743819 3.402476295230036 0 0 0 0 1.9150224174862558 -10.466210246633807 0 -10.466210246633807 1.0929471260195172 0 0 0 0 45.522690294976201 -5.431259520819026 0 -5.431259520819026 2.5725726162572755 0 0 0 0 67.798010546255682 -18.217929305416305 0 -18.217929305416305 4.6488634238212398 0 0 0 0 12.245385056791292 -1.644918857479766 0 -1.644918857479766 -1.0853790970048616 0 0 0 0 45.965418653810048 -3.1407286555172504 0 -3.1407286555172504 -3.6740752596738275 0 0 0 0 36.173792052322824 -11.692389758250783 0 -11.692389758250783 3.3733639120696353 0 0 0 0 38.619658649964549 -2.7326960178467061 0 -2.7326960178467061 -0.93698849034944942 0 0 0 0 27.517257275874726 -48.618522492845386 0 -48.618522492845386 12.363068127410372 0 0 0 0 17.651709308069258 -67.032585898086495 0 -67.032585898086495 14.985397679686685 0 0 0 0 57.633479014693876 -46.627325227250822 0 -46.627325227250822 7.7639071076755499 0 0 0 0 38.220174253874575 -52.250609532092767 0 -52.250609532092767 9.0466362086604022 0 0 0 0 48.366225662459328 -42.771650923584275 0 -42.771650923584275 16.609968506006226 0 0 0 0 38.22084531323344 -49.928899390184597 0 -49.928899390184597 25.525091431381952 0 0 0 0 29.096623507648474 -45.381119084024022 0 -45.381119084024022 27.89456442521805 0 0 0 0 41.268811345886206 -24.443195376688436 0 -24.443195376688436 10.521417381884021 0 0 0 0 25.415663832071004 -39.00404831608148 0 -39.00404831608148 21.885896533600317 0 0 0 0 0.44191004681024992 -4.9727900508823097 0 -4.9727900508823097 1.3524311007567071 0 0 0 0 27.819743897656735 -47.474112966245229 0 -47.474112966245229 25.586040912293356 0 0 0 0 27.050782309894657 -35.212342404775583 0 -35.212342404775583 47.617398776574191 0 0 0 0 46.692387135379249 -11.248491663408231 0 -11.248491663408231 52.960520725044262 0 0 0 0 -0.60757667523911607 0.93226935006347844 0 0.93226935006347844 0.33413260342409679 0 0 0 0 36.690858589434356 -22.450481342990543 0 -22.450481342990543 42.771683067921003 0 0 0 0 54.062165132549126 -14.719910879564395 0 -14.719910879564395 43.104724726584422 0 0 0 0 54.105155954654037 -11.736662676725018 0 -11.736662676725018 27.541655527274088 0 0 0 0 9.3928633006144082 -6.4901161573099557 0 -6.4901161573099557 9.4822529971291942 0 0 0 0 -2.123625863561756 -6.8695379181547196 0 -6.8695379181547196 33.160592128851135 0 0 0 0 -1.1126250769461734 -2.0138871172553223 0 -2.0138871172553223 3.5393071802922815 0 0 0 0 27.58444487710949 -3.5656131825139994 0 -3.5656131825139994 6.9329983948607321 0 0 0 0 57.900805095247051 -18.877310359148851 0 -18.877310359148851 25.211567522044788 0 0 0 0 68.196039150614524 -1.9928691621491907 0 -1.9928691621491907 28.040540018552747 0 0 0 0 66.906502772231761 -9.1218582620440429 0 -9.1218582620440429 0.44993499072279519 0 0 0 0 0.75716376290436926 -0.69530195046775134 0 -0.69530195046775134 0.51513361729875662 0 0 0 0 57.623048403533176 6.4364846855205542 0 6.4364846855205542 6.7935552875084113 0 0 0 0 68.746964020945597 0.0067461697653925512 0 0.0067461697653925512 8.970754236783705 0 0 0 0 38.496132192856749 -11.614650388670213 0 -11.614650388670213 10.631969940641284 0 0 0 0 18.272007138133631 6.1791941220810713 0 6.1791941220810713 17.913942216217492 0 0 0 0 67.267571027186932 -14.473544276729172 0 -14.473544276729172 5.3657102914730785 0 0 0 0 42.644865309033776 -1.6968488056961633 0 -1.6968488056961633 10.774636980648211 0 0 0 0 41.824755050437943 -4.2417185600262712 0 -4.2417185600262712 12.547439048413707 0 0 0 0 41.159062198894389 3.9841524235537236 0 3.9841524235537236 -2.7139011606038821 0 0 0 0 14.376434446302028 -10.77513522822969 0 -10.77513522822969 15.711950383559909 0 0 0 0 -0.83564794389447528 -2.2909868788591297 0 -2.2909868788591297 9.7481780526210891 0 0 0 0 43.008303721751872 -10.211523827543431 0 -10.211523827543431 10.665020286127913 0 0 0 0 625.26784656242671 -423.22203224301381 0 -423.22203224301381 296.49104023263908 0 0 0 0 22.360474097554501 6.9523125817650424 0 6.9523125817650424 -6.3339588394962476 0 0 0 0 38.826910552052141 -4.3547922254354035 0 -4.3547922254354035 8.3115202999783833 0 0 0 0 40.167405352633068 -22.293127685237664 0 -22.293127685237664 22.787560311699508 0 0 0 0 510.16706597147277 -353.15327628480958 0 -353.15327628480958 147.54587548710208 0 0 0 0 512.75560502466476 -235.61415314850828 0 -235.61415314850828 109.16127143046413 0 0 0 0 697.25581269030954 -523.79840424201916 0 -523.79840424201916 301.62757753303055 0 0 0 0 728.29656230423279 -484.49314290868381 0 -484.49314290868381 71.232578813358884 0 0 0 0 489.43929340934847 -201.77393867795524 0 -201.77393867795524 89.719994331353291 0 0 0 0 46.104405374091584 18.69233533969873 0 18.69233533969873 -55.295114273756781 0 0 0 0 11.388408475343184 -0.59071629292435546 0 -0.59071629292435546 -0.84533407781256331 0 0 0 0 14.496118410395866 -4.0641690050846933 0 -4.0641690050846933 41.295772230627108 0 0 0 0 20.855679766769754 13.271312037472399 0 13.271312037472399 7.3256985716183181 0 0 0 0 24.148231900980164 12.680527785887634 0 12.680527785887634 6.5294145598108511 0 0 0 0 36.223094544227934 -16.749109182082066 0 -16.749109182082066 20.089498860482649 0 0 0 0 6.3901722125871352 -2.9823812236257226 0 -2.9823812236257226 14.522018786610669 0 0 0 0 21.256974930391152 0.46536052353005175 0 0.46536052353005175 32.479090924033244 0 0 0 0 24.510541296005897 6.5267240580898829 0 6.5267240580898829 -6.2804049996292832 0 0 0 0 121.16084160649189 -25.975201264681345 0 -25.975201264681345 -25.39296013817102 0 0 0 0 118.46435509106959 -43.239112644201896 0 -43.239112644201896 13.561697386075366 0 0 0 0 51.510910130586126 -7.0414323414164528 0 -7.0414323414164528 17.515962897713848 0 0 0 0 58.354218872082129 -34.321224039683898 0 -34.321224039683898 53.192664576058178 0 0 0 0 41.476312789196527 -21.065298704429154 0 -21.065298704429154 33.668924120148858 0 0 0 0 55.887584569842147 -11.607006322738812 0 -11.607006322738812 35.469397903572599 0 0 0 0 71.746244852833115 -59.77654836655887 0 -59.77654836655887 139.30262346955737 0 0 0 0 1.1230950468801097 -1.0820362923812112 0 -1.0820362923812112 0.85472230206050259 0 0 0 0 -42.895100228044612 -123.88275905910825 0 -123.88275905910825 108.15056912936666 0 0 0 0 19.802515370312904 6.9594306062062969 0 6.9594306062062969 -16.914244888613439 0 0 0 0 207.18825879146607 -85.686258309689833 0 -85.686258309689833 13.114178009271654 0 0 0 0 189.46523751258064 40.528873614019972 0 40.528873614019972 -30.957712915048091 0 0 0 0 134.2899776481172 -2.021237480930381 0 -2.021237480930381 -32.450244177885452 0 0 0 0 124.06965372073319 -16.927751604525724 0 -16.927751604525724 -17.040325027458039 0 0 0 0 103.95987511458588 24.950484133169198 0 24.950484133169198 -33.494540735007831 0 0 0 0 28.661842138120846 0.63249555363927357 0 0.63249555363927357 -12.603843596798924 0 0 0 0 56.817728893911408 3.6646088326165227 0 3.6646088326165227 0.79489760957358158 0 0 0 0 92.233104297092723 -0.77658107871729953 0 -0.77658107871729953 -16.648122886375859 0 0 0 0 112.28002942173771 -3.1433551234604238 0 -3.1433551234604238 -10.193199677101802 0 0 0 0 96.548800124059198 11.633785225587019 0 11.633785225587019 -23.805878825684886 0 0 0 0 96.427847799277515 -6.0626387186202919 0 -6.0626387186202919 -3.088974992115709 0 0 0 0 101.71029863169679 1.238822947353583 0 1.238822947353583 -0.5393799407311235 0 0 0 0 114.44846951785439 -0.59652272298762909 0 -0.59652272298762909 -15.349231745525913 0 0 0 0 105.619932636268 -14.770331266820556 0 -14.770331266820556 -4.9647578185954444 0 0 0 0 106.30398212104046 -8.7836251117635129 0 -8.7836251117635129 -19.501095841900906 0 0 0 0 65.07444256234885 -22.666346166633502 0 -22.666346166633502 22.031323339864969 0 0 0 0 76.639070650599024 -15.741324632981105 0 -15.741324632981105 -3.9352648020023935 0 0 0 0 78.178344215521065 -2.5422418890925655 0 -2.5422418890925655 2.7379905030966256 0 0 0 0 86.028139112517238 -10.087850937105031 0 -10.087850937105031 -4.1188506912340017 0 0 0 0 68.621756686413619 -5.2026908367581051 0 -5.2026908367581051 5.8124550486700173 0 0 0 0 72.999660989211407 -5.5802255567618886 0 -5.5802255567618886 14.624889367447395 0 0 0 0 86.525557669519912 4.5335858561725217 0 4.5335858561725217 10.957688509336549 0 0 0 0 82.927275838854257 4.3478242831622538 0 4.3478242831622538 24.043817532182857 0 0 0 0 83.407733070176619 7.1536776434277272 0 7.1536776434277272 25.700142258622691 0 0 0 0 115.01479213889979 10.079033373780931 0 10.079033373780931 4.1368715365879325 0 0 0 0 112.62981174338347 30.875780034084414 0 30.875780034084414 44.922997677366311 0 0 0 0 61.569129467472521 1.0042360118285387 0 1.0042360118285387 48.370509075240079 0 0 0 0 47.851242225471651 -9.9021715349963415 0 -9.9021715349963415 46.438719666049451 0 0 0 0 68.986490162926202 9.5430292171918154 0 9.5430292171918154 60.803719325078873 0 0 0 0 29.954399513808312 -33.767308419035544 0 -33.767308419035544 44.392990880701745 0 0 0 0 30.761950855929172 -8.0897509290380185 0 -8.0897509290380185 91.304443946123229 0 0 0 0 112.44817097557825 51.614219987002571 0 51.614219987002571 111.85981087596292 0 0 0 0 70.559374011456384 6.4538199038652238 0 6.4538199038652238 64.589980893593292 0 0 0 0 89.794500575037091 -25.843148512078415 0 -25.843148512078415 100.31813680420146 0 0 0 0 43.151440537261806 -0.62262246947591393 0 -0.62262246947591393 98.782359529306632 0 0 0 0 11.102879176560236 -47.068791609893537 0 -47.068791609893537 68.129476322646951 0 0 0 0 26.182209765553125 -61.186026782923363 0 -61.186026782923363 27.376786181115676 0 0 0 0 2.1829635342931226 -0.49571444247409246 0 -0.49571444247409246 0.34167644847679424 0 0 0 0 146.96986182858745 -148.09626077397888 0 -148.09626077397888 161.23988746171381 0 0 0 0 33.163538595646969 41.720081583262981 0 41.720081583262981 73.271738745989751 0 0 0 0 137.64861116158863 171.37609932147234 0 171.37609932147234 218.69699897253213 0 0 0 0 361.03866480119177 45.595367563093077 0 45.595367563093077 32.745010380830195 0 0 0 0 122.71994780410023 48.805622410151045 0 48.805622410151045 269.37124694194972 0 0 0 0 225.98355939396424 -135.38078247918929 0 -135.38078247918929 152.41244069621007 0 0 0 0 157.85813436936587 -15.054054979336797 0 -15.054054979336797 54.274691637449905 0 0 0 0 198.92851469779998 5.2227052723833367 0 5.2227052723833367 34.348467147940028 0 0 0 0 215.34433037072449 -49.942862763167341 0 -49.942862763167341 36.047300772513154 0 0 0 0 391.39234378198307 42.523166013542323 0 42.523166013542323 63.913220642665237 0 0 0 0 21.084259995303 -38.123478294256529 0 -38.123478294256529 92.604853165420366 0 0 0 0 96.309828314449987 -108.67392320081399 0 -108.67392320081399 92.76199679067031 0 0 0 0 103.20355894263776 -39.825037771760435 0 -39.825037771760435 36.220626256102037 0 0 0 0 146.4155268185641 -35.207151984541269 0 -35.207151984541269 23.249657112907698 0 0 0 0 130.75355860244963 2.7453460487636221 0 2.7453460487636221 12.354350728045119 0 0 0 0 123.78971198790532 7.6540495230999568 0 7.6540495230999568 34.313454982331287 0 0 0 0 108.98502902651308 1.6680242343078362 0 1.6680242343078362 12.341503448027197 0 0 0 0 115.78399947108119 6.9670940589585371 0 6.9670940589585371 -7.1484453179017464 0 0 0 0 102.79290667386522 -17.54064005114401 0 -17.54064005114401 10.520544543792312 0 0 0 0 81.195495883963304 -15.126030628851595 0 -15.126030628851595 17.592212949261693 0 0 0 0 72.402304817250297 -50.77711327129424 0 -50.77711327129424 48.491726561594533 0 0 0 0 22.675668972813583 -21.788014308501943 0 -21.788014308501943 32.139393322618616 0 0 0 0 22.105209573688626 -48.940153947392673 0 -48.940153947392673 71.945731653810071 0 0 0 0 27.341618338454282 -51.35578944856934 0 -51.35578944856934 66.403061185660135 0 0 0 0 20.407548086543102 -53.876772071953383 0 -53.876772071953383 68.42457409745748 0 0 0 0 32.060538718491443 -58.332766987460673 0 -58.332766987460673 55.776785085972278 0 0 0 0 12.680378084653057 -38.387843623788285 0 -38.387843623788285 46.151524301167228 0 0 0 0 43.561584881099407 -52.346609101632112 0 -52.346609101632112 51.131829304145185 0 0 0 0 31.745461340542533 -64.282647729566406 0 -64.282647729566406 62.083917444665531 0 0 0 0 15.526773717225296 -52.258589402165398 0 -52.258589402165398 69.184618458447858 0 0 0 0 104.27808307090027 -78.055549657270021 0 -78.055549657270021 55.567456709036378 0 0 0 0 35.000814785613329 -60.759117327154399 0 -60.759117327154399 74.29877013983787 0 0 0 0 33.345452262634353 -19.22581450375128 0 -19.22581450375128 8.3318140511128149 0 0 0 0 9.5047985555429477 -46.292877273322574 0 -46.292877273322574 15.482316136287409 0 0 0 0 18.680504356278107 -23.826565031892642 0 -23.826565031892642 63.869732405712966 0 0 0 0 35.371122993601603 -64.581652916739813 0 -64.581652916739813 51.665974434622512 0 0 0 0 23.687888969456253 -46.121903207446167 0 -46.121903207446167 31.446662518132143 0 0 0 0 22.813022801063198 -49.298130083826663 0 -49.298130083826663 40.655741032564038 0 0 0 0 20.467190371113247 -29.843608184974528 0 -29.843608184974528 -17.534378133849714 0 0 0 0 2.4683369033155032 -37.864090916736131 0 -37.864090916736131 50.35477067371221 0 0 0 0 3.2045293975825189 -14.486793204560399 0 -14.486793204560399 -0.53498485051932221 0 0 0 0 24.27701899199667 3.3985027975692841 0 3.3985027975692841 -0.4476867832710385 0 0 0 0 4.3665542616217863 -4.4384617283890293 0 -4.4384617283890293 -24.300945794788504 0 0 0 0 41.494193794940657 -24.025404615485968 0 -24.025404615485968 -65.858030378286912 0 0 0 0 -16.182511361781508 -37.856936905533985 0 -37.856936905533985 -27.662391027399281 0 0 0 0 31.630905784202696 11.906904762924569 0 11.906904762924569 -1.3667420686251717 0 0 0 0 3.3644332725064885 1.456882466022833 0 1.456882466022833 0.52560320436908725 0 0 0 0 41.777601033027167 46.730439022250721 0 46.730439022250721 53.078661667546839 0 0 0 0 43.113477294609766 38.430989417289311 0 38.430989417289311 45.30090458387258 0 0 0 0 40.24911072771647 51.50924190391288 0 51.50924190391288 69.575824672287126 0 0 0 0 34.944766998727573 37.013716842738177 0 37.013716842738177 57.671829673190132 0 0 0 0 6.4297568596321071 1.3131200829163667 0 1.3131200829163667 1.9901833087989587 0 0 0 0 15.753396259475267 9.0438588264496502 0 9.0438588264496502 -10.054631317898384 0 0 0 0 29.633510979940183 -13.992553106288142 0 -13.992553106288142 17.355976974941768 0 0 0 0 73.865569967209012 -2.7324345348752104 0 -2.7324345348752104 -94.59175759384425 0 0 0 0 40.476518516086799 4.0051659062746694 0 4.0051659062746694 -17.260514095005419 0 0 0 0 31.849636042822141 2.5679001383040845 0 2.5679001383040845 -0.90559310026785167 0 0 0 0 35.392901500541484 -2.1419598934576243 0 -2.1419598934576243 -44.48393454771508 0 0 0 0 39.463292277341679 11.413246451917587 0 11.413246451917587 -48.958673402108616 0 0 0 0 36.068382915385882 -20.785839367128574 0 -20.785839367128574 3.8021545780861743 0 0 0 0 24.023430568711774 -41.978272023657155 0 -41.978272023657155 -21.009185086837988 0 0 0 0 96.754253082401192 33.808488141025066 0 33.808488141025066 -25.592491424766195 0 0 0 0 78.817707576905377 -33.600712979055743 0 -33.600712979055743 2.2307123798750581 0 0 0 0 187.20205788371095 -74.441553585695146 0 -74.441553585695146 41.96958143478696 0 0 0 0 230.49808229205701 74.682090731464882 0 74.682090731464882 20.872185898026146 0 0 0 0 65.690550726183574 -17.608532137724069 0 -17.608532137724069 24.851492928509288 0 0 0 0 74.343350769937388 -53.542607213551491 0 -53.542607213551491 26.878885253726366 0 0 0 0 34.087070368412242 -64.430866658975447 0 -64.430866658975447 73.924562461546884 0 0 0 0 70.864384528867959 -54.387581979891138 0 -54.387581979891138 57.734537760643661 0 0 0 0 26.926716983592087 -49.973099433533918 0 -49.973099433533918 78.189235327575261 0 0 0 0 70.852192665792245 -54.651133807876931 0 -54.651133807876931 110.67563906921532 0 0 0 0 356.87033086638621 -38.493102920107049 0 -38.493102920107049 25.234366606043295 0 0 0 0 321.06962155925976 62.58678136609899 0 62.58678136609899 -9.345723963166165 0 0 0 0 385.24554086762691 -75.682090870959911 0 -75.682090870959911 -7.2099803440410142 0 0 0 0 367.13778823471057 71.128925837827595 0 71.128925837827595 -48.824131889854925 0 0 0 0 95.264454218042374 89.272102577819169 0 89.272102577819169 -15.91041741793066 0 0 0 0 -32.00250397576383 14.562128398639175 0 14.562128398639175 -0.38560063768227337 0 0 0 0 37.584764785140578 -123.77413746573916 0 -123.77413746573916 14.453539263724679 0 0 0 0 1.5116240805581072 -0.98123710679804788 0 -0.98123710679804788 0.61358380990543626 0 0 0 0 -12.617987883357273 -14.57023334785822 0 -14.57023334785822 45.576237319956817 0 0 0 0 8.1771140872588148 -60.150381933278027 0 -60.150381933278027 74.501464884890083 0 0 0 0 40.936303160247917 -26.642930569927557 0 -26.642930569927557 25.498721122746701 0 0 0 0 27.20236720435787 -2.7054804883512134 0 -2.7054804883512134 -13.696399557652327 0 0 0 0 -19.533645283307123 -21.971243122078249 0 -21.971243122078249 -12.808044970377395 0 0 0 0 31.995069262178731 4.4290633251659983 0 4.4290633251659983 -50.329114941590888 0 0 0 0 3.5506537023694023 -2.1643268201010457 0 -2.1643268201010457 1.0261254706865883 0 0 0 0 11.486829281500832 -59.435545099002979 0 -59.435545099002979 -92.16329918662916 0 0 0 0 78.898311489137996 -69.371543776828048 0 -69.371543776828048 -120.88099744716419 0 0 0 0 4.8589547280989791 23.112426234656731 0 23.112426234656731 1.0931205846841294 0 0 0 0 14.638402746582869 -124.80151338113114 0 -124.80151338113114 -95.891897067801779 0 0 0 0 28.711563309942903 -42.277371211511351 0 -42.277371211511351 -69.738833844256533 0 0 0 0 3.2597684356510683 -2.2103965537720782 0 -2.2103965537720782 1.1694043374814003 0 0 0 0 -37.557136724906741 -6.5031297711514071 0 -6.5031297711514071 64.045734947344954 0 0 0 0 228.14883544923941 -59.34136821247705 0 -59.34136821247705 25.583422628686776 0 0 0 0 169.71035651491547 130.00287372161046 0 130.00287372161046 35.144894872607892 0 0 0 0 100.32258554404507 76.874525286339576 0 76.874525286339576 7.407703796638998 0 0 0 0 276.69091805858443 -17.501469369192023 0 -17.501469369192023 15.784263798833763 0 0 0 0 172.15657347695742 -159.22620931507339 0 -159.22620931507339 2.9840313528129627 0 0 0 0 -0.98614818074654309 0.15387353890847066 0 0.15387353890847066 3.1766636283553997 0 0 0 0 206.25476933654863 -190.08003462851752 0 -190.08003462851752 30.657219045219108 0 0 0 0 -141.00215288591426 -81.523120687646383 0 -81.523120687646383 251.37914662324715 0 0 0 0 210.43657603778865 -160.58625676093982 0 -160.58625676093982 -49.680738143858662 0 0 0 0 1.0514598336582566 -1.89648151020792 0 -1.89648151020792 2.7183648546773309 0 0 0 0 135.86388013488613 4.2439435983450267 0 4.2439435983450267 -107.40733167608641 0 0 0 0 157.33799223023379 -78.171976363215776 0 -78.171976363215776 183.83784510884038 0 0 0 0 57.844971749436809 50.97746811583886 0 50.97746811583886 167.35024528116867 0 0 0 0 -5.1076871910190675 -27.691554691578688 0 -27.691554691578688 193.4504748242 0 0 0 0 40.259466173185501 -19.376402546043892 0 -19.376402546043892 114.7999956047413 0 0 0 0 20.665293114427186 -47.403325667289721 0 -47.403325667289721 91.457794860950571 0 0 0 0 32.633574109240726 -0.49283073023528345 0 -0.49283073023528345 68.885936473426568 0 0 0 0 88.436936157355376 25.365764065608943 0 25.365764065608943 63.217067115457752 0 0 0 0 116.08368657527171 65.741823501404369 0 65.741823501404369 74.518673688035321 0 0 0 0 98.514480761303275 18.404778347815395 0 18.404778347815395 -1.8076994098689738 0 0 0 0 86.602551657473668 -10.595899492711453 0 -10.595899492711453 12.416191788902069 0 0 0 0 7.1876893141608775 -0.22180455195383786 0 -0.22180455195383786 6.8050274439430041 0 0 0 0 80.784401343949185 8.0307898696018878 0 8.0307898696018878 29.523117367949169 0 0 0 0 89.306572014731501 -4.9334156090562971 0 -4.9334156090562971 23.303055433420468 0 0 0 0 87.938540963805281 0.81176724297256442 0 0.81176724297256442 35.681126842304138 0 0 0 0 88.201731928304071 3.4536780476156537 0 3.4536780476156537 29.632107490098562 0 0 0 0 84.041923887678422 -2.3341851024882772 0 -2.3341851024882772 43.558870779258029 0 0 0 0 90.21809836589091 8.2087780625592472 0 8.2087780625592472 40.189956176046735 0 0 0 0 86.8113425426709 -19.541939300128433 0 -19.541939300128433 37.871495049004466 0 0 0 0 84.33599787413732 -7.3817913903802008 0 -7.3817913903802008 32.24723490020142 0 0 0 0 80.557732587010833 -10.487259643930201 0 -10.487259643930201 30.674934985195932 0 0 0 0 84.980401780292596 -4.9763453497251078 0 -4.9763453497251078 26.702294987227106 0 0 0 0 83.559169213389396 -15.052267015425343 0 -15.052267015425343 22.516422222980054 0 0 0 0 86.507341231896135 -8.6073828865105497 0 -8.6073828865105497 2.2231541155538252 0 0 0 0 81.716515640866419 -13.023042552451386 0 -13.023042552451386 20.67208070435936 0 0 0 0 87.114766391794547 -18.37145351442291 0 -18.37145351442291 17.943010840481293 0 0 0 0 109.17931011898327 -19.476255037139708 0 -19.476255037139708 -46.534446893615041 0 0 0 0 84.239964909342234 -11.404457007672249 0 -11.404457007672249 19.244912254203882 0 0 0 0 -106.15760604577554 26.590984090529105 0 26.590984090529105 110.88470478734826 0 0 0 0 83.917386920784338 -14.041356200521534 0 -14.041356200521534 12.383473443001094 0 0 0 0 78.98414803768901 28.232315361332056 0 28.232315361332056 -119.15784809831683 0 0 0 0 -16.727090842225152 134.42963629784242 0 134.42963629784242 169.7804040664962 0 0 0 0 284.20777357038605 19.838151132050939 0 19.838151132050939 -12.448580753372198 0 0 0 0 121.21690664833295 -125.61309537974086 0 -125.61309537974086 212.83944295118135 0 0 0 0 50.076146478969804 -70.005710752457219 0 -70.005710752457219 15.794131945258755 0 0 0 0 67.871930760840769 78.276706864533935 0 78.276706864533935 7.547156448118443 0 0 0 0 48.859144070255439 2.7735082029132379 0 2.7735082029132379 -0.11119311609350646 0 0 0 0 70.598585848951188 -18.177913197673774 0 -18.177913197673774 -21.128890911745984 0 0 0 0 104.66270343627548 -16.87182488114334 0 -16.87182488114334 -5.9092538983269378 0 0 0 0 43.359259680757532 6.9258169258104658 0 6.9258169258104658 -11.347760550166413 0 0 0 0 78.358842381268914 -23.594922533755305 0 -23.594922533755305 11.286907609612655 0 0 0 0 86.964063441850158 -45.391712327792973 0 -45.391712327792973 14.586966355237166 0 0 0 0 8.9137119330443966 2.3847551746682343 0 2.3847551746682343 0.0098393453909186336 0 0 0 0 19.27184957031568 -14.889022839624831 0 -14.889022839624831 5.8228180152946729 0 0 0 0 0.54652966842985506 0.66737755783036334 0 0.66737755783036334 0.10653203376833546 0 0 0 0 214.58070243397378 -114.21842509928751 0 -114.21842509928751 50.92230806588546 0 0 0 0 200.09756130168535 57.023171059814807 0 57.023171059814807 -72.675421773130438 0 0 0 0 52.612525166332489 0.83017278632553293 0 0.83017278632553293 1.8489116014763409 0 0 0 0 54.257897883377154 2.0982672809756768 0 2.0982672809756768 -0.0037452027047449876 0 0 0 0 35.675905693351524 0.0071386261788240965 0 0.0071386261788240965 -0.0054217825984362198 0 0 0 0 57.215652609011158 -2.8907035863430703 0 -2.8907035863430703 -5.2786267703036218 0 0 0 0 33.620189837602084 -13.626310629242045 0 -13.626310629242045 0.33391564184348699 0 0 0 0 33.024279475590447 -3.7424955572823357 0 -3.7424955572823357 3.8499084948023548 0 0 0 0 7.3575226400270708 -1.7266003685781754 0 -1.7266003685781754 1.8754857565873437 0 0 0 0 62.371311814364162 -1.3437458647846028 0 -1.3437458647846028 0.99304962361358484 0 0 0 0 10.544721681067692 -1.2702438018226445 0 -1.2702438018226445 -0.49037711375533011 0 0 0 0 56.463602075964445 -2.0058878777013014 0 -2.0058878777013014 3.405421579073264 0 0 0 0 55.440764733844844 2.3537118398090513 0 2.3537118398090513 1.468554031380533 0 0 0 0 58.276059119828915 3.561985957313313 0 3.561985957313313 5.6974126305973698 0 0 0 0 58.627825787334586 -0.38910345423568171 0 -0.38910345423568171 0.76566524075501885 0 0 0 0 43.337995940364181 14.519344228936859 0 14.519344228936859 -5.8289896396622023 0 0 0 0 56.425046579475747 -18.661037387983825 0 -18.661037387983825 6.3191011353366093 0 0 0 0 94.38014258831663 -11.366926796394438 0 -11.366926796394438 5.4795278549347586 0 0 0 0 12.935547386940819 -23.906070177115367 0 -23.906070177115367 9.7871873163390859 0 0 0 0 68.782476307351317 -0.25877176817721192 0 -0.25877176817721192 7.5323545772695297 0 0 0 0 73.565959753213974 18.417088541769957 0 18.417088541769957 -5.0144748418040308 0 0 0 0 76.246132125874283 -8.9964162684352686 0 -8.9964162684352686 11.880124197937704 0 0 0 0 56.566332192574919 -4.1889143661205663 0 -4.1889143661205663 10.436901421401497 0 0 0 0 41.889634459211834 17.67127657753872 0 17.67127657753872 -3.4823014072369509 0 0 0 0 54.562402338218817 1.7608216154665772 0 1.7608216154665772 5.0234991916281011 0 0 0 0 29.732885898989196 -4.9136674504655389 0 -4.9136674504655389 -0.51311054969871916 0 0 0 0 24.594107480223556 3.5409133776860067 0 3.5409133776860067 4.7538763699849369 0 0 0 0 43.179378089116653 1.7561958653331988 0 1.7561958653331988 6.2945197489405462 0 0 0 0 53.481038892492506 0.938246793766079 0 0.938246793766079 0.07705054640863418 0 0 0 0 52.77295968971157 0.23251997170131933 0 0.23251997170131933 3.7105108149654922 0 0 0 0 54.322465788194677 1.2629622119191184 0 1.2629622119191184 0.40558461526311707 0 0 0 0 50.188361751032062 3.860339520408262 0 3.860339520408262 -0.071816936120025154 0 0 0 0 45.377349218222662 3.0953231267854875 0 3.0953231267854875 1.2497921924297211 0 0 0 0 50.30714086917942 1.928413837712398 0 1.928413837712398 -8.0697885398459211e-05 0 0 0 0 51.386289110931102 3.3043518812152306 0 3.3043518812152306 0.2293330520249168 0 0 0 0 29.929375059124141 -10.383802966726233 0 -10.383802966726233 0.0087037073323953107 0 0 0 0 51.41998116968125 -1.4460520923357667 0 -1.4460520923357667 -3.7420946839230744 0 0 0 0 -0.33975351596344794 -0.022547028229226385 0 -0.022547028229226385 0.068794645961786582 0 0 0 0 22.662685353137022 -13.796268937426486 0 -13.796268937426486 -6.3535766739559634 0 0 0 0 24.485392288610456 -3.2690359165225154 0 -3.2690359165225154 2.0634504620013168 0 0 0 0 20.64332322843768 -7.8178193360685455 0 -7.8178193360685455 2.6030383593183686 0 0 0 0 34.137835851724958 -5.0371386433518381 0 -5.0371386433518381 -3.6924027614257042 0 0 0 0 4.4745400301409735 0.069468011180958911 0 0.069468011180958911 0.22784851112986498 0 0 0 0 -80.771080297898152 -144.11351255923546 0 -144.11351255923546 -70.682400606988722 0 0 0 0 10.175866935760496 -3.888094511155014 0 -3.888094511155014 11.936584190568283 0 0 0 0 9.9049572515110071 -4.184926686652183 0 -4.184926686652183 2.4796184072512126 0 0 0 0 17.770154375225353 -2.7913650815332147 0 -2.7913650815332147 3.8172377081579083 0 0 0 0 -2.7661845792172244 -34.185249620190007 0 -34.185249620190007 8.9775905339786277 0 0 0 0 -168.90358530403319 -115.76799309549881 0 -115.76799309549881 80.566255920336516 0 0 0 0 -61.17557283215865 -3.7355717482128057 0 -3.7355717482128057 78.47335779231463 0 0 0 0 -104.4616317215623 -54.74273798503782 0 -54.74273798503782 95.518162742224376 0 0 0 0 -3.2553376502037281 -63.309696961849568 0 -63.309696961849568 139.27742693394066 0 0 0 0 21.272491102296044 66.471213563959054 0 66.471213563959054 123.67623483902662 0 0 0 0 -105.00979429789732 95.789056532486939 0 95.789056532486939 99.574565629796751 0 0 0 0 -46.231150165433064 -5.5322524459111264 0 -5.5322524459111264 81.561046464528317 0 0 0 0 -96.397195459700015 120.85419312552995 0 120.85419312552995 -8.8262813533782492 0 0 0 0 -90.977535526508291 10.727393868011859 0 10.727393868011859 11.586619750321006 0 0 0 0 -78.112170844506181 -3.9693986275302677 0 -3.9693986275302677 28.375407756152072 0 0 0 0 -80.997285711186123 -31.259546448188757 0 -31.259546448188757 -39.282708199593117 0 0 0 0 8.3988885328908545 4.5231210939358988 0 4.5231210939358988 5.7165381172336627 0 0 0 0 -84.095251505335909 32.976537320545958 0 32.976537320545958 79.578440666677125 0 0 0 0 19.601065463939449 5.1652917949060111 0 5.1652917949060111 1.4527308488258086 0 0 0 0 24.0588361370028 4.5658650783011581 0 4.5658650783011581 4.5261014204255616 0 0 0 0 17.052517850655732 2.6214763626304602 0 2.6214763626304602 0.21738617856648279 0 0 0 0 84.371874667034717 22.423687142792915 0 22.423687142792915 -5.5236783236500742 0 0 0 0 158.68859362771036 6.5685072629421484 0 6.5685072629421484 -86.821159445779813 0 0 0 0 13.681254260547576 10.21548528864664 0 10.21548528864664 -6.6258390448969937 0 0 0 0 61.991280891983479 69.041666452729203 0 69.041666452729203 28.60889098987866 0 0 0 0 31.386973863386146 2.3143711915061971 0 2.3143711915061971 1.1897029015230633 0 0 0 0 46.104121205615229 -40.53485796838936 0 -40.53485796838936 22.461721051388395 0 0 0 0 4.8986258673362499 4.4390216313128832 0 4.4390216313128832 -1.8174705046565904 0 0 0 0 85.734116993586213 4.532877962829474 0 4.532877962829474 114.07434584126122 0 0 0 0 118.44805744609039 -63.880107865363698 0 -63.880107865363698 45.275571729157036 0 0 0 0 71.820141360047273 -25.790121112328976 0 -25.790121112328976 23.192249885490746 0 0 0 0 151.74701200488198 -2.6556833747278574 0 -2.6556833747278574 24.443145803881407 0 0 0 0 81.443205872251383 -11.425691326688025 0 -11.425691326688025 27.0123854801314 0 0 0 0 104.51228807972075 -8.6713931273717932 0 -8.6713931273717932 27.281884254064792 0 0 0 0 65.964659478114299 -0.19029454288972225 0 -0.19029454288972225 9.2889829435390823 0 0 0 0 14.399576684902968 6.201861884048796 0 6.201861884048796 1.8652586434933567 0 0 0 0 22.077904482299346 12.272487875802902 0 12.272487875802902 22.401102383445618 0 0 0 0 5.3877661706486677 1.7749399081064894 0 1.7749399081064894 -0.12530605993456079 0 0 0 0 61.248508190677967 -21.601827558918217 0 -21.601827558918217 22.768449126349083 0 0 0 0 68.767496786320407 -23.176684837287041 0 -23.176684837287041 16.808758617139816 0 0 0 0 67.163945402455283 -25.985627959662736 0 -25.985627959662736 60.29842735236582 0 0 0 0 27.884764464979526 -49.502709582687885 0 -49.502709582687885 49.227112884568783 0 0 0 0 99.974107951969927 -113.12921076849574 0 -113.12921076849574 83.884302992228186 0 0 0 0 167.30250785296084 -44.929495582965785 0 -44.929495582965785 -4.7815848197767536 0 0 0 0 52.0500164729674 -11.537809740971483 0 -11.537809740971483 15.83697594548903 0 0 0 0 96.421159428180545 37.225443907171837 0 37.225443907171837 68.23669086161442 0 0 0 0 21.799758647077397 44.224013061701783 0 44.224013061701783 11.364780559408587 0 0 0 0 23.191843506816497 14.755057169535299 0 14.755057169535299 5.943394624259497 0 0 0 0 58.567880695467466 187.10975102714929 0 187.10975102714929 -70.889171038724015 0 0 0 0 57.928260187596607 -4.3934887729341199 0 -4.3934887729341199 -10.8580233890616 0 0 0 0 44.053358164586371 17.760361487164829 0 17.760361487164829 -10.474166075170501 0 0 0 0 21.014234114605301 14.561599588094893 0 14.561599588094893 6.5202143110402133 0 0 0 0 670.20608991531481 9.4471973290269489 0 9.4471973290269489 -92.006960466575947 0 0 0 0 648.14565926701471 -18.288224598160241 0 -18.288224598160241 133.60035978131327 0 0 0 0 96.16116614859493 -106.64660734055815 0 -106.64660734055815 -87.343901227876813 0 0 0 0 158.7607578924617 -50.979575904634373 0 -50.979575904634373 -109.32271820228516 0 0 0 0 63.585771138692508 -45.929300498552038 0 -45.929300498552038 -67.432624889625913 0 0 0 0 -35.046351711600437 -96.433555712325074 0 -96.433555712325074 -53.40227521596978 0 0 0 0 0.90944412040352418 0.1661740704628869 0 0.1661740704628869 -0.21173440869877158 0 0 0 0 1058.6453362787915 -168.68199402112884 0 -168.68199402112884 -130.32208494052838 0 0 0 0 921.75425938080298 -385.72804886790868 0 -385.72804886790868 -89.935333541060587 0 0 0 0 766.21079851493414 -222.77883346190958 0 -222.77883346190958 -23.537447974403449 0 0 0 0 871.09228691978205 -302.36709756515199 0 -302.36709756515199 -225.59923284095794 0 0 0 0 712.83500396639556 -394.31748773180885 0 -394.31748773180885 -88.980460061538906 0 0 0 0 669.80318367825021 -616.87318138224407 0 -616.87318138224407 -297.16259529625404 0 0 0 0 1040.3629194354507 -516.84252771839033 0 -516.84252771839033 -649.45915276936239 0 0 0 0 1247.9448959298898 -170.4225243224339 0 -170.4225243224339 -278.80454232543275 0 0 0 0 -275.34327884303275 -945.68087503247955 0 -945.68087503247955 -661.37698707933919 0 0 0 0 7.6279720344668931 -4.6817573018879131 0 -4.6817573018879131 -0.63645466958082864 0 0 0 0 1608.161474242781 -157.37118541910593 0 -157.37118541910593 -118.35669392974432 0 0 0 0 2269.5449071920484 988.58428691851668 0 988.58428691851668 165.4160661043943 0 0 0 0 847.45678825085633 322.6516019505691 0 322.6516019505691 163.08868048663544 0 0 0 0 859.20090057171183 -248.86580068789931 0 -248.86580068789931 166.58531653095679 0 0 0 0 729.51914920596573 220.68751789024856 0 220.68751789024856 123.73185342994839 0 0 0 0 238.13082716146164 131.42959056248935 0 131.42959056248935 46.571146673263684 0 0 0 0 268.35003410637728 -25.581785079912834 0 -25.581785079912834 163.05393569080775 0 0 0 0 38.573681823691004 21.421154707214555 0 21.421154707214555 236.83091691560185 0 0 0 0 312.34201867496449 -16.209205290792852 0 -16.209205290792852 207.50738068374102 0 0 0 0 311.85532151356165 -8.1111067260715117 0 -8.1111067260715117 75.188640532287081 0 0 0 0 117.67082596937689 99.214689978510933 0 99.214689978510933 79.285587525332176 0 0 0 0 10.219601391056017 -3.4812345605347232 0 -3.4812345605347232 0.83340696154742666 0 0 0 0 147.01874603630131 -210.52045512456436 0 -210.52045512456436 -222.21002702568023 0 0 0 0 -45.043588088952674 45.244703762070003 0 45.244703762070003 106.35054674848652 0 0 0 0 563.44236529238697 21.459867813988694 0 21.459867813988694 119.36648773439788 0 0 0 0 -52.428275471262168 101.500156706898 0 101.500156706898 311.6244220912215 0 0 0 0 1250.5987297545216 303.57574583706162 0 303.57574583706162 -89.48228424185254 0 0 0 0 451.5576455603732 472.2092193981739 0 472.2092193981739 66.865233689521119 0 0 0 0 5.7149397563169657 -0.45828627547610523 0 -0.45828627547610523 -0.14988682023540534 0 0 0 0 -3.6875310004725179 64.068990226267303 0 64.068990226267303 126.2427120176435 0 0 0 0 1064.6899235393357 502.05553304512273 0 502.05553304512273 26.797172675109323 0 0 0 0 20.69513768883175 -7.0725868262449865 0 -7.0725868262449865 1.0968257524469647 0 0 0 0 -27.680577925013495 -87.587811912529787 0 -87.587811912529787 1.1287201230313713 0 0 0 0 0.72185887283626471 28.12536941724543 0 28.12536941724543 37.456995863225188 0 0 0 0 18.446933331035694 -5.3315156852700127 0 -5.3315156852700127 0.19016430510100671 0 0 0 0 548.21089809694968 -210.06735222153307 0 -210.06735222153307 -55.45176637830798 0 0 0 0 16.30330491337736 -10.261163015902836 0 -10.261163015902836 -0.0022722358167586729 0 0 0 0 14.240118182213337 -6.7726107426138125 0 -6.7726107426138125 -5.8929456452704017 0 0 0 0 22.515710170679085 -4.2623673082820766 0 -4.2623673082820766 -0.26512648817737977 0 0 0 0 9.8528799315247113 -0.6530469781349808 0 -0.6530469781349808 -0.2388478480465526 0 0 0 0 1864.4470839986607 1218.7262003274438 0 1218.7262003274438 494.31143556072766 0 0 0 0 2485.0556077456713 489.9425514790571 0 489.9425514790571 -84.167657240010499 0 0 0 0 12.527370743628126 -6.9384580320332816 0 -6.9384580320332816 -0.0086224228689035978 0 0 0 0 807.2115349197411 890.32430597246548 0 890.32430597246548 399.26580804413709 0 0 0 0 1618.0868200181649 562.82211852965963 0 562.82211852965963 110.55197274384955 0 0 0 0 1348.4211112120756 270.30672460738532 0 270.30672460738532 -70.233447543764157 0 0 0 0 1654.3588296767339 215.37675526840042 0 215.37675526840042 15.329530480649964 0 0 0 0 1336.8303997849216 405.95735880162056 0 405.95735880162056 155.66418423372056 0 0 0 0 1268.5770528020148 299.34772864475053 0 299.34772864475053 -10.83239314420689 0 0 0 0 1333.7178753071566 381.58704021337928 0 381.58704021337928 56.346584146719039 0 0 0 0 1241.9131782311742 466.14075433273933 0 466.14075433273933 -21.105752085305085 0 0 0 0 1256.5918130055106 273.21512733306054 0 273.21512733306054 8.3441226625077434 0 0 0 0 22.31506815001211 -12.589888149533891 0 -12.589888149533891 -0.70762308969117171 0 0 0 0 13.73410994153528 -128.20008611445087 0 -128.20008611445087 -375.61141746467297 0 0 0 0 32.296592701571825 9.4962580112591013 0 9.4962580112591013 -6.3707191590391012 0 0 0 0 1392.0674367905303 -371.07164391028789 0 -371.07164391028789 154.37086560407568 0 0 0 0 773.29841580856737 -37.658772216019941 0 -37.658772216019941 78.60097305553262 0 0 0 0 7.0224706143180242 -1.8556242775615033 0 -1.8556242775615033 -0.38092892319908556 0 0 0 0 610.65831385056663 751.30290254588192 0 751.30290254588192 -56.541493401540947 0 0 0 0 366.35888749394235 -489.17339771582203 0 -489.17339771582203 45.551438317143379 0 0 0 0 7.1803993912706687 1.633229312745172 0 1.633229312745172 -3.0673185595742902 0 0 0 0 1343.3731694871067 -496.33688728174377 0 -496.33688728174377 78.700703624746325 0 0 0 0 1324.6293825645553 -189.01446406231878 0 -189.01446406231878 131.51066106446078 0 0 0 0 1493.4319221671722 -191.02693079415957 0 -191.02693079415957 2.5352032631913763 0 0 0 0 2499.1451283581264 -318.21070360497725 0 -318.21070360497725 -1.8295545101736068 0 0 0 0 4.5901675736416259 -0.84538103746660909 0 -0.84538103746660909 -1.3587810480731801 0 0 0 0 2192.7876153835241 -534.61243069186696 0 -534.61243069186696 -85.857801696840284 0 0 0 0 2415.4219564420127 -0.60086922360249495 0 -0.60086922360249495 0.34710964683813905 0 0 0 0 1741.3135527577833 -301.0517763581023 0 -301.0517763581023 -0.40274059931475581 0 0 0 0 1622.5188715977201 -274.92689101942904 0 -274.92689101942904 -8.2615170845214578 0 0 0 0 1657.1133728489149 -458.69667744396281 0 -458.69667744396281 192.06189390777422 0 0 0 0 2558.3521232981293 -405.49934494371996 0 -405.49934494371996 -93.271349757229387 0 0 0 0 5.1286657507494375 -0.3957207217040235 0 -0.3957207217040235 -1.488680784370134 0 0 0 0 1767.1595803110904 -688.77005684345954 0 -688.77005684345954 64.865484390904356 0 0 0 0 1874.8155243380752 -722.25210175130451 0 -722.25210175130451 68.538867903422542 0 0 0 0 1796.3160451414151 -603.74905680921995 0 -603.74905680921995 31.88436161049211 0 0 0 0 1854.3116405046894 -628.17246813124302 0 -628.17246813124302 30.2868747451543 0 0 0 0 3391.5428238650093 -1461.7636708956652 0 -1461.7636708956652 465.57782046046225 0 0 0 0 2501.7584967853418 187.1951449070242 0 187.1951449070242 274.49750556245124 0 0 0 0 10.988973089988178 3.3581048530640061 0 3.3581048530640061 -2.2523022845527945 0 0 0 0 1901.7450952448635 1327.3976113011959 0 1327.3976113011959 -1126.5312557609366 0 0 0 0 2853.4743323544171 -264.83201263867932 0 -264.83201263867932 280.3554914927372 0 0 0 0 755.12656961175526 93.171879406139539 0 93.171879406139539 -548.30935582312645 0 0 0 0 -132.11705451646412 1547.8806313872385 0 1547.8806313872385 -1092.4040384098946 0 0 0 0 -334.2999631765656 203.73604041074736 0 203.73604041074736 -675.67030442429302 0 0 0 0 24.815446068879254 8.6336314720899736 0 8.6336314720899736 -5.12913936539635 0 0 0 0 95.896487946811249 317.91429060210396 0 317.91429060210396 -860.77140440329822 0 0 0 0 191.68483822255803 4.9671799602751889 0 4.9671799602751889 -478.46296426608399 0 0 0 0 193.25527528450948 -146.29700984791387 0 -146.29700984791387 -616.47573751437062 0 0 0 0 533.43955831603671 -275.86820547071625 0 -275.86820547071625 -583.21021657721712 0 0 0 0 597.96192686448921 260.28276565963768 0 260.28276565963768 -712.89208915984239 0 0 0 0 318.20648838084162 105.96063775514727 0 105.96063775514727 -532.12782781905184 0 0 0 0 844.75239541597693 98.779924959417372 0 98.779924959417372 -532.06537289401285 0 0 0 0 462.27701205273479 -283.30689914876257 0 -283.30689914876257 -170.23385801120753 0 0 0 0 849.9515998005445 -267.64434708670956 0 -267.64434708670956 -584.94654660675837 0 0 0 0 888.39599939686013 -421.13722611914864 0 -421.13722611914864 -125.72305703232666 0 0 0 0 749.34135982926819 -182.69487806481743 0 -182.69487806481743 -87.977356372023451 0 0 0 0 1656.9435250882852 69.802236243932697 0 69.802236243932697 -417.10894096811018 0 0 0 0 1647.0587684265774 140.7327827218183 0 140.7327827218183 -667.78001386011533 0 0 0 0 2500.1999499242011 401.36652247074761 0 401.36652247074761 -823.62736459411974 0 0 0 0 640.93499978712862 182.50740766497489 0 182.50740766497489 -420.80076493553418 0 0 0 0 8.9859119878456113 3.6719485393621909 0 3.6719485393621909 -1.3121098018715145 0 0 0 0 17.859242508762691 12.513704515826419 0 12.513704515826419 0.80505956212978447 0 0 0 0 13.241250588645471 0.52636364430860283 0 0.52636364430860283 -8.0729566405121602 0 0 0 0 25.433902223827317 6.537940895455904 0 6.537940895455904 -2.9044135041701793 0 0 0 0 23.731015340803424 16.375437231838532 0 16.375437231838532 7.286351433974005 0 0 0 0 40.519103503625956 16.452762366696447 0 16.452762366696447 0.36279035485245004 0 0 0 0 -3.9233158641616548 10.553297308673081 0 10.553297308673081 2.7979944005868962 0 0 0 0 67.992654691275675 65.420213696498649 0 65.420213696498649 4.0948596594400897 0 0 0 0 64.974161006077338 72.098640727782964 0 72.098640727782964 47.6112412330599 0 0 0 0 9.2212661875628328 40.913005742041975 0 40.913005742041975 33.699417544864446 0 0 0 0 -37.794596140454814 1.3644026756638823 0 1.3644026756638823 42.993327050570372 0 0 0 0 4.8539712487709039 61.017805155910452 0 61.017805155910452 84.590272676111454 0 0 0 0 15.002718241268695 1.1611275194169579 0 1.1611275194169579 -7.9687964366193471 0 0 0 0 -2.8624123468285703 10.584365833716063 0 10.584365833716063 6.2124357148738705 0 0 0 0 35.343723035126459 14.69900726579499 0 14.69900726579499 5.0094899054438429 0 0 0 0 18.666917389782611 11.128010590049257 0 11.128010590049257 -4.2753097104667859 0 0 0 0 19.232826294385632 4.4614905700153145 0 4.4614905700153145 -11.154292237937398 0 0 0 0 17.838539926289428 3.3209223772763306 0 3.3209223772763306 -3.793843579444276 0 0 0 0 -52.225194582992117 -58.643065218828724 0 -58.643065218828724 -36.352069669746015 0 0 0 0 4.1445323157480516 2.8757122394214676 0 2.8757122394214676 -0.66762592764698869 0 0 0 0 19.062547763809562 7.6860732205866498 0 7.6860732205866498 -5.4357690360961897 0 0 0 0 6.8160544776820444 4.3518079359816682 0 4.3518079359816682 -2.7446869327022583 0 0 0 0 -0.20831829625967657 23.276751318095648 0 23.276751318095648 -52.823541101993214 0 0 0 0 -28.907191373997193 -17.252965702213629 0 -17.252965702213629 -8.4206949720410194 0 0 0 0 5.5853265952409856 -0.11040965046316131 0 -0.11040965046316131 -1.573395938314055 0 0 0 0 5.4584829797070924 -2.1879398738954308 0 -2.1879398738954308 -9.7130105659191806 0 0 0 0 -6.9367122980911518 9.6669420888040349 0 9.6669420888040349 -20.849053533036113 0 0 0 0 -22.822213176426885 -29.002888016266297 0 -29.002888016266297 -37.554147879418224 0 0 0 0 -35.478631033183774 -99.709745382219978 0 -99.709745382219978 -140.47509164559108 0 0 0 0 -218.50830817436508 -132.98399037086028 0 -132.98399037086028 107.56400876522224 0 0 0 0 18.899871784888091 64.615060898365869 0 64.615060898365869 44.929362708939038 0 0 0 0 38.761490050528664 62.198037326628082 0 62.198037326628082 -28.560535266338434 0 0 0 0 305.17195338828606 239.58233697566263 0 239.58233697566263 66.679724762838589 0 0 0 0 297.94010890291247 0.81887504193397831 0 0.81887504193397831 -165.54430186312527 0 0 0 0 -314.32113038720854 139.55706571667201 0 139.55706571667201 498.26943511891022 0 0 0 0 20.033672534965717 3.4824286460318135 0 3.4824286460318135 -15.703314126112446 0 0 0 0 14.157565793671466 5.4830151947388437 0 5.4830151947388437 -2.098157175746465 0 0 0 0 577.15139230045315 272.95226005813993 0 272.95226005813993 -99.903895734095158 0 0 0 0 -30.479276143771131 107.24587344896202 0 107.24587344896202 281.40847335591849 0 0 0 0 133.5719092333602 -125.84375794543973 0 -125.84375794543973 -247.10695324909827 0 0 0 0 5.8009002414017061 1.8377398286453808 0 1.8377398286453808 -0.54823856260483694 0 0 0 0 246.48914022317331 -47.104161715392792 0 -47.104161715392792 -208.0014849054981 0 0 0 0 96.781385787428007 -118.37381950767423 0 -118.37381950767423 -129.31417265873216 0 0 0 0 64.156025815813337 -48.838754173620771 0 -48.838754173620771 -77.357953630385794 0 0 0 0 98.072037550082314 16.459717907602339 0 16.459717907602339 -330.63931520899519 0 0 0 0 -80.384584120634827 -116.9751354113065 0 -116.9751354113065 -109.39421225924377 0 0 0 0 -65.750489340026888 83.513449251860067 0 83.513449251860067 -156.81052671095472 0 0 0 0 18.052217361138901 -2.1020163552187796 0 -2.1020163552187796 -75.191337210588898 0 0 0 0 48.934127222019015 -5.7944648212724132 0 -5.7944648212724132 -74.993302080287634 0 0 0 0 -4.8242505349335261 71.196718533684731 0 71.196718533684731 -95.061469243298347 0 0 0 0 77.493563051248202 50.197753392354571 0 50.197753392354571 -90.405243282839592 0 0 0 0 82.624105650793354 -57.465077003925899 0 -57.465077003925899 -243.47216241112915 0 0 0 0 25.296751205059991 62.278716674909163 0 62.278716674909163 13.944431008672495 0 0 0 0 80.938539059992763 9.8025460941998119 0 9.8025460941998119 -134.88760645409138 0 0 0 0 69.033345728734275 -19.041443450571421 0 -19.041443450571421 105.83194986785156 0 0 0 0 72.016125527676195 2.3202418399642681 0 2.3202418399642681 60.9084608920341 0 0 0 0 115.08329322615464 9.8443552499645648 0 9.8443552499645648 -74.490065645404002 0 0 0 0 140.84355227020569 -49.044272393222244 0 -49.044272393222244 41.941886110883104 0 0 0 0 -4.4674528360774275 5.5593272074177094 0 5.5593272074177094 -81.147907731663963 0 0 0 0 15.738782411281136 -77.94889590898174 0 -77.94889590898174 -74.297678461075861 0 0 0 0 84.954848763030895 -28.518414574166002 0 -28.518414574166002 -83.167257635519491 0 0 0 0 619.54200238664635 282.90558557275244 0 282.90558557275244 -213.67773562366199 0 0 0 0 1196.3363300717901 933.82612746243058 0 933.82612746243058 370.71416242971873 0 0 0 0 -648.02411106803629 237.01251221356972 0 237.01251221356972 489.23880289861222 0 0 0 0 162.63556334070745 -41.824346651303131 0 -41.824346651303131 344.65723233029121 0 0 0 0 1006.1198287746702 877.7005962971557 0 877.7005962971557 751.97866762045851 0 0 0 0 -0.096324060284025848 1.6618912924299849 0 1.6618912924299849 0.50964458503583643 0 0 0 0 1.0296129240793732 0.74360919047527396 0 0.74360919047527396 -1.1516770420587887 0 0 0 0 12.167309287338867 0.54422997224409642 0 0.54422997224409642 -15.36467732670544 0 0 0 0 5.8321573257680086 6.3866780501455356 0 6.3866780501455356 -2.3521740851308879 0 0 0 0 13.517754233233347 2.0407443307618349 0 2.0407443307618349 -1.0808594981088278 0 0 0 0 -208.12042855569598 25.259343021406039 0 25.259343021406039 275.84545901676529 0 0 0 0 596.30061411720817 143.89158132943476 0 143.89158132943476 -125.84452778843252 0 0 0 0 86.554745075525716 -19.14169304384086 0 -19.14169304384086 194.50139759556532 0 0 0 0 79.788858547937707 154.71047269655651 0 154.71047269655651 -26.528550321726925 0 0 0 0 76.342606764752418 100.27849087209484 0 100.27849087209484 -60.750304707893065 0 0 0 0 102.85919809457846 121.88188077862679 0 121.88188077862679 -65.222359915490642 0 0 0 0 -74.966046399495099 193.30957330896786 0 193.30957330896786 -53.203786315169566 0 0 0 0 62.584610709367553 135.86194607683683 0 135.86194607683683 -41.561677455644599 0 0 0 0 -225.23105668430799 326.35604525629537 0 326.35604525629537 -87.528578867471879 0 0 0 0 4.6115131093914101 1.7989597236220334 0 1.7989597236220334 -3.7024937538388176 0 0 0 0 -285.05141902080504 58.609809779487932 0 58.609809779487932 20.020868203622967 0 0 0 0 124.17614187160507 52.443389968472502 0 52.443389968472502 -94.074645035920241 0 0 0 0 123.30025150947768 83.587093222060162 0 83.587093222060162 -130.4810939245051 0 0 0 0 -96.971458294969125 19.284287742342983 0 19.284287742342983 -14.821884023291659 0 0 0 0 195.09956572133524 25.364589232822652 0 25.364589232822652 -86.095774890636221 0 0 0 0 109.06814131420106 114.08461305642641 0 114.08461305642641 148.41748276371709 0 0 0 0 3.2283740326075048 -0.25311306992638549 0 -0.25311306992638549 -1.5015883940730756 0 0 0 0 46.666393395113118 63.662493586695859 0 63.662493586695859 -113.01319229961473 0 0 0 0 125.47049288217386 68.813299268721664 0 68.813299268721664 -112.88449208690918 0 0 0 0 0.29414749282295816 -127.1501403097127 0 -127.1501403097127 -311.16887727349467 0 0 0 0 -245.41881798527902 142.40453470874854 0 142.40453470874854 -125.25598384201771 0 0 0 0 11.063053636478998 1.2858025564096689 0 1.2858025564096689 -0.82108565034036718 0 0 0 0 -285.418241667252 -241.0236241797254 0 -241.0236241797254 -17.171173652835478 0 0 0 0 -53.209142458465067 75.137092973147674 0 75.137092973147674 87.648460138171458 0 0 0 0 -61.836312375817215 -49.105686722154587 0 -49.105686722154587 -12.783359343070742 0 0 0 0 273.8482135705126 180.53368662474941 0 180.53368662474941 -362.92168125825037 0 0 0 0 -102.81218498404633 -29.418862376593779 0 -29.418862376593779 -5.7696834526195744 0 0 0 0 -40.008000412970432 57.21611568579533 0 57.21611568579533 -136.07890487730765 0 0 0 0 244.33598263951717 -106.56317659704564 0 -106.56317659704564 60.338953105859787 0 0 0 0 16.080530223458481 -60.62711116337789 0 -60.62711116337789 67.743948458739851 0 0 0 0 27.170205544665805 -30.120693167354148 0 -30.120693167354148 -11.151090448687569 0 0 0 0 -6.514079675420362 -62.257949057663836 0 -62.257949057663836 31.667088110579698 0 0 0 0 -45.754466726612009 -33.244097600951136 0 -33.244097600951136 53.144875300405374 0 0 0 0 42.074002688910696 -7.4588244009355549 0 -7.4588244009355549 59.763914698739882 0 0 0 0 60.20991418590711 72.961103356333297 0 72.961103356333297 83.251150188716863 0 0 0 0 -16.046455951800453 27.8632000794139 0 27.8632000794139 82.583294915446004 0 0 0 0 -1.0151009541732492 36.7359143231335 0 36.7359143231335 26.557249727562066 0 0 0 0 73.926078925804177 72.259076513594891 0 72.259076513594891 35.025507793988027 0 0 0 0 105.22894303409157 61.755737952379818 0 61.755737952379818 46.314732332817584 0 0 0 0 96.87669693560747 43.159959960343713 0 43.159959960343713 17.994389604784828 0 0 0 0 118.04150909751479 18.609037799631665 0 18.609037799631665 43.634675971733145 0 0 0 0 105.58704366828169 -43.224586040477419 0 -43.224586040477419 31.916272514284174 0 0 0 0 26.078313333448023 8.1455064234111774 0 8.1455064234111774 44.605043621113509 0 0 0 0 67.063018132612342 -62.511040576729556 0 -62.511040576729556 41.395879284035118 0 0 0 0 4.3358752188141807 2.8445257622864517 0 2.8445257622864517 -4.1700968041979536 0 0 0 0 364.29841289906472 134.34551298649137 0 134.34551298649137 3.7246647835306703 0 0 0 0 344.40566486513853 -20.179861079454099 0 -20.179861079454099 -5.3611994300647154 0 0 0 0 0.83992234465497972 0.6164064141002541 0 0.6164064141002541 -6.7638246734943426 0 0 0 0 -1.3761049223103328 294.27670935503841 0 294.27670935503841 223.99243590326716 0 0 0 0 92.034709925668722 51.901655739077682 0 51.901655739077682 31.396205539067068 0 0 0 0 105.77168914477988 58.483238218690353 0 58.483238218690353 18.043878674165171 0 0 0 0 13.030963112831159 -0.051425853295889112 0 -0.051425853295889112 -3.8269500511750039 0 0 0 0 10.366484084686817 7.5542388308591626 0 7.5542388308591626 3.4259877243662231 0 0 0 0 12.285200137129621 -0.037731144599341349 0 -0.037731144599341349 -9.2911803266524124 0 0 0 0 22.304137383885973 2.5728389034497923 0 2.5728389034497923 -10.208366065413429 0 0 0 0 109.53103865573939 33.457506084581041 0 33.457506084581041 16.410541478313917 0 0 0 0 1.2365868321966182 1.5788237452522225 0 1.5788237452522225 -1.4671370482278445 0 0 0 0 66.448260791643406 3.4991384839029251 0 3.4991384839029251 -0.54666288735370472 0 0 0 0 56.748199725785526 -9.5003360965888533 0 -9.5003360965888533 -17.893897800542618 0 0 0 0 11.132816339675019 -4.770192216337179 0 -4.770192216337179 -9.9454762760209956 0 0 0 0 37.098279588695732 -6.5898688550054203 0 -6.5898688550054203 -33.144803503962066 0 0 0 0 35.165488405582437 -12.548021328092887 0 -12.548021328092887 -6.4344915828287412 0 0 0 0 -0.14042669365284155 -0.35692167675537689 0 -0.35692167675537689 -0.69078564080295646 0 0 0 0 35.911691501969472 -14.840895012988767 0 -14.840895012988767 3.3169022650683928 0 0 0 0 67.53558148519005 21.130269984836772 0 21.130269984836772 10.025724045333845 0 0 0 0 39.389209525397746 3.5594443047839945 0 3.5594443047839945 15.118681593319707 0 0 0 0 15.968890815148569 -0.15029244415651632 0 -0.15029244415651632 -1.515448378046337 0 0 0 0 46.789828081906307 -5.3842617979910301 0 -5.3842617979910301 -46.130498785805685 0 0 0 0 22.301164454205718 5.6500103433746744 0 5.6500103433746744 -7.0036736411398692 0 0 0 0 239.79566646890044 -27.455886632570184 0 -27.455886632570184 -20.908038962586261 0 0 0 0 28.637100539714538 26.226895793250527 0 26.226895793250527 -1.3040577586180921 0 0 0 0 81.948730366333621 -81.505026401316627 0 -81.505026401316627 -22.902105806883583 0 0 0 0 258.09948932500265 110.8281840730881 0 110.8281840730881 1.9492417874544117 0 0 0 0 115.46225962473545 51.490570641634122 0 51.490570641634122 9.3939879040835876 0 0 0 0 79.15135342348367 71.083910786454226 0 71.083910786454226 40.172694892665959 0 0 0 0 210.07879534552922 84.3379275534204 0 84.3379275534204 20.466903130629817 0 0 0 0 104.12510855850996 64.456976376646935 0 64.456976376646935 39.299635136657344 0 0 0 0 34.694315624976298 38.83757930964498 0 38.83757930964498 41.339486791207193 0 0 0 0 72.815354977108655 75.27770134847151 0 75.27770134847151 65.082102056900567 0 0 0 0 -20.459574546410295 13.088009810282188 0 13.088009810282188 52.293540431691781 0 0 0 0 20.287415942948428 -30.736794071351142 0 -30.736794071351142 -37.774893702884128 0 0 0 0 280.42295553942677 -322.66350083152662 0 -322.66350083152662 239.44466555867979 0 0 0 0 4.178113136163347 1.2654115508325461 0 1.2654115508325461 0.61440278037378904 0 0 0 0 202.92753525284934 137.23874611060705 0 137.23874611060705 56.647335819366162 0 0 0 0 61.608858996471099 95.084526683602803 0 95.084526683602803 87.626028856879202 0 0 0 0 -255.68471118088564 3.469944733869454 0 3.469944733869454 488.65299174937684 0 0 0 0 763.3784114375012 -102.63847817314851 0 -102.63847817314851 -492.15518550389339 0 0 0 0 92.054476349920151 -11.652232054677597 0 -11.652232054677597 10.579404964310811 0 0 0 0 100.94497801424586 148.86050186122884 0 148.86050186122884 -80.086299996115827 0 0 0 0 29.631122055577748 25.828269562236279 0 25.828269562236279 -4.3269559384909719 0 0 0 0 1.1300408141283285 1.9325108026393423 0 1.9325108026393423 -0.33620116604036543 0 0 0 0 80.481723119195522 -49.630549777726259 0 -49.630549777726259 -27.774154892520073 0 0 0 0 184.64802809781213 -31.236349169925603 0 -31.236349169925603 -4.312320898334292 0 0 0 0 90.204848503613903 -74.769496487403558 0 -74.769496487403558 23.538337309426879 0 0 0 0 102.24992434987507 -62.500301739738347 0 -62.500301739738347 34.43211164067344 0 0 0 0 15.718854045931042 -0.79766940205433912 0 -0.79766940205433912 0.73371823732828645 0 0 0 0 27.277598887322902 23.029537220211218 0 23.029537220211218 -10.316505357046021 0 0 0 0 111.30320083488186 -12.194185887649297 0 -12.194185887649297 4.5291846628915664 0 0 0 0 93.283370750496033 -8.1862515477085225 0 -8.1862515477085225 -4.846155883518577 0 0 0 0 66.395445528833079 -7.2890867245232585 0 -7.2890867245232585 14.32065832965975 0 0 0 0 29.402242141957686 8.5486762368230842 0 8.5486762368230842 -10.997217283015658 0 0 0 0 37.820990824686817 7.0396906005792772 0 7.0396906005792772 -0.15980818719960066 0 0 0 0 67.522456761461058 -2.1683804585044015 0 -2.1683804585044015 -23.877234354114762 0 0 0 0 107.56817926102667 -67.21804893098647 0 -67.21804893098647 8.9974776729058021 0 0 0 0 91.636282276620477 -19.906312740673982 0 -19.906312740673982 -6.2822497615890285 0 0 0 0 5.0634124997742154 -13.641877052196079 0 -13.641877052196079 0.430012577070503 0 0 0 0 144.02500239352412 -14.119237422699314 0 -14.119237422699314 -29.016294714432661 0 0 0 0 43.963885089553514 -30.85185588961599 0 -30.85185588961599 45.185096797201368 0 0 0 0 84.778217047023645 5.8630351050915124 0 5.8630351050915124 19.262090140849978 0 0 0 0 52.699405878163816 -20.69748021867133 0 -20.69748021867133 3.5028163581303602 0 0 0 0 34.859746507157979 7.6944276987125022 0 7.6944276987125022 22.896265461059897 0 0 0 0 39.705843172247995 15.750354602905247 0 15.750354602905247 0.83141070213363144 0 0 0 0 90.619462786387885 55.984835526327458 0 55.984835526327458 -47.948139104949519 0 0 0 0 32.272388326255168 16.514762136193582 0 16.514762136193582 -2.0366825089618033 0 0 0 0 36.448944437339378 21.757499630205018 0 21.757499630205018 -6.7104818154494978 0 0 0 0 33.971987503138735 15.887295871047428 0 15.887295871047428 -7.1023802601578154 0 0 0 0 42.258251833387476 20.020459549733516 0 20.020459549733516 -2.9536229586780678 0 0 0 0 27.737564826849848 14.599363552687805 0 14.599363552687805 3.2389939495988074 0 0 0 0 28.209827750411932 14.717581847431347 0 14.717581847431347 -1.5739176208912795 0 0 0 0 19.985746565395857 9.297318315671518 0 9.297318315671518 -1.1094612683903051 0 0 0 0 124.01731991828274 47.326579505042048 0 47.326579505042048 -5.6361797392852395 0 0 0 0 31.886632615700364 42.048427442767206 0 42.048427442767206 11.292345536860694 0 0 0 0 -4.8415890660697869 11.027583916590942 0 11.027583916590942 -0.74334873829295933 0 0 0 0 94.285562850593124 28.555661414081385 0 28.555661414081385 -11.286280406519381 0 0 0 0 128.04421645891216 78.173327683780784 0 78.173327683780784 -35.579573995100191 0 0 0 0 116.50738420624839 24.889847110651544 0 24.889847110651544 -10.682582357267108 0 0 0 0 158.50870381461573 -29.364910658435747 0 -29.364910658435747 -3.2221646554096424 0 0 0 0 5.9699763763766853 14.195538061482097 0 14.195538061482097 -3.7391059786460521 0 0 0 0 64.432955503651101 9.6458892524913438 0 9.6458892524913438 10.23644653510155 0 0 0 0 94.231221681307943 10.039721361751504 0 10.039721361751504 3.8680110673072932 0 0 0 0 25.416404213504961 16.678773782510802 0 16.678773782510802 4.6573822879574207 0 0 0 0 72.902372198550438 -19.988380335182171 0 -19.988380335182171 6.0055802591498377 0 0 0 0 243.68715512168637 30.530291364251809 0 30.530291364251809 -81.875308646825488 0 0 0 0 243.32382387126563 77.55538877398061 0 77.55538877398061 -111.01228485110232 0 0 0 0 217.6652800840784 51.199923800435386 0 51.199923800435386 -90.958214525006952 0 0 0 0 -76.909052432230965 207.71635161869892 0 207.71635161869892 -14.547407045262673 0 0 0 0 -0.73617040920521504 -2.2823253004981154 0 -2.2823253004981154 -28.475762169197704 0 0 0 0 -167.76646751397493 75.83639578100383 0 75.83639578100383 -10.494193503992847 0 0 0 0 390.05998059024569 -60.255113208508192 0 -60.255113208508192 -132.3598158900877 0 0 0 0 368.34002414488714 -346.04543305684865 0 -346.04543305684865 45.509131077145867 0 0 0 0 815.70132156082764 96.453738906722265 0 96.453738906722265 -311.15465897069589 0 0 0 0 557.14619658040829 -235.14834933249426 0 -235.14834933249426 -86.710491752970484 0 0 0 0 689.45842777153302 -338.33856069234025 0 -338.33856069234025 -243.13059448725517 0 0 0 0 0.48552066431214769 0.69544058484656546 0 0.69544058484656546 -9.0580828104194282 0 0 0 0 228.15356728936604 77.211379504627644 0 77.211379504627644 -110.40777868460668 0 0 0 0 -732.2726338179782 196.64051237613614 0 196.64051237613614 148.31595948958727 0 0 0 0 455.44870757441095 -906.30879694004318 0 -906.30879694004318 242.70190045522719 0 0 0 0 1291.173373226382 938.81040156899212 0 938.81040156899212 67.793092356657553 0 0 0 0 882.69827349190382 404.57674422610626 0 404.57674422610626 170.20947583676138 0 0 0 0 978.04414138739139 -722.3021051240213 0 -722.3021051240213 13.286889649229124 0 0 0 0 545.28150132326118 -270.34632739109065 0 -270.34632739109065 -162.70453707100847 0 0 0 0 766.40090547646105 -163.20552180070155 0 -163.20552180070155 -115.27803168454057 0 0 0 0 1736.5925504379265 -272.49371471099255 0 -272.49371471099255 -193.1279559616728 0 0 0 0 553.29350345380954 -222.42498422749395 0 -222.42498422749395 94.283544690024996 0 0 0 0 -470.60416540227743 -147.16734707831944 0 -147.16734707831944 258.51216328910505 0 0 0 0 134.88742487042327 151.07466431865987 0 151.07466431865987 -35.203422105152185 0 0 0 0 164.33054949868529 76.122520412399126 0 76.122520412399126 33.133785961624653 0 0 0 0 127.85007090294675 94.61585655172189 0 94.61585655172189 -12.219793993443773 0 0 0 0 134.48706920589757 112.71313082002672 0 112.71313082002672 33.024123441939992 0 0 0 0 184.31396156232222 59.701712218169291 0 59.701712218169291 -60.972549200374033 0 0 0 0 212.95316086363891 76.32424402695608 0 76.32424402695608 -108.70201970396283 0 0 0 0 98.873500091889582 221.76746353801968 0 221.76746353801968 -145.2552019124455 0 0 0 0 195.52584990368632 120.41969832763789 0 120.41969832763789 -157.93599452304397 0 0 0 0 94.11841113751143 68.865592505906989 0 68.865592505906989 -8.0139559839362846 0 0 0 0 41.369656101009241 50.133380639892579 0 50.133380639892579 -12.172495920191977 0 0 0 0 30.490011508314637 37.170057123877086 0 37.170057123877086 -8.9434019589475611 0 0 0 0 50.033488304386992 39.591034897377654 0 39.591034897377654 -28.10156768642446 0 0 0 0 38.57573925752061 1.5763166544445717 0 1.5763166544445717 -0.47516679080998969 0 0 0 0 40.109617276255449 27.445759474699116 0 27.445759474699116 -41.036104149583934 0 0 0 0 9.1107478461055393 4.1793297068639248 0 4.1793297068639248 1.3383761075763712 0 0 0 0 12.022902332988451 30.183545469438059 0 30.183545469438059 -12.344842501769108 0 0 0 0 10.153331888242421 1.9182904454424374 0 1.9182904454424374 0.35692932223972207 0 0 0 0 96.162662867693143 15.545807561959464 0 15.545807561959464 -11.588496845499321 0 0 0 0 96.436941785173985 17.780495481703269 0 17.780495481703269 6.4371614630417753 0 0 0 0 27.943404755403407 2.5603983644844845 0 2.5603983644844845 4.7486165526660216 0 0 0 0 -1.0868207184103085 47.905798397015133 0 47.905798397015133 38.527255157107902 0 0 0 0 122.67677503239247 61.361131171159741 0 61.361131171159741 2.1854935343462785 0 0 0 0 -0.088594871140045939 0.18055005730954576 0 0.18055005730954576 -0.052049330072803102 0 0 0 0 32.432986792102383 49.66925513572312 0 49.66925513572312 6.0382952779282277 0 0 0 0 40.242361490139956 62.617133515461518 0 62.617133515461518 8.6385145540307349 0 0 0 0 -5.6074245872150641 65.143342907604165 0 65.143342907604165 24.34949905623489 0 0 0 0 83.893274915637448 22.34214802797942 0 22.34214802797942 13.392171849629449 0 0 0 0 74.615881984733278 41.318788303899964 0 41.318788303899964 -6.5123096036668358 0 0 0 0 51.696606885947403 54.066277376522521 0 54.066277376522521 13.221865967486792 0 0 0 0 52.877902412932599 37.038134951909342 0 37.038134951909342 31.577240558914582 0 0 0 0 53.923154014832107 42.104803875242396 0 42.104803875242396 22.400478774270596 0 0 0 0 23.204408638768655 65.908168024047882 0 65.908168024047882 110.3690663379457 0 0 0 0 33.452623082310311 43.029574301044249 0 43.029574301044249 25.165063927619485 0 0 0 0 75.980910867525381 29.435712585782312 0 29.435712585782312 4.6750167006030097 0 0 0 0 17.057203922425153 28.485854002043119 0 28.485854002043119 14.187889862820704 0 0 0 0 40.163600699554081 8.2900984050083935 0 8.2900984050083935 13.530794204500125 0 0 0 0 52.77606148547784 -5.4203854508104996 0 -5.4203854508104996 -8.6397436557344918 0 0 0 0 27.168892408820511 17.543904865802642 0 17.543904865802642 14.521692376063369 0 0 0 0 535.93974047517986 177.00828876449668 0 177.00828876449668 -24.712148762467677 0 0 0 0 276.54919534531655 157.91442838669172 0 157.91442838669172 0.59875833502155729 0 0 0 0 -9.3155301218021407 7.843567684395687 0 7.843567684395687 10.627698333866944 0 0 0 0 591.92955760695622 -222.72410212002433 0 -222.72410212002433 35.745089347115027 0 0 0 0 970.72753179786378 -43.708545011370006 0 -43.708545011370006 -225.40776598440425 0 0 0 0 610.46442948898766 86.543540690593545 0 86.543540690593545 -257.8187308961642 0 0 0 0 3150.0897151145473 889.62240480721084 0 889.62240480721084 -1150.2893623293749 0 0 0 0 691.2991761828016 -207.52614562764393 0 -207.52614562764393 -176.99173925926516 0 0 0 0 1413.2734944407712 -505.32781274770241 0 -505.32781274770241 -131.72737937302736 0 0 0 0 653.98883346471121 -335.60562374133951 0 -335.60562374133951 -52.687829065588403 0 0 0 0 985.07773881316825 -84.880851017531313 0 -84.880851017531313 -130.90689137471827 0 0 0 0 7.9029067436937623 3.8337657921164379 0 3.8337657921164379 4.7886935591315378 0 0 0 0 51.474226404567162 -203.04073895112208 0 -203.04073895112208 52.31368525043581 0 0 0 0 929.71363685481629 -196.29720827079746 0 -196.29720827079746 -120.28412408783151 0 0 0 0 684.45301720993302 -255.56309588179784 0 -255.56309588179784 -38.947426430021551 0 0 0 0 368.21136425026634 -454.07575387486804 0 -454.07575387486804 644.00678061028339 0 0 0 0 49.273031046737742 -61.25743274550814 0 -61.25743274550814 177.69159837627831 0 0 0 0 16.341220103822067 12.408963315510263 0 12.408963315510263 -4.9879066208361476 0 0 0 0 15.70880771592806 -1.913598109730291 0 -1.913598109730291 -1.8329489551398304 0 0 0 0 21.604457373105106 4.7691238144000749 0 4.7691238144000749 -68.421228609637183 0 0 0 0 304.30097467832093 215.47405850186749 0 215.47405850186749 143.30649070433242 0 0 0 0 8.3786683468945711 4.5031643662579341 0 4.5031643662579341 -4.7800931432701503 0 0 0 0 9.3477244193244928 -1.9964350267437396 0 -1.9964350267437396 -0.031931289741079283 0 0 0 0 10.628364729258521 3.1864530841110899 0 3.1864530841110899 -2.6000082003403167 0 0 0 0 10.652100322622573 13.064497347416591 0 13.064497347416591 1.2880922966354547 0 0 0 0 32.127063038562483 -12.543738804340194 0 -12.543738804340194 -82.267815691760006 0 0 0 0 34.265098423675227 10.150425695578178 0 10.150425695578178 12.074795728994332 0 0 0 0 23.895221563356245 7.8636598733680785 0 7.8636598733680785 -2.3292657393403715 0 0 0 0 3.3751493911768904 7.503275450460194 0 7.503275450460194 0.65825027949146886 0 0 0 0 35.76800327967544 52.71636517880286 0 52.71636517880286 33.266564971168918 0 0 0 0 24.504981198588212 51.46186183764712 0 51.46186183764712 46.45337950312387 0 0 0 0 -8.6354790585464798 31.211977592310177 0 31.211977592310177 -22.272049388894629 0 0 0 0 3.4313365376825118 0.45723333672920319 0 0.45723333672920319 0.1969582932801659 0 0 0 0 16.310020486009307 -9.7545520156093062 0 -9.7545520156093062 13.373730810763846 0 0 0 0 -31.692032738123089 21.095893722907931 0 21.095893722907931 5.3251523686180917 0 0 0 0 0.0018358405758647223 1.8160872322118706 0 1.8160872322118706 0.065177786976599705 0 0 0 0 1.0887522780137999 -0.39247200427793416 0 -0.39247200427793416 0.19597051339744009 0 0 0 0 125.23263780523848 -50.308622805791856 0 -50.308622805791856 -57.350331589900406 0 0 0 0 88.07627953280462 128.82680711599687 0 128.82680711599687 182.02837215028728 0 0 0 0 -10.00589101949663 27.490751753100028 0 27.490751753100028 17.966989066824681 0 0 0 0 83.049970180174569 25.366855242495831 0 25.366855242495831 4.3993039070301165 0 0 0 0 30.433826660086197 42.589614969862623 0 42.589614969862623 56.418149206979251 0 0 0 0 42.921205160440877 92.670933493604025 0 92.670933493604025 30.455404749376157 0 0 0 0 311.40393733836027 55.829859535206225 0 55.829859535206225 -43.332207932835445 0 0 0 0 189.91617818635132 39.867642484409998 0 39.867642484409998 -40.970478776876519 0 0 0 0 -0.087803738824732136 -25.45300475178351 0 -25.45300475178351 102.54694481711385 0 0 0 0 121.13669627711715 4.2906760773997803 0 4.2906760773997803 20.507090996398802 0 0 0 0 123.41637684738089 -11.867457079459655 0 -11.867457079459655 120.53012026714055 0 0 0 0 41.934892417673836 -30.756042058727417 0 -30.756042058727417 51.905106523906852 0 0 0 0 6.4189652863860829 16.42867596981705 0 16.42867596981705 4.3619043526450696 0 0 0 0 0.17900098892728522 -0.64903424406595889 0 -0.64903424406595889 2.9461229124935402 0 0 0 0 0.43235497285627389 -65.258238483380495 0 -65.258238483380495 43.087103273356661 0 0 0 0 2.2189544570681221 -1.2225895763491508 0 -1.2225895763491508 -1.1978829331755074 0 0 0 0 10.839601787731226 25.945799361396098 0 25.945799361396098 -22.651361296514551 0 0 0 0 67.127467521364451 -188.75830850053194 0 -188.75830850053194 -48.478699642046536 0 0 0 0 -36.477581602877763 -185.15749767080206 0 -185.15749767080206 -40.981592888421346 0 0 0 0 244.49770920799347 -52.969870456715398 0 -52.969870456715398 -106.92465516811581 0 0 0 0 -17.23544738964938 -9.6747056375165386 0 -9.6747056375165386 -108.70259770143957 0 0 0 0 54.300589300502907 18.435609103625211 0 18.435609103625211 -108.01029068853927 0 0 0 0 46.368091087337234 44.528741534506423 0 44.528741534506423 -27.697218032599267 0 0 0 0 107.87192565996884 146.05555471694367 0 146.05555471694367 -82.027316348061504 0 0 0 0 3.2418592612115518 3.9864893170323796 0 3.9864893170323796 -2.9912333521416983 0 0 0 0 -82.307279024702439 106.38725844218845 0 106.38725844218845 -53.455353816051911 0 0 0 0 196.97549856058322 -80.821506616105296 0 -80.821506616105296 -33.360545624071847 0 0 0 0 377.4823614748093 -97.400269269048522 0 -97.400269269048522 -164.18875944400463 0 0 0 0 267.4968431938396 -70.16633455728288 0 -70.16633455728288 -169.17064504344307 0 0 0 0 -130.34499796535238 -60.02662942149891 0 -60.02662942149891 27.922150915893553 0 0 0 0 1.3572088855472657 -1.7334960230319041 0 -1.7334960230319041 1.8824035444019165 0 0 0 0 181.90140242468624 -39.371443054325937 0 -39.371443054325937 -49.51855444135731 0 0 0 0 -120.5158803682898 -46.602006346822009 0 -46.602006346822009 8.3239309554255669 0 0 0 0 0.98870013491989539 -0.44675645526807273 0 -0.44675645526807273 1.3063970498116717 0 0 0 0 246.57868902168411 110.36727704623922 0 110.36727704623922 67.687190553538045 0 0 0 0 324.92721689467726 28.835098086123708 0 28.835098086123708 68.984094218190833 0 0 0 0 81.864400912847486 48.840883594122488 0 48.840883594122488 75.040175821903063 0 0 0 0 185.71632601631427 143.66714937375366 0 143.66714937375366 67.522211775887627 0 0 0 0 75.023893702062196 66.771767910404151 0 66.771767910404151 29.75151870725449 0 0 0 0 83.034402329678414 50.288516040328659 0 50.288516040328659 31.058164862067997 0 0 0 0 203.48369073992217 60.871427488079007 0 60.871427488079007 56.529666219888441 0 0 0 0 130.93818820927117 119.92808988009779 0 119.92808988009779 73.796958331048771 0 0 0 0 177.88402023856906 119.19529285380929 0 119.19529285380929 59.075794121002673 0 0 0 0 96.926920163750765 106.56811650634927 0 106.56811650634927 58.786219584767537 0 0 0 0 138.59676099898934 73.718474308689906 0 73.718474308689906 25.715437763833961 0 0 0 0 229.17241469715373 72.579311219988085 0 72.579311219988085 13.164581490889759 0 0 0 0 207.23993131117822 57.432390980778848 0 57.432390980778848 60.944224130514158 0 0 0 0 415.90342805249384 -2.2792340938251527 0 -2.2792340938251527 47.727654154039101 0 0 0 0 354.00063435523771 -139.15620119755545 0 -139.15620119755545 61.506546005940208 0 0 0 0 568.82376932245825 -67.885230770600742 0 -67.885230770600742 -26.241697092033291 0 0 0 0 761.70194871615968 -160.29765489776446 0 -160.29765489776446 -116.06203502390593 0 0 0 0 749.70115552642528 -16.112787629507011 0 -16.112787629507011 33.11497219205603 0 0 0 0 887.6313433217656 -113.76691145899053 0 -113.76691145899053 -105.50642357939273 0 0 0 0 626.41609387932112 -97.045088170658801 0 -97.045088170658801 -16.831180261767599 0 0 0 0 652.83580368474941 -101.48572716214062 0 -101.48572716214062 96.48225168782119 0 0 0 0 451.61214106131229 29.701747474740159 0 29.701747474740159 18.469927043395273 0 0 0 0 701.45133741955215 -37.322145579036714 0 -37.322145579036714 12.673845704779751 0 0 0 0 1.6956966229196411 1.2290101487116516 0 1.2290101487116516 -1.0572519000872305 0 0 0 0 -222.36529569876802 264.81953153238123 0 264.81953153238123 -145.84744047538356 0 0 0 0 1287.4437382786491 -147.00724428894296 0 -147.00724428894296 -56.366752396323818 0 0 0 0 518.84434570705344 150.08647937946773 0 150.08647937946773 -27.205926204163461 0 0 0 0 565.92816172282619 141.80487346282121 0 141.80487346282121 -161.03816671997899 0 0 0 0 703.18822165844904 85.498473703731861 0 85.498473703731861 -2.3125382188854928 0 0 0 0 552.03945117097464 207.34992561380841 0 207.34992561380841 71.524576242586591 0 0 0 0 2.7276601793203668 0.30513448949655952 0 0.30513448949655952 -0.012622937573106841 0 0 0 0 379.24441031835158 190.03344134795111 0 190.03344134795111 72.031789248645055 0 0 0 0 185.23894502100302 -107.29399396577401 0 -107.29399396577401 -11.58681721309938 0 0 0 0 685.84461374410057 46.553760572811882 0 46.553760572811882 4.6466103946186195 0 0 0 0 338.26814598421333 79.611900451873453 0 79.611900451873453 98.224090797604276 0 0 0 0 475.6596931781969 135.28072191650631 0 135.28072191650631 57.198866241032192 0 0 0 0 338.97219998725086 79.164073662690271 0 79.164073662690271 44.333627936221546 0 0 0 0 -19.182733361143619 105.74702737706912 0 105.74702737706912 150.47025967334207 0 0 0 0 26.755703531875042 -49.43455915052914 0 -49.43455915052914 -33.41911036348165 0 0 0 0 -24.965035956422071 46.696237535673106 0 46.696237535673106 83.532251649654427 0 0 0 0 -39.215500600326777 -1.5524832343700723 0 -1.5524832343700723 68.575282307016096 0 0 0 0 -22.175733107549604 46.174888157595888 0 46.174888157595888 -10.553360350551884 0 0 0 0 -28.358141427073861 10.931468785009656 0 10.931468785009656 49.265061833651089 0 0 0 0 123.33176751497376 -67.730992901527088 0 -67.730992901527088 43.619505873626167 0 0 0 0 9.0733893730430282 -6.5722045687845139 0 -6.5722045687845139 44.320749959455497 0 0 0 0 -0.75568715739791514 -23.945084039763287 0 -23.945084039763287 21.338577262666149 0 0 0 0 11.349613716149179 -29.452066662378229 0 -29.452066662378229 -14.317219484826637 0 0 0 0 116.85862838083995 -26.228270653025902 0 -26.228270653025902 -8.3053776243071979 0 0 0 0 29.888638206815813 -58.858085741636273 0 -58.858085741636273 30.274706703316042 0 0 0 0 34.905046422354644 -58.640297706115234 0 -58.640297706115234 -4.2483025660332601 0 0 0 0 38.457174425260746 2.351061234413919 0 2.351061234413919 25.846212187934952 0 0 0 0 92.103933076332396 36.913260253302269 0 36.913260253302269 35.415173391662393 0 0 0 0 306.8633782256511 -1.6894809446384897 0 -1.6894809446384897 1.2233918928320691 0 0 0 0 161.2177234691444 17.232941493438886 0 17.232941493438886 36.298516210398247 0 0 0 0 568.99210049620888 -11.282263656001987 0 -11.282263656001987 -52.044778688301903 0 0 0 0 607.55697836485342 257.22664233621299 0 257.22664233621299 -19.039212559458974 0 0 0 0 589.42069376916334 261.40443568509681 0 261.40443568509681 -7.7596046655039572 0 0 0 0 620.35045619701123 226.37907750484032 0 226.37907750484032 -69.205817743914622 0 0 0 0 1430.7851453269832 129.46580953225248 0 129.46580953225248 -75.070128762705281 0 0 0 0 682.2462776826651 254.88334429904876 0 254.88334429904876 -90.996238827865 0 0 0 0 296.15710260510969 243.08388140663601 0 243.08388140663601 147.08861853644657 0 0 0 0 144.60585900694423 68.190079697430519 0 68.190079697430519 70.351797255475276 0 0 0 0 727.48463727558556 -720.12849736393468 0 -720.12849736393468 220.89938160810465 0 0 0 0 523.70851245569429 623.36458522191731 0 623.36458522191731 427.39022899311385 0 0 0 0 11.975308311836699 -0.24861073091081964 0 -0.24861073091081964 0.26051741079247687 0 0 0 0 965.4262067097734 -447.07781508096497 0 -447.07781508096497 -141.85379863013469 0 0 0 0 1459.9277802987344 -423.51488108677944 0 -423.51488108677944 -206.79421580166968 0 0 0 0 -27.202186633228848 -32.423410021387099 0 -32.423410021387099 -55.316361632321332 0 0 0 0 522.18763302448497 -329.82693717806103 0 -329.82693717806103 37.789046426400489 0 0 0 0 916.89654080298351 -293.29542366706318 0 -293.29542366706318 -132.72844306748198 0 0 0 0 234.4131717884884 122.67316983737686 0 122.67316983737686 -17.500011946282939 0 0 0 0 7.7475896677933633 -42.650348183501137 0 -42.650348183501137 -177.0888469434808 0 0 0 0 142.0738618394098 -2.9713355395851977 0 -2.9713355395851977 -175.63937442897623 0 0 0 0 -69.122076581988949 72.086918502019671 0 72.086918502019671 -104.11374274088666 0 0 0 0 87.919412319177354 143.11446540195323 0 143.11446540195323 -72.637749869549225 0 0 0 0 25.457603948685573 81.268595221622945 0 81.268595221622945 13.137509684406723 0 0 0 0 44.487376143224537 142.72155645400426 0 142.72155645400426 -45.293432817064286 0 0 0 0 -11.49335706995771 109.08041174480149 0 109.08041174480149 64.332332660368593 0 0 0 0 -0.47958660338190384 93.794330440671956 0 93.794330440671956 -31.063404310819919 0 0 0 0 0.49952169688185677 118.09532659790102 0 118.09532659790102 -49.519719810430843 0 0 0 0 23.31872776367527 92.333892307562564 0 92.333892307562564 -151.04265287684484 0 0 0 0 15.489166909050255 80.385201624593321 0 80.385201624593321 -85.649015914824304 0 0 0 0 3.0667915010708384 169.4438333414837 0 169.4438333414837 -195.19175716279369 0 0 0 0 40.083224290975437 2.1812201163271512 0 2.1812201163271512 -1.7258592090178928 0 0 0 0 74.176142260446795 83.380858159512172 0 83.380858159512172 -310.46600489245338 0 0 0 0 38.733054303767858 -35.869241466190033 0 -35.869241466190033 -76.702320246049112 0 0 0 0 7.5196558223688044 30.304387475669955 0 30.304387475669955 -143.90414571457313 0 0 0 0 30.056507416990598 1.0258900492891998 0 1.0258900492891998 -0.28348746502994515 0 0 0 0 300.19104626351327 31.698061657687958 0 31.698061657687958 -495.68753567050408 0 0 0 0 203.02382371985732 51.36457201572 0 51.36457201572 -115.25045084489102 0 0 0 0 -159.58195993945264 56.969186124684143 0 56.969186124684143 368.13077379751985 0 0 0 0 6.6350085620870232 33.761428904497734 0 33.761428904497734 -72.95429557726311 0 0 0 0 -135.68963678327418 -111.18329170702702 0 -111.18329170702702 1.9577788331138208 0 0 0 0 -39.359151634591399 -248.99417378579301 0 -248.99417378579301 -147.97345151713716 0 0 0 0 2.5727979041383406 -3.7711644173167969 0 -3.7711644173167969 4.2618308916864924 0 0 0 0 -69.043745434144512 -191.1408978512743 0 -191.1408978512743 65.230882007399487 0 0 0 0 -97.265536581006018 4.0786278148816564 0 4.0786278148816564 287.79709603822153 0 0 0 0 -34.774447844014503 80.317126568778349 0 80.317126568778349 166.83165236677587 0 0 0 0 311.75537660878035 -64.00907824150795 0 -64.00907824150795 52.347904389101132 0 0 0 0 -10.64315853354492 -188.58634286285485 0 -188.58634286285485 391.5484695665773 0 0 0 0 30.808228647088981 -36.724579976893153 0 -36.724579976893153 92.102673162644351 0 0 0 0 888.50336135001271 -41.795086708203598 0 -41.795086708203598 -85.087684051934389 0 0 0 0 327.32009384261619 27.92871395542943 0 27.92871395542943 -79.69860495640296 0 0 0 0 364.83109831805268 -198.30596939843031 0 -198.30596939843031 359.61929544388477 0 0 0 0 608.15452859211291 -69.231573302466586 0 -69.231573302466586 166.96762959590933 0 0 0 0 789.64960653847083 -478.15529762646281 0 -478.15529762646281 1069.75085825118 0 0 0 0 769.35478196051554 350.54516542330248 0 350.54516542330248 362.32699847497054 0 0 0 0 643.02149934215049 107.86064796973159 0 107.86064796973159 53.09352161225047 0 0 0 0 38.47630777370432 57.896607618586756 0 57.896607618586756 236.19640581466865 0 0 0 0 121.5926400016906 -147.44315399846619 0 -147.44315399846619 560.58166702630479 0 0 0 0 -343.68809547121054 -41.485019652537858 0 -41.485019652537858 350.92488648289554 0 0 0 0 -205.70612686950335 209.29283968361963 0 209.29283968361963 101.56605369847698 0 0 0 0 -72.542768231251102 -106.78246433210234 0 -106.78246433210234 -4.2304151794828613 0 0 0 0 9.8557433210807162 2.0679421621501177 0 2.0679421621501177 1.8651339231922806 0 0 0 0 57.436995782394661 7.3120550487342371 0 7.3120550487342371 20.046996383876831 0 0 0 0 -0.71239961636645432 1.1618043406216572 0 1.1618043406216572 1.4402049397784218 0 0 0 0 27.927235110264519 83.597703816880255 0 83.597703816880255 143.55754405074094 0 0 0 0 19.902493979920109 15.700562419884847 0 15.700562419884847 0.84989909602818159 0 0 0 0 45.336804822367611 4.8688194655689259 0 4.8688194655689259 -1.2719203159354433 0 0 0 0 41.681783061736496 -21.582433455233549 0 -21.582433455233549 -42.870364003942321 0 0 0 0 76.30329036067269 29.766816016399105 0 29.766816016399105 -33.944072909558827 0 0 0 0 29.778139169497649 4.7150088045613749 0 4.7150088045613749 -0.18469305786440482 0 0 0 0 73.844439991065883 171.83096340738746 0 171.83096340738746 -205.1875222824018 0 0 0 0 10.379113966554286 6.7733905014832345 0 6.7733905014832345 -3.4864363438135562 0 0 0 0 25.634632354420319 -8.2337388187225145 0 -8.2337388187225145 -13.785811666885934 0 0 0 0 -13.980221800939034 17.803936820091479 0 17.803936820091479 -6.1031058337709396 0 0 0 0 18.121667141669604 51.98626220102323 0 51.98626220102323 74.740464188737221 0 0 0 0 439.15458792226127 35.387098029947538 0 35.387098029947538 -370.79232745553526 0 0 0 0 -208.22611047980899 -176.13535335922268 0 -176.13535335922268 -72.354597765259683 0 0 0 0 25.732456271383455 1.022694559844556 0 1.022694559844556 -1.2018835587077796 0 0 0 0 -167.2826505617486 -341.83527992327919 0 -341.83527992327919 494.46246484097179 0 0 0 0 -14.757218722084872 -97.432841541404031 0 -97.432841541404031 -49.903152282602278 0 0 0 0 92.306521862774389 308.55921860621891 0 308.55921860621891 280.26668569246738 0 0 0 0 -54.921482058489346 -77.450555576101351 0 -77.450555576101351 0.53911302037740527 0 0 0 0 14.342284247331463 -0.12621369194433107 0 -0.12621369194433107 -0.66662867800591197 0 0 0 0 -22.069258318057109 -69.650615570759527 0 -69.650615570759527 -92.312468620334144 0 0 0 0 1.1549597185701685 -0.075357801691765758 0 -0.075357801691765758 -0.5587709093596086 0 0 0 0 -62.759396399480465 -49.719905224684048 0 -49.719905224684048 -45.580706241498511 0 0 0 0 -57.218365942298988 67.597897195090184 0 67.597897195090184 -0.090372523579323683 0 0 0 0 23.721179722269881 -3.5262359197576671 0 -3.5262359197576671 -22.119373005662013 0 0 0 0 130.87589857133571 80.862688024796114 0 80.862688024796114 0.39075040879237666 0 0 0 0 130.74942762572027 -0.78510923615949935 0 -0.78510923615949935 -65.612002157893471 0 0 0 0 -0.0044990088571523756 0.7113023505318381 0 0.7113023505318381 -0.32726374604241693 0 0 0 0 70.658080877188695 50.093734801833534 0 50.093734801833534 23.141167059960935 0 0 0 0 -80.850289498746861 -113.99120921515487 0 -113.99120921515487 187.28599486327744 0 0 0 0 -44.922859921411145 118.08663109835629 0 118.08663109835629 348.08537406523084 0 0 0 0 28.309899666870479 84.748643726482499 0 84.748643726482499 264.95638753829076 0 0 0 0 -25.340626659839472 -7.3470385117308012 0 -7.3470385117308012 100.15974278935872 0 0 0 0 -39.094896981582679 0.8456988154080376 0 0.8456988154080376 95.370562655344514 0 0 0 0 -44.519369149958948 34.258789608993226 0 34.258789608993226 258.84737082839098 0 0 0 0 -33.885973080825352 81.054932722330648 0 81.054932722330648 134.62175126216465 0 0 0 0 3.2254768819257151 88.358737750003911 0 88.358737750003911 59.404956750208385 0 0 0 0 169.96590001755976 142.05378780370955 0 142.05378780370955 38.436003408043206 0 0 0 0 5.1815111344549223 110.54168432991202 0 110.54168432991202 206.86592704954876 0 0 0 0 79.124644604831701 36.339384248676936 0 36.339384248676936 174.23855537616475 0 0 0 0 169.50237774896959 104.19414226824227 0 104.19414226824227 198.33596031666445 0 0 0 0 166.64136478036016 105.06534376669796 0 105.06534376669796 282.83679613983799 0 0 0 0 160.84781784702955 3.9873435739401835 0 3.9873435739401835 89.98932469997203 0 0 0 0 852.5433115576725 -252.44655596599827 0 -252.44655596599827 -153.20865314911327 0 0 0 0 1573.9139429734787 -33.725338123441134 0 -33.725338123441134 -123.76735102551208 0 0 0 0 756.49667775178386 198.969810749125 0 198.969810749125 120.86968464454674 0 0 0 0 882.88467184652109 -779.10022597254465 0 -779.10022597254465 252.78061718042886 0 0 0 0 267.00534221759335 -388.50967079808669 0 -388.50967079808669 76.072675365772511 0 0 0 0 2613.2176181740942 215.34842536765063 0 215.34842536765063 -1137.1229356643134 0 0 0 0 1706.3617470323807 -892.96983021736014 0 -892.96983021736014 262.93501521277472 0 0 0 0 11.464499485153283 -0.27420855095437346 0 -0.27420855095437346 -0.97602290427687444 0 0 0 0 2745.4602129613922 156.09959251861315 0 156.09959251861315 -1239.3687835420924 0 0 0 0 2770.886219726759 559.75000502721252 0 559.75000502721252 -1248.9532710330016 0 0 0 0 603.65147760237596 263.16591366864373 0 263.16591366864373 -99.398978212501675 0 0 0 0 672.96990120554983 343.65191419085204 0 343.65191419085204 575.67478485672791 0 0 0 0 639.22341820586007 197.06063331516452 0 197.06063331516452 229.63333786263831 0 0 0 0 1418.7048279072333 691.53434739403542 0 691.53434739403542 638.42113233873033 0 0 0 0 1575.5624482544663 -68.414897302435747 0 -68.414897302435747 -109.17986055787117 0 0 0 0 2405.0360835606116 227.04799979745394 0 227.04799979745394 -57.302129203186269 0 0 0 0 627.12316680890217 -331.26388076925139 0 -331.26388076925139 735.12528807893477 0 0 0 0 1657.9303924306296 625.92639779542583 0 625.92639779542583 -1209.6532585660307 0 0 0 0 -6.8947019958284272 -5.558653793637589 0 -5.558653793637589 -0.84140377939759359 0 0 0 0 830.21248673096125 -243.173718022358 0 -243.173718022358 344.11388989558282 0 0 0 0 16.671580344870932 1.8524676152287478 0 1.8524676152287478 -0.53223786815137841 0 0 0 0 651.80968986317021 530.40045540837559 0 530.40045540837559 538.38541441743541 0 0 0 0 849.4680021076565 -690.68449741099698 0 -690.68449741099698 384.87814302296556 0 0 0 0 1849.4742892862268 -388.64904524427055 0 -388.64904524427055 -111.2814437348074 0 0 0 0 2328.1027085717069 77.927942194131518 0 77.927942194131518 316.00309641803085 0 0 0 0 742.91072778667149 406.83506718892966 0 406.83506718892966 116.79425594198766 0 0 0 0 6.7032844894598611 -0.58784310279504126 0 -0.58784310279504126 0.44194560531057819 0 0 0 0 1798.3094109654194 199.86071919940383 0 199.86071919940383 -153.13256195776049 0 0 0 0 1329.6684441225079 146.11402232970673 0 146.11402232970673 -156.47698726148374 0 0 0 0 760.99241271424398 29.352229970599797 0 29.352229970599797 -0.46260798404048842 0 0 0 0 967.45475209808501 -314.97797630675075 0 -314.97797630675075 62.838239442879754 0 0 0 0 1024.2012582639727 -358.7077565482349 0 -358.7077565482349 -99.91285483300382 0 0 0 0 257.20044053148013 -45.140456941890442 0 -45.140456941890442 0.15216960040606053 0 0 0 0 -153.09499952077749 -121.17299105340027 0 -121.17299105340027 268.4878600033274 0 0 0 0 9.8989573818429903 -1.4045415718995784 0 -1.4045415718995784 -1.0120419182383484 0 0 0 0 14.603503762962646 -9.3703838923229625 0 -9.3703838923229625 -6.7158482859158539 0 0 0 0 -61.207917122295839 159.55967221877896 0 159.55967221877896 -37.134473804314709 0 0 0 0 23.711533120578679 -57.631214184257487 0 -57.631214184257487 -47.983887675070605 0 0 0 0 4.6095293272081221 -3.2046683946205405 0 -3.2046683946205405 -1.5021931788698684 0 0 0 0 70.714928162982687 -101.59129410567844 0 -101.59129410567844 67.985939547480612 0 0 0 0 -45.214280270014569 11.781279418995828 0 11.781279418995828 0.070127509067877458 0 0 0 0 4.6634955330151513 -0.56843081465353151 0 -0.56843081465353151 -0.91309944081116756 0 0 0 0 -8.1113055844034534 14.303961118572001 0 14.303961118572001 -19.621868151480967 0 0 0 0 -5.6181292151886737 0.64765935313587875 0 0.64765935313587875 12.048185788364464 0 0 0 0 1.9835465137148276 -0.88876274885579054 0 -0.88876274885579054 -6.2377930352777635e-05 0 0 0 0 1.4799467251326632 0.03348712277650634 0 0.03348712277650634 -0.53893422435744498 0 0 0 0 0.34942758996436396 -0.52193470417869037 0 -0.52193470417869037 0.30792009112230717 0 0 0 0 4.3850321081408765 -3.2503299386803555 0 -3.2503299386803555 1.8095694703916472 0 0 0 0 2.949298187639215 -5.3261760124795359 0 -5.3261760124795359 2.715097275808116 0 0 0 0 2.2403397973153005 -1.2993842268008109 0 -1.2993842268008109 1.917714753158112 0 0 0 0 2.5596529246859632 -2.9648100078027415 0 -2.9648100078027415 0.63313792410849956 0 0 0 0 6.2871285340952454 -0.58161192193136912 0 -0.58161192193136912 -0.21465568139115021 0 0 0 0 -11.124738970102044 0.1770038524016968 0 0.1770038524016968 30.273011322827301 0 0 0 0 65.122939153567131 -12.639787280381864 0 -12.639787280381864 -0.023175061838130125 0 0 0 0 73.205932997449054 -14.841644618037995 0 -14.841644618037995 9.7228253360336083 0 0 0 0 71.522982662849245 -11.007144570179683 0 -11.007144570179683 1.5721932443958941 0 0 0 0 32.343216357170604 -0.63006202561264346 0 -0.63006202561264346 1.645208893883275 0 0 0 0 68.662956838816172 -11.592131546894144 0 -11.592131546894144 3.434556289933056 0 0 0 0 74.741808758117259 -4.4885171624922862 0 -4.4885171624922862 9.7723720891322117 0 0 0 0 20.638761320762569 7.4959359328070541 0 7.4959359328070541 2.2320815766157622 0 0 0 0 10.242074661160586 -4.1359728764921186 0 -4.1359728764921186 2.0933479157385975 0 0 0 0 11.786461871408392 -0.34020978740954178 0 -0.34020978740954178 4.323615754282816 0 0 0 0 32.486848916611052 -0.5636994125340884 0 -0.5636994125340884 -1.2057022695879276 0 0 0 0 14.48810313816648 -12.828117899853732 0 -12.828117899853732 0.026612419827441426 0 0 0 0 3.4945961696066661 -2.9907211801979825 0 -2.9907211801979825 6.0101739619219678 0 0 0 0 3.0193412036023801 -3.2811475374582635 0 -3.2811475374582635 2.2522223481973676 0 0 0 0 10.634328453626949 -6.0850118208596129 0 -6.0850118208596129 3.1753008905131566 0 0 0 0 5.6783084570488427 8.9973501385651105 0 8.9973501385651105 14.768821893435245 0 0 0 0 8.7408438137645135 -0.71681487966893087 0 -0.71681487966893087 -2.6898085644884802 0 0 0 0 4.8154195267225788 6.1607202568276591 0 6.1607202568276591 5.9367671703047087 0 0 0 0 6.3347533350941774 -4.4997339340084608 0 -4.4997339340084608 -2.2932788163132041 0 0 0 0 19.119108050916111 3.5504906983687192 0 3.5504906983687192 -1.9311306883071566 0 0 0 0 44.008179126634786 -11.585914273244725 0 -11.585914273244725 0.71457994845934536 0 0 0 0 8.9961304044826136 0.074334108546210587 0 0.074334108546210587 -0.57292870916479832 0 0 0 0 11.850563344691182 -2.1449693606670976 0 -2.1449693606670976 -5.3240087442495323 0 0 0 0 -2.0729042769526131 2.4089505462972198 0 2.4089505462972198 1.0926930047232375 0 0 0 0 104.57371869150666 -29.21246349200652 0 -29.21246349200652 9.8863926929703325 0 0 0 0 1.1726760416195958 -0.8190215272650363 0 -0.8190215272650363 0.58357718434382644 0 0 0 0 111.03515595632052 -16.880069309483169 0 -16.880069309483169 2.2154334944447811 0 0 0 0 75.673499894357519 -19.646878696838243 0 -19.646878696838243 6.0286633381228825 0 0 0 0 72.383505452016834 -51.258280768634023 0 -51.258280768634023 -3.6757299815354552 0 0 0 0 0.11761359645436187 -0.71572136041199386 0 -0.71572136041199386 0.20729768461207587 0 0 0 0 62.228371436023735 -10.668108571609302 0 -10.668108571609302 0.036922883434002074 0 0 0 0 71.966949199239025 -9.3633063538281682 0 -9.3633063538281682 -2.3675489267535497 0 0 0 0 64.677239732896851 -8.7669374618871494 0 -8.7669374618871494 -1.9477873494621747 0 0 0 0 67.537243095983285 -17.089012876139819 0 -17.089012876139819 -6.4820454612078819 0 0 0 0 72.669936413236428 -5.9380671939016576 0 -5.9380671939016576 4.4028677288637823 0 0 0 0 53.747033553103392 -17.064192775139194 0 -17.064192775139194 -7.3113645812197294 0 0 0 0 31.345959695504661 -16.760515828936789 0 -16.760515828936789 -13.141289922438531 0 0 0 0 59.785089504308417 -11.528057315000915 0 -11.528057315000915 -8.7387067599902153 0 0 0 0 23.74867620086188 26.14971005554186 0 26.14971005554186 13.057331441764262 0 0 0 0 73.559562786205788 36.58696630031011 0 36.58696630031011 14.300130934789649 0 0 0 0 58.045475037128199 -5.0418289303281547 0 -5.0418289303281547 -7.7233723311605615 0 0 0 0 -26.532677952098311 3.98813242075218 0 3.98813242075218 33.358010289637804 0 0 0 0 -22.298573013191344 29.621512454082279 0 29.621512454082279 21.003019879742524 0 0 0 0 -20.000014614870452 21.111325355060227 0 21.111325355060227 52.144650324023345 0 0 0 0 -21.499334122563596 65.228752943014911 0 65.228752943014911 8.5863453186317429 0 0 0 0 -22.202078929934942 63.789824039457812 0 63.789824039457812 48.602417702579487 0 0 0 0 -12.613455120677827 108.23271008062187 0 108.23271008062187 18.174052662527174 0 0 0 0 3.8344350166153163 70.870388288242793 0 70.870388288242793 -40.51163944074915 0 0 0 0 3.5347820762508491 67.641053366661197 0 67.641053366661197 -64.55175644424844 0 0 0 0 17.061374512442853 86.436560689024645 0 86.436560689024645 -60.659179987133029 0 0 0 0 18.631557438951859 -0.89108720059903135 0 -0.89108720059903135 -1.9221477218046203 0 0 0 0 8.0561882912056717 40.199708681758452 0 40.199708681758452 -53.199382997709563 0 0 0 0 13.142607159272302 71.988080548306925 0 71.988080548306925 -79.444129352349591 0 0 0 0 29.364192022331423 -0.18346824333302636 0 -0.18346824333302636 -1.4846433640359642 0 0 0 0 17.607240333978552 29.908203436271492 0 29.908203436271492 7.4731807221287454 0 0 0 0 11.722387859263108 15.612116386705793 0 15.612116386705793 -25.86444584099246 0 0 0 0 -0.65371975148366346 9.4290224029068419 0 9.4290224029068419 1.5169425355172663 0 0 0 0 4.9610380244630505 51.609183608386957 0 51.609183608386957 -1.3723573456665008 0 0 0 0 21.224683970278008 20.535486746374033 0 20.535486746374033 4.8967072788048762 0 0 0 0 21.176436816094792 31.996339852101528 0 31.996339852101528 7.5876752884551024 0 0 0 0 64.179829937027534 10.02921791661015 0 10.02921791661015 9.2945601368903681 0 0 0 0 21.010548507823842 31.419308705325705 0 31.419308705325705 15.17972566503795 0 0 0 0 29.930651579658473 -20.736469942182893 0 -20.736469942182893 -11.315103876308239 0 0 0 0 108.80495778245677 27.784671028715593 0 27.784671028715593 -8.4827549671590532 0 0 0 0 92.319581562009262 24.285538598295545 0 24.285538598295545 -6.0377818047172696 0 0 0 0 125.86097427306959 34.197774180639954 0 34.197774180639954 -3.6495839950666777 0 0 0 0 66.351137611985905 35.692044683204585 0 35.692044683204585 -5.40801570700296 0 0 0 0 71.211255064437864 46.163475620014651 0 46.163475620014651 2.1449459203013248 0 0 0 0 55.507804867302184 33.819958699520157 0 33.819958699520157 16.076142421256463 0 0 0 0 67.251398113337927 23.420379196830709 0 23.420379196830709 6.2208756730092318 0 0 0 0 43.384428065372049 15.869974792835364 0 15.869974792835364 -5.3146263185615048 0 0 0 0 37.574270834084018 19.794099792284896 0 19.794099792284896 23.785371845937334 0 0 0 0 64.388421937517705 8.7951875349938859 0 8.7951875349938859 36.380164921286678 0 0 0 0 40.039280045268242 19.918696455172949 0 19.918696455172949 3.6512068129477484 0 0 0 0 65.971753347563208 4.6442146556637454 0 4.6442146556637454 10.552525051778048 0 0 0 0 78.572420907847118 5.3163961124596426 0 5.3163961124596426 30.983415104710957 0 0 0 0 70.627965124866023 35.510821639951132 0 35.510821639951132 48.606838111580146 0 0 0 0 82.359730892207153 25.783726034681308 0 25.783726034681308 128.47004064194562 0 0 0 0 142.97990014625248 -91.786623617838586 0 -91.786623617838586 79.313522180308837 0 0 0 0 88.686144066950874 -33.90111709642936 0 -33.90111709642936 25.385298904170895 0 0 0 0 91.898724067354124 -55.818003789433305 0 -55.818003789433305 -8.511276306912805 0 0 0 0 168.4253091247374 -44.68821816125859 0 -44.68821816125859 -54.644677118264667 0 0 0 0 117.35766292414337 -42.608140654779788 0 -42.608140654779788 -52.048988055670748 0 0 0 0 85.422019304474816 -95.766985801404076 0 -95.766985801404076 -37.193720452668231 0 0 0 0 76.194550480358885 10.327658904767759 0 10.327658904767759 -2.6295497214018724 0 0 0 0 68.594884491882112 -0.81416614195876491 0 -0.81416614195876491 -17.826529917184644 0 0 0 0 89.915413779963274 -37.53636149012641 0 -37.53636149012641 29.981538110080464 0 0 0 0 147.10694973867794 -7.9499560665568652 0 -7.9499560665568652 -22.588167608190844 0 0 0 0 80.678767211604281 36.032761824569462 0 36.032761824569462 -22.868406255217792 0 0 0 0 23.590608581140259 25.618037185779187 0 25.618037185779187 2.5056588485101656 0 0 0 0 -41.48572046206391 18.902437057859345 0 18.902437057859345 18.524797111852877 0 0 0 0 24.008160667843185 23.579287098293207 0 23.579287098293207 2.7454569137466933 0 0 0 0 -13.701535297528608 5.0970382597073467 0 5.0970382597073467 5.2095165345413648 0 0 0 0 -14.387110108895286 6.7539276965253805 0 6.7539276965253805 1.2388465372293922 0 0 0 0 -31.890477435230423 -15.622963379552999 0 -15.622963379552999 -9.3111695480145045 0 0 0 0 -50.70104450522922 -11.301677954289062 0 -11.301677954289062 23.473412858963911 0 0 0 0 3.6999376115830671 -3.9275401259861127 0 -3.9275401259861127 -8.1912306805637929 0 0 0 0 -30.107567468076013 -5.4908466849310571 0 -5.4908466849310571 0.85686018294859423 0 0 0 0 -28.260817388523719 12.88047276085581 0 12.88047276085581 -10.965324200205941 0 0 0 0 -26.377222503338999 7.7796368104040994 0 7.7796368104040994 4.6347833800409717 0 0 0 0 2.0786920157188433 -41.608161026411153 0 -41.608161026411153 -1.2589184805838158 0 0 0 0 9.4097747689122784 -6.9913181539809841 0 -6.9913181539809841 -4.3129110848783583 0 0 0 0 -4.9253417759027798 4.6178693898405072 0 4.6178693898405072 -9.5662335840895594 0 0 0 0 9.323849046228915 3.3389561345420304 0 3.3389561345420304 -1.7908735546769314 0 0 0 0 1.1382092277199263 22.771073665388371 0 22.771073665388371 2.716543037458905 0 0 0 0 7.8257224281551316 23.779246640231122 0 23.779246640231122 -0.40897769762250391 0 0 0 0 12.146198907299549 12.890009044872613 0 12.890009044872613 5.3748503849243718 0 0 0 0 38.18846559128815 24.15006991667039 0 24.15006991667039 4.7903771669061825 0 0 0 0 27.022081716328103 10.638518781326525 0 10.638518781326525 7.6913928095555093 0 0 0 0 16.586584270684398 22.962644319128458 0 22.962644319128458 1.1939308256808658 0 0 0 0 42.067036155583196 0.80652227456058512 0 0.80652227456058512 -3.11361138109466 0 0 0 0 -96.637316818596446 -10.746153268433915 0 -10.746153268433915 70.749648289985018 0 0 0 0 171.93670345513965 51.873589099169493 0 51.873589099169493 -11.67610241040606 0 0 0 0 41.600134382904798 35.799058976165838 0 35.799058976165838 1.05435975589603 0 0 0 0 1.5741168961872063 3.880649180723255 0 3.880649180723255 0.27278724813783817 0 0 0 0 58.907042368795373 -5.3887438901517726 0 -5.3887438901517726 -23.938866060286387 0 0 0 0 36.121884495601364 2.5852865642035177 0 2.5852865642035177 -1.783248364956322 0 0 0 0 47.57591623411281 25.498952016070568 0 25.498952016070568 -37.35779900889743 0 0 0 0 -31.589094210969051 -7.2375790694450188 0 -7.2375790694450188 -6.7518529433255026 0 0 0 0 18.925810654359452 -2.0309121817895175 0 -2.0309121817895175 -3.3392070825010816 0 0 0 0 22.830914888505504 62.202409691753275 0 62.202409691753275 -64.801980339465899 0 0 0 0 82.586063937167637 94.006627719981168 0 94.006627719981168 -59.65623753668342 0 0 0 0 119.4937142517083 42.16315982788467 0 42.16315982788467 -113.18419233596433 0 0 0 0 26.032747293577387 10.821380413703565 0 10.821380413703565 -3.4731736097575983 0 0 0 0 -0.37669176451890962 20.046932460375103 0 20.046932460375103 -14.877652511234146 0 0 0 0 18.963481191397889 -7.630254932651809 0 -7.630254932651809 -2.0213721601145274 0 0 0 0 81.890253352481523 75.384352840774454 0 75.384352840774454 59.244063128210428 0 0 0 0 274.14523496494803 117.69660740087053 0 117.69660740087053 50.437096114519306 0 0 0 0 71.172306033971836 89.232681365422309 0 89.232681365422309 47.068263861231742 0 0 0 0 94.796663772656757 67.777254985366142 0 67.777254985366142 1.9461196522918272 0 0 0 0 56.075907055099378 46.905268540312932 0 46.905268540312932 1.995314549440991 0 0 0 0 95.587732408981537 104.57514706419602 0 104.57514706419602 41.035731899077291 0 0 0 0 81.967874039731214 11.690902060166238 0 11.690902060166238 27.415413178185645 0 0 0 0 217.39222393976524 101.59050166910811 0 101.59050166910811 84.685657049852352 0 0 0 0 60.933052937267348 58.598089170454386 0 58.598089170454386 185.82580446590214 0 0 0 0 124.60773161816178 -52.411873992869459 0 -52.411873992869459 1.3907551934495359 0 0 0 0 5.6590860480862091 -7.0309829319735186 0 -7.0309829319735186 -1.9697285583999107 0 0 0 0 36.120037485252851 -48.536856788980323 0 -48.536856788980323 -19.189921928938176 0 0 0 0 83.97768076590728 51.015848719611085 0 51.015848719611085 122.97137657001235 0 0 0 0 67.124279437190125 6.6522689801872374 0 6.6522689801872374 2.0223360905524572 0 0 0 0 57.155072100642428 -9.0653905651165374 0 -9.0653905651165374 3.1964455347479586 0 0 0 0 140.04288541759888 56.268842987265202 0 56.268842987265202 30.407821958149952 0 0 0 0 34.938799313503196 -21.364997659524136 0 -21.364997659524136 -7.6589115547241899 0 0 0 0 72.106283678927866 -1.5081778224386611 0 -1.5081778224386611 -8.5868913608484831 0 0 0 0 66.821918313173228 -6.9798990738425957 0 -6.9798990738425957 -5.1534418870189853 0 0 0 0 40.183284370970796 -7.3058062210947838 0 -7.3058062210947838 -3.7417544143543813 0 0 0 0 41.566604584571905 5.1894023916325267 0 5.1894023916325267 -2.4534426227306199 0 0 0 0 30.811917430772155 -8.0085056321519055 0 -8.0085056321519055 -3.7288580411663759 0 0 0 0 31.809215881225725 3.6014410630381306 0 3.6014410630381306 -1.0512501830410415 0 0 0 0 5.4100590398047643 -15.749771016944941 0 -15.749771016944941 -2.6984545737993528 0 0 0 0 21.790404000901617 9.6632846007113997 0 9.6632846007113997 -2.1901511866890786 0 0 0 0 59.01814536418533 5.1676282073321111 0 5.1676282073321111 -9.6841232540758995 0 0 0 0 41.531668744202761 -0.25004595869979696 0 -0.25004595869979696 -2.8850158820721212 0 0 0 0 31.614930517906032 -6.5715643564562995 0 -6.5715643564562995 7.8751661691841974 0 0 0 0 41.886596005839237 1.4614972479963875 0 1.4614972479963875 -7.0470432667560523 0 0 0 0 0.46939437540581253 -0.3340486481003353 0 -0.3340486481003353 0.04499033626726423 0 0 0 0 67.35207961913693 -2.7854018943362924 0 -2.7854018943362924 -12.567238158760816 0 0 0 0 66.190525240032002 -2.5864255935160614 0 -2.5864255935160614 -7.7522877780395163 0 0 0 0 61.632971866878506 -4.2234466614934405 0 -4.2234466614934405 -6.4466814150995475 0 0 0 0 68.738486033471418 -6.9830268414530821 0 -6.9830268414530821 -5.8983747472817392 0 0 0 0 70.96427054295782 -6.6608609012828595 0 -6.6608609012828595 -7.649854757452152 0 0 0 0 67.193785642186413 -9.1362724302748433 0 -9.1362724302748433 -8.2847479437193741 0 0 0 0 71.301595669618109 -4.2170686604830721 0 -4.2170686604830721 -12.806770116249904 0 0 0 0 73.725088662817143 -8.888269578017109 0 -8.888269578017109 3.5841483899479343 0 0 0 0 68.902027788346459 -7.1946855779236856 0 -7.1946855779236856 3.0968924221995948 0 0 0 0 72.593874046811834 -10.012589791461835 0 -10.012589791461835 -3.5800727361477698 0 0 0 0 86.534910919697722 -0.072577195655664895 0 -0.072577195655664895 0.32154286536479515 0 0 0 0 70.849560109643789 -2.1563662653250137 0 -2.1563662653250137 0.76406288315934745 0 0 0 0 99.200074995598698 -7.8031021586333695 0 -7.8031021586333695 -4.5816981456369597 0 0 0 0 86.073813885865093 -10.212050935741152 0 -10.212050935741152 0.051912274516556202 0 0 0 0 74.220584938972024 -9.0968781818244029 0 -9.0968781818244029 2.8319708151346425 0 0 0 0 74.569018544105347 -7.28903619650037 0 -7.28903619650037 3.3856234314582565 0 0 0 0 74.507509775372455 -8.3749390082491022 0 -8.3749390082491022 0.55174840757271326 0 0 0 0 45.942552427455666 2.1694966290211255 0 2.1694966290211255 -2.0012345471768818 0 0 0 0 69.78085162865932 16.353761497094073 0 16.353761497094073 -1.0687535449590229 0 0 0 0 11.483183425847528 -1.0811893159561923 0 -1.0811893159561923 0.018963580624750714 0 0 0 0 0.30136881848659414 -0.14337366417602482 0 -0.14337366417602482 0.034434175106130553 0 0 0 0 110.75338573355475 22.828506268192704 0 22.828506268192704 -2.6822970902716392 0 0 0 0 26.470812228399154 20.526150256889636 0 20.526150256889636 8.4422657815678157 0 0 0 0 78.337711286723788 28.523898471252764 0 28.523898471252764 13.979231097913031 0 0 0 0 53.766459382633911 3.38592537656552 0 3.38592537656552 0.011252099847671377 0 0 0 0 53.26116171196918 16.920654002116823 0 16.920654002116823 12.044324498562624 0 0 0 0 76.691195787920151 6.4435126006675816 0 6.4435126006675816 2.582717108736106 0 0 0 0 76.909565346992167 11.428605855432798 0 11.428605855432798 35.600733183181674 0 0 0 0 88.394973467444288 9.0816398885152108 0 9.0816398885152108 -0.041689791831005324 0 0 0 0 117.16653081885306 20.307805756584518 0 20.307805756584518 0.76150694154846121 0 0 0 0 89.760510770425753 -23.211532233727276 0 -23.211532233727276 -5.2531710621937293 0 0 0 0 28.789462198314141 -2.0464417629701721 0 -2.0464417629701721 10.594958066084839 0 0 0 0 54.600290040099935 7.2125083749653935 0 7.2125083749653935 0.062572141897014974 0 0 0 0 39.844733017387625 9.8017766616490913 0 9.8017766616490913 -9.8393083337393961 0 0 0 0 29.469251537040691 21.300211660942896 0 21.300211660942896 -20.423947870410132 0 0 0 0 26.6702203804455 7.6057192428190632 0 7.6057192428190632 -0.97712954075012615 0 0 0 0 24.408022816394805 -10.321536967402558 0 -10.321536967402558 21.782344753827612 0 0 0 0 4.0969103251777312 0.94530973769613524 0 0.94530973769613524 0.7954415402880759 0 0 0 0 189.85688912346814 -3.6612067139092517 0 -3.6612067139092517 12.756272729517889 0 0 0 0 19.445129435065439 12.417431131717841 0 12.417431131717841 3.597594025295507 0 0 0 0 33.176003141124966 25.744904005866829 0 25.744904005866829 -0.42923943399819109 0 0 0 0 15.304147478288179 0.90838409093426264 0 0.90838409093426264 -1.9497506634749406 0 0 0 0 19.70508053622325 -4.6572556365240416 0 -4.6572556365240416 -1.2547564516798957 0 0 0 0 21.157549298834056 5.8316137652140583 0 5.8316137652140583 -0.24306525028237047 0 0 0 0 -2.6848421239672575 1.4888173185837914 0 1.4888173185837914 1.2531388378208166 0 0 0 0 20.786452527274378 23.363256706220795 0 23.363256706220795 10.935069229376495 0 0 0 0 28.633507300633937 13.683451259827166 0 13.683451259827166 2.4738555327567155 0 0 0 0 -0.75934802182695194 11.120198034823488 0 11.120198034823488 -2.6735689274894732 0 0 0 0 34.037869100699027 17.382439770240623 0 17.382439770240623 0.83933946036995621 0 0 0 0 32.253856134426314 12.436908599320304 0 12.436908599320304 1.9064066126954522 0 0 0 0 29.423197676238487 18.104425155546778 0 18.104425155546778 1.0968100720990606 0 0 0 0 -1.6031502094638341 6.1143683633626864 0 6.1143683633626864 -1.2403516230689116 0 0 0 0 13.320120347443662 27.580586298198398 0 27.580586298198398 51.777608218706519 0 0 0 0 1.0142102745989519 3.3223155411041603 0 3.3223155411041603 2.9586824402904925 0 0 0 0 31.957619542015891 85.489334195260255 0 85.489334195260255 215.86959186499604 0 0 0 0 109.32938127247326 85.436449204180462 0 85.436449204180462 -88.967676954968738 0 0 0 0 183.66926858661463 293.81988062628852 0 293.81988062628852 112.7174584643808 0 0 0 0 -14.285220381818363 189.29238687113354 0 189.29238687113354 551.35929294683922 0 0 0 0 -0.45231772744962484 -0.05485664813855351 0 -0.05485664813855351 -0.75183661916217326 0 0 0 0 161.25770405828371 -86.795900421806039 0 -86.795900421806039 24.124421867376924 0 0 0 0 685.27092893596273 325.72609279280584 0 325.72609279280584 -649.84160984187065 0 0 0 0 75.037411339464597 2.538890529773683 0 2.538890529773683 0.042292654577257949 0 0 0 0 99.691498227737611 31.962049880510193 0 31.962049880510193 -30.033788701725854 0 0 0 0 0.28286467452818442 -0.16327193316801925 0 -0.16327193316801925 0.0020095992529451934 0 0 0 0 36.425734449254378 6.1042493219200864 0 6.1042493219200864 17.861091674785531 0 0 0 0 190.99169656656159 -11.835601418300001 0 -11.835601418300001 -102.59743797113418 0 0 0 0 168.24553496984299 -79.811219003259396 0 -79.811219003259396 6.1105477970845072 0 0 0 0 57.486536455984407 -9.0857124622396626 0 -9.0857124622396626 -0.010942604852712867 0 0 0 0 69.052611340663134 -60.383366224028592 0 -60.383366224028592 -17.573198388347155 0 0 0 0 53.706992818479193 31.40973967454271 0 31.40973967454271 -0.064814453542125838 0 0 0 0 5.9296834784769601 -4.0855294450818604 0 -4.0855294450818604 0.12617026136811471 0 0 0 0 2.2964615135242354 -1.2465383246828878 0 -1.2465383246828878 -0.44212539063322576 0 0 0 0 33.304763947522588 -32.007256863845704 0 -32.007256863845704 -2.1904704337313987 0 0 0 0 83.164240791520569 -1.8690008269733553 0 -1.8690008269733553 -178.796461725516 0 0 0 0 35.841741577390081 6.9494147802203514 0 6.9494147802203514 -1.365018213747426 0 0 0 0 63.00316595548793 59.301165634441482 0 59.301165634441482 -69.913198416105303 0 0 0 0 26.276214514204185 3.571339780083747 0 3.571339780083747 -3.5902854857226316 0 0 0 0 8.5207406693371013 0.78648916220141829 0 0.78648916220141829 -0.0013961585369912182 0 0 0 0 25.120804162011297 2.3272370667602615 0 2.3272370667602615 -0.76191177120207998 0 0 0 0 27.537040677438199 25.132487886025785 0 25.132487886025785 3.8159525463734862 0 0 0 0 8.5061216558315209 0.7975844575829234 0 0.7975844575829234 0.00078867705613533401 0 0 0 0 0.87166039251408733 1.111528142460898 0 1.111528142460898 0.32175910266715524 0 0 0 0 22.382178119258498 6.0538504685962806 0 6.0538504685962806 0.18312447792703654 0 0 0 0 29.945532234298298 8.4185143184993194 0 8.4185143184993194 0.35301853966620911 0 0 0 0 -6.3644949041481595 58.742353034070604 0 58.742353034070604 -26.304942896508038 0 0 0 0 23.375723006645273 9.4889707141076371 0 9.4889707141076371 -2.6025991024017685 0 0 0 0 20.427986121198046 4.4590665623417181 0 4.4590665623417181 0.69083075139428729 0 0 0 0 -40.870983712389716 27.932501186145402 0 27.932501186145402 -5.5346311490298206 0 0 0 0 -22.158073748978495 52.966413779914973 0 52.966413779914973 27.696700575054649 0 0 0 0 -26.972475428454345 5.2125977445486456 0 5.2125977445486456 9.7752317086184632 0 0 0 0 11.454698584020662 50.499864606794247 0 50.499864606794247 -12.893211515631748 0 0 0 0 8.5711290161980287 45.531664461891694 0 45.531664461891694 20.267445744486082 0 0 0 0 -8.0819273240995244 56.576550403370163 0 56.576550403370163 -7.2760971864253463 0 0 0 0 26.844943102412799 43.860037131482855 0 43.860037131482855 -61.608987346051109 0 0 0 0 80.138744412309279 30.580185814753598 0 30.580185814753598 -16.971752585011757 0 0 0 0 68.270534189228783 92.111764297880171 0 92.111764297880171 -13.297093300028564 0 0 0 0 110.63610826623699 5.7252008594639818 0 5.7252008594639818 82.072712604521143 0 0 0 0 89.294643858462223 86.516200536020904 0 86.516200536020904 40.050797414380526 0 0 0 0 317.94321497954661 76.900274996114689 0 76.900274996114689 93.785665784282401 0 0 0 0 200.47524108876496 -96.071488465774223 0 -96.071488465774223 115.36372095387523 0 0 0 0 390.30653702040581 -114.60593890212587 0 -114.60593890212587 -22.01743508511413 0 0 0 0 132.89423485779844 69.740840326260383 0 69.740840326260383 7.6546552753445383 0 0 0 0 46.390150046030612 35.935024025010691 0 35.935024025010691 28.107760730625401 0 0 0 0 134.74445147110964 93.917103754405829 0 93.917103754405829 -110.74352633353938 0 0 0 0 312.18587050360657 53.488076788672856 0 53.488076788672856 -68.39274578085724 0 0 0 0 325.58601500905934 31.643601143917294 0 31.643601143917294 -59.619480397659345 0 0 0 0 185.53555518080248 -4.3144216955013235 0 -4.3144216955013235 -7.9213753522517081 0 0 0 0 297.69092771830583 -57.159187165438325 0 -57.159187165438325 53.819926304463479 0 0 0 0 321.63698755232326 77.874308084562585 0 77.874308084562585 4.7910698991097433 0 0 0 0 502.91107813028793 38.625889440027208 0 38.625889440027208 5.6833666481740579 0 0 0 0 167.09594608972839 -25.821972949693247 0 -25.821972949693247 209.44951975297147 0 0 0 0 422.09014833065885 -70.454131718088092 0 -70.454131718088092 51.133311852138604 0 0 0 0 35.089890468902013 0.3511919248279014 0 0.3511919248279014 94.642728431809587 0 0 0 0 134.14217123450362 49.678023878713248 0 49.678023878713248 65.710477751497592 0 0 0 0 -20.941188533928653 -44.414947565902366 0 -44.414947565902366 28.927873820632556 0 0 0 0 55.154521523640142 10.165665264971494 0 10.165665264971494 19.182569762710955 0 0 0 0 214.54464211999584 24.508154402107834 0 24.508154402107834 -8.6624526536322719 0 0 0 0 88.106262384637375 -42.342936554061566 0 -42.342936554061566 100.87792977095972 0 0 0 0 -29.016867168502358 -4.8956332226448183 0 -4.8956332226448183 -10.13484086246649 0 0 0 0 -4.8163559697277378 50.344839466092424 0 50.344839466092424 42.184945023347609 0 0 0 0 -25.483720301795984 -25.916785276843996 0 -25.916785276843996 81.802849011136118 0 0 0 0 -94.189679634779168 0.040539251934546883 0 0.040539251934546883 43.28376243141895 0 0 0 0 -5.4271903637960577 9.4622428341084088 0 9.4622428341084088 3.1603775656026087 0 0 0 0 -2.487869929247374 8.2461583580669213 0 8.2461583580669213 8.1789096228148495 0 0 0 0 30.280207882693503 15.653862062188637 0 15.653862062188637 8.053963666287018 0 0 0 0 -63.768225886662549 -38.075758997304774 0 -38.075758997304774 19.647172688016326 0 0 0 0 21.182664426748289 8.6959234801667478 0 8.6959234801667478 0.41837342658222232 0 0 0 0 25.513699091010494 16.967166029685814 0 16.967166029685814 28.025065303998417 0 0 0 0 2.749149624838978 1.504300723664528 0 1.504300723664528 0.62321427830108611 0 0 0 0 15.894685141547171 4.5983629138481064 0 4.5983629138481064 3.7117139989168333 0 0 0 0 28.301109040126903 14.082444696473431 0 14.082444696473431 9.5246368835876183 0 0 0 0 6.1945378847231041 -58.170594026420872 0 -58.170594026420872 -142.06765019749901 0 0 0 0 33.848593856571824 13.952147731020887 0 13.952147731020887 -156.72108698015506 0 0 0 0 7.2599725858459863 1.3706539179077311 0 1.3706539179077311 -0.59460520950807272 0 0 0 0 25.373661203688243 48.275457659776293 0 48.275457659776293 -108.32121599372567 0 0 0 0 19.131482560313259 -0.76831287323480257 0 -0.76831287323480257 0.3505284073013335 0 0 0 0 23.061064381385222 5.8490795556667763 0 5.8490795556667763 24.626284303884631 0 0 0 0 11.654897900749347 29.473908329186315 0 29.473908329186315 -77.466224776369927 0 0 0 0 28.271376501143095 0.1557293140162983 0 0.1557293140162983 -106.50619825838521 0 0 0 0 36.596172226927592 7.8482882669559331 0 7.8482882669559331 -144.37671411609449 0 0 0 0 14.00867325229774 -19.171962077122544 0 -19.171962077122544 -81.91951864244902 0 0 0 0 -4.4820758952191682 -36.624668617788529 0 -36.624668617788529 -56.185348506058062 0 0 0 0 9.0594992506521521 -0.98691320027887741 0 -0.98691320027887741 23.284069802435852 0 0 0 0 0.30910247570136562 2.0925391964563378 0 2.0925391964563378 1.9375153412556951 0 0 0 0 15.798157362500206 4.4093446377166856 0 4.4093446377166856 26.269314869336768 0 0 0 0 190.54342709705816 39.57001689166168 0 39.57001689166168 -80.057894319394336 0 0 0 0 -10.843580207256309 -25.337808612363006 0 -25.337808612363006 73.861652492208123 0 0 0 0 0.26446442955523253 0.3168968653359876 0 0.3168968653359876 -0.29155964313333604 0 0 0 0 83.245243990400922 65.834899816468578 0 65.834899816468578 -38.071997601923613 0 0 0 0 5.2221567087144649 -4.2369193717652252 0 -4.2369193717652252 25.26407065845342 0 0 0 0 47.265520981440204 -11.867340254204692 0 -11.867340254204692 -142.3843281853724 0 0 0 0 12.797388444039456 -0.83185124440127733 0 -0.83185124440127733 -0.034683682375838965 0 0 0 0 0.3832936781400349 24.046003109874619 0 24.046003109874619 -66.190060789117069 0 0 0 0 145.18501483462751 -208.69611684643473 0 -208.69611684643473 150.33477641532545 0 0 0 0 315.68757063128578 288.91560867006524 0 288.91560867006524 206.75564607998103 0 0 0 0 4.8299655868891875 -0.22933796999094813 0 -0.22933796999094813 0.19777271820578246 0 0 0 0 -17.251284066209337 -54.220573887824003 0 -54.220573887824003 19.857520870402368 0 0 0 0 196.37378644445562 121.17125448559818 0 121.17125448559818 77.395522385879758 0 0 0 0 317.2065330831756 201.97126929449018 0 201.97126929449018 44.127921562956089 0 0 0 0 165.62205576853739 56.439891130798401 0 56.439891130798401 -64.925084709928342 0 0 0 0 303.51693421673554 63.128515747704 0 63.128515747704 -71.51513688183195 0 0 0 0 2.4189994163840538 -2.697425934879746 0 -2.697425934879746 -2.1078931642804024 0 0 0 0 52.304444894223707 -52.877190131264797 0 -52.877190131264797 22.740843355477409 0 0 0 0 -16.631654882326984 -10.261265172210472 0 -10.261265172210472 -0.44768521982769016 0 0 0 0 21.995856726151473 -12.774329186987785 0 -12.774329186987785 -7.6899460664054562 0 0 0 0 69.254243146686349 63.260941032903929 0 63.260941032903929 55.60375301850695 0 0 0 0 -0.37249273063923738 -3.324873396227634 0 -3.324873396227634 0.33060650017246029 0 0 0 0 -9.9100158507153537 -7.057993400575441 0 -7.057993400575441 7.7484417755581489 0 0 0 0 89.202350586274406 -43.502765750531836 0 -43.502765750531836 -10.619415474620133 0 0 0 0 35.900889345988105 1.1874121971238907 0 1.1874121971238907 -4.8046561625654327 0 0 0 0 180.71354324069398 15.743688424074548 0 15.743688424074548 -28.770132403032221 0 0 0 0 166.86300307873171 30.295522672796324 0 30.295522672796324 6.0833564343984108 0 0 0 0 54.19134744364419 -109.73135883995997 0 -109.73135883995997 10.262721314433769 0 0 0 0 42.356839348212816 19.013843584329948 0 19.013843584329948 20.288370311393521 0 0 0 0 24.069121307358728 -3.411250221155079 0 -3.411250221155079 -4.4483744097478848 0 0 0 0 6.4844313577422668 -2.7316088740410436 0 -2.7316088740410436 0.47257412339065052 0 0 0 0 68.948610944775282 3.2490097964958693 0 3.2490097964958693 80.891541633247925 0 0 0 0 -45.015567373709928 -73.784818282126764 0 -73.784818282126764 -63.286307615004262 0 0 0 0 70.613886367704254 22.609567409883311 0 22.609567409883311 9.9678091731414042 0 0 0 0 6.1748388660039133 -0.97290000543691235 0 -0.97290000543691235 -7.6412547157560988 0 0 0 0 36.218896060097904 29.706861650615792 0 29.706861650615792 16.000515280232321 0 0 0 0 164.81599680826184 -107.67206040103883 0 -107.67206040103883 -303.51113801317047 0 0 0 0 150.72383230946798 58.679224469529586 0 58.679224469529586 -72.359148463123347 0 0 0 0 110.92720947842781 44.649225134751127 0 44.649225134751127 -41.758607157121332 0 0 0 0 132.1484953174695 5.68658085060639 0 5.68658085060639 -26.339515850823318 0 0 0 0 127.26742188603384 31.544288516598499 0 31.544288516598499 -88.114237853137411 0 0 0 0 30.957033033595508 20.934541904342836 0 20.934541904342836 4.406634883231618 0 0 0 0 32.525691286940855 18.057809136658705 0 18.057809136658705 6.8854479892211202 0 0 0 0 42.839922622813901 31.416195464953262 0 31.416195464953262 -1.7481815453329546 0 0 0 0 0.21119009946927747 6.01291359105943 0 6.01291359105943 1.7121285844984673 0 0 0 0 86.642387368789059 -17.724909246951029 0 -17.724909246951029 -60.179208856906371 0 0 0 0 42.473612381319981 36.729591624214208 0 36.729591624214208 34.669142542722966 0 0 0 0 37.39272156066275 1.2192667204670062 0 1.2192667204670062 -5.2672579980737275 0 0 0 0 110.99614298985398 -36.781436629922382 0 -36.781436629922382 -45.315059746835686 0 0 0 0 35.006651019502897 -0.34327806268220229 0 -0.34327806268220229 -6.383963904470761 0 0 0 0 34.039659663324016 0.21604065015315665 0 0.21604065015315665 -2.0771926940841619 0 0 0 0 34.634037032294145 -2.5324997343187192 0 -2.5324997343187192 -9.2674233068773901 0 0 0 0 34.894264972148818 5.3927902897722859 0 5.3927902897722859 -1.9300380033830902 0 0 0 0 31.999049731435662 3.5937923825341613 0 3.5937923825341613 -5.4404591099828394 0 0 0 0 30.357046698700287 4.8574450893547692 0 4.8574450893547692 -2.7161457045697261 0 0 0 0 61.203419605939416 17.359513514547245 0 17.359513514547245 -155.19163675296363 0 0 0 0 27.685154094229802 -13.274935696884768 0 -13.274935696884768 -62.093036382698017 0 0 0 0 63.727732293278677 5.4122932924383349 0 5.4122932924383349 -109.36266771498344 0 0 0 0 26.550156152948489 0.43578818933365149 0 0.43578818933365149 -0.10932046661734263 0 0 0 0 10.196392365593056 67.250042238584342 0 67.250042238584342 -105.77892516563884 0 0 0 0 14.360364932672383 16.635490719969653 0 16.635490719969653 0.26560751214742595 0 0 0 0 9.5912050816874448 1.0536431441994836 0 1.0536431441994836 -3.7283184734610919 0 0 0 0 48.262358904066787 -23.010742271840229 0 -23.010742271840229 -49.865298393552905 0 0 0 0 -59.045615004950378 -115.16188280841578 0 -115.16188280841578 -114.90271506894783 0 0 0 0 41.590415363602858 -0.80082997444348969 0 -0.80082997444348969 -2.6841534558085498 0 0 0 0 83.845511245803209 16.173026212824652 0 16.173026212824652 -52.865854880255029 0 0 0 0 27.350629896571263 11.116825411433723 0 11.116825411433723 3.32183911562106 0 0 0 0 19.064116930955855 4.6964352231024122 0 4.6964352231024122 -4.1756315185404027 0 0 0 0 38.339408513114904 -27.542989364678306 0 -27.542989364678306 -35.256899204952674 0 0 0 0 22.276477927647647 -1.3056754589310913 0 -1.3056754589310913 -25.104386179640699 0 0 0 0 64.94998550049786 -3.5379976781214282 0 -3.5379976781214282 -90.106206601062127 0 0 0 0 55.273837354154239 -21.686566489190142 0 -21.686566489190142 -117.3049056594632 0 0 0 0 97.412975335028023 10.208699037222857 0 10.208699037222857 -159.02991485310872 0 0 0 0 257.48729701734555 74.873736467319077 0 74.873736467319077 -137.00977530806074 0 0 0 0 215.69283703548717 86.002486719131525 0 86.002486719131525 -61.139843348244085 0 0 0 0 343.85071484070068 145.78327338289535 0 145.78327338289535 -190.09599497591699 0 0 0 0 134.94327844127474 -84.674921882061085 0 -84.674921882061085 -253.63634477789265 0 0 0 0 -47.43579761195997 60.34828147610996 0 60.34828147610996 169.15305241968326 0 0 0 0 212.93093350988056 180.11967422643352 0 180.11967422643352 108.53126744286192 0 0 0 0 299.84077979584799 142.94886719245338 0 142.94886719245338 59.344279739403646 0 0 0 0 126.62053908123926 140.90834511073399 0 140.90834511073399 92.961551148162471 0 0 0 0 3.2262249279021944 0.5852707801732917 0 0.5852707801732917 -0.081697365047661341 0 0 0 0 206.42574275756488 2.338371788287759 0 2.338371788287759 -92.051888360910425 0 0 0 0 60.156046524709382 93.441694450507498 0 93.441694450507498 354.46890855606512 0 0 0 0 93.334006367025722 -72.06863339807353 0 -72.06863339807353 -129.08450921241933 0 0 0 0 172.30852894760756 240.8111653498687 0 240.8111653498687 167.53276177389716 0 0 0 0 290.20066462885006 86.528203526622747 0 86.528203526622747 -7.8290223762360256 0 0 0 0 86.743860155653238 -40.536464794783399 0 -40.536464794783399 67.176412640759736 0 0 0 0 89.463896953617223 -37.964985562717629 0 -37.964985562717629 34.449479966543549 0 0 0 0 66.673269875245751 -68.259357868777897 0 -68.259357868777897 90.462985182805369 0 0 0 0 165.57378986864933 -3.9109376823028015 0 -3.9109376823028015 78.702295217730125 0 0 0 0 11.775328381183002 0.34788579557965704 0 0.34788579557965704 -4.8042244544942427 0 0 0 0 166.04791601697616 -14.422446039468468 0 -14.422446039468468 294.90037180603258 0 0 0 0 218.72293978756807 175.70737517450314 0 175.70737517450314 33.65373582797929 0 0 0 0 215.60595277302491 153.29527684613731 0 153.29527684613731 83.223023057856608 0 0 0 0 201.49524969756021 123.33321711607778 0 123.33321711607778 -16.43488167075202 0 0 0 0 457.39686351557611 70.117769956431289 0 70.117769956431289 -6.9852119128800041 0 0 0 0 123.05613303765858 474.55372175146215 0 474.55372175146215 -279.61206072360369 0 0 0 0 127.68450241655228 -115.59702703919174 0 -115.59702703919174 184.62215916366176 0 0 0 0 13.83700170587376 -1.7897867790097592 0 -1.7897867790097592 -1.641069089565157 0 0 0 0 33.477094234501038 -23.386573693264893 0 -23.386573693264893 2.4997620203623585 0 0 0 0 80.189530351768553 -11.51448927387338 0 -11.51448927387338 9.4840855628103782 0 0 0 0 386.10075009606226 -281.1036982714237 0 -281.1036982714237 339.12907692615408 0 0 0 0 30.503635309754742 23.574516915793851 0 23.574516915793851 -2.9117483364936252 0 0 0 0 73.21729853368015 -44.273280713161171 0 -44.273280713161171 42.744088048771573 0 0 0 0 198.00771079186961 -52.599993341085337 0 -52.599993341085337 2.8528493270505351 0 0 0 0 -1.2769270811731985 -1.5426094912910884 0 -1.5426094912910884 79.808876335389868 0 0 0 0 -0.25118628105701646 13.090418995304503 0 13.090418995304503 88.953640695568197 0 0 0 0 14.540668098663446 36.400472134404339 0 36.400472134404339 37.349447458791872 0 0 0 0 93.443990371250038 366.47593284149684 0 366.47593284149684 115.3594458436296 0 0 0 0 8.972560129041085 37.876096629558276 0 37.876096629558276 96.912726585617975 0 0 0 0 48.788951076036028 -31.129337369458739 0 -31.129337369458739 169.44342314928562 0 0 0 0 4.2147112851455972 -2.0730590890609975 0 -2.0730590890609975 1.3627159278509411 0 0 0 0 285.73889858759867 -113.29432163990259 0 -113.29432163990259 123.68919748221788 0 0 0 0 2.5469920080067823 -20.26440236344456 0 -20.26440236344456 157.39559430348868 0 0 0 0 90.456807797498186 -38.560859835472257 0 -38.560859835472257 95.667404869624534 0 0 0 0 90.500611705254414 -40.272725011971943 0 -40.272725011971943 108.9175122662632 0 0 0 0 75.668247249806882 9.9958457612672191 0 9.9958457612672191 60.153858793451946 0 0 0 0 291.59214084999257 -10.267995904434429 0 -10.267995904434429 60.47673667078152 0 0 0 0 15.428435916241142 -33.72498695116019 0 -33.72498695116019 105.29108961650536 0 0 0 0 26.132973960797244 -46.251651682026477 0 -46.251651682026477 47.331990022127229 0 0 0 0 -2.0579198879640899 -22.366528140704588 0 -22.366528140704588 104.47999368204171 0 0 0 0 17.494110428724525 -54.067523257240367 0 -54.067523257240367 -0.55711457490497196 0 0 0 0 13.236442107119728 -45.743123826659286 0 -45.743123826659286 49.512168675602197 0 0 0 0 31.511779854736233 -99.212260261832967 0 -99.212260261832967 -46.884948398319466 0 0 0 0 10.123145645367913 -44.841564780824001 0 -44.841564780824001 66.252405562543743 0 0 0 0 110.02081688963517 -10.689134215203126 0 -10.689134215203126 56.072436573690993 0 0 0 0 -36.785609078577863 -153.31968430742219 0 -153.31968430742219 -82.788450521616141 0 0 0 0 85.183113774779486 -9.6851028205679768 0 -9.6851028205679768 -295.62504219645484 0 0 0 0 84.318979783267423 -22.762297762746414 0 -22.762297762746414 -120.7673049406244 0 0 0 0 53.51328664499033 -38.402606908523026 0 -38.402606908523026 -66.911928369197085 0 0 0 0 52.662611669838952 -31.349055837337346 0 -31.349055837337346 -108.61114441041559 0 0 0 0 45.792412713075464 -8.7378505688679979 0 -8.7378505688679979 -113.76330927294157 0 0 0 0 29.99979396755225 -0.80124476275705092 0 -0.80124476275705092 -111.33528502399702 0 0 0 0 32.12144235015694 -27.562511559632284 0 -27.562511559632284 -75.619843017349467 0 0 0 0 13.474769570879289 -17.292869096600839 0 -17.292869096600839 -43.499938865818649 0 0 0 0 7.0839580513529654 -35.870126515133336 0 -35.870126515133336 -94.664247784541203 0 0 0 0 -13.47250883057859 10.445583153855296 0 10.445583153855296 -100.45454702024426 0 0 0 0 28.260284483782016 -13.377478072171925 0 -13.377478072171925 -78.143098721589013 0 0 0 0 19.005360957715311 -28.350120897985562 0 -28.350120897985562 -53.019563944796118 0 0 0 0 40.48621161688061 -18.35258433525496 0 -18.35258433525496 -82.714181530911105 0 0 0 0 39.841499174755882 -32.364498468581132 0 -32.364498468581132 -55.216251175190337 0 0 0 0 29.996234193604323 -31.626496004329965 0 -31.626496004329965 -25.437406060159446 0 0 0 0 18.632261006801855 -33.492122793800036 0 -33.492122793800036 -27.792996506419513 0 0 0 0 24.823636472268845 -36.956873561168777 0 -36.956873561168777 -58.896233927473077 0 0 0 0 40.75149852130653 -24.447873063028538 0 -24.447873063028538 -24.393819580099262 0 0 0 0 43.172057817820132 -47.62594416970839 0 -47.62594416970839 -24.327784796852029 0 0 0 0 17.518337769564823 -34.492738438019387 0 -34.492738438019387 5.1074655591841065 0 0 0 0 18.123294114338933 -22.687177088849694 0 -22.687177088849694 5.892357209647912 0 0 0 0 20.839420466159936 -25.015209537010833 0 -25.015209537010833 -34.737639618614367 0 0 0 0 21.548864932720562 -41.000666078888813 0 -41.000666078888813 -24.562605509957848 0 0 0 0 210.82322674267562 -104.84885268911034 0 -104.84885268911034 -127.49934136363299 0 0 0 0 205.58040574105689 -102.45981665488108 0 -102.45981665488108 -54.310445826492014 0 0 0 0 87.898161784774857 -132.16468093170079 0 -132.16468093170079 24.603138903783019 0 0 0 0 127.82231427727675 -83.118574988516002 0 -83.118574988516002 -58.717053714021063 0 0 0 0 45.567087262243149 -60.098244890956494 0 -60.098244890956494 -17.398663658851774 0 0 0 0 113.74565858718415 -56.882240859805961 0 -56.882240859805961 -33.48469152213147 0 0 0 0 49.094247464032378 -42.879382777640785 0 -42.879382777640785 -34.367124620030154 0 0 0 0 43.405685229387018 -47.726550181355606 0 -47.726550181355606 -38.483228320443231 0 0 0 0 14.93967286797124 -24.759361019525386 0 -24.759361019525386 -38.773331352904279 0 0 0 0 61.20401299202058 -40.560699965277536 0 -40.560699965277536 -46.640208342717756 0 0 0 0 70.358662853337592 -27.853398930584262 0 -27.853398930584262 -12.305961437236419 0 0 0 0 74.61631363152992 -29.936846080288888 0 -29.936846080288888 -12.662507798826908 0 0 0 0 77.187269092013594 -44.318649655960598 0 -44.318649655960598 -18.344504672898893 0 0 0 0 117.69774570719164 -42.476616673897524 0 -42.476616673897524 -22.932766256002992 0 0 0 0 68.611142984509343 -59.027651064911751 0 -59.027651064911751 -28.09898296447318 0 0 0 0 124.96308719024091 -37.753564561873816 0 -37.753564561873816 -31.151103305483275 0 0 0 0 151.49941734453023 -42.023840595435786 0 -42.023840595435786 -60.58714570750908 0 0 0 0 191.24238141535898 -48.079438567261604 0 -48.079438567261604 -59.849811948905881 0 0 0 0 155.49541127796329 -32.739896132456721 0 -32.739896132456721 -19.548205714393816 0 0 0 0 144.24957057279244 -13.875654120653849 0 -13.875654120653849 -7.8401523754678237 0 0 0 0 144.2595414554271 -22.310158785591739 0 -22.310158785591739 -23.517325820714859 0 0 0 0 140.24465093265826 -28.594097191142964 0 -28.594097191142964 -19.78977810635638 0 0 0 0 121.39958761731395 -35.970283955210107 0 -35.970283955210107 -31.653868130830404 0 0 0 0 124.4849388947332 -28.041101639285444 0 -28.041101639285444 -16.560133717974509 0 0 0 0 88.38460054625466 -27.147126288886398 0 -27.147126288886398 -7.138970473215295 0 0 0 0 118.06339095182193 -8.1039638830549166 0 -8.1039638830549166 2.2561314234108067 0 0 0 0 116.30037730158983 -23.838273414103696 0 -23.838273414103696 -10.245012582818617 0 0 0 0 82.895274055475966 -10.698235314625919 0 -10.698235314625919 16.449436388524418 0 0 0 0 87.091740087547805 11.797712443727804 0 11.797712443727804 32.727841180525729 0 0 0 0 51.662046342142276 -10.809924567596624 0 -10.809924567596624 23.490296408745337 0 0 0 0 71.322356408214546 7.2089204428482958 0 7.2089204428482958 34.03607477684119 0 0 0 0 138.44989226663893 6.3834869658862203 0 6.3834869658862203 18.642089377408219 0 0 0 0 101.07219997173524 -12.197445550846822 0 -12.197445550846822 5.2852817963248526 0 0 0 0 190.98847550802748 6.2678807534820891 0 6.2678807534820891 -0.97283440835056467 0 0 0 0 146.73382192122517 -19.152068156670737 0 -19.152068156670737 -5.7428648199195322 0 0 0 0 133.78808859629498 12.029756221651553 0 12.029756221651553 16.718420122636985 0 0 0 0 23.491364706627792 -11.011800719769781 0 -11.011800719769781 42.062216684844259 0 0 0 0 -0.80621149943181081 -17.933635306696033 0 -17.933635306696033 51.008624773522342 0 0 0 0 5.0999686013528844 -27.54566920216223 0 -27.54566920216223 59.557560220528103 0 0 0 0 9.7498594059070456 -33.816523959786537 0 -33.816523959786537 13.559507339463607 0 0 0 0 16.765815222403035 -19.218475912547319 0 -19.218475912547319 40.727556673984964 0 0 0 0 27.31385164387757 -30.330515684921579 0 -30.330515684921579 6.7289484064253884 0 0 0 0 40.19725323640705 -13.293014721123853 0 -13.293014721123853 27.799202778174049 0 0 0 0 47.876318111113505 -31.1551817378961 0 -31.1551817378961 4.8419540340353251 0 0 0 0 21.84392793342704 -17.16318811341614 0 -17.16318811341614 28.915695212631363 0 0 0 0 50.655203206028091 2.2843761753251215 0 2.2843761753251215 41.527551098777508 0 0 0 0 40.264593774001696 2.0635418311691751 0 2.0635418311691751 43.858601168426958 0 0 0 0 20.762238267765497 -1.6991950843454333 0 -1.6991950843454333 47.458137176669709 0 0 0 0 4.8201146080973558 -9.3369777852401512 0 -9.3369777852401512 63.642285097268768 0 0 0 0 7.6286461703275563 3.4208829459616936 0 3.4208829459616936 61.741701365346657 0 0 0 0 19.134528926711937 3.9406653422242925 0 3.9406653422242925 48.525289936476725 0 0 0 0 3.0831696272362024 10.717137267783215 0 10.717137267783215 50.029988869773092 0 0 0 0 14.380729381126002 4.0419997501289799 0 4.0419997501289799 33.452958781728228 0 0 0 0 11.92021760471107 8.6116973458941857 0 8.6116973458941857 50.365416681244362 0 0 0 0 10.161945422587451 -2.9187077863300033 0 -2.9187077863300033 34.774150615860719 0 0 0 0 8.9976174524053931 1.8718203961985296 0 1.8718203961985296 27.268813834217937 0 0 0 0 18.472027346077084 -1.3237821950176603 0 -1.3237821950176603 20.569365554547993 0 0 0 0 17.905144556701998 -4.4313869341099412 0 -4.4313869341099412 38.86168257711531 0 0 0 0 12.788881159722223 3.0037031847230935 0 3.0037031847230935 48.920971010257517 0 0 0 0 21.906628858589102 0.8450030216141613 0 0.8450030216141613 35.443604327367069 0 0 0 0 21.301351990943658 0.5371573329358057 0 0.5371573329358057 52.62122116962226 0 0 0 0 44.976017451914231 16.413752405434437 0 16.413752405434437 60.746421711910898 0 0 0 0 33.951819840687676 6.2384166100688203 0 6.2384166100688203 51.981838510564174 0 0 0 0 31.451322043014443 -7.1526319577390751 0 -7.1526319577390751 37.189304694796533 0 0 0 0 25.386566615614356 -11.575409549782897 0 -11.575409549782897 19.595773338692048 0 0 0 0 24.611681730093551 -9.6828438686752634 0 -9.6828438686752634 43.86999198055851 0 0 0 0 31.046976639496279 -18.454589302862487 0 -18.454589302862487 9.9318441571133462 0 0 0 0 26.379587987757986 -16.295037505609791 0 -16.295037505609791 23.320221007782862 0 0 0 0 27.878730457421625 -19.412754785542234 0 -19.412754785542234 6.9191104679760258 0 0 0 0 22.284281256968825 -18.21298516950645 0 -18.21298516950645 51.230266723822552 0 0 0 0 26.672847433699644 -23.68917306247522 0 -23.68917306247522 18.308789044845639 0 0 0 0 23.483626840417855 -15.555969629078334 0 -15.555969629078334 9.4290766670210218 0 0 0 0 31.624154077711864 -7.1407898455694294 0 -7.1407898455694294 -11.375651124993283 0 0 0 0 20.814190373353853 -12.29822328166582 0 -12.29822328166582 8.564909256614742 0 0 0 0 68.03819584572193 -7.6263804682412228 0 -7.6263804682412228 21.837475901691505 0 0 0 0 101.43236711966165 23.827073878097508 0 23.827073878097508 21.279625445886268 0 0 0 0 94.731718565832125 51.732882778301246 0 51.732882778301246 68.951521191311258 0 0 0 0 43.068624041086878 -7.7439610059523147 0 -7.7439610059523147 77.844910241585239 0 0 0 0 27.747649966913741 18.554102150554627 0 18.554102150554627 126.25529973088487 0 0 0 0 95.002839052671334 77.554999414535359 0 77.554999414535359 78.948728100082008 0 0 0 0 27.827472363394918 -10.452858140943679 0 -10.452858140943679 2.8237620816457341 0 0 0 0 15.44286813645158 5.2982657016081198 0 5.2982657016081198 14.25146107241553 0 0 0 0 243.80200667422832 -99.312350430031131 0 -99.312350430031131 117.81362125701239 0 0 0 0 149.05463407452771 17.022655528096109 0 17.022655528096109 18.199593395105438 0 0 0 0 128.11511434766362 109.5411803431154 0 109.5411803431154 89.803493948278032 0 0 0 0 319.84224736389297 23.81956267501721 0 23.81956267501721 14.574974187008031 0 0 0 0 97.726202642632416 29.540482433507421 0 29.540482433507421 59.313040940603294 0 0 0 0 114.44788790067105 39.303841555302526 0 39.303841555302526 45.190600265904891 0 0 0 0 47.900567504751962 0.25932767401118628 0 0.25932767401118628 45.99556185607851 0 0 0 0 53.829947926220484 25.250033717754889 0 25.250033717754889 73.287765748265599 0 0 0 0 25.554833350463014 -32.227955169839703 0 -32.227955169839703 2.538929747792622 0 0 0 0 9.6569005836030897 -3.7489516869289474 0 -3.7489516869289474 4.5700355992352826 0 0 0 0 -85.212795009632828 -20.787055075835951 0 -20.787055075835951 140.71968424900149 0 0 0 0 -11.262366684939479 -12.139600227534068 0 -12.139600227534068 82.420712922141618 0 0 0 0 45.412755519679195 64.77422382252567 0 64.77422382252567 106.97254490522511 0 0 0 0 1.7360839703576971 0.5435704959462484 0 0.5435704959462484 0.26969596336930313 0 0 0 0 267.89908219772042 -116.07178105085063 0 -116.07178105085063 161.62220070902237 0 0 0 0 417.46836528616768 58.665236449498167 0 58.665236449498167 -24.237330312858148 0 0 0 0 465.36974965414265 38.701787291345909 0 38.701787291345909 -34.052256205820527 0 0 0 0 295.06302487186622 47.073606261773762 0 47.073606261773762 166.30937354710804 0 0 0 0 -135.62598395672103 -240.03573731297709 0 -240.03573731297709 388.24586727785817 0 0 0 0 870.97889687051793 413.88016566408396 0 413.88016566408396 59.943285952240558 0 0 0 0 294.66810222665663 134.1734518963824 0 134.1734518963824 -85.276682365009719 0 0 0 0 -2.5131984444038267 2.0051169769437323 0 2.0051169769437323 1.1595727689582229 0 0 0 0 -137.1177991795139 -205.4772333815676 0 -205.4772333815676 15.406421124217786 0 0 0 0 88.039507942952227 -42.836015333204443 0 -42.836015333204443 15.701600234128049 0 0 0 0 32.492387851627427 -62.633855274120151 0 -62.633855274120151 61.005356883617196 0 0 0 0 -1.5433198499983973 -18.559036396118984 0 -18.559036396118984 8.0147566135569157 0 0 0 0 49.484715945804055 -93.261362943243967 0 -93.261362943243967 -46.879028459717119 0 0 0 0 126.24995973052683 -52.977787288190029 0 -52.977787288190029 -34.938990572964485 0 0 0 0 76.691960622280561 -37.092509699933721 0 -37.092509699933721 10.318604337863993 0 0 0 0 302.24561089880444 -353.49913273846414 0 -353.49913273846414 -268.60505836318691 0 0 0 0 731.72559239231487 41.53338403698767 0 41.53338403698767 -253.99868325717958 0 0 0 0 139.16121810607001 28.876694484784821 0 28.876694484784821 4.2065061135035648 0 0 0 0 71.464676015253644 27.410858945951759 0 27.410858945951759 16.420498815463361 0 0 0 0 21.655506717806571 1.6297830577416192 0 1.6297830577416192 0.46542499735027576 0 0 0 0 14.146261972653519 21.703490727230115 0 21.703490727230115 -86.162205112399192 0 0 0 0 14.203652623167727 7.752436776754621 0 7.752436776754621 -12.378539332959917 0 0 0 0 47.012012252803288 15.707615013357037 0 15.707615013357037 -4.2238523645130126 0 0 0 0 43.521647414600352 0.81252762915273635 0 0.81252762915273635 -2.13127849455282 0 0 0 0 108.93966113620263 -23.2954975611583 0 -23.2954975611583 -15.012756579607185 0 0 0 0 119.54198390087582 13.460080595084698 0 13.460080595084698 -21.323808880428462 0 0 0 0 83.323485675675329 13.908663448281004 0 13.908663448281004 17.074658660209025 0 0 0 0 77.794200084521435 24.863638037418696 0 24.863638037418696 13.634393461423315 0 0 0 0 38.325300183816339 -7.3999206361783934 0 -7.3999206361783934 6.9797358065879687 0 0 0 0 81.143468279515218 25.252333284943688 0 25.252333284943688 4.1126211399123349 0 0 0 0 34.357427795373951 -12.064931816294575 0 -12.064931816294575 -0.23437704408297577 0 0 0 0 64.591395558241828 -10.237964631506475 0 -10.237964631506475 -0.31330071770574275 0 0 0 0 135.33612530025857 -16.311874857774455 0 -16.311874857774455 -18.951965440779986 0 0 0 0 81.533135589088488 19.190173429820334 0 19.190173429820334 3.118477732030442 0 0 0 0 46.13936592248568 -4.3666763866205969 0 -4.3666763866205969 7.9412875431443721 0 0 0 0 115.82761582961211 -27.532585412634944 0 -27.532585412634944 -12.966634036026335 0 0 0 0 146.58986853263013 -1.5667389764798827 0 -1.5667389764798827 -15.341446963033832 0 0 0 0 17.214345736968149 -0.0085406685022668682 0 -0.0085406685022668682 -7.7898223621957001 0 0 0 0 89.772442965317168 16.80055297825993 0 16.80055297825993 -4.9079575396563087 0 0 0 0 33.254463228047825 44.740889581598282 0 44.740889581598282 -76.921131626876488 0 0 0 0 58.190666749641494 6.8631857817261803 0 6.8631857817261803 -10.176659415805331 0 0 0 0 89.005938135220276 6.1975305689463767 0 6.1975305689463767 -6.0547071491810129 0 0 0 0 44.661840706945441 45.468106726397387 0 45.468106726397387 -80.94300417342636 0 0 0 0 27.713534040064502 -11.487911412365527 0 -11.487911412365527 -10.895245926322612 0 0 0 0 83.908634128241829 9.6989024524996807 0 9.6989024524996807 7.1375523475235241 0 0 0 0 76.975146688200766 32.891943742890135 0 32.891943742890135 13.768262700701598 0 0 0 0 35.654348968940809 20.620335129578201 0 20.620335129578201 -6.7377540558707487 0 0 0 0 2.311935477547749 -4.0170503136645586 0 -4.0170503136645586 -2.3750438652516235 0 0 0 0 2.0987862570327707 45.184847732200978 0 45.184847732200978 -63.081470862620222 0 0 0 0 78.512747938293614 31.908072855448154 0 31.908072855448154 -8.7384362799530209 0 0 0 0 3.4033394903646155 0.79148671962600048 0 0.79148671962600048 -0.50374526830521105 0 0 0 0 47.026654823486751 -42.123304501442362 0 -42.123304501442362 5.2660137409806396 0 0 0 0 81.625264260557742 17.256916139493285 0 17.256916139493285 1.1804149598426648 0 0 0 0 123.91119397926741 -59.543309897023811 0 -59.543309897023811 12.235705297997356 0 0 0 0 -21.815333704165823 82.285501391714419 0 82.285501391714419 29.086727118761928 0 0 0 0 67.741958350256027 31.064522900396582 0 31.064522900396582 -53.085437085817347 0 0 0 0 70.586085382332385 6.3300548111349713 0 6.3300548111349713 6.5772304107958917 0 0 0 0 56.401198432296951 -7.6400133342331173 0 -7.6400133342331173 -4.5482212300025822 0 0 0 0 76.51743564595381 4.9879230765749014 0 4.9879230765749014 13.087786564016824 0 0 0 0 67.477211931112834 -1.0614827716414084 0 -1.0614827716414084 12.101937415207203 0 0 0 0 68.187925011727202 28.659803863757134 0 28.659803863757134 20.665606903962733 0 0 0 0 57.594972340853928 15.300668814072367 0 15.300668814072367 6.1727692883031295 0 0 0 0 65.564357986469986 0.70514698291606237 0 0.70514698291606237 13.316866768525813 0 0 0 0 85.514868173831928 -10.157032373335142 0 -10.157032373335142 14.89145649302381 0 0 0 0 74.632557723500213 5.6727371602711401 0 5.6727371602711401 10.441537898070237 0 0 0 0 27.775113014768806 -19.803999194402898 0 -19.803999194402898 -3.9107766906114705 0 0 0 0 119.47931240974867 -33.368119875849288 0 -33.368119875849288 95.463590511403325 0 0 0 0 121.89078339732077 117.12105547516512 0 117.12105547516512 71.336959827395731 0 0 0 0 12.103651203723246 -7.4265523474813122 0 -7.4265523474813122 4.4556861254535836 0 0 0 0 14.291148357446218 -7.3404458603340359 0 -7.3404458603340359 16.489997769884042 0 0 0 0 155.32515551357938 99.343895450032051 0 99.343895450032051 35.129023684563435 0 0 0 0 21.512373213667161 10.798866353019207 0 10.798866353019207 9.6945631527264595 0 0 0 0 119.42391853162371 52.914208417820532 0 52.914208417820532 -15.181014451070951 0 0 0 0 112.63275303927367 88.382947947484354 0 88.382947947484354 72.193450223681793 0 0 0 0 101.1129299410095 86.489487831424412 0 86.489487831424412 85.089594810253857 0 0 0 0 110.22115227369068 83.15758336172712 0 83.15758336172712 63.928176662592705 0 0 0 0 69.871968221461429 28.885492615451767 0 28.885492615451767 38.661446183681619 0 0 0 0 65.445348825199403 -8.8785735439583782 0 -8.8785735439583782 -21.172407358893452 0 0 0 0 10.058227550674928 -14.077257695531671 0 -14.077257695531671 13.248328995706458 0 0 0 0 6.8737870398022665 -2.4137491844031658 0 -2.4137491844031658 -4.3076284385272325 0 0 0 0 4.2641981473825581 -6.981017304681302 0 -6.981017304681302 11.624125831839592 0 0 0 0 10.186959053578903 -2.7285067271703838 0 -2.7285067271703838 1.8397405834412197 0 0 0 0 13.756038534906111 -8.820352244577407 0 -8.820352244577407 2.5972024321765446 0 0 0 0 0.057900895808103314 0.91092463617655994 0 0.91092463617655994 1.1399718501850444 0 0 0 0 -4.7187088614064123 -11.006073496257244 0 -11.006073496257244 -2.7257728497152129 0 0 0 0 3.4209275339944725 -12.133432179354145 0 -12.133432179354145 24.582283426204235 0 0 0 0 26.852019489873783 -16.498209173141049 0 -16.498209173141049 -18.807080626600168 0 0 0 0 -5.6785322748255567 -17.101384642414942 0 -17.101384642414942 5.3335281740453269 0 0 0 0 -6.9273130293659051 -54.635869186306749 0 -54.635869186306749 -44.176229727077214 0 0 0 0 6.4147919616807485 -42.649493354853405 0 -42.649493354853405 -39.388559745548378 0 0 0 0 -193.70588657839107 59.561357556831297 0 59.561357556831297 43.50305122998509 0 0 0 0 1.3756615882946193 -0.97278110020683073 0 -0.97278110020683073 -0.77256330752885338 0 0 0 0 14.401614320420776 114.45508767990501 0 114.45508767990501 -18.676765200624949 0 0 0 0 -74.059994382681907 -112.47151960562178 0 -112.47151960562178 -24.756166560354842 0 0 0 0 -105.67454913665279 -9.2484677912585198 0 -9.2484677912585198 -15.70255805357624 0 0 0 0 15.436288091295864 31.305735454017736 0 31.305735454017736 -8.1380803602634728 0 0 0 0 17.397926580455533 41.038777458568404 0 41.038777458568404 32.23560088681279 0 0 0 0 -31.795403083371639 72.058792638227189 0 72.058792638227189 279.70386887365839 0 0 0 0 -123.81386822581408 6.3595344499245812 0 6.3595344499245812 71.235524107517222 0 0 0 0 -56.141568619612372 -22.126644927764573 0 -22.126644927764573 47.448470486504789 0 0 0 0 -200.87027903590933 36.62710444330753 0 36.62710444330753 -6.1986095452466543 0 0 0 0 -134.64565326372394 0.89510570165930403 0 0.89510570165930403 -45.466578099021831 0 0 0 0 1.0360811105113044 -0.88422772764295843 0 -0.88422772764295843 -0.37279404374149427 0 0 0 0 -127.11502967712295 41.680048269134033 0 41.680048269134033 -9.0660042416611759 0 0 0 0 -121.68934247276047 40.270228775054193 0 40.270228775054193 -39.065189210022254 0 0 0 0 -160.52219720359426 -24.453572944504231 0 -24.453572944504231 56.492814000943554 0 0 0 0 -118.36224308882083 -30.918973116453117 0 -30.918973116453117 43.3144980044504 0 0 0 0 -135.67188159067882 22.004014948798158 0 22.004014948798158 37.940223768815486 0 0 0 0 -155.69448823577841 -34.67193099724517 0 -34.67193099724517 1.191621384262362 0 0 0 0 -220.48467387507844 79.674026357618459 0 79.674026357618459 2.3223824608257928 0 0 0 0 -94.639416686193726 -14.916579773157508 0 -14.916579773157508 25.671016800029292 0 0 0 0 -124.37668943101016 -26.545633371501935 0 -26.545633371501935 44.9297853463396 0 0 0 0 -121.91384503560403 -29.49180830293156 0 -29.49180830293156 119.69099355000856 0 0 0 0 -97.258516464353306 -70.795571763552289 0 -70.795571763552289 13.516581734494707 0 0 0 0 -84.710103931010963 -50.132244724430535 0 -50.132244724430535 30.7580738986195 0 0 0 0 -44.958819168081391 -185.7057766840407 0 -185.7057766840407 279.73102264611407 0 0 0 0 -101.82326328594354 -110.3218416456491 0 -110.3218416456491 89.33564784779378 0 0 0 0 -50.635088889568578 -88.501038996034595 0 -88.501038996034595 -2.817062162738921 0 0 0 0 -116.05928068851063 -48.561515846164866 0 -48.561515846164866 -7.7621207451370822 0 0 0 0 3.4399433224630229 -3.6277591053077733 0 -3.6277591053077733 0.50916006851457862 0 0 0 0 -29.304264784208499 -68.915657118710158 0 -68.915657118710158 -79.295482840029308 0 0 0 0 -98.391620476577373 -100.30825996926912 0 -100.30825996926912 -2.7963750698700096 0 0 0 0 5.9988396931330499 -7.9711563516366706 0 -7.9711563516366706 4.347328776980186 0 0 0 0 9.5104660756041994 -23.50881512612608 0 -23.50881512612608 -35.180029849284097 0 0 0 0 -0.25175586671019801 -5.3348152719583055 0 -5.3348152719583055 2.4786669631194544 0 0 0 0 9.9965749521106773 -10.026344171089761 0 -10.026344171089761 7.8733850778788792 0 0 0 0 -2.145851485988004 -3.6949598203103164 0 -3.6949598203103164 4.3178540996689661 0 0 0 0 11.336013250118413 -7.7411070418447903 0 -7.7411070418447903 3.6755507431719661 0 0 0 0 9.9575394660278107 -10.21343662393781 0 -10.21343662393781 4.6055973761910423 0 0 0 0 9.1249079174813232 -10.427363389336847 0 -10.427363389336847 9.9091007131216884 0 0 0 0 3.4305410991562297 -0.74993384543869013 0 -0.74993384543869013 2.1439671451006266 0 0 0 0 7.4381464299577829 -3.1550220738894765 0 -3.1550220738894765 -3.6619693313574624 0 0 0 0 10.295233981807542 -9.842431233162614 0 -9.842431233162614 2.4745855670587389 0 0 0 0 13.517591970180575 -6.2444472201411125 0 -6.2444472201411125 0.25699821708632486 0 0 0 0 11.982664988361648 -8.7313483722576564 0 -8.7313483722576564 3.1467091123222133 0 0 0 0 3.2057923922834597 -6.8576410092244089 0 -6.8576410092244089 5.8145940718173383 0 0 0 0 15.783189765592255 -1.0816873481753504 0 -1.0816873481753504 -5.182446997181076 0 0 0 0 27.612558351138432 -12.586535021176132 0 -12.586535021176132 3.3056437154785954 0 0 0 0 50.04389526367595 -33.017884987027628 0 -33.017884987027628 17.5005626562413 0 0 0 0 0.27541581032645013 -1.3443388056864318 0 -1.3443388056864318 1.1673608443182477 0 0 0 0 13.978017710989093 -3.7267294443569554 0 -3.7267294443569554 -4.5714814999048476 0 0 0 0 5.0083082465607731 4.8730211409588264 0 4.8730211409588264 6.8094688184462484 0 0 0 0 29.386576148011955 6.8219325087204652 0 6.8219325087204652 -23.677715680912684 0 0 0 0 17.65313909437009 -10.444190018340542 0 -10.444190018340542 -9.6276537805463249 0 0 0 0 41.099741806508973 7.3352882745629699 0 7.3352882745629699 3.1871301962108873 0 0 0 0 11.904286865945323 -4.9703675258292606 0 -4.9703675258292606 -0.36321938609859217 0 0 0 0 14.01430481899979 19.20945927997542 0 19.20945927997542 -13.208732730707879 0 0 0 0 533.42371623091458 455.45266957888924 0 455.45266957888924 273.87111159037863 0 0 0 0 14.863396232773084 20.330440298009307 0 20.330440298009307 192.13161184172009 0 0 0 0 227.84665247753583 194.99142923919135 0 194.99142923919135 -9.6411505895280243 0 0 0 0 31.68267201911658 27.645476080959725 0 27.645476080959725 -24.181876772088572 0 0 0 0 24.283034071260772 -27.237936065456779 0 -27.237936065456779 -58.788200901634127 0 0 0 0 190.86624973239668 243.28210558919784 0 243.28210558919784 69.664388394485741 0 0 0 0 15.578496213108238 -10.373900938371449 0 -10.373900938371449 3.8465269660573878 0 0 0 0 29.40486660116585 -16.115504323578364 0 -16.115504323578364 51.038333235457117 0 0 0 0 50.623583097432856 -14.58265274495966 0 -14.58265274495966 2.1747065934564489 0 0 0 0 -46.819917297412758 -1.2596781348527202 0 -1.2596781348527202 54.992765191897433 0 0 0 0 35.299858070467963 -75.791229266927502 0 -75.791229266927502 94.644519507381119 0 0 0 0 129.30534745198383 -85.336890292178623 0 -85.336890292178623 44.655006388214872 0 0 0 0 206.87493837168586 -418.99655637647271 0 -418.99655637647271 190.67008622384742 0 0 0 0 168.51257564715343 -193.38354146859456 0 -193.38354146859456 -78.956801278441162 0 0 0 0 408.17803122602345 -103.68092302931143 0 -103.68092302931143 -51.393136356021671 0 0 0 0 15.887700773397228 -126.84661627863647 0 -126.84661627863647 165.86714258673646 0 0 0 0 5.5352265869772168 -2.8581122182570411 0 -2.8581122182570411 1.8439040671094871 0 0 0 0 222.73801076682139 -67.372722618973256 0 -67.372722618973256 55.144855564255977 0 0 0 0 182.04016136477003 -45.6784922629069 0 -45.6784922629069 57.711965900099813 0 0 0 0 161.73056127822201 -71.116680992334295 0 -71.116680992334295 41.884572265830968 0 0 0 0 160.97449828931713 -29.385539801952177 0 -29.385539801952177 93.824511655515607 0 0 0 0 143.3893304822268 -58.048228630776265 0 -58.048228630776265 61.070001673925049 0 0 0 0 89.623155458670226 -62.482064892976766 0 -62.482064892976766 90.703848823412471 0 0 0 0 84.944750447837578 -29.564510839525667 0 -29.564510839525667 36.987042540471975 0 0 0 0 74.753776648809435 -46.389230279131539 0 -46.389230279131539 72.872294177842491 0 0 0 0 51.139096310129389 -38.252950155696311 0 -38.252950155696311 67.173041828648081 0 0 0 0 89.239271570520941 -45.944362961100332 0 -45.944362961100332 47.598007123180125 0 0 0 0 68.945263408829305 -55.885290043745492 0 -55.885290043745492 65.369196745637424 0 0 0 0 113.45372887953454 -71.654762040466011 0 -71.654762040466011 61.922853198968895 0 0 0 0 110.34674851641466 -60.489634376107716 0 -60.489634376107716 38.774602115503214 0 0 0 0 150.68481599126244 -89.0177161661056 0 -89.0177161661056 108.30066662804086 0 0 0 0 142.93429539425415 -66.14733818470792 0 -66.14733818470792 51.88401041906188 0 0 0 0 167.31762109517877 -66.962123915107099 0 -66.962123915107099 22.658578376487981 0 0 0 0 160.86848454848223 -53.039968314372572 0 -53.039968314372572 34.393852118784935 0 0 0 0 226.99174021581712 -61.337478533364227 0 -61.337478533364227 33.998768951878617 0 0 0 0 -7.2579093605454545 6.1879584522021673 0 6.1879584522021673 11.796261436516033 0 0 0 0 16.656531270222331 0.14933777090249123 0 0.14933777090249123 0.11272605606191632 0 0 0 0 29.805401735779014 -23.465778795008362 0 -23.465778795008362 29.274146140274866 0 0 0 0 20.774298133619595 4.6651607507581616 0 4.6651607507581616 9.8996358552570882 0 0 0 0 51.809102829473204 -19.847313932725108 0 -19.847313932725108 29.68463872543191 0 0 0 0 28.206095476052724 -21.091515821565451 0 -21.091515821565451 38.353020348278562 0 0 0 0 43.78959220967954 -39.779847941072518 0 -39.779847941072518 52.144159217987578 0 0 0 0 39.430427115932616 -21.17140283122788 0 -21.17140283122788 24.289729130869318 0 0 0 0 38.232897564244922 -37.59117085141898 0 -37.59117085141898 39.825456750060198 0 0 0 0 67.50210219749988 -40.860079541304771 0 -40.860079541304771 35.002326785591492 0 0 0 0 56.36611176286533 -50.350010557237113 0 -50.350010557237113 48.669321330469415 0 0 0 0 57.058881253396976 -40.512476689891912 0 -40.512476689891912 29.45448172103886 0 0 0 0 31.753657818990177 -14.757143450332592 0 -14.757143450332592 8.3294661101481893 0 0 0 0 49.073277163362945 -38.259870997941675 0 -38.259870997941675 24.88629023079028 0 0 0 0 20.055334713542834 -23.920472924449975 0 -23.920472924449975 16.383754766952553 0 0 0 0 34.46332164620253 -18.255148767301677 0 -18.255148767301677 16.789274877214645 0 0 0 0 58.845600943990576 -42.154854244545334 0 -42.154854244545334 22.587650557132577 0 0 0 0 46.116005574425799 -39.974983972470341 0 -39.974983972470341 45.908395174973293 0 0 0 0 47.766520587741979 -44.869527856420405 0 -44.869527856420405 37.093799017463766 0 0 0 0 63.909580278763315 -46.294439748209925 0 -46.294439748209925 32.625615172238383 0 0 0 0 43.787583521865599 -40.707990211970895 0 -40.707990211970895 38.138172070678479 0 0 0 0 84.284554747267975 -52.648555823730078 0 -52.648555823730078 33.196987941439772 0 0 0 0 64.034850176162308 -49.984387305250543 0 -49.984387305250543 36.513647943428282 0 0 0 0 93.685683502306347 -48.359140635214771 0 -48.359140635214771 27.028557658915361 0 0 0 0 68.477616942545865 -41.227281958521942 0 -41.227281958521942 36.234637517884039 0 0 0 0 68.125329419409354 -37.357875049945918 0 -37.357875049945918 22.973492779392018 0 0 0 0 53.653734073093801 -32.589754755253011 0 -32.589754755253011 31.233084182150606 0 0 0 0 53.00838793272851 -31.384071182420342 0 -31.384071182420342 33.382768267513711 0 0 0 0 46.926288042908709 -33.541919055277731 0 -33.541919055277731 43.92178192917774 0 0 0 0 193.68938169748571 -53.303340581653202 0 -53.303340581653202 2.9844259662432933 0 0 0 0 152.29860672834184 -52.558162273565131 0 -52.558162273565131 1.6496150065477195 0 0 0 0 150.32675443639891 -29.662869074341188 0 -29.662869074341188 -9.5416324255954805 0 0 0 0 123.98126538729412 -51.513374749740535 0 -51.513374749740535 18.66675431460817 0 0 0 0 124.94280346018604 -60.088982629245223 0 -60.088982629245223 23.0290430131314 0 0 0 0 85.211294117601938 -59.344868189939973 0 -59.344868189939973 43.101502826710089 0 0 0 0 93.609006848069839 -47.111022611979479 0 -47.111022611979479 18.197175421035581 0 0 0 0 93.687702531911782 -26.802696838410611 0 -26.802696838410611 1.8770205952612287 0 0 0 0 94.819680834807514 -32.364521290938683 0 -32.364521290938683 19.417582065254237 0 0 0 0 124.45145104934636 -43.168372170489192 0 -43.168372170489192 10.499771013561713 0 0 0 0 125.25101727712035 -32.688248835702794 0 -32.688248835702794 -12.905477240239861 0 0 0 0 138.72698688064702 -28.997722044283819 0 -28.997722044283819 -12.134631384706154 0 0 0 0 144.17886791798082 -22.676258890564554 0 -22.676258890564554 -37.778808390229869 0 0 0 0 173.35255032261193 -8.5025822378856901 0 -8.5025822378856901 -58.0478563818358 0 0 0 0 157.00643462553307 -24.091185419249427 0 -24.091185419249427 -40.266738461659543 0 0 0 0 148.31666192912962 21.967569697283921 0 21.967569697283921 -46.982438918293155 0 0 0 0 120.47151032462716 -0.36525297011166913 0 -0.36525297011166913 -16.538168659282974 0 0 0 0 123.98335804929957 -17.749340746352686 0 -17.749340746352686 -12.343008843805592 0 0 0 0 91.837576774325498 15.161769369063222 0 15.161769369063222 5.0059793915070259 0 0 0 0 48.392391937992215 24.454201725618987 0 24.454201725618987 4.3403083566013265 0 0 0 0 103.92663066890236 77.079066722139032 0 77.079066722139032 47.814675044567593 0 0 0 0 130.91543891659239 71.711429792011131 0 71.711429792011131 -53.239315332287333 0 0 0 0 220.24157381574332 116.75565836184683 0 116.75565836184683 -212.24833173959189 0 0 0 0 323.31342188920826 -31.498307635481524 0 -31.498307635481524 -101.49712429944839 0 0 0 0 178.98637791192596 -23.376574616000312 0 -23.376574616000312 -101.14121267439441 0 0 0 0 51.756744983504177 -28.722732710103628 0 -28.722732710103628 23.500382951348911 0 0 0 0 51.575731772392828 -29.843138135295007 0 -29.843138135295007 24.539433688180452 0 0 0 0 50.710564794120728 -32.117653548647525 0 -32.117653548647525 33.282961595691177 0 0 0 0 69.641238059688476 -31.136110673372855 0 -31.136110673372855 27.862097152537672 0 0 0 0 54.780281555031252 -23.152376336205521 0 -23.152376336205521 25.494623450390918 0 0 0 0 68.28207271338033 -18.969508876983127 0 -18.969508876983127 13.738256187399884 0 0 0 0 78.405607797496486 -14.800598120060158 0 -14.800598120060158 15.400536747576098 0 0 0 0 58.366522964028263 6.7393463628575319 0 6.7393463628575319 26.301028293136369 0 0 0 0 37.151007994856627 -24.655804418314801 0 -24.655804418314801 25.485933656554948 0 0 0 0 49.65296520839911 -1.4819128511181816 0 -1.4819128511181816 18.911499591209576 0 0 0 0 55.856165945457178 -32.271824001621553 0 -32.271824001621553 14.992104557366929 0 0 0 0 47.234061755279981 -33.797579880653643 0 -33.797579880653643 18.150479140180323 0 0 0 0 58.431775455464958 -25.675787917879688 0 -25.675787917879688 16.758618923737799 0 0 0 0 35.889750931368326 -7.3830791861054195 0 -7.3830791861054195 25.096338635259144 0 0 0 0 6.2778657825037953 -20.10792608156703 0 -20.10792608156703 29.932749286516412 0 0 0 0 -1.8381112318893429 -2.6089079818834762 0 -2.6089079818834762 43.614785280095703 0 0 0 0 13.781422459296664 -11.225959209281882 0 -11.225959209281882 25.531713952730342 0 0 0 0 44.961571995299892 -22.054370248384203 0 -22.054370248384203 15.919147835408467 0 0 0 0 24.136475026360131 -31.06659634269181 0 -31.06659634269181 33.922796628733295 0 0 0 0 43.962994632039226 -36.559749086620464 0 -36.559749086620464 33.580440245874343 0 0 0 0 43.22486234785174 -22.781228995161086 0 -22.781228995161086 34.990231840354909 0 0 0 0 46.834582718813181 -33.368156885364954 0 -33.368156885364954 43.993104786513868 0 0 0 0 40.480294466149644 -31.336904699165984 0 -31.336904699165984 66.139069987718585 0 0 0 0 50.288055129822169 -28.403586262893441 0 -28.403586262893441 38.192397868032003 0 0 0 0 -29.304523813232549 6.1684278375325645 0 6.1684278375325645 40.851557363254869 0 0 0 0 0.085075297494768165 15.657731991495098 0 15.657731991495098 43.911733111880039 0 0 0 0 -28.58177398222324 -73.950989185483763 0 -73.950989185483763 70.681040517134079 0 0 0 0 -48.172177186039335 -3.857168186120802 0 -3.857168186120802 15.549709151915721 0 0 0 0 -46.328332326524105 -17.765153757812335 0 -17.765153757812335 69.887589950142797 0 0 0 0 -0.9978145749291798 -0.15211356465547254 0 -0.15211356465547254 0.53137215124510706 0 0 0 0 -42.01880932073982 -54.648774903589619 0 -54.648774903589619 56.184318252983815 0 0 0 0 -33.414809459576645 12.076595756081389 0 12.076595756081389 25.3886162138283 0 0 0 0 65.691290090653638 -54.886908720978397 0 -54.886908720978397 45.099417956393609 0 0 0 0 0.21615323801192687 0.51151637817869755 0 0.51151637817869755 0.36677166437784581 0 0 0 0 -0.85001801749109518 -0.055458743145997857 0 -0.055458743145997857 0.42269060861327434 0 0 0 0 7.7376584818121046 10.813697390068342 0 10.813697390068342 26.676168791228292 0 0 0 0 5.7796437977085588 8.068422467626533 0 8.068422467626533 23.843955152731382 0 0 0 0 8.5205366576337838 2.0755257183662934 0 2.0755257183662934 26.722456043033674 0 0 0 0 11.534719529023278 -5.0403880576781148 0 -5.0403880576781148 15.618017875013834 0 0 0 0 4.5373230995210179 -14.585855512893374 0 -14.585855512893374 13.104691344024332 0 0 0 0 -2.2398086332104867 -7.3067041853779529 0 -7.3067041853779529 19.326610664479404 0 0 0 0 2.5246746223297123 -2.8664497625726213 0 -2.8664497625726213 0.55109626231987008 0 0 0 0 -5.2708692464584601 -17.455506076468509 0 -17.455506076468509 15.596665538249113 0 0 0 0 20.993237649787147 -13.980688108839786 0 -13.980688108839786 2.7083595689903506 0 0 0 0 52.008936236095906 10.370484358164049 0 10.370484358164049 13.062024702519196 0 0 0 0 34.547600230136595 -6.4035457281496519 0 -6.4035457281496519 10.078276726023432 0 0 0 0 56.062988095734909 7.8733852828676163 0 7.8733852828676163 -18.297807809616188 0 0 0 0 12.106497712942655 -25.582409064850253 0 -25.582409064850253 -14.076804368315152 0 0 0 0 -6.0949375235941261 -33.670684930621746 0 -33.670684930621746 3.0083597927632582 0 0 0 0 17.009541078961064 -14.871435492745931 0 -14.871435492745931 1.3400816299370444 0 0 0 0 11.17269027463044 -32.628021916446187 0 -32.628021916446187 0.19490847165047853 0 0 0 0 17.994629527631332 -34.682111130446856 0 -34.682111130446856 34.139997737354236 0 0 0 0 14.792357069938589 -21.631532717961534 0 -21.631532717961534 -1.1747845437589604 0 0 0 0 48.600232212826086 -42.203238169908673 0 -42.203238169908673 -4.2184525290954298 0 0 0 0 29.370087375887522 -23.234806669121284 0 -23.234806669121284 -22.923518389571655 0 0 0 0 16.132957455716678 -35.125104365431525 0 -35.125104365431525 7.3732977724043849 0 0 0 0 29.282025545879151 -34.964665060958396 0 -34.964665060958396 -15.940740479581109 0 0 0 0 18.1282386353123 -27.461266912327119 0 -27.461266912327119 -18.143888050419491 0 0 0 0 16.801783417218758 -30.27583563653792 0 -30.27583563653792 -22.614605223425315 0 0 0 0 3.3303044051043358 -2.8746952621734749 0 -2.8746952621734749 -2.0434614691531205 0 0 0 0 21.089636158962094 -28.405758014253024 0 -28.405758014253024 -24.847782708571685 0 0 0 0 20.86860203660035 -29.883426291275555 0 -29.883426291275555 -28.148285216503609 0 0 0 0 40.938161352431052 -17.733847320580935 0 -17.733847320580935 -48.939631747436124 0 0 0 0 17.912226947593808 -19.30765287377227 0 -19.30765287377227 -22.054581333817623 0 0 0 0 1.2294406382134184 -29.317405180985588 0 -29.317405180985588 -26.75075034895417 0 0 0 0 15.271048558853153 -6.0073690321835187 0 -6.0073690321835187 -9.7310048648703074 0 0 0 0 25.217598967057711 -15.42197760775521 0 -15.42197760775521 -15.090529691385214 0 0 0 0 10.899471151808569 -10.188192996867764 0 -10.188192996867764 -0.99137707818391108 0 0 0 0 20.840580292540835 -13.447732476849978 0 -13.447732476849978 -15.77003905889751 0 0 0 0 29.895593704655766 -1.0561823514653383 0 -1.0561823514653383 -6.465861576617888 0 0 0 0 11.729754975251453 -1.9600247543136788 0 -1.9600247543136788 -8.1944211624868721 0 0 0 0 42.789610615516722 4.9336227440846869 0 4.9336227440846869 -62.499703751499055 0 0 0 0 24.772167345131578 -6.384973983217848 0 -6.384973983217848 -8.9488584689027171 0 0 0 0 32.971979071153328 -11.280015707387065 0 -11.280015707387065 -20.20783985932303 0 0 0 0 -55.752821064954333 20.620298529756383 0 20.620298529756383 69.434910223811585 0 0 0 0 1.2624079038180014 -4.9060266708413858 0 -4.9060266708413858 0.079004645277778618 0 0 0 0 19.274354891517731 -9.6058882425651646 0 -9.6058882425651646 4.3248533706310406 0 0 0 0 100.41607561542696 -117.78167322243621 0 -117.78167322243621 -61.532824962349423 0 0 0 0 -26.146801731330925 -155.27189328567692 0 -155.27189328567692 -179.04764592931002 0 0 0 0 32.386190834196896 27.19333522930026 0 27.19333522930026 -30.394681813715579 0 0 0 0 70.741427350316371 -7.5574957782207548 0 -7.5574957782207548 -17.880475157386819 0 0 0 0 20.281439167934877 -29.910551739699713 0 -29.910551739699713 -12.10263554443668 0 0 0 0 19.737291642932689 -13.321559878866552 0 -13.321559878866552 0.2749400391869905 0 0 0 0 30.089449229286402 -45.131464990187169 0 -45.131464990187169 22.178946229344092 0 0 0 0 302.2762146662717 23.560571601350148 0 23.560571601350148 -147.77640276259649 0 0 0 0 508.0487047303468 197.58083286518831 0 197.58083286518831 -98.142459960191673 0 0 0 0 437.13065731570532 90.81846983774949 0 90.81846983774949 -199.27269659035892 0 0 0 0 16.906003309381049 6.8892606093243387 0 6.8892606093243387 12.618300289922445 0 0 0 0 315.01761819689273 -36.641266038304423 0 -36.641266038304423 561.47293788155457 0 0 0 0 -0.022969699510667851 0.79051644704756541 0 0.79051644704756541 -1.8202570974075325 0 0 0 0 471.35421119554667 -249.18806831824918 0 -249.18806831824918 -60.365315305886952 0 0 0 0 640.3007194231177 3.4694955271631898 0 3.4694955271631898 -308.34715219690884 0 0 0 0 18.903948506966117 26.339941150138202 0 26.339941150138202 55.775824878274534 0 0 0 0 38.931566024817585 11.654290964522147 0 11.654290964522147 5.4755042980086728 0 0 0 0 7.6647102232091129 1.3861894941119317 0 1.3861894941119317 7.661911928508971 0 0 0 0 27.116214621215477 10.688222626680499 0 10.688222626680499 -13.223112850972939 0 0 0 0 -2.3834726463028346 0.1241708538182138 0 0.1241708538182138 -8.5074464448524623 0 0 0 0 24.682897212412172 23.822839761181342 0 23.822839761181342 0.12695840101378053 0 0 0 0 -2.699770692299353 -38.309697140740809 0 -38.309697140740809 -38.671888444797048 0 0 0 0 21.890472844246688 -10.058471091644947 0 -10.058471091644947 -36.432593128200551 0 0 0 0 0.42809519093174231 -0.73954897120265173 0 -0.73954897120265173 0.9229392765065727 0 0 0 0 11.852912898393697 -7.6390102939121789 0 -7.6390102939121789 29.373676523321194 0 0 0 0 8.3357246498781024 7.0460393592047694 0 7.0460393592047694 1.7104916780681378 0 0 0 0 0.045194383287594064 -0.35619608956587001 0 -0.35619608956587001 0.47443393304858894 0 0 0 0 -5.9405230609481805 -52.867097631885372 0 -52.867097631885372 10.47592020651814 0 0 0 0 20.173211969697149 -11.929784649942803 0 -11.929784649942803 -17.988710739739872 0 0 0 0 72.033624750101808 23.3276148003537 0 23.3276148003537 5.7074207729028785 0 0 0 0 -7.8490195014965138 -4.3642443090882352 0 -4.3642443090882352 -19.06192234846867 0 0 0 0 10.056244841929583 -18.142738855015182 0 -18.142738855015182 -9.5134160672697021 0 0 0 0 4.5657704442055547 -20.777453435350822 0 -20.777453435350822 9.2049192739934931 0 0 0 0 9.7847285455864039 -18.107852088738596 0 -18.107852088738596 7.1546736217020452 0 0 0 0 28.866928669900517 -1.5629022272337352 0 -1.5629022272337352 -49.419035877585884 0 0 0 0 9.3400133827761636 -9.0152660932236728 0 -9.0152660932236728 -0.67292065170444126 0 0 0 0 -5.5743190020730253 -12.865172525303933 0 -12.865172525303933 -10.108414173993879 0 0 0 0 7.5687807950674255 -9.488494562342197 0 -9.488494562342197 0.74162038199244296 0 0 0 0 17.13372243424601 4.9756074791093852 0 4.9756074791093852 -26.297337081497517 0 0 0 0 20.135755613300717 -8.4660069581432253 0 -8.4660069581432253 -28.841601475740163 0 0 0 0 2.2474518974813407 -0.99147156227538602 0 -0.99147156227538602 -2.0646435593532022 0 0 0 0 3.7067171186281485 1.3789650230920927 0 1.3789650230920927 17.797309605197711 0 0 0 0 -0.33248461229231907 -4.8384841492957946 0 -4.8384841492957946 22.087286024794139 0 0 0 0 5.7381430425302824 -8.1708479277506285 0 -8.1708479277506285 23.843342642854623 0 0 0 0 -13.764234753674828 -12.351385058016092 0 -12.351385058016092 19.105122845765365 0 0 0 0 1.7178418436954193 -2.5278854836463722 0 -2.5278854836463722 4.20035489296869 0 0 0 0 14.538023858920496 -2.3860648290472 0 -2.3860648290472 13.879673180098962 0 0 0 0 13.185402599454392 -4.160260042189293 0 -4.160260042189293 11.55289043420089 0 0 0 0 35.947119896925869 -64.641858687876407 0 -64.641858687876407 115.34567680334732 0 0 0 0 2.2252008907518928 -1.1616335286011719 0 -1.1616335286011719 -1.0400870153499864 0 0 0 0 403.37059051682445 188.92597138570176 0 188.92597138570176 91.12203985627275 0 0 0 0 278.02427389648801 117.23536179575331 0 117.23536179575331 54.180753390975497 0 0 0 0 1.9404089105154014 0.29057056947469562 0 0.29057056947469562 -7.191509363548672 0 0 0 0 218.16318847262937 44.500352644109768 0 44.500352644109768 -28.205081351159151 0 0 0 0 20.082579330191948 4.2899203056472288 0 4.2899203056472288 -13.714766850047454 0 0 0 0 11.048005362409981 -11.278775048675215 0 -11.278775048675215 -2.2163318460834365 0 0 0 0 213.1603936966967 -149.47618342026399 0 -149.47618342026399 -260.98485385802616 0 0 0 0 23.456329579687917 33.010352403683299 0 33.010352403683299 44.388663167482861 0 0 0 0 0.17295678294170713 0.31926771734950421 0 0.31926771734950421 1.7701025784044018 0 0 0 0 343.19882435838372 -148.21995282441964 0 -148.21995282441964 35.216063122939701 0 0 0 0 -42.512489240412833 -61.258308435842821 0 -61.258308435842821 131.54805440234321 0 0 0 0 -35.272012181822902 -115.88185749896519 0 -115.88185749896519 -74.574825275336224 0 0 0 0 52.500094832406518 -10.278733487507083 0 -10.278733487507083 0.27769064887503969 0 0 0 0 0.14304388685559388 -24.249013966222179 0 -24.249013966222179 4.590382003902846 0 0 0 0 7.9264472504728474 -29.377684830300467 0 -29.377684830300467 7.1773323684685266 0 0 0 0 6.3985093555411368 -39.110572122014027 0 -39.110572122014027 -21.707883262480379 0 0 0 0 18.89027205559978 -20.668015345264187 0 -20.668015345264187 -8.8014549494139622 0 0 0 0 46.930179024414343 -9.4412529029430345 0 -9.4412529029430345 -1.8709861567056789 0 0 0 0 92.508024746333831 38.549743080905699 0 38.549743080905699 -22.910027506221411 0 0 0 0 50.251475360601034 -0.90528381688930537 0 -0.90528381688930537 14.522638124111566 0 0 0 0 0.44622230249757422 -0.30094783524522484 0 -0.30094783524522484 0.016006121642847329 0 0 0 0 11.298260224952344 -12.224052479198981 0 -12.224052479198981 -0.010927614340520553 0 0 0 0 -0.11686344836620322 -0.22960286924671891 0 -0.22960286924671891 -0.27006631863837799 0 0 0 0 181.39646909845032 70.01148970795046 0 70.01148970795046 2.0993668558962355 0 0 0 0 11.546429947476213 16.855769877649347 0 16.855769877649347 -1.2117362733578148 0 0 0 0 107.23983290195247 -36.128740472745022 0 -36.128740472745022 0.053808431941339871 0 0 0 0 96.438919246880687 -35.673662936913821 0 -35.673662936913821 -81.26120947991781 0 0 0 0 40.334843337732309 -8.8322138817814135 0 -8.8322138817814135 8.424636828821944 0 0 0 0 48.741439887140587 -34.544492745560795 0 -34.544492745560795 -44.947462381255043 0 0 0 0 44.174067345125877 -17.054013479366436 0 -17.054013479366436 0.067386651502850822 0 0 0 0 55.51869792695598 -11.54241197962228 0 -11.54241197962228 0.1706128333702279 0 0 0 0 -38.000581977597903 -87.076814018979974 0 -87.076814018979974 -56.490900867950153 0 0 0 0 -11.86427069146157 -68.852577038316852 0 -68.852577038316852 -32.077467242119269 0 0 0 0 -40.1109431460427 -104.1068422803111 0 -104.1068422803111 -17.08907077155709 0 0 0 0 -16.467620999872452 -82.358847552291991 0 -82.358847552291991 -146.74185852172309 0 0 0 0 -34.049608634202741 -81.102406209956825 0 -81.102406209956825 -55.019523359639948 0 0 0 0 -27.396027765906183 -82.182294017496048 0 -82.182294017496048 -70.811726299302734 0 0 0 0 21.789004342568802 -12.231365029164529 0 -12.231365029164529 4.3340047018074763 0 0 0 0 28.674807716313808 2.6103413521645962 0 2.6103413521645962 -2.247422457090579 0 0 0 0 17.440605298790615 -2.2151125833884748 0 -2.2151125833884748 -2.2758658586674301 0 0 0 0 9.1394574684242968 -8.3296488836596261 0 -8.3296488836596261 -7.4998053227734491 0 0 0 0 59.903538099431898 -14.901647675045126 0 -14.901647675045126 -27.026758213712128 0 0 0 0 15.000202847313261 -6.5347699424781922 0 -6.5347699424781922 -0.66861179453505781 0 0 0 0 -1.6416466902737739 -36.83992281496387 0 -36.83992281496387 -29.874262884037989 0 0 0 0 14.808728719116715 4.9627285344901537 0 4.9627285344901537 -2.6993156192504286 0 0 0 0 -46.030382550712602 -73.597437681482859 0 -73.597437681482859 -17.832997553083032 0 0 0 0 -38.381351912525133 -84.24337502190923 0 -84.24337502190923 -32.946948852316666 0 0 0 0 -24.252091507310979 -65.620417603588123 0 -65.620417603588123 -60.954271024400811 0 0 0 0 -51.580882493217359 -55.82051757722877 0 -55.82051757722877 -31.722603863356611 0 0 0 0 -60.270634772114136 -64.318016499422001 0 -64.318016499422001 -21.421598688515417 0 0 0 0 -114.6232616454181 -67.371981572713395 0 -67.371981572713395 -0.032535949358159497 0 0 0 0 22.507816106401151 -2.7693015479850089 0 -2.7693015479850089 -1.2117362733787047 0 0 0 0 2.28900946583272 -0.35630725409450292 0 -0.35630725409450292 0.60098919840299136 0 0 0 0 2.3574179532706836 0.18254211464039827 0 0.18254211464039827 -0.57217148042147148 0 0 0 0 -65.475743826267717 -60.7551807670337 0 -60.7551807670337 -23.093648681858753 0 0 0 0 -57.435778605329688 -59.583358448508065 0 -59.583358448508065 -24.663751765512064 0 0 0 0 -11.320379678858444 -81.284313050319042 0 -81.284313050319042 -0.020006028533775866 0 0 0 0 -59.390415041962115 -71.257315903287093 0 -71.257315903287093 9.6065174348668734 0 0 0 0 35.97199710269706 -16.610852500136069 0 -16.610852500136069 60.473611033077944 0 0 0 0 45.647199605413334 -15.178423419366098 0 -15.178423419366098 12.2439160642123 0 0 0 0 -22.633082362517598 -79.677585593917541 0 -79.677585593917541 25.020140139727026 0 0 0 0 34.630413756800408 -17.255305958836601 0 -17.255305958836601 18.564886334594803 0 0 0 0 -4.6559581760302535 -119.67588116957083 0 -119.67588116957083 1.5477715813329382 0 0 0 0 9.0831665219157003 -81.487101589196726 0 -81.487101589196726 -119.92860664985801 0 0 0 0 -55.833303528284887 -122.59363231959924 0 -122.59363231959924 -37.292356933764999 0 0 0 0 358.45778387498649 31.441273654704943 0 31.441273654704943 80.554323405108462 0 0 0 0 202.74186602460395 -61.322740826112124 0 -61.322740826112124 17.872675556401855 0 0 0 0 320.31535177194019 133.62219972365409 0 133.62219972365409 16.997133444303358 0 0 0 0 141.40315206859304 19.897311804717873 0 19.897311804717873 -89.570851360189295 0 0 0 0 314.57363369879022 82.086530966061019 0 82.086530966061019 24.159763570775048 0 0 0 0 267.46671027398406 -41.494390701000327 0 -41.494390701000327 0.1035017010438411 0 0 0 0 131.74785008052277 -85.188113533568227 0 -85.188113533568227 50.242202092540239 0 0 0 0 1075.3457931192024 115.13594224634488 0 115.13594224634488 0.26478152139759598 0 0 0 0 620.84794383040935 156.26110366017642 0 156.26110366017642 13.423153285113692 0 0 0 0 751.69850622820377 -5.7035446465289894 0 -5.7035446465289894 135.96253351901493 0 0 0 0 1608.0554663300443 78.433234899115149 0 78.433234899115149 -91.532571953396413 0 0 0 0 6.6805780615243577 -1.706463666907311 0 -1.706463666907311 -0.039675515172710507 0 0 0 0 1578.0777081781223 784.11169909508351 0 784.11169909508351 223.2558857774336 0 0 0 0 686.98174349921464 427.81868660452693 0 427.81868660452693 99.737850316492484 0 0 0 0 1051.0845654623226 66.572307944788761 0 66.572307944788761 -67.696708623929581 0 0 0 0 1295.6939871455943 223.07285113830807 0 223.07285113830807 -212.50195308202956 0 0 0 0 1248.3163839648623 175.58672677461823 0 175.58672677461823 -203.72728670644452 0 0 0 0 700.8900901783345 -3.1858576632722588 0 -3.1858576632722588 -8.035454175186203 0 0 0 0 820.99196606165788 221.37330565268852 0 221.37330565268852 -86.392307160312384 0 0 0 0 948.7608779311704 160.21008769745617 0 160.21008769745617 -106.87258340756637 0 0 0 0 294.28306390324724 -16.28909682592348 0 -16.28909682592348 -72.484725518602545 0 0 0 0 317.12175826693419 -46.714842233657805 0 -46.714842233657805 -176.27471179046825 0 0 0 0 -3.7871662017860217 135.68869682976538 0 135.68869682976538 11.959174697446144 0 0 0 0 607.93735603878667 323.96202647034664 0 323.96202647034664 33.224133250555951 0 0 0 0 12.832809563403458 3.5420035797199674 0 3.5420035797199674 0.99086578652613611 0 0 0 0 881.54118078989995 588.46575355452751 0 588.46575355452751 -64.204230254069898 0 0 0 0 -149.64106996302144 550.94178138322286 0 550.94178138322286 -57.175843386294218 0 0 0 0 1468.54765507104 -786.82254817839953 0 -786.82254817839953 429.35232671903623 0 0 0 0 -265.51304596057162 -590.715445694354 0 -590.715445694354 -341.27704801259461 0 0 0 0 335.77422192858648 -138.80119618652884 0 -138.80119618652884 -146.46403718225383 0 0 0 0 676.98713565237267 36.006518437960153 0 36.006518437960153 204.7319215360917 0 0 0 0 1117.4365551062656 265.41915014115199 0 265.41915014115199 -204.35659950075501 0 0 0 0 1829.7920670056919 109.39582555768652 0 109.39582555768652 -211.42433725223844 0 0 0 0 1803.785488161855 354.29065225465843 0 354.29065225465843 217.61267582294886 0 0 0 0 952.39287718527339 -67.485081195346368 0 -67.485081195346368 766.47678653429421 0 0 0 0 880.00188208532199 148.9791148964182 0 148.9791148964182 119.72599360734148 0 0 0 0 962.34676512030273 68.765086555152351 0 68.765086555152351 45.024066434850511 0 0 0 0 964.38425755436765 90.858680718423443 0 90.858680718423443 136.88040728068586 0 0 0 0 1442.5820558528794 52.944112143699385 0 52.944112143699385 -54.444392974619859 0 0 0 0 941.21194133542667 -46.831765086027588 0 -46.831765086027588 -74.196353452633048 0 0 0 0 1016.1738385648641 -53.673162249573096 0 -53.673162249573096 -152.54096146703 0 0 0 0 853.24044035557017 115.907300779769 0 115.907300779769 35.358799578769776 0 0 0 0 1017.06008341501 37.915189934818898 0 37.915189934818898 -119.98451947959711 0 0 0 0 220.09710816269944 -20.379232782032545 0 -20.379232782032545 -13.234574261706712 0 0 0 0 156.71772326153291 -193.00839992097866 0 -193.00839992097866 264.04175668997004 0 0 0 0 155.22108917191542 -18.21264273310781 0 -18.21264273310781 175.80638594913034 0 0 0 0 454.02044985404063 -341.41928811685409 0 -341.41928811685409 218.19590368321718 0 0 0 0 517.07863247752539 -405.44158036684212 0 -405.44158036684212 319.01442226934489 0 0 0 0 1233.5851249580592 -525.98309535498345 0 -525.98309535498345 88.981041827534 0 0 0 0 665.18820537021384 -274.41617747862767 0 -274.41617747862767 13.54610010134536 0 0 0 0 832.69342224301363 -325.71292691307133 0 -325.71292691307133 -2.6254591671608409 0 0 0 0 516.07106891370495 -156.39240453701689 0 -156.39240453701689 -29.802957688680536 0 0 0 0 220.83982807271968 -128.42806924210305 0 -128.42806924210305 88.751334163408899 0 0 0 0 354.44341573351267 -127.16861166035983 0 -127.16861166035983 58.632193966268005 0 0 0 0 10.172729166853969 2.9269389776609955 0 2.9269389776609955 52.228015419089502 0 0 0 0 207.56159503620074 -157.11002217528295 0 -157.11002217528295 27.03352047870635 0 0 0 0 28.9522949456302 7.8239742105178465 0 7.8239742105178465 0.58067781282188147 0 0 0 0 871.1197761715448 205.93994097988661 0 205.93994097988661 -451.11540375593847 0 0 0 0 -157.16869382279401 62.949216447645654 0 62.949216447645654 27.061972396318197 0 0 0 0 39.709272006031824 -18.064473218246803 0 -18.064473218246803 -78.193959431218673 0 0 0 0 8.7952489160961704 -65.242094883304389 0 -65.242094883304389 -45.913253837301909 0 0 0 0 74.314436440326972 53.660804651219792 0 53.660804651219792 -54.593986033574197 0 0 0 0 31.432438319691755 8.9523251960676049 0 8.9523251960676049 0.77165710861667769 0 0 0 0 28.466148202205659 -2.6988793188984346 0 -2.6988793188984346 8.2251400943316639 0 0 0 0 41.454540008933691 -7.0111940328127957 0 -7.0111940328127957 9.520369095797264 0 0 0 0 41.523763529410644 -7.4448621107433155 0 -7.4448621107433155 -13.059442060095989 0 0 0 0 9.8463138797269494 -49.599309392743635 0 -49.599309392743635 -19.618893395705072 0 0 0 0 13.349423139495627 -6.9264347633145249 0 -6.9264347633145249 2.8344256730164537 0 0 0 0 -19.222216059992206 -21.828450235866285 0 -21.828450235866285 -7.3371752209524743 0 0 0 0 -85.857933203093125 -74.664580478381822 0 -74.664580478381822 -119.35136957087957 0 0 0 0 44.105650273500942 -159.41491704717669 0 -159.41491704717669 -306.4362330560524 0 0 0 0 -74.251687858937657 -98.834767341164593 0 -98.834767341164593 -83.90962849863601 0 0 0 0 201.17708245683752 64.03709683571617 0 64.03709683571617 -230.35122356076204 0 0 0 0 239.04022190820251 -18.15615676239463 0 -18.15615676239463 -56.082859837633123 0 0 0 0 5.125342791232498 -2.2828130853343183 0 -2.2828130853343183 0.76036093651997794 0 0 0 0 313.10452972521307 -78.91212085419312 0 -78.91212085419312 -301.01827609364182 0 0 0 0 1452.891931088845 137.80691295844224 0 137.80691295844224 -0.22353962930553595 0 0 0 0 1644.7596142442999 436.69274314695605 0 436.69274314695605 -57.059109824260318 0 0 0 0 2496.5736334390494 394.53103262335435 0 394.53103262335435 -206.77959301352908 0 0 0 0 1345.7148481001605 149.99547467994049 0 149.99547467994049 91.077069228097685 0 0 0 0 1682.5094726339466 329.41859132178257 0 329.41859132178257 24.226014317056837 0 0 0 0 539.29960970166576 346.52559297124844 0 346.52559297124844 243.1986839630259 0 0 0 0 458.87575265004125 123.59701518817729 0 123.59701518817729 -6.1051408868614345 0 0 0 0 629.24211927565921 242.5650071876484 0 242.5650071876484 139.96791036293891 0 0 0 0 151.04049346550164 -156.54619822478497 0 -156.54619822478497 -68.437814108524208 0 0 0 0 430.92220459336022 390.23427050108836 0 390.23427050108836 163.72195931413577 0 0 0 0 444.21850868786714 68.301524165458403 0 68.301524165458403 -143.52432375721565 0 0 0 0 577.65471562604671 -20.765638681645306 0 -20.765638681645306 -68.509979790313423 0 0 0 0 13.319821164355801 -5.4999352940562858 0 -5.4999352940562858 0.84911273691556988 0 0 0 0 196.11450096198041 -174.85531143979208 0 -174.85531143979208 -186.1827225653924 0 0 0 0 13.123297850127642 -6.2946205945619056 0 -6.2946205945619056 1.9217851628687692 0 0 0 0 136.75356597775681 194.69355037197397 0 194.69355037197397 115.70407442455542 0 0 0 0 701.92071472190219 1.9749465466566107 0 1.9749465466566107 104.56821919571757 0 0 0 0 283.50133735769668 -45.031882610518096 0 -45.031882610518096 312.2995280359969 0 0 0 0 322.25935607828433 234.8095936846313 0 234.8095936846313 197.16640517279583 0 0 0 0 583.65908935689367 -4.0521178711251196 0 -4.0521178711251196 359.3039378512434 0 0 0 0 717.88434731619782 219.1389305519462 0 219.1389305519462 258.27623152419119 0 0 0 0 477.26015983946127 54.437737284615082 0 54.437737284615082 149.56811811013017 0 0 0 0 747.71938541097916 21.027512765762026 0 21.027512765762026 -49.76054188249816 0 0 0 0 740.46596515650162 90.055048636731101 0 90.055048636731101 -13.204387407100512 0 0 0 0 469.20505793418306 -17.061202406809187 0 -17.061202406809187 75.905913059490331 0 0 0 0 462.98660811036825 -37.433324007271949 0 -37.433324007271949 60.115603860868703 0 0 0 0 392.86121351369366 -32.752133997733154 0 -32.752133997733154 292.23011867824243 0 0 0 0 266.66558678399451 -54.839346900451801 0 -54.839346900451801 307.80105418612033 0 0 0 0 412.24013730375736 -129.51038427851964 0 -129.51038427851964 42.51778809745565 0 0 0 0 331.40744374636415 44.356955094521538 0 44.356955094521538 97.82516420513133 0 0 0 0 323.35018109767952 -84.511522417922336 0 -84.511522417922336 -145.22165575252291 0 0 0 0 962.95391321607894 -36.262946046856541 0 -36.262946046856541 99.336999031246137 0 0 0 0 465.92179274601222 -361.65832100784132 0 -361.65832100784132 343.22546530763793 0 0 0 0 37.266915887616051 146.53143077687361 0 146.53143077687361 163.31861429268872 0 0 0 0 -64.315785012797278 -304.9883290663555 0 -304.9883290663555 394.03797629043078 0 0 0 0 1393.4497378570759 430.33721251701212 0 430.33721251701212 177.48445732573938 0 0 0 0 6.1434185164869461 -2.606931732711729 0 -2.606931732711729 1.286378980863689 0 0 0 0 2497.3576293979095 1259.0206151386644 0 1259.0206151386644 -59.978081027137918 0 0 0 0 1439.5170498861298 514.48034138498338 0 514.48034138498338 462.70703609721767 0 0 0 0 521.08307765526843 592.08821203648495 0 592.08821203648495 486.1990278293249 0 0 0 0 1327.8957203471437 237.74095148052152 0 237.74095148052152 150.99191409936378 0 0 0 0 673.21114579729328 597.02858085814285 0 597.02858085814285 330.4919662937707 0 0 0 0 212.90673276697635 590.03834242885966 0 590.03834242885966 -162.3855773461097 0 0 0 0 -124.25815106590744 1211.2403547065178 0 1211.2403547065178 511.10397204291849 0 0 0 0 644.79702804682893 219.62025601746171 0 219.62025601746171 77.553342901396093 0 0 0 0 1473.6560657924638 867.81752148471526 0 867.81752148471526 207.33526396170799 0 0 0 0 914.0380751292887 2001.7288361070125 0 2001.7288361070125 993.19552676875094 0 0 0 0 227.28478177681973 373.70644040182401 0 373.70644040182401 370.9073403844647 0 0 0 0 1462.0141428749121 602.95480457467647 0 602.95480457467647 9.5671526461537635 0 0 0 0 1572.7322670387803 -867.59736894761863 0 -867.59736894761863 180.37930258613915 0 0 0 0 1412.0804658851121 -802.29506964772554 0 -802.29506964772554 161.51470167791237 0 0 0 0 1527.9407686140185 -626.83833081113858 0 -626.83833081113858 19.854967351322557 0 0 0 0 838.52438735673786 -650.04426775291256 0 -650.04426775291256 316.96962551330085 0 0 0 0 20.844522337012307 6.4175279937006096 0 6.4175279937006096 0.010955607759153496 0 0 0 0 42.401399849695736 37.657361520085033 0 37.657361520085033 -6.1459999792677991 0 0 0 0 9.5882001433582928 3.1371228138614811 0 3.1371228138614811 2.5675677021086676 0 0 0 0 1349.8868031277452 -963.10593710230353 0 -963.10593710230353 507.41418031865135 0 0 0 0 54.497885062432033 -19.464665310571487 0 -19.464665310571487 -15.660360847291964 0 0 0 0 2496.5919974157259 -1875.4984312093511 0 -1875.4984312093511 1119.6006099113815 0 0 0 0 10.30098800905381 -0.31563928429242338 0 -0.31563928429242338 0.31406973097344437 0 0 0 0 7.3452200545940656 6.1892735208574123 0 6.1892735208574123 7.3576491416720735 0 0 0 0 7.8217972803061002 6.8623000559741598 0 6.8623000559741598 6.665663940838864 0 0 0 0 16.448495383912814 52.64420800862294 0 52.64420800862294 119.55728549601115 0 0 0 0 1781.4945482644489 342.34877307996055 0 342.34877307996055 24.447551900684385 0 0 0 0 -1033.9111411389167 256.93757367172657 0 256.93757367172657 2826.8076947663303 0 0 0 0 2490.8873652428592 -1249.7156676307773 0 -1249.7156676307773 -233.76575270014115 0 0 0 0 1.5031384815474382 1.2094842374489048 0 1.2094842374489048 7.2588468997697202 0 0 0 0 2475.1563600167328 27.401019216964631 0 27.401019216964631 29.348034031490116 0 0 0 0 -1.8723601392134412 -0.45140100056223531 0 -0.45140100056223531 6.5181635555866251 0 0 0 0 501.88757493828598 709.78537101762458 0 709.78537101762458 476.84340412520623 0 0 0 0 -80.411146100028418 572.76369937898608 0 572.76369937898608 492.81477983073563 0 0 0 0 -17.351510722350213 -14.261810166458417 0 -14.261810166458417 31.539538994969462 0 0 0 0 32.549414377368521 337.5040833430985 0 337.5040833430985 -269.23070667964521 0 0 0 0 433.17000170451502 -208.5654293958155 0 -208.5654293958155 -171.03690971209471 0 0 0 0 328.98025679257989 91.75333098258443 0 91.75333098258443 -357.54928244218354 0 0 0 0 -6.4643280445893652 -211.61088137522665 0 -211.61088137522665 56.390122015853194 0 0 0 0 722.78173720001359 119.50066012576917 0 119.50066012576917 204.98788413326611 0 0 0 0 -0.26482702221173327 -0.77375010907540798 0 -0.77375010907540798 -4.1602602008352552 0 0 0 0 -897.0227557620783 510.42431737747302 0 510.42431737747302 -78.409854276806072 0 0 0 0 121.73877690103109 194.63447876177355 0 194.63447876177355 -305.63507156647609 0 0 0 0 -1.2240408029029197 -2.8254052967270127 0 -2.8254052967270127 -13.274794238591763 0 0 0 0 -104.68634920447948 362.10899105464853 0 362.10899105464853 -290.55688825617915 0 0 0 0 -546.48655026580673 310.49108327729925 0 310.49108327729925 -136.67888979719675 0 0 0 0 17.452907325021286 -2.3827944956404536 0 -2.3827944956404536 -27.580175079535316 0 0 0 0 -183.20928729541629 233.33910509670565 0 233.33910509670565 -129.1562477176634 0 0 0 0 276.54832353712118 40.068042177845655 0 40.068042177845655 -269.23970955670757 0 0 0 0 -30.681402958158287 202.40319449306548 0 202.40319449306548 -208.48391831646313 0 0 0 0 24.835638421608991 16.216616473245011 0 16.216616473245011 9.8682793221339189 0 0 0 0 -205.99006515082147 -51.428328803889599 0 -51.428328803889599 280.25288452127461 0 0 0 0 19.151076243186253 -0.30615769781115887 0 -0.30615769781115887 9.3959370520415177 0 0 0 0 44.816988039427088 27.260125686168294 0 27.260125686168294 -10.037282747636141 0 0 0 0 28.575640803255251 15.943667283026187 0 15.943667283026187 -4.2484269172966478 0 0 0 0 19.416802090043632 3.8140736632008654 0 3.8140736632008654 -16.31902587752931 0 0 0 0 21.600143351097358 1.1550884723692434 0 1.1550884723692434 -10.619016159557759 0 0 0 0 636.16489515703324 -131.49539708868903 0 -131.49539708868903 113.09464558709291 0 0 0 0 22.507207625780552 9.0142749430921256 0 9.0142749430921256 -7.2693688474271392 0 0 0 0 86.927528406355123 82.989574652702686 0 82.989574652702686 30.890325139902416 0 0 0 0 19.885169676282366 -9.1397506933262918 0 -9.1397506933262918 -31.812952959023207 0 0 0 0 38.030630544935178 20.133693065469053 0 20.133693065469053 2.6284782178743065 0 0 0 0 61.325002117460826 48.954877884068992 0 48.954877884068992 -56.180089151439461 0 0 0 0 31.280349664171808 32.293556324323617 0 32.293556324323617 -11.532646315684815 0 0 0 0 38.598425910326654 27.663943402648172 0 27.663943402648172 12.113102423574468 0 0 0 0 29.253880430358095 25.050638959553595 0 25.050638959553595 -12.776928399486678 0 0 0 0 89.700955689957482 82.285524641152733 0 82.285524641152733 -17.031553473141685 0 0 0 0 64.9342401170031 41.699124837319353 0 41.699124837319353 16.527065793805868 0 0 0 0 24.026676367211621 159.20758196680686 0 159.20758196680686 -115.14523119558339 0 0 0 0 128.96885375639249 119.22767614066123 0 119.22767614066123 -157.44581358972425 0 0 0 0 49.771692041424103 156.94724787680184 0 156.94724787680184 -120.66314551293181 0 0 0 0 -119.75283768113877 99.767572837227874 0 99.767572837227874 -80.494285024915811 0 0 0 0 -18.935344793950208 110.08760706225064 0 110.08760706225064 -135.61340849913461 0 0 0 0 30.686897334239085 -4.9694653511716638 0 -4.9694653511716638 -33.296845684643678 0 0 0 0 -104.62913873064099 70.605906007829617 0 70.605906007829617 -86.37470881002082 0 0 0 0 -6.2757072146778228 112.6522222244314 0 112.6522222244314 -60.943904629497467 0 0 0 0 99.045095787692844 62.573080886869036 0 62.573080886869036 -66.877106756438252 0 0 0 0 213.24073418964326 47.245889080306938 0 47.245889080306938 -115.22361449637378 0 0 0 0 215.14084737634403 47.427301472432646 0 47.427301472432646 -133.56879287188139 0 0 0 0 386.95364981398598 22.874705090405882 0 22.874705090405882 -171.76033166929653 0 0 0 0 202.17274578842625 107.77925721430063 0 107.77925721430063 -182.19535610678332 0 0 0 0 322.91812545113498 45.431429287722722 0 45.431429287722722 -193.3303755422566 0 0 0 0 116.93741470985697 81.048140081452004 0 81.048140081452004 -131.32996439170438 0 0 0 0 14.641946385498159 190.79024612575884 0 190.79024612575884 -183.5066899516238 0 0 0 0 -42.270347134312033 168.70714584641274 0 168.70714584641274 -156.12854511129493 0 0 0 0 152.9179685841882 140.67692216803312 0 140.67692216803312 -192.88267493869921 0 0 0 0 165.5184165489336 153.07093278848316 0 153.07093278848316 -254.45473668027751 0 0 0 0 50.387663653120399 66.848843561299645 0 66.848843561299645 -213.6283589022533 0 0 0 0 95.048593074578093 210.30988442722816 0 210.30988442722816 -197.47154476653964 0 0 0 0 353.29423026245786 33.652622414129326 0 33.652622414129326 -231.16831330601508 0 0 0 0 314.68657030069153 8.5302418829881788 0 8.5302418829881788 -81.061442088398508 0 0 0 0 473.41600920892961 6.9876526299117359 0 6.9876526299117359 -118.99788525527111 0 0 0 0 501.37242434054497 25.868701424134485 0 25.868701424134485 -200.701796317429 0 0 0 0 361.50017609204224 67.898704491730911 0 67.898704491730911 -232.76974802089899 0 0 0 0 145.77223015558047 110.5974324982424 0 110.5974324982424 -188.25223594825223 0 0 0 0 333.39178287680988 28.859266886477364 0 28.859266886477364 -158.21660883372556 0 0 0 0 385.04626008578634 87.715380014305197 0 87.715380014305197 -196.64453751709902 0 0 0 0 490.1629939412087 10.972036788913982 0 10.972036788913982 -109.39325390955401 0 0 0 0 571.25880180006789 26.930560633603591 0 26.930560633603591 -189.86472410736224 0 0 0 0 631.71407251927303 -19.312876642119456 0 -19.312876642119456 -203.40248306847838 0 0 0 0 590.65487942191248 -2.2313557642443129 0 -2.2313557642443129 -126.21153944575951 0 0 0 0 762.36174472097628 26.008182693359913 0 26.008182693359913 -165.25241018886837 0 0 0 0 594.742811776905 17.120511656996186 0 17.120511656996186 -49.010932658558772 0 0 0 0 765.44926019672857 -7.0985700142735766 0 -7.0985700142735766 -222.98406091599054 0 0 0 0 636.22824370267335 -5.2233179567172776 0 -5.2233179567172776 -168.47177495283711 0 0 0 0 674.28093524205906 -11.624422346842834 0 -11.624422346842834 -216.716089000914 0 0 0 0 737.3670454857056 -91.253706171198985 0 -91.253706171198985 -202.6030019123466 0 0 0 0 643.51335050939815 -52.380413600898862 0 -52.380413600898862 -206.75230371595359 0 0 0 0 498.39432926318113 -25.90033704548928 0 -25.90033704548928 -184.16437426468244 0 0 0 0 397.83162797363184 35.082701161911018 0 35.082701161911018 -172.62010955291197 0 0 0 0 392.90750562105677 -22.82967017474266 0 -22.82967017474266 -119.94998497408102 0 0 0 0 577.95632562555693 -86.525387170761576 0 -86.525387170761576 -158.33870118987147 0 0 0 0 396.2984819207486 -8.9698144717929154 0 -8.9698144717929154 -138.00297265679706 0 0 0 0 841.2947530898382 -98.723527355140277 0 -98.723527355140277 -209.23374157670162 0 0 0 0 672.0628108007304 -64.270351448843329 0 -64.270351448843329 -72.395730876886773 0 0 0 0 665.02897747765655 -117.64929283131534 0 -117.64929283131534 -120.51238039183204 0 0 0 0 256.07282219927583 -128.53214782361692 0 -128.53214782361692 70.82527713353511 0 0 0 0 36.858097989326438 23.459336939687013 0 23.459336939687013 13.354355181676574 0 0 0 0 -169.99025170793902 572.11240767063555 0 572.11240767063555 -511.57394396864402 0 0 0 0 742.85544174451934 -231.61203386029456 0 -231.61203386029456 90.233534358410566 0 0 0 0 739.61113759012937 -122.50261798205989 0 -122.50261798205989 64.755500323991782 0 0 0 0 -69.468682019942207 469.12943353191395 0 469.12943353191395 -42.350715637784106 0 0 0 0 -30.708504372152674 1340.2393842906915 0 1340.2393842906915 830.08505864064205 0 0 0 0 350.29005965543183 429.5987882311083 0 429.5987882311083 -489.49088220808517 0 0 0 0 327.20997581456322 179.74366854268055 0 179.74366854268055 -462.01047693807323 0 0 0 0 172.47090291060704 167.98335175288855 0 167.98335175288855 -376.94952939995528 0 0 0 0 663.50165264396492 429.01447103473379 0 429.01447103473379 -282.90959365136166 0 0 0 0 753.39218778740178 187.07953344099775 0 187.07953344099775 -577.09465672543479 0 0 0 0 419.77726347971839 -101.37472743981289 0 -101.37472743981289 -435.09039510800631 0 0 0 0 273.85988690556769 -242.62550775876821 0 -242.62550775876821 -570.56024625673172 0 0 0 0 190.20207994714292 -77.440186220899704 0 -77.440186220899704 -411.92533862380424 0 0 0 0 287.52872422119617 74.32097713105577 0 74.32097713105577 -313.1047262946613 0 0 0 0 128.30568315758137 -48.299120340886589 0 -48.299120340886589 -295.31003576686999 0 0 0 0 95.13683138617489 184.55269007628704 0 184.55269007628704 -500.29864659774466 0 0 0 0 34.59792415044285 105.92102154144391 0 105.92102154144391 -424.72518998403757 0 0 0 0 236.71189883990201 45.494383612739874 0 45.494383612739874 -52.594132249219911 0 0 0 0 -156.58594740607077 380.75857651598017 0 380.75857651598017 -401.13203036370942 0 0 0 0 161.14649560941325 -10.614088034378028 0 -10.614088034378028 -33.550959614534804 0 0 0 0 51.554625504716228 33.522226778216591 0 33.522226778216591 20.179636786328548 0 0 0 0 514.23404654416663 12.163203555301152 0 12.163203555301152 -317.99156773755749 0 0 0 0 222.34408689843258 266.81374837051408 0 266.81374837051408 -167.21233786449011 0 0 0 0 1.2743857631383264 -0.93013370703448395 0 -0.93013370703448395 -0.25928762920013781 0 0 0 0 2.6007541939429188 -0.48270883690177158 0 -0.48270883690177158 1.6730010687278281 0 0 0 0 662.21783104802307 -42.533838329632999 0 -42.533838329632999 3.2344743916492007 0 0 0 0 -94.573100574154523 143.72379649515551 0 143.72379649515551 -124.82292100761697 0 0 0 0 103.669326571071 100.69040979190049 0 100.69040979190049 -179.01392742143707 0 0 0 0 671.20191309388611 28.653899466458824 0 28.653899466458824 -487.5148590260942 0 0 0 0 173.93021507412777 237.74282811079502 0 237.74282811079502 -66.051275570374855 0 0 0 0 -287.67913967362983 -89.536424445860121 0 -89.536424445860121 -136.87079769984848 0 0 0 0 84.291260088662966 0.3156884390336927 0 0.3156884390336927 -96.380818554138386 0 0 0 0 82.00242282540421 23.275798526430663 0 23.275798526430663 -152.49298577040827 0 0 0 0 102.44111288155545 2.8269971267882283 0 2.8269971267882283 -137.21567161721941 0 0 0 0 -8.3667948750480718 22.3967830648362 0 22.3967830648362 -51.584099682822853 0 0 0 0 102.82201549599267 -27.125009226889233 0 -27.125009226889233 -56.595889631345926 0 0 0 0 148.80074742183569 -30.794844758395811 0 -30.794844758395811 -136.59368784169146 0 0 0 0 1233.0714498084708 -362.83979509479411 0 -362.83979509479411 5.2045939064084195 0 0 0 0 1109.9045595955076 -361.17176075587173 0 -361.17176075587173 66.577168925182946 0 0 0 0 100.38333759697707 -25.720564981075768 0 -25.720564981075768 27.43925727964961 0 0 0 0 6.2686211855894776 -6.1526035891914574 0 -6.1526035891914574 -34.684158347666639 0 0 0 0 193.89687819259416 -47.051071114884508 0 -47.051071114884508 -168.68221953083776 0 0 0 0 135.6601124037843 -8.5196887047004566 0 -8.5196887047004566 -189.49256245112156 0 0 0 0 148.32444972487428 -23.849452463002308 0 -23.849452463002308 -170.94126333561235 0 0 0 0 129.21194946383912 -192.55138278583354 0 -192.55138278583354 -244.84600315497596 0 0 0 0 860.96693449328814 16.157003614633823 0 16.157003614633823 -1445.3183303453211 0 0 0 0 -414.40876031106018 -639.54760843082374 0 -639.54760843082374 -442.44754769073825 0 0 0 0 1792.4304013113992 155.93158660959932 0 155.93158660959932 -447.81747944083827 0 0 0 0 0.99381191995263407 -3.6111661691540746 0 -3.6111661691540746 -12.609499267176695 0 0 0 0 2015.643715811686 -193.08294206631768 0 -193.08294206631768 -1281.3479559172167 0 0 0 0 2033.8557698133518 -48.303321435314103 0 -48.303321435314103 -807.40547812021555 0 0 0 0 2499.2870721894687 -252.38633540469098 0 -252.38633540469098 -727.78580753901031 0 0 0 0 1814.4925678639265 -356.06505802923868 0 -356.06505802923868 -399.00033648789787 0 0 0 0 1861.9966665455286 -487.17311396043033 0 -487.17311396043033 -385.33515296771856 0 0 0 0 1305.4181572862581 -263.09584329679126 0 -263.09584329679126 -151.49810226485292 0 0 0 0 1767.7258886788768 -165.00390497896714 0 -165.00390497896714 -145.13294284761793 0 0 0 0 1751.0981149144027 -606.4413128929981 0 -606.4413128929981 -20.088949479714188 0 0 0 0 1164.5603721616098 -534.73688988867491 0 -534.73688988867491 85.739986613667156 0 0 0 0 2500.2509509862402 -868.19373154260211 0 -868.19373154260211 -262.12686428638125 0 0 0 0 237.71604875997582 4.6919297247774239 0 4.6919297247774239 -16.975783843806994 0 0 0 0 250.42252189070132 115.59743438063595 0 115.59743438063595 17.256167797958824 0 0 0 0 139.67526097706286 5.9001147238084286 0 5.9001147238084286 -24.497881975167275 0 0 0 0 143.3792580278423 82.04839549976009 0 82.04839549976009 6.37018855490237 0 0 0 0 21.370994792807323 10.849382812980252 0 10.849382812980252 11.412705266782268 0 0 0 0 8.4322515258409112 9.9814037520589167 0 9.9814037520589167 17.261721473867055 0 0 0 0 9.2770955897212843 1.7367590482855348 0 1.7367590482855348 11.037340163227782 0 0 0 0 11.130284424820275 8.5243358193332028 0 8.5243358193332028 18.036674344694063 0 0 0 0 9.876638675101276 5.0149212596762709 0 5.0149212596762709 15.833001769773375 0 0 0 0 0.15054017556356314 -2.7709662666884753 0 -2.7709662666884753 7.1375580863127492 0 0 0 0 23.236526936230803 -21.096536321825653 0 -21.096536321825653 32.394398170539489 0 0 0 0 50.145895801557344 39.51228906237445 0 39.51228906237445 21.772043720049428 0 0 0 0 14.525734744383954 -2.3441419799015648 0 -2.3441419799015648 12.601827759458956 0 0 0 0 3.5761782614291633 -1.4101724987731785 0 -1.4101724987731785 6.5474426763973446 0 0 0 0 -2.7914143772904936 1.3525111936967988 0 1.3525111936967988 22.781386558121241 0 0 0 0 32.944752416212907 6.8184931451745356 0 6.8184931451745356 1.3441185420316213 0 0 0 0 10.850940226351668 40.604975586349099 0 40.604975586349099 -1.4687232955905429 0 0 0 0 23.462497771013659 -10.158491100728185 0 -10.158491100728185 2.7969558163382544 0 0 0 0 75.718684702733299 22.179043303480057 0 22.179043303480057 16.872510100674493 0 0 0 0 155.29545900456287 -22.306346400756873 0 -22.306346400756873 14.221231717286344 0 0 0 0 155.50012196197713 -21.68501116508466 0 -21.68501116508466 14.774887793731352 0 0 0 0 382.32165643951885 23.125501191997728 0 23.125501191997728 -29.900635106009531 0 0 0 0 292.02897542102437 -20.173640893682261 0 -20.173640893682261 -4.2332659366591656 0 0 0 0 159.7296477327036 -82.469735608592657 0 -82.469735608592657 33.415892803782754 0 0 0 0 338.13065664476017 -127.72705694728072 0 -127.72705694728072 -6.4153688690824993 0 0 0 0 515.94280033771054 -169.85637228438603 0 -169.85637228438603 -33.153458321860626 0 0 0 0 802.63666602746707 -69.120571599200161 0 -69.120571599200161 -174.17374979596434 0 0 0 0 774.19154183083447 -170.35716020487632 0 -170.35716020487632 -102.82918601441625 0 0 0 0 676.26632358300412 -42.905058783025083 0 -42.905058783025083 -167.48328335353438 0 0 0 0 579.05351863383839 -113.53869507414129 0 -113.53869507414129 -111.65308067751079 0 0 0 0 745.63168719090754 -47.114983170774622 0 -47.114983170774622 -167.257214733208 0 0 0 0 408.80696775286924 -61.658201679855097 0 -61.658201679855097 -71.854627735396264 0 0 0 0 560.1750440286396 -66.315665731073921 0 -66.315665731073921 -80.289470803432152 0 0 0 0 882.44618532933237 54.045074318312714 0 54.045074318312714 -124.08721283250588 0 0 0 0 754.42314089019419 -10.487813545041035 0 -10.487813545041035 -155.98124895313794 0 0 0 0 849.11817568361585 0.63238423314214742 0 0.63238423314214742 -126.89277927777825 0 0 0 0 920.13756800167175 -11.389933534625271 0 -11.389933534625271 -197.62218471266667 0 0 0 0 862.75941234623315 -103.2483700807017 0 -103.2483700807017 -165.40258705166568 0 0 0 0 830.19529596043867 -21.961070410794491 0 -21.961070410794491 -226.72027106791126 0 0 0 0 842.54228360661364 -26.769432440166163 0 -26.769432440166163 -226.51812525049883 0 0 0 0 787.19646515186469 -79.007409170750179 0 -79.007409170750179 -177.2366419765614 0 0 0 0 841.97919524965982 -36.593786184863887 0 -36.593786184863887 -202.76398044510287 0 0 0 0 765.80650335870439 -21.399183716781685 0 -21.399183716781685 -218.78496806616502 0 0 0 0 852.54458136214816 4.8738547257969742 0 4.8738547257969742 -211.76242806279365 0 0 0 0 838.22083451108483 -22.475049163860149 0 -22.475049163860149 -246.10978651629637 0 0 0 0 795.10594435062376 -7.2333262828886973 0 -7.2333262828886973 -231.18132254217312 0 0 0 0 883.00842086383636 -11.203048914587953 0 -11.203048914587953 -243.41781539858385 0 0 0 0 868.81419083175115 60.284142170100637 0 60.284142170100637 -196.38652725904353 0 0 0 0 837.68590339856564 -20.967747943263603 0 -20.967747943263603 -233.38001997694664 0 0 0 0 846.78768566525832 -31.43127197456721 0 -31.43127197456721 -228.78911704641473 0 0 0 0 884.36085165315308 -11.520775259907623 0 -11.520775259907623 -220.48495669730266 0 0 0 0 608.41795257092599 37.213210139358239 0 37.213210139358239 -109.01328961823015 0 0 0 0 518.26421460275014 29.047338087462776 0 29.047338087462776 -103.95263268622648 0 0 0 0 764.84315930761659 28.180179256142083 0 28.180179256142083 -206.24508583193926 0 0 0 0 701.75810808691313 99.362421093093886 0 99.362421093093886 -116.68590023834531 0 0 0 0 700.384137762514 86.793266966251736 0 86.793266966251736 -130.5656722592048 0 0 0 0 598.72235567256575 101.68213784017212 0 101.68213784017212 -107.38428867419066 0 0 0 0 452.64689828885457 107.5897864035345 0 107.5897864035345 -34.209368273561267 0 0 0 0 349.02120828292391 65.6701431650838 0 65.6701431650838 -27.983291002994577 0 0 0 0 506.5895472557022 194.91359836565096 0 194.91359836565096 10.152948085856224 0 0 0 0 498.58153600722289 180.1892408892071 0 180.1892408892071 150.42955861870155 0 0 0 0 420.54718779204995 62.058655249712729 0 62.058655249712729 3.3892252117753827 0 0 0 0 755.72322046010959 183.77147615841341 0 183.77147615841341 -94.809710113599522 0 0 0 0 773.41088937647874 84.523885405205192 0 84.523885405205192 -131.6983997333474 0 0 0 0 669.38765745284581 208.81659766002991 0 208.81659766002991 211.92459818807583 0 0 0 0 687.72986524681619 232.95021124721063 0 232.95021124721063 144.78498523949065 0 0 0 0 939.37031147029847 -212.22861618084107 0 -212.22861618084107 -24.219235850428959 0 0 0 0 1299.1915549205369 78.502223082590945 0 78.502223082590945 -140.27092135437238 0 0 0 0 934.65418639957352 -54.52458130656828 0 -54.52458130656828 -188.80841056621784 0 0 0 0 1097.5260787492152 295.66010221164038 0 295.66010221164038 -14.152827182096871 0 0 0 0 987.61239205274615 250.60696077998068 0 250.60696077998068 -27.82844981018934 0 0 0 0 13.126642543423031 8.8865437338321129 0 8.8865437338321129 6.4428308217180934 0 0 0 0 2241.1437228560681 -538.94666836541273 0 -538.94666836541273 153.60385505335353 0 0 0 0 1376.6992704132917 754.85069080598328 0 754.85069080598328 716.6548991017321 0 0 0 0 413.0614211879074 23.911606306061458 0 23.911606306061458 1189.4830735854973 0 0 0 0 245.23151296145079 -12.75101735201315 0 -12.75101735201315 284.6793482151059 0 0 0 0 486.20495756826131 238.56465024743312 0 238.56465024743312 534.72854459705218 0 0 0 0 677.41430318727362 143.48164294664184 0 143.48164294664184 195.05706294711445 0 0 0 0 501.26484662061557 -71.625624858363835 0 -71.625624858363835 246.48883573600915 0 0 0 0 281.85590276381117 -54.025893224842434 0 -54.025893224842434 496.90014122212278 0 0 0 0 328.24046755572635 75.563373617047318 0 75.563373617047318 207.35831161410624 0 0 0 0 164.90498942611885 -199.34623954557514 0 -199.34623954557514 211.12311726613109 0 0 0 0 -4.3276569405497867 -42.16944012205488 0 -42.16944012205488 65.154440074101785 0 0 0 0 -145.30038532559411 -214.88892995460492 0 -214.88892995460492 32.293739881482907 0 0 0 0 -82.555092821348808 -224.36370086249917 0 -224.36370086249917 -221.13619916600862 0 0 0 0 -146.87386284026434 0.14948608900385807 0 0.14948608900385807 172.43187239893905 0 0 0 0 -53.302084092632867 22.497593383676985 0 22.497593383676985 135.78607403891215 0 0 0 0 -204.28964814344363 3.6222609579234586 0 3.6222609579234586 306.42281012925491 0 0 0 0 -82.055055492040992 32.693976599683538 0 32.693976599683538 290.59979721850368 0 0 0 0 -36.961468150486326 25.122143681437592 0 25.122143681437592 229.39570697009503 0 0 0 0 61.424445722528617 217.41476761745071 0 217.41476761745071 374.89063717682035 0 0 0 0 -78.973759747168515 38.77542039347847 0 38.77542039347847 460.59640448709888 0 0 0 0 0.48966360818022281 -0.92324478734060733 0 -0.92324478734060733 3.0504915182552592 0 0 0 0 221.22120637385888 -79.448616348570795 0 -79.448616348570795 122.18003596274229 0 0 0 0 158.71980410748802 215.31352227037735 0 215.31352227037735 291.60741890800091 0 0 0 0 251.84498538862681 183.94286794712207 0 183.94286794712207 3.3264998336208009 0 0 0 0 -0.25981710246128387 -0.56118563674648669 0 -0.56118563674648669 0.86176728375413059 0 0 0 0 -74.103397917111579 -9.0202399012068213 0 -9.0202399012068213 215.43673849511578 0 0 0 0 94.551324962842045 70.537423286960731 0 70.537423286960731 8.0147738270320019 0 0 0 0 0.83255526538425784 -2.479860476944836 0 -2.479860476944836 6.4191325519600424 0 0 0 0 16.138277013815241 8.2838960928839072 0 8.2838960928839072 27.517510503224457 0 0 0 0 8.0089470574312145 -30.999495558958188 0 -30.999495558958188 43.784344825423432 0 0 0 0 202.04010340597597 56.225450077492042 0 56.225450077492042 26.612261868078747 0 0 0 0 15.499988669025697 139.43851701353523 0 139.43851701353523 69.887012971536024 0 0 0 0 399.42261710191815 132.8976399592712 0 132.8976399592712 -56.010774654461784 0 0 0 0 -0.14656855535960744 -0.52599730758822716 0 -0.52599730758822716 0.64404518124942334 0 0 0 0 14.625681097837514 17.649266189730582 0 17.649266189730582 26.752966262559767 0 0 0 0 109.32770649073063 -63.77606658061859 0 -63.77606658061859 -32.146704378231846 0 0 0 0 -62.216469991159101 -111.89237259137906 0 -111.89237259137906 271.54617797527226 0 0 0 0 -107.74776112177642 -0.8023701393714191 0 -0.8023701393714191 248.74750240144067 0 0 0 0 190.4031759040372 91.543395712006088 0 91.543395712006088 46.324670901079458 0 0 0 0 219.93284363149724 -29.986897985495148 0 -29.986897985495148 -22.779209060309398 0 0 0 0 279.91163879242231 -246.176274739544 0 -246.176274739544 -222.73663020296658 0 0 0 0 1.7691650846776668 -2.6662046449205121 0 -2.6662046449205121 3.3168395407253284 0 0 0 0 -219.2690027487115 -54.551962059401831 0 -54.551962059401831 260.76095382533634 0 0 0 0 -199.80200343868637 61.151508970326404 0 61.151508970326404 113.34358137677782 0 0 0 0 103.87764120720385 -83.934020041799513 0 -83.934020041799513 -201.74249377567256 0 0 0 0 -112.73989185237224 -29.768495103089322 0 -29.768495103089322 -158.00874755918176 0 0 0 0 280.07654135796474 75.58946365901997 0 75.58946365901997 -311.45778012210735 0 0 0 0 6.2000928506749915 -116.3571516193077 0 -116.3571516193077 174.0044696527064 0 0 0 0 1.2542273343939314 -0.28852176979381294 0 -0.28852176979381294 -0.36770291682366307 0 0 0 0 194.60753788309739 -28.523745285443649 0 -28.523745285443649 -417.68049355155097 0 0 0 0 234.14213490972179 -137.01270625442552 0 -137.01270625442552 -181.69278099487104 0 0 0 0 154.37028893402021 5.2285573647702002 0 5.2285573647702002 -190.76774501670673 0 0 0 0 2.3365746603920456 -0.58359494236658804 0 -0.58359494236658804 -0.21347027886344125 0 0 0 0 121.92413573236263 -63.324188043196216 0 -63.324188043196216 -135.92192292790958 0 0 0 0 -201.04720772094515 -323.15057089562401 0 -323.15057089562401 88.289020366293499 0 0 0 0 97.511056024872232 -65.166030162667411 0 -65.166030162667411 -201.29102098188906 0 0 0 0 -28.310375889253919 47.989252691930801 0 47.989252691930801 -148.04894329439975 0 0 0 0 154.12331717243796 -151.44991300267918 0 -151.44991300267918 -130.94413260648787 0 0 0 0 22.157088847394334 -85.850910435574917 0 -85.850910435574917 -36.802077056545215 0 0 0 0 102.9035194585158 -144.19371309247452 0 -144.19371309247452 187.16573940247218 0 0 0 0 95.670490365209844 -21.824819338878342 0 -21.824819338878342 5.0933667329622949 0 0 0 0 114.95622520473626 15.529604886723916 0 15.529604886723916 54.321375882445636 0 0 0 0 178.43886103692785 -20.499860353222317 0 -20.499860353222317 -83.206928914950026 0 0 0 0 189.314848256603 53.107696565708352 0 53.107696565708352 4.8798070243572056 0 0 0 0 -0.31760366710923904 -0.51765987330628604 0 -0.51765987330628604 1.764399273414643 0 0 0 0 117.7052199654936 -59.802673481486408 0 -59.802673481486408 22.161938803170813 0 0 0 0 -365.42550497546108 -350.18978359037635 0 -350.18978359037635 -146.47620388673499 0 0 0 0 -0.31687192473469139 -0.9053516063391811 0 -0.9053516063391811 -4.1708337523355592 0 0 0 0 75.287357615656219 -15.348531261975324 0 -15.348531261975324 -91.110108591539984 0 0 0 0 -62.757540045553469 -85.024411882206152 0 -85.024411882206152 -64.077519065987161 0 0 0 0 24.397296136827208 -35.355781219288815 0 -35.355781219288815 -37.415356491363127 0 0 0 0 -25.826080765313236 -13.863835912848231 0 -13.863835912848231 11.420720383238233 0 0 0 0 -11.248348043372971 9.3691043281294242 0 9.3691043281294242 22.834431899939545 0 0 0 0 4.4707865699747344 -94.592966533265155 0 -94.592966533265155 15.319663525494114 0 0 0 0 -95.905739175250346 -215.85552022817666 0 -215.85552022817666 -244.70111375110332 0 0 0 0 0.87333296775614144 -64.273655155681581 0 -64.273655155681581 -79.696811015259641 0 0 0 0 -628.18974177201744 -276.03072010645633 0 -276.03072010645633 46.877804449095493 0 0 0 0 326.35762553511449 42.929381565718558 0 42.929381565718558 -109.86180945378078 0 0 0 0 543.41859801232931 -387.06340885405461 0 -387.06340885405461 -592.5145644658844 0 0 0 0 112.92625603418037 -239.82349755398036 0 -239.82349755398036 -148.60897264804885 0 0 0 0 -239.49619997190894 -172.16845156537525 0 -172.16845156537525 -13.564113805201096 0 0 0 0 1.674531713752998 -2.6970936366237623 0 -2.6970936366237623 2.8770470857793078 0 0 0 0 148.14274676388595 -99.787599640758145 0 -99.787599640758145 -89.150827661379935 0 0 0 0 -240.37310431158403 -165.70499869262989 0 -165.70499869262989 -55.115886318294905 0 0 0 0 -48.500125125759951 11.852209544360754 0 11.852209544360754 -125.04286511692908 0 0 0 0 -304.2418068957395 -160.91005530654448 0 -160.91005530654448 81.318221329733205 0 0 0 0 3.3701270238635743 -5.4135171987202 0 -5.4135171987202 6.1603557946768053 0 0 0 0 -219.75111479820043 -357.55748201816323 0 -357.55748201816323 -70.862002364429827 0 0 0 0 183.55502049125789 -66.182404238704748 0 -66.182404238704748 -228.16380420560694 0 0 0 0 197.33875597003134 -126.03802484325826 0 -126.03802484325826 23.089324817057332 0 0 0 0 337.47453764990496 -171.29113551772571 0 -171.29113551772571 33.672317421215212 0 0 0 0 364.04202552972038 -14.594120388069854 0 -14.594120388069854 225.51048452758164 0 0 0 0 714.04734527367691 -244.68531475143374 0 -244.68531475143374 -88.574564968973505 0 0 0 0 393.81706496299375 23.980267917558649 0 23.980267917558649 -248.06558950436283 0 0 0 0 360.04028736903274 64.117369841189486 0 64.117369841189486 -209.17404105013657 0 0 0 0 269.98722018268018 -18.496882985037871 0 -18.496882985037871 -199.2500476068596 0 0 0 0 199.10196690988232 -145.01874415477721 0 -145.01874415477721 -153.87749513377867 0 0 0 0 304.19587096812029 -69.309037786335807 0 -69.309037786335807 -145.38255736890801 0 0 0 0 380.30540418802411 -178.16798599327285 0 -178.16798599327285 -160.0595261577605 0 0 0 0 449.27161643973523 -42.467591944051378 0 -42.467591944051378 -196.04782926488383 0 0 0 0 1229.5455655845212 1212.9170405456789 0 1212.9170405456789 -20.308517325885077 0 0 0 0 980.20502770518806 -614.17956310654563 0 -614.17956310654563 225.89249402632458 0 0 0 0 618.1701956108227 153.81724522635886 0 153.81724522635886 -546.04084103979176 0 0 0 0 246.42121433811553 346.67211355806614 0 346.67211355806614 -309.14836284070117 0 0 0 0 162.23719613594585 242.00466561824456 0 242.00466561824456 49.445849680381457 0 0 0 0 -0.36706068953120052 3.8636926221862922 0 3.8636926221862922 -9.0245347547887143 0 0 0 0 227.60701551963211 66.330990388571109 0 66.330990388571109 -30.725107590763514 0 0 0 0 404.46763472820749 142.53429095575183 0 142.53429095575183 -146.61425929843494 0 0 0 0 291.66958554743178 83.731487570475977 0 83.731487570475977 -104.60515711430656 0 0 0 0 229.40984377532004 52.708531488312019 0 52.708531488312019 -119.87365449018961 0 0 0 0 231.96249748016999 72.068065635390155 0 72.068065635390155 -55.963541106763159 0 0 0 0 234.90005229190865 11.628739442720303 0 11.628739442720303 -149.60307783706435 0 0 0 0 212.22230782953557 -53.578150457216083 0 -53.578150457216083 -164.53585982541614 0 0 0 0 129.0603526016348 -179.0156828934754 0 -179.0156828934754 -338.3134908759672 0 0 0 0 210.73734864278231 -53.179746167426288 0 -53.179746167426288 -58.047917130741553 0 0 0 0 207.57666707511271 -35.666023094355751 0 -35.666023094355751 -152.30191668332509 0 0 0 0 240.98254365151661 6.4171114507990978 0 6.4171114507990978 -147.40325373090616 0 0 0 0 326.16472824430821 48.139764706690244 0 48.139764706690244 -142.93642257760564 0 0 0 0 198.44571445102156 21.773586016034542 0 21.773586016034542 -74.442289872146944 0 0 0 0 164.76549221431196 -73.225952832036512 0 -73.225952832036512 -180.81870322855377 0 0 0 0 36.322936535121698 -35.239644008292373 0 -35.239644008292373 -98.247965840053439 0 0 0 0 158.70736784244946 -28.977714831838966 0 -28.977714831838966 -128.4373810656227 0 0 0 0 172.54170910744142 -32.043722039440297 0 -32.043722039440297 -146.87563183171747 0 0 0 0 115.28783872719214 0.44307769114971052 0 0.44307769114971052 -29.714431399280784 0 0 0 0 2.9013944167185173 -2.0774764042124545 0 -2.0774764042124545 0.23086617800296416 0 0 0 0 85.473333452235238 -47.850597703807352 0 -47.850597703807352 12.254683933058686 0 0 0 0 143.49718672673043 -21.208790074250373 0 -21.208790074250373 -75.495572950611177 0 0 0 0 208.94312812108546 5.7414615533750748 0 5.7414615533750748 -112.72653404567677 0 0 0 0 185.79532229085453 14.424451503902674 0 14.424451503902674 -47.331581471457866 0 0 0 0 137.96207349337783 18.279674826326755 0 18.279674826326755 -26.439722285900643 0 0 0 0 80.454708596410455 20.247544698362304 0 20.247544698362304 10.911617208024381 0 0 0 0 25.083095835817403 -9.9189778005094098 0 -9.9189778005094098 0.3257457636482286 0 0 0 0 138.19310611228138 12.491102587998967 0 12.491102587998967 -25.530380000305968 0 0 0 0 5.1435018515248689 -1.246969121768629 0 -1.246969121768629 -0.33766440638812512 0 0 0 0 203.11878493593395 26.333585519328608 0 26.333585519328608 -50.037326839445996 0 0 0 0 205.85491774998809 28.408337417876851 0 28.408337417876851 -48.545174417690475 0 0 0 0 208.40039281897771 24.962901911685776 0 24.962901911685776 -74.297793664317851 0 0 0 0 187.84727336031392 6.0540662787605726 0 6.0540662787605726 -55.948344875449038 0 0 0 0 202.88161169087834 19.87463592053723 0 19.87463592053723 -44.083497295391453 0 0 0 0 192.44936695579236 20.309949521202611 0 20.309949521202611 -49.126340724523288 0 0 0 0 201.6098801620974 10.333461083356497 0 10.333461083356497 -38.49573917518137 0 0 0 0 177.18631439126329 17.518275406925795 0 17.518275406925795 -32.162028666401511 0 0 0 0 170.5716290049786 5.1168443823837606 0 5.1168443823837606 2.7130656698873281 0 0 0 0 183.3649297218617 17.971844967728089 0 17.971844967728089 -32.97077583895225 0 0 0 0 183.632653501194 16.46018131421522 0 16.46018131421522 -24.882512735167438 0 0 0 0 196.37903910830209 16.85713706280103 0 16.85713706280103 -27.106244283810611 0 0 0 0 193.60072381336067 13.896879853001792 0 13.896879853001792 5.1621703625596638 0 0 0 0 215.67369817865983 5.8301132649210103 0 5.8301132649210103 -34.247884790547005 0 0 0 0 225.25852115709131 26.64091073290524 0 26.64091073290524 -2.3998840976028077 0 0 0 0 267.00561620939698 -21.219247565152727 0 -21.219247565152727 47.748643127339164 0 0 0 0 175.44849772825546 18.798760497654257 0 18.798760497654257 48.793310673885571 0 0 0 0 169.71557217136433 36.061849004872784 0 36.061849004872784 -3.1795187657513111 0 0 0 0 0.49743613591215308 -3.0042774389071951 0 -3.0042774389071951 0.60387312996293652 0 0 0 0 130.34548584998993 33.95203658027458 0 33.95203658027458 14.462925518352108 0 0 0 0 198.29615655501038 47.772416509110883 0 47.772416509110883 -13.585246603250198 0 0 0 0 131.19149304243183 52.045950553831517 0 52.045950553831517 17.410317430786563 0 0 0 0 313.14379637363163 120.62187525324634 0 120.62187525324634 42.216511538207442 0 0 0 0 1.9501852729040365 -0.61350549126874654 0 -0.61350549126874654 -0.55800858356409577 0 0 0 0 4.3023854142084019 -29.35705370151436 0 -29.35705370151436 30.647933887889849 0 0 0 0 1.3544704626356179 8.7278394345330241 0 8.7278394345330241 -15.151303730102882 0 0 0 0 32.766495476244017 -34.838883983636151 0 -34.838883983636151 -7.3209742243102482 0 0 0 0 -20.020326528698206 1.4475396718330558 0 1.4475396718330558 -10.339446033858167 0 0 0 0 30.57290490552441 -12.239029809840886 0 -12.239029809840886 -3.276445359799709 0 0 0 0 4.8988053836661667 -11.588013861243482 0 -11.588013861243482 -3.9818729435365565 0 0 0 0 29.143092608886946 -21.09553708963108 0 -21.09553708963108 -8.7325541804675595 0 0 0 0 46.142304283421254 -15.116093627364535 0 -15.116093627364535 -6.9852705436792348 0 0 0 0 28.618348301730293 -10.372653236430779 0 -10.372653236430779 -4.9431323515818804 0 0 0 0 30.574712338546703 -13.98307300064139 0 -13.98307300064139 -4.2399591416571614 0 0 0 0 45.140229189950333 -13.043369439345952 0 -13.043369439345952 -4.1196185616618095 0 0 0 0 35.395356727055514 -14.323213861057411 0 -14.323213861057411 -2.1301407856485639 0 0 0 0 34.628924985525373 -10.503300887805381 0 -10.503300887805381 -3.6244274773675897 0 0 0 0 31.138982983829834 0.78791277826444883 0 0.78791277826444883 -10.520253176436638 0 0 0 0 39.665195026247602 -11.462590035780856 0 -11.462590035780856 -7.0706115209848122 0 0 0 0 39.994014676594816 -7.0598216780622352 0 -7.0598216780622352 -6.4371444832408429 0 0 0 0 46.2425678618456 -9.3441941013104781 0 -9.3441941013104781 -8.7376176180835046 0 0 0 0 34.071959097794419 -8.5227414077367243 0 -8.5227414077367243 -6.4501036558272684 0 0 0 0 13.604114968076601 -5.6961545900261683 0 -5.6961545900261683 -7.5526263094713633 0 0 0 0 37.45124505391891 -4.3490277085653304 0 -4.3490277085653304 -8.9940648352864905 0 0 0 0 54.3015471881954 -2.5722906296225716 0 -2.5722906296225716 -7.1478008206035497 0 0 0 0 52.203802090760291 -13.323286088025583 0 -13.323286088025583 -12.992202847953294 0 0 0 0 38.199858379788409 -10.19012513274523 0 -10.19012513274523 -4.3383259767372859 0 0 0 0 25.421231539424298 -29.601467809248987 0 -29.601467809248987 -21.450042199944619 0 0 0 0 52.338907910885609 -35.77256108585982 0 -35.77256108585982 8.4484526854998876 0 0 0 0 10.391518783363011 -2.6395199417632682 0 -2.6395199417632682 0.20808751168004669 0 0 0 0 51.444574699464738 36.49508488733872 0 36.49508488733872 -64.902803447986116 0 0 0 0 -11.110282751149498 59.68008535404698 0 59.68008535404698 -94.085053564298732 0 0 0 0 46.263605173707475 -20.332683464082592 0 -20.332683464082592 1.8157231885763627 0 0 0 0 41.698463442818465 -15.149053020487269 0 -15.149053020487269 2.2052963585503615 0 0 0 0 28.554530595454708 -40.743125773566362 0 -40.743125773566362 7.9624861938086724 0 0 0 0 45.978568741789786 -18.833790877898366 0 -18.833790877898366 -9.2261326976767464 0 0 0 0 39.108971135776017 -15.213306232050641 0 -15.213306232050641 -5.8359012604384031 0 0 0 0 63.913880516287463 -18.128613244329131 0 -18.128613244329131 -33.725265861068237 0 0 0 0 598.96129643038876 211.62506104824104 0 211.62506104824104 -315.40101541150773 0 0 0 0 32.903236454789294 -68.233803449317918 0 -68.233803449317918 -35.963254684427966 0 0 0 0 84.96311908577627 -19.748515546099895 0 -19.748515546099895 -25.05462986138059 0 0 0 0 104.03362645102607 0.96576419611568554 0 0.96576419611568554 -25.78056866188922 0 0 0 0 66.406796672323253 3.6974411718795182 0 3.6974411718795182 -12.347566375562906 0 0 0 0 68.94231135553855 11.366182426915202 0 11.366182426915202 -8.2686364871433398 0 0 0 0 17.773133315982705 -25.738612017377136 0 -25.738612017377136 3.8850171476965443 0 0 0 0 2.5274395056069636 -2.5776272544042058 0 -2.5776272544042058 -0.0081591786092873875 0 0 0 0 19.561271275975741 9.6291549520119588 0 9.6291549520119588 -84.645223900113876 0 0 0 0 22.471741951951117 -20.54948360399942 0 -20.54948360399942 -69.17955478309068 0 0 0 0 3.0946822575840898 -2.4479047306370632 0 -2.4479047306370632 -12.072390586349243 0 0 0 0 3.7897709348908393 5.831725750941132 0 5.831725750941132 4.9731184626652976 0 0 0 0 34.780964196441346 -13.64227329796654 0 -13.64227329796654 -2.0459265026363482 0 0 0 0 14.980755821965204 -6.6867329026066074 0 -6.6867329026066074 -12.278824140422898 0 0 0 0 19.682888846252212 -11.177773487234795 0 -11.177773487234795 -1.5114132051906282 0 0 0 0 18.589946983192931 -6.1211638255492744 0 -6.1211638255492744 -7.6922446605408368 0 0 0 0 14.738049819889984 -1.8891626857582509 0 -1.8891626857582509 -9.8886678349659949 0 0 0 0 19.647084673097652 0.22623683038379028 0 0.22623683038379028 -6.9686656113898353 0 0 0 0 31.974753460421198 -6.5817732475259163 0 -6.5817732475259163 -0.32465641061844508 0 0 0 0 7.5430786140076407 -7.0288359257855859 0 -7.0288359257855859 -2.4709906929899814 0 0 0 0 72.236074900909443 -2.0332669659178464 0 -2.0332669659178464 -15.246913865242277 0 0 0 0 24.98644769470593 2.113353775770662 0 2.113353775770662 -9.8721858285134658 0 0 0 0 2499.5826773844346 803.81722619461914 0 803.81722619461914 191.46010702502812 0 0 0 0 1842.4853875032513 340.95629126423052 0 340.95629126423052 -105.81735870059713 0 0 0 0 2499.1586393039797 505.64975798359706 0 505.64975798359706 -353.3416976426555 0 0 0 0 2500.2009900618286 93.289354704106017 0 93.289354704106017 -930.46317173217722 0 0 0 0 1648.9779176415868 -34.939229934275147 0 -34.939229934275147 -693.71787211319941 0 0 0 0 752.23411920038234 446.44052592819173 0 446.44052592819173 256.15497915981553 0 0 0 0 1726.9132340346487 155.17947710282726 0 155.17947710282726 -340.73910599762223 0 0 0 0 556.47799607103661 -257.50725874937814 0 -257.50725874937814 -469.16029561689083 0 0 0 0 571.02131907245894 119.34626236732501 0 119.34626236732501 -62.807945223333149 0 0 0 0 886.27928400310702 523.76986955349844 0 523.76986955349844 4.6264414936484854 0 0 0 0 1226.0407850786651 627.15069705357018 0 627.15069705357018 317.70899886027377 0 0 0 0 1890.2522128938581 763.60656547925146 0 763.60656547925146 354.59318916149408 0 0 0 0 1483.0558518130674 830.06789953125656 0 830.06789953125656 364.49717126870274 0 0 0 0 703.66639079069864 751.71287666774685 0 751.71287666774685 731.34403942852396 0 0 0 0 845.47516548611259 494.58896757918416 0 494.58896757918416 369.55586365604131 0 0 0 0 639.55688901950998 567.4973776440047 0 567.4973776440047 430.25843154053928 0 0 0 0 1248.5813884840281 540.29194423033482 0 540.29194423033482 238.53020168355965 0 0 0 0 840.90330960154097 314.97165978679482 0 314.97165978679482 137.85001549045364 0 0 0 0 -1.1951984827484949 3.204195459509549 0 3.204195459509549 16.616166510323666 0 0 0 0 969.26905291021922 603.07855873271967 0 603.07855873271967 282.81851829942616 0 0 0 0 950.95078907204879 714.43483968817657 0 714.43483968817657 493.45477556976783 0 0 0 0 699.24047101221731 610.77447257672918 0 610.77447257672918 614.76260969430382 0 0 0 0 572.67663353579883 476.43138747422211 0 476.43138747422211 206.27603500835266 0 0 0 0 412.8236734409511 314.14459211769037 0 314.14459211769037 536.0136189862543 0 0 0 0 1084.3485655575787 1029.3736362641434 0 1029.3736362641434 612.67869022752711 0 0 0 0 2088.6887475770709 851.2218810605068 0 851.2218810605068 311.38947754834135 0 0 0 0 512.59211341276023 650.98096405218598 0 650.98096405218598 478.3765092719384 0 0 0 0 1.1179389474662713 -0.13275269232573805 0 -0.13275269232573805 5.5527558972038857 0 0 0 0 472.97992933295609 445.4663385646686 0 445.4663385646686 -543.2389790474208 0 0 0 0 -556.13763257731989 -3.6369700453267342 0 -3.6369700453267342 129.75659375824853 0 0 0 0 556.28248282499044 206.91801564893242 0 206.91801564893242 181.44934681371413 0 0 0 0 556.34327531912288 840.62535695786471 0 840.62535695786471 170.81144755400055 0 0 0 0 283.94637335890002 364.79309616493265 0 364.79309616493265 22.775275662047989 0 0 0 0 -459.31275040179389 -128.26819995144842 0 -128.26819995144842 209.81467895139394 0 0 0 0 245.28074418365395 120.45872701209476 0 120.45872701209476 3.8689310422707877 0 0 0 0 -5.3403923318214908 11.684405390593739 0 11.684405390593739 -20.47613189764165 0 0 0 0 157.08853727430687 60.117263573216633 0 60.117263573216633 -23.569652804529483 0 0 0 0 140.92606952528149 48.801434031744179 0 48.801434031744179 -16.619260092614695 0 0 0 0 151.40065797096759 50.60255503202734 0 50.60255503202734 -20.88654096299615 0 0 0 0 198.55907308687347 52.23001389721604 0 52.23001389721604 -34.212332594924646 0 0 0 0 138.59356937103985 58.178405431560691 0 58.178405431560691 -18.42623648212566 0 0 0 0 64.199122643003648 366.42022406112392 0 366.42022406112392 75.896843124370434 0 0 0 0 -10.189985871545559 15.970452028870334 0 15.970452028870334 -26.393670458524984 0 0 0 0 53.049031209091481 59.130610616789568 0 59.130610616789568 -4.0400759567210116 0 0 0 0 118.02220373788532 40.785706989056962 0 40.785706989056962 -19.969270107877492 0 0 0 0 115.54542143929893 67.767797942740017 0 67.767797942740017 -22.406309994134972 0 0 0 0 147.69964882526256 30.371211364840974 0 30.371211364840974 -26.228310641208282 0 0 0 0 160.02503356740635 38.453227153772787 0 38.453227153772787 -32.997355576906557 0 0 0 0 159.45197701625875 38.180790624913698 0 38.180790624913698 -32.858783839408716 0 0 0 0 147.93172503764799 24.717597531899401 0 24.717597531899401 -12.050913730484353 0 0 0 0 148.48078324497328 29.317698240053005 0 29.317698240053005 -23.721416476710601 0 0 0 0 115.91070623743872 40.450614544969994 0 40.450614544969994 -19.738952739028264 0 0 0 0 109.36834210151574 22.930626331254189 0 22.930626331254189 -0.33707744907678716 0 0 0 0 135.15846589587454 35.886075874280323 0 35.886075874280323 -9.2378178584328907 0 0 0 0 141.86097383591004 20.689951607647458 0 20.689951607647458 2.64527413920041 0 0 0 0 64.978391174467106 25.361195550822686 0 25.361195550822686 4.3749805050874784 0 0 0 0 86.854574865516042 39.413957540425599 0 39.413957540425599 -5.6863738423871837 0 0 0 0 102.43519607288181 43.329388759400103 0 43.329388759400103 -15.755933402033861 0 0 0 0 104.12966448013321 27.927327654921442 0 27.927327654921442 -16.919203379112332 0 0 0 0 40.649186351685785 22.613450649961237 0 22.613450649961237 -6.0831378256649487 0 0 0 0 -5.6478171466243765 21.237955205498587 0 21.237955205498587 -26.609212737247908 0 0 0 0 -7.8722328861339719 9.78406531366754 0 9.78406531366754 25.222594906892827 0 0 0 0 53.148888521100162 51.961535611638965 0 51.961535611638965 -21.474500748849209 0 0 0 0 3.9503418791246077 39.372569903942576 0 39.372569903942576 15.835235956421002 0 0 0 0 386.97343087149784 362.10195140285578 0 362.10195140285578 78.726405664825734 0 0 0 0 -13.012136933416933 20.783538122849151 0 20.783538122849151 0.25374215586115945 0 0 0 0 1.0013114122412219 8.4665236420690562 0 8.4665236420690562 -6.3866200267360789 0 0 0 0 60.239331679284078 54.04583034984546 0 54.04583034984546 17.136237067918046 0 0 0 0 452.62157936504082 289.1908946992753 0 289.1908946992753 108.44141125920987 0 0 0 0 625.0112104888467 238.71598420134933 0 238.71598420134933 -11.271144713490685 0 0 0 0 584.01902213971334 210.90120978316236 0 210.90120978316236 70.766808905511425 0 0 0 0 763.51586285831581 232.19311228921993 0 232.19311228921993 73.101743221236802 0 0 0 0 6.9020155394100584 207.43751125178642 0 207.43751125178642 58.810613889592787 0 0 0 0 785.0965544964547 285.07575078174045 0 285.07575078174045 196.76108425820166 0 0 0 0 -2.4306748769423265 5.0236261971782454 0 5.0236261971782454 22.392618675190828 0 0 0 0 -154.00141363244984 -179.21612473102186 0 -179.21612473102186 159.48762731079478 0 0 0 0 602.30700248582434 307.79357591095561 0 307.79357591095561 257.66666959309077 0 0 0 0 327.74883906503237 408.02892662606587 0 408.02892662606587 521.6817564684161 0 0 0 0 638.65682095818556 374.73488905210195 0 374.73488905210195 245.56951141054651 0 0 0 0 728.19942629264187 1067.2802202498783 0 1067.2802202498783 992.42636077782277 0 0 0 0 -674.69674106875027 308.13352498823156 0 308.13352498823156 583.27941148781338 0 0 0 0 1.6969139624622862 3.9432759670398028 0 3.9432759670398028 8.3669133863195846 0 0 0 0 319.33736827160465 92.532912412509177 0 92.532912412509177 -118.54975078115513 0 0 0 0 408.12780251745426 268.25062375434072 0 268.25062375434072 199.69185163107954 0 0 0 0 430.34757882135455 370.28444010052317 0 370.28444010052317 -115.23679497909396 0 0 0 0 724.6526138932204 176.09748946898708 0 176.09748946898708 57.740635532542456 0 0 0 0 506.85874611471627 499.43265161017462 0 499.43265161017462 179.52223071856679 0 0 0 0 -184.53059074763291 981.44878723244756 0 981.44878723244756 560.56894350072002 0 0 0 0 1.0324994621706169 7.8838594732285898 0 7.8838594732285898 17.090647655756232 0 0 0 0 118.5584228168118 319.76539448436142 0 319.76539448436142 56.421026289467136 0 0 0 0 1706.4478021311643 584.37303533923728 0 584.37303533923728 -261.32963166731417 0 0 0 0 410.31655661440163 542.01145903667884 0 542.01145903667884 -207.32069030744219 0 0 0 0 361.41404558009162 1280.3614522185094 0 1280.3614522185094 1315.9482740257331 0 0 0 0 2497.2793704533415 1959.0980441140434 0 1959.0980441140434 457.50558617262232 0 0 0 0 1141.8240739992143 2118.2430376299508 0 2118.2430376299508 2173.3076114794007 0 0 0 0 2034.2714717075723 1406.2277878425548 0 1406.2277878425548 -115.56252993004004 0 0 0 0 1784.6766896462905 1630.5834018699434 0 1630.5834018699434 82.434492565680188 0 0 0 0 2499.8684145469815 1179.2969096996026 0 1179.2969096996026 261.90226393164693 0 0 0 0 2713.7633262558484 1270.6741333986729 0 1270.6741333986729 206.25759549551469 0 0 0 0 1887.5733548681292 1149.03924893666 0 1149.03924893666 1095.9884293755238 0 0 0 0 1921.0586990780816 1013.8719000414025 0 1013.8719000414025 235.06484682553636 0 0 0 0 2499.4433185291309 -1145.096209103926 0 -1145.096209103926 448.21085150072156 0 0 0 0 -8.2719951377130201 -18.578585774439489 0 -18.578585774439489 413.60701105628323 0 0 0 0 130.63222870464051 -486.67144240431821 0 -486.67144240431821 833.58630352258524 0 0 0 0 194.66966340303543 177.13960761148212 0 177.13960761148212 -56.772465467667644 0 0 0 0 24.913615875803771 -23.37125047261668 0 -23.37125047261668 20.332819584120443 0 0 0 0 38.503052122141639 19.893261918797776 0 19.893261918797776 -3.6686082929447208 0 0 0 0 28.012138145863322 6.201314068287525 0 6.201314068287525 -1.8236654563663972 0 0 0 0 5.1598440350226458 -1.0978178675756123 0 -1.0978178675756123 8.200357529780316 0 0 0 0 2498.8267047256568 -1360.1654785646699 0 -1360.1654785646699 684.1311513944645 0 0 0 0 2326.6251375952943 -1124.2615166445021 0 -1124.2615166445021 476.87627164942114 0 0 0 0 12.866411956131643 0.8241824175687853 0 0.8241824175687853 3.6045640703479087 0 0 0 0 243.77274378354196 217.66510120844475 0 217.66510120844475 235.84810084588744 0 0 0 0 7.1468286167856903 -2.187552315139067 0 -2.187552315139067 4.8370287968363295 0 0 0 0 18.209740966069148 16.478077579154615 0 16.478077579154615 -9.1086947039023016 0 0 0 0 2485.1778814311838 -584.95814667623949 0 -584.95814667623949 -552.96613056186618 0 0 0 0 -1.7804637334612679 4.927510488088152 0 4.927510488088152 10.8563067675209 0 0 0 0 2.370695452039822 2.9286715024706105 0 2.9286715024706105 11.120224423657845 0 0 0 0 -108.24198733308367 -610.60396510563373 0 -610.60396510563373 2137.9466966856348 0 0 0 0 2494.1149055058486 9.2377984008430669 0 9.2377984008430669 9.4907885910718246 0 0 0 0 16.576016861570679 139.16046879479836 0 139.16046879479836 606.83397513230739 0 0 0 0 -564.33131344483263 -441.24263723823333 0 -441.24263723823333 712.08654797664349 0 0 0 0 -1234.1823176058388 -246.45021996143441 0 -246.45021996143441 1082.2130151859483 0 0 0 0 31.17356235880834 13.311014125011695 0 13.311014125011695 -8.6231179977951342 0 0 0 0 14.43572307885691 16.039014927767624 0 16.039014927767624 9.2039596709755429 0 0 0 0 23.403408841577402 26.698315144501038 0 26.698315144501038 -2.8171963118588792 0 0 0 0 193.81649674420623 1095.0506814846817 0 1095.0506814846817 1082.1116820379902 0 0 0 0 26.226419554008487 20.952239047330512 0 20.952239047330512 2.2261022516896141 0 0 0 0 1294.9390999555399 515.77692720916639 0 515.77692720916639 -45.72537133339074 0 0 0 0 -802.33063534078246 73.147975862144904 0 73.147975862144904 205.52861758774725 0 0 0 0 0.12667767624380666 1.7627101378627472 0 1.7627101378627472 9.0134283500007921 0 0 0 0 -1441.0008734447174 24.400216944615295 0 24.400216944615295 958.97272802804582 0 0 0 0 1499.6572613333724 533.62747102016965 0 533.62747102016965 -113.10935874350071 0 0 0 0 -1.0757198821138729 13.113539197247739 0 13.113539197247739 -7.354889756060178 0 0 0 0 -17.879384981149542 42.211800806316148 0 42.211800806316148 341.42266162291162 0 0 0 0 38.356300705047033 39.774913547149936 0 39.774913547149936 5.6600332877004575 0 0 0 0 32.247742926084456 25.668528665432071 0 25.668528665432071 6.315170444808949 0 0 0 0 58.119139580583578 73.751656303181562 0 73.751656303181562 -18.416190777309566 0 0 0 0 48.603169415826414 93.066811207238743 0 93.066811207238743 42.692321868577437 0 0 0 0 -0.29339063832634338 5.6777540033089018 0 5.6777540033089018 6.9795104751352381 0 0 0 0 8.7699957191798603 65.953457195201736 0 65.953457195201736 128.92488067790009 0 0 0 0 51.71917185068196 43.603998443101091 0 43.603998443101091 -56.5761517684914 0 0 0 0 48.24669346163455 27.945513014760721 0 27.945513014760721 19.043576412133916 0 0 0 0 6.7449984091044541 20.250715482874732 0 20.250715482874732 -15.378943943267002 0 0 0 0 43.19478769662237 25.993766524527928 0 25.993766524527928 -6.3848250596406615 0 0 0 0 49.097331988058158 -373.9746177724727 0 -373.9746177724727 159.65838865336116 0 0 0 0 387.38786953469571 162.04353268860172 0 162.04353268860172 -265.05723932728091 0 0 0 0 63.805675549349559 19.775038236565965 0 19.775038236565965 -10.044918540572354 0 0 0 0 347.94813007012453 -317.230358917069 0 -317.230358917069 94.589492273544693 0 0 0 0 20.677846279496585 3.5195560342922425 0 3.5195560342922425 -5.1572199575796702 0 0 0 0 91.793302726633556 112.21986054234003 0 112.21986054234003 -69.58154693141887 0 0 0 0 -25.106048964109505 50.125852470140217 0 50.125852470140217 -50.571374581929831 0 0 0 0 70.346140981164353 67.921598736566466 0 67.921598736566466 -79.163738237704706 0 0 0 0 67.216520493602729 37.720626705889572 0 37.720626705889572 -119.62054427971907 0 0 0 0 -35.309894658261328 96.820696322579352 0 96.820696322579352 -88.865642130933111 0 0 0 0 6.7607447835106171 6.5833919294347609 0 6.5833919294347609 2.2254666822437006 0 0 0 0 59.113692873172113 3.3149408829935965 0 3.3149408829935965 -111.08559138815042 0 0 0 0 30.591957626646035 67.529952928227885 0 67.529952928227885 -89.601073458052269 0 0 0 0 31.807124929156998 20.251342419087905 0 20.251342419087905 -54.488498979367478 0 0 0 0 36.981500080462865 20.145399976152476 0 20.145399976152476 -56.613818566968348 0 0 0 0 30.752112622765708 107.49128403174063 0 107.49128403174063 108.21181830586102 0 0 0 0 49.159733948078483 21.845576700619624 0 21.845576700619624 4.2895332729720854 0 0 0 0 27.06867303958083 13.583225318416943 0 13.583225318416943 4.2892894128378121 0 0 0 0 43.548328664895962 35.109752641465093 0 35.109752641465093 10.472032917852118 0 0 0 0 11.65638040743579 37.153453158878619 0 37.153453158878619 47.392493985494639 0 0 0 0 11.266109055909038 20.808753357731518 0 20.808753357731518 26.150771573320462 0 0 0 0 38.47201034313548 48.424250035838213 0 48.424250035838213 -14.654762742706225 0 0 0 0 -0.80169025983578734 21.45436444938823 0 21.45436444938823 1.4564938477496767 0 0 0 0 33.985800288675819 19.051094876448701 0 19.051094876448701 3.980236928402519 0 0 0 0 19.22280947973195 39.165834170079961 0 39.165834170079961 12.185317292509808 0 0 0 0 36.519276784194517 37.324211630297214 0 37.324211630297214 7.8062323758736056 0 0 0 0 29.878899657582224 31.55727890322305 0 31.55727890322305 7.8970933157143008 0 0 0 0 16.720610017640865 65.388299579412887 0 65.388299579412887 -25.442439068358453 0 0 0 0 -30.966215820692014 52.133258101634965 0 52.133258101634965 3.2515880604134964 0 0 0 0 -25.944563056320476 -11.537267923582476 0 -11.537267923582476 3.6095076213773609 0 0 0 0 81.010402829582745 6.1782249162006337 0 6.1782249162006337 -2.8173846189029064 0 0 0 0 84.660531118678591 -16.642752039776781 0 -16.642752039776781 -18.505735655773606 0 0 0 0 39.306069749392918 20.19466250034219 0 20.19466250034219 15.310680478924041 0 0 0 0 25.476723807594681 29.447025385773713 0 29.447025385773713 13.883498940415848 0 0 0 0 90.434209779725279 20.78056596492371 0 20.78056596492371 9.7432190460958736 0 0 0 0 142.03072329466522 16.299250704172209 0 16.299250704172209 -17.351907683831996 0 0 0 0 166.2564142406336 51.404570948272294 0 51.404570948272294 2.5092351579269234 0 0 0 0 206.9899346610182 21.879998956268537 0 21.879998956268537 -42.929167689002497 0 0 0 0 141.86374808501569 28.907377891750002 0 28.907377891750002 -10.30161291091008 0 0 0 0 170.59926882653963 19.852457131486517 0 19.852457131486517 -31.077407460019458 0 0 0 0 173.53626111788617 6.7084632506166599 0 6.7084632506166599 -30.86932961113871 0 0 0 0 251.24438434551394 111.26806412319189 0 111.26806412319189 10.519138743444273 0 0 0 0 305.72108810758073 74.495296937923285 0 74.495296937923285 -34.309557690723523 0 0 0 0 261.77582119040471 29.184365386657078 0 29.184365386657078 -55.624171432775256 0 0 0 0 -443.83488491053868 571.51066987399281 0 571.51066987399281 592.0130302104526 0 0 0 0 186.41579080456722 1.5534056881592733 0 1.5534056881592733 -65.374936714378237 0 0 0 0 335.7573155079117 154.72661349613327 0 154.72661349613327 6.2813771723813261 0 0 0 0 62.142128081140982 -43.637622331295916 0 -43.637622331295916 -41.01004709226072 0 0 0 0 115.46419674961999 -34.092842425844196 0 -34.092842425844196 -111.79395773582837 0 0 0 0 9.2922466288252963 3.6173990688264723 0 3.6173990688264723 1.3118552139915503 0 0 0 0 76.329493663787986 23.236248000517843 0 23.236248000517843 2.6762339810831728 0 0 0 0 120.3031595260818 1.301949609268604 0 1.301949609268604 -123.64166614628539 0 0 0 0 40.684276247854086 -0.28201936421163509 0 -0.28201936421163509 -26.39987182976347 0 0 0 0 97.927059698729863 90.928012322081145 0 90.928012322081145 -63.298917982700004 0 0 0 0 158.56182857949898 -52.540123079673776 0 -52.540123079673776 -57.784263143934368 0 0 0 0 114.07548794945615 111.67818357577198 0 111.67818357577198 287.66550997312515 0 0 0 0 267.41172118549002 -163.28391756552946 0 -163.28391756552946 150.9237438342584 0 0 0 0 107.73524048780018 35.636712624231677 0 35.636712624231677 -0.86518554090980615 0 0 0 0 486.70514786798958 58.723375506747288 0 58.723375506747288 -85.66221385834433 0 0 0 0 119.78119759129186 -2.0480880562765833 0 -2.0480880562765833 -23.6683959931961 0 0 0 0 75.083204269016278 -45.114522232383706 0 -45.114522232383706 33.947250420838827 0 0 0 0 12.296007934317458 16.397343343918237 0 16.397343343918237 -26.019813518052075 0 0 0 0 2.4279628854128532 22.437979176019326 0 22.437979176019326 -19.245858136495372 0 0 0 0 -8.6556100201796653 67.946895914577567 0 67.946895914577567 -28.12102988245897 0 0 0 0 21.803766248711327 67.102887835671936 0 67.102887835671936 58.853315362154262 0 0 0 0 56.151188846193691 89.444337996239028 0 89.444337996239028 -78.67620250987693 0 0 0 0 -28.129614022291207 96.675768401290043 0 96.675768401290043 -1.5083226151439248 0 0 0 0 -10.655344382008479 109.97070588970792 0 109.97070588970792 -131.58769471283449 0 0 0 0 27.952212173163417 13.490021323483663 0 13.490021323483663 -2.7922807533094707 0 0 0 0 -34.077526368113467 148.8057475010736 0 148.8057475010736 -94.294523756843773 0 0 0 0 -65.975574067429989 95.003601702896958 0 95.003601702896958 -62.454674307811274 0 0 0 0 207.84785637138339 71.558477548068367 0 71.558477548068367 -122.62694730311159 0 0 0 0 53.774256833316031 108.34798104845936 0 108.34798104845936 30.048405745488708 0 0 0 0 362.03981064513937 108.29146009100214 0 108.29146009100214 -63.204572983561775 0 0 0 0 163.45559223730197 -1.8685566663659756 0 -1.8685566663659756 -115.74267645738655 0 0 0 0 149.2435362186261 10.742280979882707 0 10.742280979882707 -126.92092323971156 0 0 0 0 57.633653553874737 10.157981823458091 0 10.157981823458091 -3.6683920322203392 0 0 0 0 53.084557250440412 74.663839356323024 0 74.663839356323024 -114.80048593845095 0 0 0 0 88.576329063515004 18.925747375498304 0 18.925747375498304 -120.63154623320179 0 0 0 0 104.73294838538823 3.7106815388490304 0 3.7106815388490304 -110.08068163313874 0 0 0 0 12.857191683307931 -7.1376189575840456 0 -7.1376189575840456 -4.1720948915695963 0 0 0 0 136.04591841761066 33.512521214196568 0 33.512521214196568 -125.3614892329042 0 0 0 0 25.835168864219668 70.162341019814448 0 70.162341019814448 -96.457775330531149 0 0 0 0 47.980928059718281 -8.9888268623876684 0 -8.9888268623876684 -2.1307726689665287 0 0 0 0 118.2381456686835 13.706611222371521 0 13.706611222371521 -70.431430664999425 0 0 0 0 109.62236034829493 18.433150388067588 0 18.433150388067588 -48.639113029717919 0 0 0 0 26.545131795943234 -14.107367481213259 0 -14.107367481213259 -21.434503188716917 0 0 0 0 52.193296846267003 3.0384988119556056 0 3.0384988119556056 -41.979528537000078 0 0 0 0 47.571057055248957 0.34316212990722761 0 0.34316212990722761 -42.939789943485266 0 0 0 0 75.327617490143894 105.21298627210513 0 105.21298627210513 -173.03396859034183 0 0 0 0 27.472059418430035 11.512240408047319 0 11.512240408047319 -49.136118202324042 0 0 0 0 20.171006543963269 9.8282234901885062 0 9.8282234901885062 -1.8008633824900211 0 0 0 0 20.680325744735455 21.291368467099801 0 21.291368467099801 -20.173322481045489 0 0 0 0 40.071303722605599 2.7895225356114892 0 2.7895225356114892 -5.623364705840558 0 0 0 0 -4.1574890902893458 -0.94873884221988192 0 -0.94873884221988192 -26.006705585789859 0 0 0 0 -94.817750640727184 -22.573615155470264 0 -22.573615155470264 46.345751575243185 0 0 0 0 0.071351291091607871 13.744037720364421 0 13.744037720364421 -9.7243190876149121 0 0 0 0 22.426537855107199 -9.2292133600910802 0 -9.2292133600910802 -23.912325797746234 0 0 0 0 469.94635406527959 125.47937279743053 0 125.47937279743053 -83.884996060966131 0 0 0 0 303.95593780959575 -86.580666075183274 0 -86.580666075183274 -73.96469752264295 0 0 0 0 78.426923942724443 95.924901368228518 0 95.924901368228518 -108.9838744122066 0 0 0 0 120.40259472956836 163.25594056108454 0 163.25594056108454 -2.6702250608005897 0 0 0 0 -59.147825929500414 42.739514343886185 0 42.739514343886185 165.91605899288732 0 0 0 0 -62.254035197651319 24.018874224812635 0 24.018874224812635 50.38047889430328 0 0 0 0 7.2038969262200681 8.0004793638196592 0 8.0004793638196592 -0.62126499232048904 0 0 0 0 38.490907952445923 -41.228330628909418 0 -41.228330628909418 -64.020122016014042 0 0 0 0 -103.08171010120077 80.073831310313508 0 80.073831310313508 32.3819689459296 0 0 0 0 43.784304132021134 27.410613488870524 0 27.410613488870524 -58.64249879914837 0 0 0 0 54.673781077261992 46.654301465359879 0 46.654301465359879 -92.977348721688941 0 0 0 0 -56.135426847473354 107.95494432959282 0 107.95494432959282 -36.306209988276123 0 0 0 0 59.158316527641311 18.732535218112595 0 18.732535218112595 -10.126884096033722 0 0 0 0 26.109743935870938 14.875725927060557 0 14.875725927060557 -20.743860267390971 0 0 0 0 32.368681322464738 18.09351763648786 0 18.09351763648786 -13.947744897854506 0 0 0 0 -135.50561089042458 118.02930576406288 0 118.02930576406288 -88.582507025377708 0 0 0 0 15.395913476417689 -2.6748694881796879 0 -2.6748694881796879 -1.9501887673264111 0 0 0 0 -33.492422345821979 41.325436499086209 0 41.325436499086209 -54.224982747038666 0 0 0 0 -3.1271600524923997 84.444879031602113 0 84.444879031602113 -54.169452660916249 0 0 0 0 -36.75676152446249 63.186538217349153 0 63.186538217349153 -12.268270905386771 0 0 0 0 -37.88765361734113 56.68782113993575 0 56.68782113993575 -20.256636492955295 0 0 0 0 20.330121778464672 26.73319373545678 0 26.73319373545678 -14.845730392580663 0 0 0 0 8.5597266716140439 43.353729815024508 0 43.353729815024508 -37.823001427809913 0 0 0 0 64.420453719396193 18.297852014474042 0 18.297852014474042 -7.9225302692799131 0 0 0 0 25.47828032423422 57.140659671891854 0 57.140659671891854 -64.700165142272454 0 0 0 0 30.563345371650939 72.207518433882797 0 72.207518433882797 -49.743190067866635 0 0 0 0 25.790961846011669 35.557256300069028 0 35.557256300069028 -51.615965903074084 0 0 0 0 35.273011931367364 346.88501005628302 0 346.88501005628302 -105.390800440996 0 0 0 0 803.78456720021586 193.55877910897772 0 193.55877910897772 37.829701135862024 0 0 0 0 -123.71241004197191 -73.784728064473043 0 -73.784728064473043 30.856500290169564 0 0 0 0 843.30300967597759 -345.94265538885105 0 -345.94265538885105 -110.63539050088602 0 0 0 0 705.06124112551811 -463.77196406778347 0 -463.77196406778347 184.51422588290961 0 0 0 0 1057.4216960856743 -276.86943549509476 0 -276.86943549509476 261.47636076756567 0 0 0 0 831.62630813215105 -45.364654540033428 0 -45.364654540033428 42.01344384116851 0 0 0 0 4.681184665495457 0.28095296378686418 0 0.28095296378686418 0.36630126782810368 0 0 0 0 -13.207018978676842 19.443087783509398 0 19.443087783509398 237.51545232956411 0 0 0 0 726.04774800395762 -269.75002205506001 0 -269.75002205506001 -36.892266753587762 0 0 0 0 124.34530610984699 -82.271443762247344 0 -82.271443762247344 47.14784155135078 0 0 0 0 561.69495830412234 -210.66780422707836 0 -210.66780422707836 -91.877683234566121 0 0 0 0 1.4104947013471558 -0.9160164757368412 0 -0.9160164757368412 0.42451302052389961 0 0 0 0 208.9372593600267 -168.61428021503315 0 -168.61428021503315 66.894792283439529 0 0 0 0 442.77457907006817 290.90693314186683 0 290.90693314186683 -40.283017137462593 0 0 0 0 689.49852974325995 15.367770286481118 0 15.367770286481118 -69.400138519387156 0 0 0 0 241.97188184694235 131.8820101379591 0 131.8820101379591 51.490649723904426 0 0 0 0 661.28163001308371 -26.148439728840458 0 -26.148439728840458 -83.771372708908757 0 0 0 0 1089.5685416730421 97.874153915135821 0 97.874153915135821 -216.76559927108929 0 0 0 0 1160.9184420421295 165.54512394427729 0 165.54512394427729 -210.83655931445469 0 0 0 0 815.17680078078911 168.50481186507352 0 168.50481186507352 -121.31596327461153 0 0 0 0 1043.0929666439558 -29.72401769005819 0 -29.72401769005819 -190.00578889764392 0 0 0 0 777.35150288215027 -90.057618962526078 0 -90.057618962526078 -130.67932803624262 0 0 0 0 1180.3983052042977 -158.46675598009654 0 -158.46675598009654 -179.92318638127506 0 0 0 0 1681.7499813183249 -334.78611374405114 0 -334.78611374405114 -139.47959737238614 0 0 0 0 1218.551452644793 -13.427709824903758 0 -13.427709824903758 -262.77765338175845 0 0 0 0 1701.0534973581937 222.68413361192458 0 222.68413361192458 -361.16003424443147 0 0 0 0 1401.7093421580159 -66.033625050495971 0 -66.033625050495971 -279.85102098600379 0 0 0 0 1920.6259714463117 -101.15401007711698 0 -101.15401007711698 -477.75721926061942 0 0 0 0 2499.254450139817 230.57711741707064 0 230.57711741707064 -602.57000745198252 0 0 0 0 1737.8639037210937 -118.52021960858831 0 -118.52021960858831 -479.38581434126542 0 0 0 0 1621.3225080984446 -518.21345183937149 0 -518.21345183937149 -159.5726035864221 0 0 0 0 2499.642949959105 -476.69898332675115 0 -476.69898332675115 -413.12570858776917 0 0 0 0 1062.336512301832 -273.98166659717754 0 -273.98166659717754 -30.703373053260236 0 0 0 0 1620.107023166604 -551.24524149614194 0 -551.24524149614194 -18.797969948353369 0 0 0 0 1820.4192683447291 -1129.7791675415253 0 -1129.7791675415253 28.901100389255387 0 0 0 0 827.74432648462061 -625.96359570740651 0 -625.96359570740651 25.766990058097633 0 0 0 0 1827.6655651454548 -481.15987866889742 0 -481.15987866889742 -190.98214143292648 0 0 0 0 96.867231911011913 -44.448291387076551 0 -44.448291387076551 12.308418516314987 0 0 0 0 73.613970278001943 3.7920887955654052 0 3.7920887955654052 -47.174456678959018 0 0 0 0 74.254996983167075 -18.502586742641029 0 -18.502586742641029 -73.969053191081457 0 0 0 0 -0.5921459108790561 0.74375641429902828 0 0.74375641429902828 -2.209869606898156 0 0 0 0 38.049999139544525 -14.143141061023016 0 -14.143141061023016 9.8912249980730849 0 0 0 0 33.005953473384579 -17.094996786878028 0 -17.094996786878028 53.044055183115233 0 0 0 0 -31.728902403461689 -36.2222549770363 0 -36.2222549770363 48.088190141662608 0 0 0 0 -11.709470683519612 -53.6857180765669 0 -53.6857180765669 24.565077533486146 0 0 0 0 -14.965363386108947 -116.14447648538135 0 -116.14447648538135 -126.13334060734178 0 0 0 0 -14.956380299557622 -23.308817199723308 0 -23.308817199723308 13.308597054596248 0 0 0 0 4.6565567030043837 -2.7055097088315634 0 -2.7055097088315634 -0.2427812907975202 0 0 0 0 135.99287026542879 -35.442070544640046 0 -35.442070544640046 -31.787088440937623 0 0 0 0 86.029952399061585 -148.41285369013576 0 -148.41285369013576 114.59546248195784 0 0 0 0 1.4968709816911883 -1.3798343115095619 0 -1.3798343115095619 0.4962371978383695 0 0 0 0 123.83639073881204 -68.94580719044643 0 -68.94580719044643 -1.5213755697159286 0 0 0 0 308.79034789111756 -70.905606159863964 0 -70.905606159863964 -153.30910967788896 0 0 0 0 -51.040718241463765 -41.894690207352141 0 -41.894690207352141 238.39159928306799 0 0 0 0 -3.1882026246294117 64.501797641886469 0 64.501797641886469 -34.682305907255795 0 0 0 0 49.852143901651289 -106.50070501694427 0 -106.50070501694427 80.815212372999667 0 0 0 0 129.45642641274026 -236.41507281424583 0 -236.41507281424583 210.8063221492439 0 0 0 0 260.85642730785912 -138.7616338207813 0 -138.7616338207813 15.245160848273372 0 0 0 0 99.785640285721456 -89.588217039593474 0 -89.588217039593474 58.823693249926691 0 0 0 0 79.631561947484442 -117.53886766461528 0 -117.53886766461528 84.826261933401838 0 0 0 0 60.428643749939511 -91.300520717222753 0 -91.300520717222753 99.209974305351352 0 0 0 0 52.24530426452111 -73.109000606185873 0 -73.109000606185873 72.212569683871152 0 0 0 0 156.05578663341475 -119.60671263323434 0 -119.60671263323434 38.188237520544135 0 0 0 0 56.450378568086307 47.746521114991992 0 47.746521114991992 -111.7425647098695 0 0 0 0 123.3470887792937 -56.275451150212575 0 -56.275451150212575 -82.312827232322888 0 0 0 0 69.312317534764588 -5.2580569782221573 0 -5.2580569782221573 -97.066210662690082 0 0 0 0 1.0541479058901686 -0.74431694682499838 0 -0.74431694682499838 -1.8023087854989832 0 0 0 0 -37.371802600087904 125.44992548852474 0 125.44992548852474 -209.14785131602821 0 0 0 0 106.60099106117377 -159.14707537512209 0 -159.14707537512209 126.16977060735644 0 0 0 0 111.87016776754353 -75.223546701466091 0 -75.223546701466091 49.881926615931661 0 0 0 0 -16.107875115663774 -23.720102602699626 0 -23.720102602699626 -53.347727359723649 0 0 0 0 -4.9195741106013884 -4.0194798190141228 0 -4.0194798190141228 -43.91826848394453 0 0 0 0 0.62384092823992887 -0.1766279668614672 0 -0.1766279668614672 -2.7559280359617553 0 0 0 0 35.789205215913171 -27.61185088019144 0 -27.61185088019144 -14.037652462036476 0 0 0 0 -3.0572111525616492 5.2325870774673149 0 5.2325870774673149 -9.1529812034859788 0 0 0 0 -26.263976223955979 11.136147894073474 0 11.136147894073474 -60.730617798652929 0 0 0 0 32.212974961730652 -9.2663914789827686 0 -9.2663914789827686 -53.851161805721858 0 0 0 0 5.9999067962526169 -10.703428502431279 0 -10.703428502431279 15.282191191232869 0 0 0 0 200.06177423640474 -68.225438265198136 0 -68.225438265198136 -9.3445855137033504 0 0 0 0 95.330536270295852 -19.730040071868871 0 -19.730040071868871 26.541829085883364 0 0 0 0 123.90739288599616 5.9814461156134939 0 5.9814461156134939 -76.552255894659538 0 0 0 0 65.819243156956873 -70.54189984024174 0 -70.54189984024174 30.637704376873444 0 0 0 0 10.803319172109468 -3.8911222431356407 0 -3.8911222431356407 13.716204826148441 0 0 0 0 43.450445248992764 -36.854244966636656 0 -36.854244966636656 -20.03533824457736 0 0 0 0 5.7347130580022778 -2.415442042934103 0 -2.415442042934103 -4.0847501496645409 0 0 0 0 12.674326012864185 -22.379461808330689 0 -22.379461808330689 63.399119613121456 0 0 0 0 9.7321759513077861 -0.31484910678575062 0 -0.31484910678575062 -5.7484048468211295 0 0 0 0 26.717434174664959 -4.1965169146451444 0 -4.1965169146451444 1.1350079471549179 0 0 0 0 60.573214607325554 -14.997344701127581 0 -14.997344701127581 -7.229308082274656 0 0 0 0 20.527662005622162 -20.696051477987353 0 -20.696051477987353 -9.9624408729524578 0 0 0 0 47.791632253480202 5.4302957780676024 0 5.4302957780676024 0.95109253747068578 0 0 0 0 34.853936535973617 -22.714218150951737 0 -22.714218150951737 0.3926930414643266 0 0 0 0 35.952509981107141 -8.2674503310275327 0 -8.2674503310275327 8.279780549159554 0 0 0 0 26.517666732346697 -16.014884918533653 0 -16.014884918533653 -15.265474809894613 0 0 0 0 32.399818866578244 -18.854914096754626 0 -18.854914096754626 -14.759565773281338 0 0 0 0 34.534633008696943 -13.782611134814715 0 -13.782611134814715 -4.5581334539562492 0 0 0 0 -32.623416495982383 -25.405293707720375 0 -25.405293707720375 40.921916150791731 0 0 0 0 8.0748354540531686 -11.939318760240695 0 -11.939318760240695 -5.0258813830851778 0 0 0 0 22.918451718047436 -14.650591318856641 0 -14.650591318856641 -8.1421018321314023 0 0 0 0 25.764697206370784 -25.554912357736626 0 -25.554912357736626 -12.784272053776249 0 0 0 0 24.293768916931469 -14.345109602090737 0 -14.345109602090737 -7.3222019669100451 0 0 0 0 31.11555345794477 -72.180545920275108 0 -72.180545920275108 43.881039389404805 0 0 0 0 233.41502768774808 -45.759897937380174 0 -45.759897937380174 -13.06512924353774 0 0 0 0 55.719798328922479 -18.901505442225243 0 -18.901505442225243 5.1099101922509362 0 0 0 0 49.527772787059803 -3.6558465890141179 0 -3.6558465890141179 -31.628742695788787 0 0 0 0 24.884204443487761 -62.60477648964104 0 -62.60477648964104 -29.211355255029048 0 0 0 0 167.95229866726731 4.6348709187232089 0 4.6348709187232089 -26.656199796708279 0 0 0 0 0.14700056657966343 18.440923669301583 0 18.440923669301583 15.341088883742486 0 0 0 0 127.89046950484044 79.783721497070928 0 79.783721497070928 -0.40008857520842867 0 0 0 0 1.1662562161388905 -11.57156094570415 0 -11.57156094570415 2.3183526916910644 0 0 0 0 -29.867914788381313 -47.496070291060278 0 -47.496070291060278 -63.956795343600106 0 0 0 0 30.865056298047421 -16.12788862497041 0 -16.12788862497041 -14.806758906043569 0 0 0 0 30.470932434171871 -13.038391216307847 0 -13.038391216307847 -3.9716234386251021 0 0 0 0 47.104646483605279 -14.130393080104554 0 -14.130393080104554 -22.917912188932277 0 0 0 0 181.0366726450884 43.940176109784943 0 43.940176109784943 -12.723459509216809 0 0 0 0 189.335508281074 63.823779525767804 0 63.823779525767804 13.781127965583892 0 0 0 0 191.71856233463041 57.468434310228076 0 57.468434310228076 7.4606614007179815 0 0 0 0 206.93306703952112 65.102492107156422 0 65.102492107156422 -13.877247884154713 0 0 0 0 192.68636870569026 46.722884807241826 0 46.722884807241826 93.03108230929729 0 0 0 0 236.34178662698957 89.848088673610633 0 89.848088673610633 11.205339459736024 0 0 0 0 198.37594158637512 44.726646056067693 0 44.726646056067693 -18.082497124873498 0 0 0 0 158.34841904821769 56.803815189415104 0 56.803815189415104 -16.557078229383478 0 0 0 0 197.42311567802972 46.072651954795219 0 46.072651954795219 -33.179697947887689 0 0 0 0 182.18942719158076 29.783315532110464 0 29.783315532110464 -12.739809442737169 0 0 0 0 211.75273420431768 27.5874875654481 0 27.5874875654481 -5.4277611101902039 0 0 0 0 196.41042770544664 46.653966037353939 0 46.653966037353939 -3.245162917433845 0 0 0 0 195.14492234573117 41.433895902633594 0 41.433895902633594 -4.1615647955877648 0 0 0 0 196.42102984628582 52.789935735690051 0 52.789935735690051 -17.037154213164058 0 0 0 0 195.77016573952278 60.579772688295634 0 60.579772688295634 16.307887710294381 0 0 0 0 148.07334016959067 60.374528559103055 0 60.374528559103055 16.308769693619865 0 0 0 0 179.81177263035352 19.402416399123013 0 19.402416399123013 64.308912012720612 0 0 0 0 196.24515095339484 63.729086818572 0 63.729086818572 -4.2159535494593001 0 0 0 0 219.28694471306517 81.337648439161057 0 81.337648439161057 -16.746699908537721 0 0 0 0 196.58178073167073 111.82496052697479 0 111.82496052697479 67.499491326690986 0 0 0 0 200.40760040437453 63.984593478536226 0 63.984593478536226 -9.7720127797774694 0 0 0 0 411.93187548803689 5.4658579470001314 0 5.4658579470001314 -594.49354035571878 0 0 0 0 505.70432261776295 -959.57014556933927 0 -959.57014556933927 388.14356437174865 0 0 0 0 185.40285198821221 179.63151437733131 0 179.63151437733131 156.26719952511667 0 0 0 0 94.306260660861881 18.996750679937463 0 18.996750679937463 64.399582605001342 0 0 0 0 79.26813359411608 89.507748404345875 0 89.507748404345875 79.798148677664813 0 0 0 0 -59.884474571910687 368.31776128638012 0 368.31776128638012 217.99224937108647 0 0 0 0 240.26572140627832 9.2680017897423568 0 9.2680017897423568 12.401055633445139 0 0 0 0 186.64768156519858 -45.272191445378667 0 -45.272191445378667 108.45656058895247 0 0 0 0 3.4756033672406375 -1.7694101574438221 0 -1.7694101574438221 1.1033052117611337 0 0 0 0 203.94655717472779 59.569609914814464 0 59.569609914814464 2.9585952578133856 0 0 0 0 78.388968739108876 -8.8259545647324416 0 -8.8259545647324416 -17.214361978537511 0 0 0 0 123.64175429964962 33.1042113636463 0 33.1042113636463 30.292790480145868 0 0 0 0 -351.4543476111794 95.762161684695229 0 95.762161684695229 330.24341701495541 0 0 0 0 -199.59824095935619 -579.79434610056535 0 -579.79434610056535 65.760231154315079 0 0 0 0 66.573958873053925 -52.952954015832802 0 -52.952954015832802 54.405942779877705 0 0 0 0 104.61115981334297 101.04441561173326 0 101.04441561173326 87.211539129793891 0 0 0 0 1416.7814071440953 694.86374741651525 0 694.86374741651525 371.79541383770993 0 0 0 0 2.0020226577891833 -12.453695753542123 0 -12.453695753542123 -3.2759688601721795 0 0 0 0 109.56359322676144 112.86929368157439 0 112.86929368157439 -31.853719957287154 0 0 0 0 8.7964479710184804 7.930263724591164 0 7.930263724591164 1.8574788953283807 0 0 0 0 92.911775173592616 18.372153139445764 0 18.372153139445764 -2.1367307210601698 0 0 0 0 87.415578030737379 38.848468376396568 0 38.848468376396568 34.044608069925744 0 0 0 0 40.211799921751663 -3.8981360743105142 0 -3.8981360743105142 3.5138142548829023 0 0 0 0 15.281187828659281 4.1123259736532987 0 4.1123259736532987 2.1668387357892254 0 0 0 0 117.20480023751952 -8.0745662980355064 0 -8.0745662980355064 20.808200529068017 0 0 0 0 112.22608147822757 -2.6122256358944469 0 -2.6122256358944469 20.165609261714053 0 0 0 0 -70.545239745726576 -169.69356400679771 0 -169.69356400679771 -38.45872929391885 0 0 0 0 64.463253589828241 -18.845523757216473 0 -18.845523757216473 -22.389438288942209 0 0 0 0 -73.161264224705519 38.60521946672452 0 38.60521946672452 -171.19774771237644 0 0 0 0 85.623455296510656 -10.836082564097524 0 -10.836082564097524 -19.90994928730106 0 0 0 0 89.308709449214803 3.2229153416242298 0 3.2229153416242298 27.467150647426479 0 0 0 0 64.505561590060097 -39.132626248555198 0 -39.132626248555198 -9.3147027389270534 0 0 0 0 102.45211116099745 -14.820527124921455 0 -14.820527124921455 43.746656940679713 0 0 0 0 -2.1136909216702549 -3.0784436490833151 0 -3.0784436490833151 -0.81058522732974669 0 0 0 0 118.55455920993336 97.405825766243652 0 97.405825766243652 -41.308298477625954 0 0 0 0 100.50167864312243 159.41443447580559 0 159.41443447580559 86.07536206036923 0 0 0 0 -16.833809001465852 51.73407773730969 0 51.73407773730969 114.13649723725212 0 0 0 0 -127.48369535103848 -97.368385561171181 0 -97.368385561171181 103.49915350603624 0 0 0 0 -11.985596063914727 26.761137102248085 0 26.761137102248085 -159.14060698691719 0 0 0 0 27.953856558986672 32.290801049145955 0 32.290801049145955 -158.85942891599552 0 0 0 0 24.647007005798514 -7.9051334717514692 0 -7.9051334717514692 -161.11494187518929 0 0 0 0 -7.8328294378393366 -5.6370895372483858 0 -5.6370895372483858 -160.9600336532767 0 0 0 0 31.268295175392268 15.379557770947713 0 15.379557770947713 -183.29053357469729 0 0 0 0 43.152921285374759 -19.091080167535438 0 -19.091080167535438 -206.56355661250973 0 0 0 0 13.310220176300447 -1.9925833270384352 0 -1.9925833270384352 -0.62987003633271144 0 0 0 0 50.847566510309662 -27.042920749439787 0 -27.042920749439787 -140.13057061995005 0 0 0 0 35.853205592058657 -3.2301991827080201 0 -3.2301991827080201 -113.26837597746226 0 0 0 0 93.446293331027846 -40.499044721384053 0 -40.499044721384053 -93.757472594307728 0 0 0 0 89.670723326318694 40.237560258452959 0 40.237560258452959 -86.996225284452521 0 0 0 0 34.129685690879342 28.703125167284611 0 28.703125167284611 -73.606000639412741 0 0 0 0 14.686679938160523 15.134297426844569 0 15.134297426844569 -130.97604061411448 0 0 0 0 43.663813279636088 33.373611455764376 0 33.373611455764376 -120.30992648821666 0 0 0 0 56.341731491058454 19.057072164425421 0 19.057072164425421 -140.26872705487222 0 0 0 0 28.843432261652197 1.3942057997919619 0 1.3942057997919619 -108.30753366771933 0 0 0 0 119.89052853849898 264.94113458812546 0 264.94113458812546 115.25512304535914 0 0 0 0 96.014029604040843 -109.45386321873502 0 -109.45386321873502 -159.71842261668189 0 0 0 0 5.0691643665348636 -0.65419090699077032 0 -0.65419090699077032 0.15065936788587253 0 0 0 0 -24.982184402579151 -95.905713764576376 0 -95.905713764576376 -96.641920536972066 0 0 0 0 -53.325409991270135 -14.506404155541986 0 -14.506404155541986 -107.13998018338407 0 0 0 0 44.241834200784069 -66.333146786844651 0 -66.333146786844651 -85.594633574474756 0 0 0 0 18.091464400469704 -51.745358445491547 0 -51.745358445491547 -60.465115951920779 0 0 0 0 16.995005506327288 -77.273396564547966 0 -77.273396564547966 -64.829103463838237 0 0 0 0 76.535617045039544 -72.873936674345714 0 -72.873936674345714 -92.088498959294611 0 0 0 0 76.363836257798539 -76.353373886173429 0 -76.353373886173429 -96.964823840117788 0 0 0 0 131.58392249116878 -66.148455693904907 0 -66.148455693904907 -98.722021638647675 0 0 0 0 228.60443695335562 -68.028481583216944 0 -68.028481583216944 -147.01418833215848 0 0 0 0 71.403338536067167 -6.8254820368792934 0 -6.8254820368792934 -69.553346061511093 0 0 0 0 65.990080473231501 -41.996388806544019 0 -41.996388806544019 -84.760533310704886 0 0 0 0 56.814589865796734 -7.5142319298847724 0 -7.5142319298847724 -33.070350147774661 0 0 0 0 26.552196832017216 -29.749713393608999 0 -29.749713393608999 -49.401913009227428 0 0 0 0 65.014604368227083 -45.280450643387326 0 -45.280450643387326 -43.587534350153874 0 0 0 0 -68.835707296711917 -47.770810186837934 0 -47.770810186837934 17.12078677403224 0 0 0 0 66.555228142155102 -104.64344329328378 0 -104.64344329328378 -6.5689468858854525 0 0 0 0 -71.029279220711032 9.349721438382403 0 9.349721438382403 -19.505132798890372 0 0 0 0 14.03787724888025 -12.231011280252915 0 -12.231011280252915 -18.824299112509834 0 0 0 0 -117.69499776837256 -38.38120512342357 0 -38.38120512342357 23.416434198597926 0 0 0 0 36.805418942033612 -19.416321628048081 0 -19.416321628048081 -23.403575923474818 0 0 0 0 -308.83721835170581 54.152169503434379 0 54.152169503434379 105.74612440993405 0 0 0 0 60.896081876242533 30.148704854774223 0 30.148704854774223 -19.536105492310526 0 0 0 0 15.855533169950668 4.4146477312236811 0 4.4146477312236811 -6.2557437737981161 0 0 0 0 56.45760435332803 7.559108234256783 0 7.559108234256783 -2.1835278401039293 0 0 0 0 36.802673831711218 95.223849485195387 0 95.223849485195387 -34.950172009973585 0 0 0 0 17.343438537807742 37.511527182545251 0 37.511527182545251 -26.02583685861282 0 0 0 0 103.88735046699003 -3.4542063732719726 0 -3.4542063732719726 -122.99236477822888 0 0 0 0 99.222750607026683 67.78748230061683 0 67.78748230061683 18.849112105053337 0 0 0 0 19.713060181658875 39.903082848571785 0 39.903082848571785 4.0023684337520535 0 0 0 0 23.794379853419741 17.893644869992386 0 17.893644869992386 -30.601666211296106 0 0 0 0 43.15903485196759 14.509200971379414 0 14.509200971379414 -31.081902978294238 0 0 0 0 232.98589117274969 -55.563972168341934 0 -55.563972168341934 -73.05871156402236 0 0 0 0 66.263262687105453 -35.225729511287682 0 -35.225729511287682 -73.421452807836431 0 0 0 0 67.544215772311873 -336.66814849627644 0 -336.66814849627644 136.14734676767875 0 0 0 0 371.31780010303919 -20.343095888354583 0 -20.343095888354583 -71.552408109216231 0 0 0 0 221.21625196957757 85.220794035714789 0 85.220794035714789 32.790226652726233 0 0 0 0 82.005347473121219 46.839063621385321 0 46.839063621385321 30.601144058200589 0 0 0 0 232.09477948748099 45.219436531998781 0 45.219436531998781 -60.889878277283515 0 0 0 0 39.868365075316554 2.3215614997596212 0 2.3215614997596212 -5.0669021636524381 0 0 0 0 4.8162264019534859 0.96999137747562703 0 0.96999137747562703 -0.087366619376146204 0 0 0 0 -4.2827983208298974 -6.5440951215618952 0 -6.5440951215618952 42.192777297076759 0 0 0 0 54.161725812729856 30.261349934879036 0 30.261349934879036 63.614109157487292 0 0 0 0 -31.26491972963413 -82.400094495065559 0 -82.400094495065559 102.94728344151463 0 0 0 0 -2.1412912939849775 0.71968198971717356 0 0.71968198971717356 3.030448125176008 0 0 0 0 2.7376844108002842 -3.6495093763951445 0 -3.6495093763951445 6.5571056323205994 0 0 0 0 3.1795743127077003 -8.7837873447906532 0 -8.7837873447906532 17.894465905679681 0 0 0 0 21.375168699437381 8.6574154250815809 0 8.6574154250815809 -5.7629319651114201 0 0 0 0 18.880843278024258 -3.6029863607127481 0 -3.6029863607127481 3.9181840446017304 0 0 0 0 35.102435417125889 8.1177424552049615 0 8.1177424552049615 -6.1384563087140123 0 0 0 0 24.098390303246561 4.5181240413858177 0 4.5181240413858177 -5.7841745641871967 0 0 0 0 -9.122927318472648 15.096213740928761 0 15.096213740928761 -9.1434786560084831 0 0 0 0 7.4837656036871749 29.202911574778724 0 29.202911574778724 -62.062056725224465 0 0 0 0 22.748630741953093 10.737727161101247 0 10.737727161101247 -18.061082740590791 0 0 0 0 24.680193429132487 4.24365961579133 0 4.24365961579133 -35.301725622005961 0 0 0 0 -6.6699227209755918 11.622569425615438 0 11.622569425615438 5.4336404379135956 0 0 0 0 -4.0430322753018118 2.9933899963862132 0 2.9933899963862132 27.391754083308115 0 0 0 0 4.2936474532070861 4.1364958784593 0 4.1364958784593 -15.748672453511972 0 0 0 0 8.3633789441810222 8.2151944260340315 0 8.2151944260340315 -70.921480473929478 0 0 0 0 -6.5298503087833524 26.046098826456728 0 26.046098826456728 -25.230152783193262 0 0 0 0 2.778788150226319 5.721875484625798 0 5.721875484625798 -32.091035235911932 0 0 0 0 3.5312133788029314 20.010624756574543 0 20.010624756574543 -75.184421924551089 0 0 0 0 8.676557960206992 7.1959691591478077 0 7.1959691591478077 -112.96549627777586 0 0 0 0 21.119438138557598 36.422671408914084 0 36.422671408914084 -144.92908896638892 0 0 0 0 -45.059659213275154 27.449138940503417 0 27.449138940503417 -125.9622537328687 0 0 0 0 -7.3179457212390844 1.462953175394432 0 1.462953175394432 -72.280449509521759 0 0 0 0 1.9529268255869283 40.526890510092358 0 40.526890510092358 -124.38808670391154 0 0 0 0 -8.1845964813765022 22.808902615654915 0 22.808902615654915 -62.884652437344471 0 0 0 0 58.400749368623337 57.87756050101126 0 57.87756050101126 -206.02167071381155 0 0 0 0 54.146000851827694 0.40660993566024217 0 0.40660993566024217 -142.8201999830344 0 0 0 0 -24.818152941159497 95.983574164403308 0 95.983574164403308 -191.70893682411838 0 0 0 0 108.21726384849899 -96.433516619313195 0 -96.433516619313195 80.722614692722345 0 0 0 0 120.8640666056308 -115.43422796724008 0 -115.43422796724008 76.029270917161739 0 0 0 0 1.3139670741690423 -0.20961836283657487 0 -0.20961836283657487 -0.62696905161350536 0 0 0 0 44.93718067120426 91.475701270348509 0 91.475701270348509 -277.31500975266135 0 0 0 0 148.14183527414752 -98.458876850168281 0 -98.458876850168281 34.242416593820963 0 0 0 0 143.19319386535881 -116.88265675634352 0 -116.88265675634352 63.257445609622664 0 0 0 0 78.385207211267698 -65.176242083162833 0 -65.176242083162833 59.561084194196155 0 0 0 0 88.766202432350838 -76.238421951702549 0 -76.238421951702549 70.701355157833859 0 0 0 0 13.293647896549373 39.770263346659704 0 39.770263346659704 -188.14192950151573 0 0 0 0 9.9733208725956501 28.65373180442748 0 28.65373180442748 12.247821108634071 0 0 0 0 4.0115665662089128 -2.1576456305504408 0 -2.1576456305504408 -1.2755321048202575 0 0 0 0 -21.602631688598194 -2.7826765876193349 0 -2.7826765876193349 -3.0990443901143863 0 0 0 0 -1.2696877922753629 10.241825502979054 0 10.241825502979054 -171.03392746186728 0 0 0 0 54.384790148646061 -117.29811791006193 0 -117.29811791006193 155.91280431689302 0 0 0 0 82.595594684393291 -69.730846714418476 0 -69.730846714418476 -13.82710154248889 0 0 0 0 38.870673297104076 -41.307174681309107 0 -41.307174681309107 131.33539135596311 0 0 0 0 93.192207676096587 -80.158535364446834 0 -80.158535364446834 72.284931480646264 0 0 0 0 93.520844996506639 -85.381419121747967 0 -85.381419121747967 79.746498899404287 0 0 0 0 114.82367331525165 -106.70356314715718 0 -106.70356314715718 59.620378809290742 0 0 0 0 116.38018558302429 -88.896614477805997 0 -88.896614477805997 63.240548294946166 0 0 0 0 93.299574578937609 -87.798326993131923 0 -87.798326993131923 68.509969799722967 0 0 0 0 158.41370986673428 -98.420923757810669 0 -98.420923757810669 34.741792594820254 0 0 0 0 66.884999433386838 -46.07286562056197 0 -46.07286562056197 48.502600812490527 0 0 0 0 125.87717685339157 -48.081165991366106 0 -48.081165991366106 -41.515466397440832 0 0 0 0 96.712668245112582 -78.025688252466352 0 -78.025688252466352 73.348341747702761 0 0 0 0 101.4791122872266 -70.658007060155796 0 -70.658007060155796 42.322067473709467 0 0 0 0 42.406943428039085 158.71831229459531 0 158.71831229459531 -249.15369758829274 0 0 0 0 67.814377626353235 -72.164534216502034 0 -72.164534216502034 -40.123564170895406 0 0 0 0 0.17115921905946152 -0.51931403125846032 0 -0.51931403125846032 -1.4335063557127352 0 0 0 0 181.83215731006931 8.1536809008339333 0 8.1536809008339333 -354.63137449372061 0 0 0 0 185.48313069035066 -129.16898481421049 0 -129.16898481421049 -279.41751824766106 0 0 0 0 77.708254852717801 22.443898080757208 0 22.443898080757208 -163.59541183003603 0 0 0 0 -0.031920862747938372 -3.1886764754999604 0 -3.1886764754999604 -224.45236410818143 0 0 0 0 155.21511175954947 -49.489803662073427 0 -49.489803662073427 -86.973462678030046 0 0 0 0 -49.174375129874534 112.82454836332317 0 112.82454836332317 -120.87444547091008 0 0 0 0 -45.192559234816486 1.2596806728123084 0 1.2596806728123084 -21.976383233542947 0 0 0 0 84.23459746026856 -32.446934021733341 0 -32.446934021733341 -6.8068299810838653 0 0 0 0 92.281076307516742 -24.353532053407321 0 -24.353532053407321 -110.39039969476653 0 0 0 0 48.38778826304042 -0.2417114762320125 0 -0.2417114762320125 -21.712706825999021 0 0 0 0 73.696127322235952 -66.275505098080089 0 -66.275505098080089 -68.027967518078185 0 0 0 0 6.7007727794656162 -4.9252735680638722 0 -4.9252735680638722 -3.487939733477301 0 0 0 0 98.907244584712316 -61.2861208737786 0 -61.2861208737786 25.381424206712836 0 0 0 0 132.42123764110875 -98.489360486177247 0 -98.489360486177247 -12.304673007589372 0 0 0 0 44.613312449459045 -14.259758279091329 0 -14.259758279091329 24.508062679677295 0 0 0 0 56.929094724036986 9.7932414530341703 0 9.7932414530341703 -61.128902559300514 0 0 0 0 59.977857409659919 8.0170870556598857 0 8.0170870556598857 -21.234734708093583 0 0 0 0 42.239571282250836 0.40510004522070631 0 0.40510004522070631 -6.8400790334626436 0 0 0 0 47.938341439363285 -25.516821801552851 0 -25.516821801552851 -8.442323803700674 0 0 0 0 53.838198968660436 -26.515833440459573 0 -26.515833440459573 -47.538536582706911 0 0 0 0 31.522217625144226 -9.1277099959579644 0 -9.1277099959579644 0.63491876810360992 0 0 0 0 54.858458948292537 -2.6112644916524914 0 -2.6112644916524914 0.59921332494468516 0 0 0 0 20.445826913492056 -6.9678655966645238 0 -6.9678655966645238 0.65489153712090342 0 0 0 0 52.842499577061517 -23.98981886561188 0 -23.98981886561188 -8.2381150495330076 0 0 0 0 24.195346457177038 5.88136774370696 0 5.88136774370696 -35.083005857992248 0 0 0 0 51.26403475522784 -3.0865232352321073 0 -3.0865232352321073 -32.119474802913828 0 0 0 0 29.19782333529492 8.6870489702675435 0 8.6870489702675435 -7.3860463485873922 0 0 0 0 24.630955122273008 11.047078274423257 0 11.047078274423257 -34.058267493546737 0 0 0 0 24.250128870717162 10.595218370264774 0 10.595218370264774 -16.785299344183841 0 0 0 0 36.610874001235061 5.0606036981648685 0 5.0606036981648685 -13.719151302128012 0 0 0 0 36.351746881751751 4.5437613572757982 0 4.5437613572757982 -14.749637211234131 0 0 0 0 40.425228436317411 0.84927425313799176 0 0.84927425313799176 -9.7345974058416687 0 0 0 0 40.124381630994321 0.35058309672604082 0 0.35058309672604082 -10.531332143274994 0 0 0 0 41.891054692265243 -4.5175638819932828 0 -4.5175638819932828 -6.964185492710385 0 0 0 0 44.671823410459183 -1.3281400004007082 0 -1.3281400004007082 -18.819145849563938 0 0 0 0 61.469212817719381 -28.702861907913302 0 -28.702861907913302 -10.853611081817178 0 0 0 0 44.195757573779701 -4.6381288735210546 0 -4.6381288735210546 -14.433385279765389 0 0 0 0 49.563999107578638 -8.5036337942497084 0 -8.5036337942497084 -13.523893988536656 0 0 0 0 46.106535276605427 -4.3155574139782402 0 -4.3155574139782402 -15.306208073972812 0 0 0 0 6.0064163066199399 36.971076327409719 0 36.971076327409719 -52.955972754882168 0 0 0 0 36.663556583447644 -15.855405695358968 0 -15.855405695358968 -77.489056199606466 0 0 0 0 28.836823283425474 -21.447696540406014 0 -21.447696540406014 -15.922084987397056 0 0 0 0 47.308523335650534 6.0734464691278163 0 6.0734464691278163 -38.842533390015888 0 0 0 0 0.71885707197179727 1.2539624324731449 0 1.2539624324731449 -0.57926951466788523 0 0 0 0 0.10157783942411402 1.8779716509909719 0 1.8779716509909719 -1.0636970694960368 0 0 0 0 40.356235785637182 -6.0296661301235872 0 -6.0296661301235872 -3.8947767369436406 0 0 0 0 41.804847032064572 -4.8325392766791992 0 -4.8325392766791992 -3.3061007198984953 0 0 0 0 13.225193479821769 -18.983574604368812 0 -18.983574604368812 29.529867699747228 0 0 0 0 51.39386393163295 -36.223204658974737 0 -36.223204658974737 10.758407537250271 0 0 0 0 42.890701255617387 -12.993260552430911 0 -12.993260552430911 10.430945160455849 0 0 0 0 89.755120664590322 -59.709003299550318 0 -59.709003299550318 50.944839990354012 0 0 0 0 0.54269977439552974 -0.1489003556206896 0 -0.1489003556206896 0.084568976136516483 0 0 0 0 97.400363786309754 -67.762519222460469 0 -67.762519222460469 30.564579568583213 0 0 0 0 74.890928665518004 -78.038640100585326 0 -78.038640100585326 66.152318061582264 0 0 0 0 0.87270905742268923 0.18278117702159946 0 0.18278117702159946 -0.8484340147085323 0 0 0 0 60.569758224693942 -27.718831654189671 0 -27.718831654189671 26.198532419545813 0 0 0 0 43.946084483031882 -42.76264372811238 0 -42.76264372811238 61.704620766042353 0 0 0 0 45.394081353398178 -12.132464901362709 0 -12.132464901362709 -17.851868026600641 0 0 0 0 67.554355846263206 -42.285171303999959 0 -42.285171303999959 -13.308153741538263 0 0 0 0 59.576826559595929 -47.454847868035529 0 -47.454847868035529 26.172245663798094 0 0 0 0 66.114964437616436 -34.742368061301931 0 -34.742368061301931 -9.8539034277546307 0 0 0 0 57.589318337781151 -34.916864723257277 0 -34.916864723257277 -35.015697947709668 0 0 0 0 2.9336871118496646 -0.63636250454085008 0 -0.63636250454085008 -3.0633482443306246 0 0 0 0 40.136861332900025 -39.655959314966026 0 -39.655959314966026 -0.5114116373088109 0 0 0 0 47.096095257508523 -35.959809404236779 0 -35.959809404236779 0.54604330442634819 0 0 0 0 49.771144938160433 -20.891613744980532 0 -20.891613744980532 -10.719943000351122 0 0 0 0 48.785885781369871 -24.00338284081954 0 -24.00338284081954 25.685664923310469 0 0 0 0 60.841683574468334 -35.540261681846459 0 -35.540261681846459 -42.861738845696891 0 0 0 0 55.309076416015159 -27.402973235499758 0 -27.402973235499758 -47.893302975119695 0 0 0 0 46.921488047366438 -32.910315488934884 0 -32.910315488934884 -51.507675189611291 0 0 0 0 50.852656774733987 -20.121417254016478 0 -20.121417254016478 -46.516470558368383 0 0 0 0 36.031606579057552 -19.427786615877721 0 -19.427786615877721 -45.09572424879957 0 0 0 0 47.856683734387843 -5.0661845185770744 0 -5.0661845185770744 -2.0554402330126322 0 0 0 0 63.128230308364436 -100.6628849024919 0 -100.6628849024919 50.838167944800489 0 0 0 0 27.867985913726443 -12.846269375952033 0 -12.846269375952033 -13.801695214709525 0 0 0 0 27.081291777918523 -4.832943785272164 0 -4.832943785272164 -31.118618702523236 0 0 0 0 20.416326092501549 25.665578491173449 0 25.665578491173449 -75.366762588530946 0 0 0 0 52.818988235403594 -18.256525589047442 0 -18.256525589047442 -81.078699162670091 0 0 0 0 72.434569322198513 -45.630736153017551 0 -45.630736153017551 -58.839519184743949 0 0 0 0 75.565953002951574 -15.610192587639631 0 -15.610192587639631 -118.16545635969442 0 0 0 0 -9.6008546601133276 -7.4216930667964789 0 -7.4216930667964789 -88.871571589264931 0 0 0 0 1.9717100638766567 -1.2650422478753836 0 -1.2650422478753836 -3.0056664624894012 0 0 0 0 -39.461061541216623 123.12690519810894 0 123.12690519810894 -187.33056325402413 0 0 0 0 1.2424468768243955 -0.0042166310709959021 0 -0.0042166310709959021 -1.9309303665197532 0 0 0 0 128.46609364197866 -107.36803888554823 0 -107.36803888554823 1.7463886725636257 0 0 0 0 130.28245280243732 -82.821745569890155 0 -82.821745569890155 -52.66700722944006 0 0 0 0 103.60191213781945 -85.134689768922726 0 -85.134689768922726 34.774161728607396 0 0 0 0 87.315893743550987 -59.085710345226289 0 -59.085710345226289 39.278436492602509 0 0 0 0 79.934506655463338 -65.379436834008629 0 -65.379436834008629 37.404912791609604 0 0 0 0 38.788035504439904 -32.220388073812046 0 -32.220388073812046 56.190926608087238 0 0 0 0 43.998146166944935 -32.80066570737381 0 -32.80066570737381 22.98460566673873 0 0 0 0 35.089388725897152 -45.328204328102174 0 -45.328204328102174 21.183187155998894 0 0 0 0 4.5790438176140782 0.30397720197495381 0 0.30397720197495381 -1.1736010667743759 0 0 0 0 52.520197834615828 -37.081194222297199 0 -37.081194222297199 8.2383995010141007 0 0 0 0 54.434095423563122 -46.470710515869769 0 -46.470710515869769 -32.777606761587776 0 0 0 0 82.79640003609893 -48.235637439411221 0 -48.235637439411221 -23.698944472444964 0 0 0 0 55.548179247096414 -53.700572054494387 0 -53.700572054494387 5.6073309980524755 0 0 0 0 48.979241009656107 -40.122657593331041 0 -40.122657593331041 -36.326696759573679 0 0 0 0 48.014533715312837 -32.783072015453058 0 -32.783072015453058 -51.805224516372618 0 0 0 0 11.891697561317415 -10.283537240645728 0 -10.283537240645728 -25.766017920902641 0 0 0 0 30.207297905904852 3.7466732350643497 0 3.7466732350643497 -72.562987600645101 0 0 0 0 35.8608984609873 -22.572164389835393 0 -22.572164389835393 -58.590662117323518 0 0 0 0 5.1240150014732322 0.3529122326924341 0 0.3529122326924341 -1.2733444334346293 0 0 0 0 28.708516074648287 -23.747151248465116 0 -23.747151248465116 -26.630275634573991 0 0 0 0 23.476443017250858 -31.370168005292726 0 -31.370168005292726 11.492158911755268 0 0 0 0 -1.7242171044254064 0.34316288784327753 0 0.34316288784327753 0.074613258663248416 0 0 0 0 33.842000409873435 -35.159242663162786 0 -35.159242663162786 -1.9380344586377305 0 0 0 0 12.905175172729287 -45.120474465730268 0 -45.120474465730268 -6.462932021371671 0 0 0 0 39.594432346650137 -17.331863636889238 0 -17.331863636889238 9.6047036482509611 0 0 0 0 28.376222121347382 -33.759858281091965 0 -33.759858281091965 -1.4078416012182515 0 0 0 0 85.19889366130883 2.5352804553317583 0 2.5352804553317583 -0.11066980406940274 0 0 0 0 93.529072925866785 -29.801470060969223 0 -29.801470060969223 6.7090803829964898 0 0 0 0 36.440455645163638 -10.761951523183939 0 -10.761951523183939 16.44894858302905 0 0 0 0 113.47032441052579 -90.273458698872446 0 -90.273458698872446 52.953585346638192 0 0 0 0 129.35135415713012 -20.221711036382658 0 -20.221711036382658 -13.358305450928583 0 0 0 0 -37.189512235298025 101.16030726208874 0 101.16030726208874 -131.09020486584632 0 0 0 0 0.47518472694762437 1.0792768202711116 0 1.0792768202711116 -0.01953900863463609 0 0 0 0 -93.6939922457168 52.137160676506596 0 52.137160676506596 -59.002580552268228 0 0 0 0 64.40083912744376 -63.095247847531255 0 -63.095247847531255 93.36467584389311 0 0 0 0 121.536992768647 -131.52134409146845 0 -131.52134409146845 107.21005218519122 0 0 0 0 2.1687798077627747 -0.0022805489148591818 0 -0.0022805489148591818 -0.66490611991530191 0 0 0 0 131.64149730880672 44.919872144756027 0 44.919872144756027 -165.57274220192858 0 0 0 0 38.282879624588531 -14.319026311844254 0 -14.319026311844254 -15.523392471689363 0 0 0 0 49.849678375305302 -1.0870792588215181 0 -1.0870792588215181 -49.261605227159635 0 0 0 0 30.998203863797244 -31.153028342288962 0 -31.153028342288962 -8.9953326502431992 0 0 0 0 48.947471601713914 -32.858438618552213 0 -32.858438618552213 -22.984724300116113 0 0 0 0 31.916443176418397 -24.577035250508061 0 -24.577035250508061 -12.237813763430267 0 0 0 0 35.694594066553691 -35.353084485611134 0 -35.353084485611134 -10.147656761593737 0 0 0 0 65.104141029802122 -33.904669110068426 0 -33.904669110068426 -8.8898717521917661 0 0 0 0 29.276461965751878 -29.041871228238051 0 -29.041871228238051 21.413265399286502 0 0 0 0 4.4078126621624918 0.39076510329781655 0 0.39076510329781655 -1.0073774939527969 0 0 0 0 61.968140891969597 -46.266799147540041 0 -46.266799147540041 29.713362973828225 0 0 0 0 65.499068695189635 -24.904434789164497 0 -24.904434789164497 25.656810327928952 0 0 0 0 64.024097018917018 -40.074228530273672 0 -40.074228530273672 19.560534143476616 0 0 0 0 129.599077271243 -4.126244989350198 0 -4.126244989350198 -14.782790464047764 0 0 0 0 196.19498386879457 66.939226529720003 0 66.939226529720003 30.820903501618886 0 0 0 0 2.1483905855950809 0.042066419602671878 0 0.042066419602671878 -0.61654561541694974 0 0 0 0 219.25343186058342 -95.749526773470336 0 -95.749526773470336 54.661173421509829 0 0 0 0 32.995474364801339 139.74033806821649 0 139.74033806821649 -61.795058670873459 0 0 0 0 1.3958184269067715 6.4756617919176733 0 6.4756617919176733 -45.787223589843052 0 0 0 0 36.009207784762111 47.901774207853578 0 47.901774207853578 -138.89632965597821 0 0 0 0 44.262438890892781 28.263498847900109 0 28.263498847900109 -3.9979662672540144 0 0 0 0 9.4748394019115949 -7.8471077193576093 0 -7.8471077193576093 -40.697834238727864 0 0 0 0 38.985595599604494 -33.682249290424807 0 -33.682249290424807 -16.553134342133035 0 0 0 0 66.369918263360887 -8.1052573734214093 0 -8.1052573734214093 -62.06458614176654 0 0 0 0 100.3744969100818 -27.579004172935669 0 -27.579004172935669 12.293282016789817 0 0 0 0 52.767293476121267 -11.178391078026493 0 -11.178391078026493 14.690432445888291 0 0 0 0 106.66385173859453 14.669867934124341 0 14.669867934124341 -1.7694249114899776 0 0 0 0 114.33841950705937 -6.8585601617469365 0 -6.8585601617469365 5.2097409942407467 0 0 0 0 129.10433772564966 -2.0880987975871221 0 -2.0880987975871221 3.427585047274988 0 0 0 0 79.75438275945271 -18.118149117005032 0 -18.118149117005032 20.813158578296679 0 0 0 0 118.8479067809094 -26.056205056519502 0 -26.056205056519502 21.997315677612278 0 0 0 0 201.46386661858173 22.169762034760794 0 22.169762034760794 -1.2720703569084435 0 0 0 0 205.16471467648444 67.940003557734144 0 67.940003557734144 -44.351054283959002 0 0 0 0 152.02539910132168 73.398488790327747 0 73.398488790327747 -22.001893776378893 0 0 0 0 146.11833691287211 54.993855091298883 0 54.993855091298883 -20.516241369885847 0 0 0 0 173.34107566168336 61.979355142091663 0 61.979355142091663 -20.771728136739512 0 0 0 0 102.12999126212344 39.06605674755474 0 39.06605674755474 4.8089693949485337 0 0 0 0 101.59796494847069 39.085653728933266 0 39.085653728933266 22.212423067514464 0 0 0 0 136.91159744564538 33.133677213339979 0 33.133677213339979 -3.9444899076643196 0 0 0 0 108.03404830900945 55.087291985811135 0 55.087291985811135 -6.5753097111009993 0 0 0 0 47.44806818327379 45.657512833868623 0 45.657512833868623 -15.921130271296533 0 0 0 0 21.383693257297637 -5.4043378803021369 0 -5.4043378803021369 -11.561014610421807 0 0 0 0 70.292740782397232 22.781259359582691 0 22.781259359582691 4.4664717686591757 0 0 0 0 26.387515619561782 -10.42977905482303 0 -10.42977905482303 -13.364231592842771 0 0 0 0 39.918746933104558 3.7830008920245746 0 3.7830008920245746 -79.726952118767258 0 0 0 0 60.242916522959604 -12.982842304622636 0 -12.982842304622636 -13.438879316707244 0 0 0 0 80.376436762930098 9.2377815172080773 0 9.2377815172080773 17.149729846133596 0 0 0 0 33.641846715282554 22.839957841707019 0 22.839957841707019 13.673465488663169 0 0 0 0 67.400563582992618 26.914652716690625 0 26.914652716690625 31.947051545856084 0 0 0 0 107.95588084161682 24.393416520399114 0 24.393416520399114 28.801686378993509 0 0 0 0 58.411108693762799 -1.3970756762223573 0 -1.3970756762223573 33.772624849746535 0 0 0 0 105.0724648930327 -1.7582549944384027 0 -1.7582549944384027 33.754625615296391 0 0 0 0 123.30994772091617 17.123297489980359 0 17.123297489980359 33.964277840467958 0 0 0 0 85.515202260990009 13.804576535248088 0 13.804576535248088 34.692255369900522 0 0 0 0 134.98789156135899 48.018092707321102 0 48.018092707321102 37.868095186631308 0 0 0 0 135.68348896641874 31.169941364273654 0 31.169941364273654 62.656703896594536 0 0 0 0 134.80782213704993 38.065879372268853 0 38.065879372268853 19.35136794805112 0 0 0 0 103.53384440537957 28.414546946697101 0 28.414546946697101 43.112716915640476 0 0 0 0 101.06397062542965 50.406817653701864 0 50.406817653701864 56.019289298480544 0 0 0 0 103.52009389365958 122.93983811916132 0 122.93983811916132 47.882007034632153 0 0 0 0 189.66027954733363 68.354824839148023 0 68.354824839148023 58.467239918025371 0 0 0 0 193.97070685896233 68.89373633955779 0 68.89373633955779 32.938477428297119 0 0 0 0 198.40108872750989 28.410008362592635 0 28.410008362592635 15.988784593218952 0 0 0 0 132.81508589625628 63.376330732105998 0 63.376330732105998 32.480589308823369 0 0 0 0 145.61482885677287 -25.336021342591721 0 -25.336021342591721 -20.150578369416735 0 0 0 0 150.75977256923397 -79.506716933430198 0 -79.506716933430198 -35.175194031051205 0 0 0 0 272.72843857151929 20.330287091934224 0 20.330287091934224 -6.0667740273374875 0 0 0 0 11.178658060425732 -94.308344610769382 0 -94.308344610769382 -34.440447217575183 0 0 0 0 20.528904058835906 24.556430613430166 0 24.556430613430166 -70.263394178402905 0 0 0 0 30.966389818970129 -20.981763775956551 0 -20.981763775956551 22.613425830008964 0 0 0 0 101.79951222710588 -30.853829168454467 0 -30.853829168454467 21.211825524346466 0 0 0 0 119.43885324544135 -15.623476412123182 0 -15.623476412123182 20.56873479141268 0 0 0 0 116.73256877585573 -18.967534008159191 0 -18.967534008159191 19.798631805769219 0 0 0 0 101.43530925498544 -5.7123363559517202 0 -5.7123363559517202 30.208728585430435 0 0 0 0 119.23789958434099 -4.3956229133364104 0 -4.3956229133364104 30.246834114221826 0 0 0 0 120.87098926434373 -10.419963432045279 0 -10.419963432045279 24.387536993349386 0 0 0 0 129.22822357025325 -6.1566017847455896 0 -6.1566017847455896 25.775982268989537 0 0 0 0 128.48423444113359 1.9091954667956088 0 1.9091954667956088 6.8762882634630387 0 0 0 0 137.0591891608874 18.766575851442212 0 18.766575851442212 39.811956566629306 0 0 0 0 115.00889835815178 -3.1422117009801696 0 -3.1422117009801696 32.776075887801539 0 0 0 0 122.97033526242649 -7.2433819957661854 0 -7.2433819957661854 29.165326432844267 0 0 0 0 111.85028044545925 -3.0763858924681244 0 -3.0763858924681244 41.302327442693695 0 0 0 0 106.23201628197057 34.511570965940336 0 34.511570965940336 55.399507176135259 0 0 0 0 111.0869874470427 -12.195986349162467 0 -12.195986349162467 39.735845759782023 0 0 0 0 117.11245643415623 -12.499079715902553 0 -12.499079715902553 29.069840510091126 0 0 0 0 118.24631790250623 -11.992061667811186 0 -11.992061667811186 27.684273964190652 0 0 0 0 118.28152683436201 -16.226507569377873 0 -16.226507569377873 24.083914826942646 0 0 0 0 118.05884435270127 -14.766367060678704 0 -14.766367060678704 28.91394499552429 0 0 0 0 122.28711497777658 -12.833378837721739 0 -12.833378837721739 26.191013156068948 0 0 0 0 123.91990464268838 -8.9194984864250841 0 -8.9194984864250841 25.521853780725905 0 0 0 0 116.6932823834868 -8.0951237088952439 0 -8.0951237088952439 26.054119767555676 0 0 0 0 125.25178346136818 -7.2061683257243203 0 -7.2061683257243203 20.720534760105693 0 0 0 0 133.32796989925237 -7.8124333113919988 0 -7.8124333113919988 19.922998585256664 0 0 0 0 141.83236547542765 -10.083422270686469 0 -10.083422270686469 16.364121066475491 0 0 0 0 150.98728636559463 -3.7345138242296798 0 -3.7345138242296798 18.168487709274814 0 0 0 0 127.88428385837051 -15.609228413706205 0 -15.609228413706205 21.036049420718882 0 0 0 0 143.70266930240086 -17.831902987833587 0 -17.831902987833587 12.565501029325105 0 0 0 0 129.90996777747409 -17.147322079009257 0 -17.147322079009257 19.45318271540873 0 0 0 0 119.71680711704994 -26.611673347570957 0 -26.611673347570957 17.183712547382129 0 0 0 0 105.80645288848609 -16.988638241431772 0 -16.988638241431772 25.495464511187208 0 0 0 0 106.52675953072321 -15.773557533829603 0 -15.773557533829603 24.134035958816867 0 0 0 0 109.76279225053258 -20.536992287723479 0 -20.536992287723479 26.508091789494301 0 0 0 0 141.72088313070253 34.368234988587915 0 34.368234988587915 -8.0109674404116049 0 0 0 0 106.56007421187405 45.181002679264736 0 45.181002679264736 -1.2015469052848857 0 0 0 0 136.29191176920904 26.026194502552244 0 26.026194502552244 10.748737034749865 0 0 0 0 151.24358090155147 31.92463661019292 0 31.92463661019292 11.463285430556425 0 0 0 0 116.23893684180712 28.051254490815609 0 28.051254490815609 17.891556531895731 0 0 0 0 110.95036780427654 4.1611383784795635 0 4.1611383784795635 24.749399013038783 0 0 0 0 132.26174403653204 3.8949810842284478 0 3.8949810842284478 24.586601643348388 0 0 0 0 133.19281812551708 6.9210753950683284 0 6.9210753950683284 15.809707207989504 0 0 0 0 145.13387208502354 22.964817787699531 0 22.964817787699531 18.480271275283457 0 0 0 0 143.50493192516842 3.7677407981664146 0 3.7677407981664146 14.362131580412438 0 0 0 0 153.83079461568559 9.2820795526224629 0 9.2820795526224629 26.207484669285009 0 0 0 0 156.19175050468039 -2.8139811410740094 0 -2.8139811410740094 17.422225820756921 0 0 0 0 150.67306426507002 9.8918273456428665 0 9.8918273456428665 28.17848737515942 0 0 0 0 170.37634271723073 13.170652199389906 0 13.170652199389906 27.170341096899449 0 0 0 0 161.26537074540829 4.0522466069262464 0 4.0522466069262464 5.9308972471565085 0 0 0 0 158.67444267336759 21.744479829394322 0 21.744479829394322 -37.287494729769605 0 0 0 0 106.77050812601601 62.900674776235064 0 62.900674776235064 -69.778482630282724 0 0 0 0 -41.127732938593908 92.179959207268894 0 92.179959207268894 -66.996812100167631 0 0 0 0 230.56473317351549 -144.3949772751227 0 -144.3949772751227 111.1283765590465 0 0 0 0 1.6839220366794336 0.24025340979120458 0 0.24025340979120458 -0.99955543328511443 0 0 0 0 99.084059495875408 -56.61377362775454 0 -56.61377362775454 58.06808396778888 0 0 0 0 116.22942923490518 -34.123287586617948 0 -34.123287586617948 53.009943001474085 0 0 0 0 160.61918456159765 -34.148912109677269 0 -34.148912109677269 25.601025086359186 0 0 0 0 239.95932080284285 -27.45475081012782 0 -27.45475081012782 21.723485136772069 0 0 0 0 154.54192686400074 3.6497004276316147 0 3.6497004276316147 41.134624378634271 0 0 0 0 149.39872795985821 -0.21591909097867301 0 -0.21591909097867301 10.932598235786372 0 0 0 0 175.83720355707283 12.828530654219321 0 12.828530654219321 14.139683753923691 0 0 0 0 159.51750445309926 43.898962768890186 0 43.898962768890186 12.587398072680912 0 0 0 0 112.29790555110412 30.952520733132587 0 30.952520733132587 38.671129408175034 0 0 0 0 110.62022892973255 35.468213592186089 0 35.468213592186089 12.198684436456549 0 0 0 0 75.831905025577726 78.503612726677659 0 78.503612726677659 -40.947488832455633 0 0 0 0 267.64470775406653 141.59370860780396 0 141.59370860780396 -134.07884258035665 0 0 0 0 4.4940925380361776 0.47681472502609878 0 0.47681472502609878 -0.88809447932345498 0 0 0 0 44.508812876956654 208.51681441810115 0 208.51681441810115 -153.59899604027473 0 0 0 0 -95.097654910256097 60.104734342552732 0 60.104734342552732 -50.984744199800488 0 0 0 0 -48.513615714226034 83.887308271807797 0 83.887308271807797 -40.981830047123644 0 0 0 0 34.481402332923608 20.463100965992478 0 20.463100965992478 -107.45871467877731 0 0 0 0 -42.885192256675509 -9.1581761218323692 0 -9.1581761218323692 -118.63453731147979 0 0 0 0 61.057513071082212 -18.335152520004797 0 -18.335152520004797 -89.72710972782086 0 0 0 0 4.6551053696748568 14.367192345428776 0 14.367192345428776 -39.689707407626315 0 0 0 0 48.782329048230167 -6.9968052152999292 0 -6.9968052152999292 -22.985050931031921 0 0 0 0 85.630897437446038 -44.194491001714482 0 -44.194491001714482 -39.432355175571985 0 0 0 0 109.42197635953198 -27.913688673599154 0 -27.913688673599154 -27.453732197589972 0 0 0 0 48.656586931478159 -27.697619581664924 0 -27.697619581664924 27.135617858339401 0 0 0 0 86.629516660313129 -30.697474367392307 0 -30.697474367392307 -33.637096944549853 0 0 0 0 100.83549192337796 -22.097611033598582 0 -22.097611033598582 9.4786639373132857 0 0 0 0 99.550801583463681 -25.608774206635218 0 -25.608774206635218 30.898464067225405 0 0 0 0 134.44709597612564 -22.715278779177083 0 -22.715278779177083 15.540066255194517 0 0 0 0 121.81902067972806 -18.206914429822689 0 -18.206914429822689 13.123098402250491 0 0 0 0 185.34143852590387 -27.496661591460565 0 -27.496661591460565 10.190615026899309 0 0 0 0 125.26765687178158 -36.537237542581352 0 -36.537237542581352 47.911476465798501 0 0 0 0 133.98030727015066 -20.677622922881994 0 -20.677622922881994 12.291551183187494 0 0 0 0 173.31793954789191 1.9738821731382927 0 1.9738821731382927 -14.618770423073101 0 0 0 0 175.06232974837258 -97.233493043091585 0 -97.233493043091585 155.32096355513954 0 0 0 0 336.36854780246131 -55.359502044318688 0 -55.359502044318688 -5.8113400258985166 0 0 0 0 358.28257471118195 76.531704655067443 0 76.531704655067443 118.86324816469062 0 0 0 0 87.796738500786887 -32.456302228183468 0 -32.456302228183468 111.69558786093495 0 0 0 0 95.955325387303674 56.839742987566012 0 56.839742987566012 68.622542252798041 0 0 0 0 157.58467033564011 -37.926498793395055 0 -37.926498793395055 43.799322373377549 0 0 0 0 80.662017233040388 -14.265777067569104 0 -14.265777067569104 55.244222963404155 0 0 0 0 80.653694127871177 7.5358194676123276 0 7.5358194676123276 28.851461904913549 0 0 0 0 30.973689549799019 39.264036327244071 0 39.264036327244071 51.203852643311023 0 0 0 0 69.108135447939276 15.785585564440083 0 15.785585564440083 0.15717076027942767 0 0 0 0 16.540333945171369 66.67095814121069 0 66.67095814121069 24.924094540896363 0 0 0 0 89.061942060990987 72.959130975768659 0 72.959130975768659 -5.9965243119586376 0 0 0 0 52.629259584400643 60.505109531270676 0 60.505109531270676 -9.6936166195125679 0 0 0 0 83.600311620851244 19.588175678756869 0 19.588175678756869 7.5544832318776116 0 0 0 0 37.949916079769537 16.916870488824543 0 16.916870488824543 -108.6020965845687 0 0 0 0 -27.910780188905846 62.761121716669322 0 62.761121716669322 0.10103131597304582 0 0 0 0 2.7011481371837718 -0.86639898505868151 0 -0.86639898505868151 -0.022668073767119656 0 0 0 0 36.642877242363738 -99.809521270613828 0 -99.809521270613828 -57.885894659452106 0 0 0 0 148.45361772659089 -2.5742949716075145 0 -2.5742949716075145 24.293362827989739 0 0 0 0 360.77290511678075 -73.667729534045861 0 -73.667729534045861 -94.620818089490058 0 0 0 0 146.64666675454691 -68.140624025075823 0 -68.140624025075823 36.930799196333112 0 0 0 0 211.55642653122413 -80.629737301992122 0 -80.629737301992122 -187.2816623091685 0 0 0 0 1.3873020873272353 -0.89879761295809601 0 -0.89879761295809601 0.043201414035008323 0 0 0 0 179.76557317017068 -32.207820774104221 0 -32.207820774104221 -98.004498091352161 0 0 0 0 114.6188588868099 87.854771169593505 0 87.854771169593505 -30.618429763830079 0 0 0 0 207.37071027167622 22.352743397073255 0 22.352743397073255 -90.109510500699798 0 0 0 0 106.45908984721973 -1.6577105396588649 0 -1.6577105396588649 -47.503686900397724 0 0 0 0 77.941319265666607 18.413702930887666 0 18.413702930887666 -13.732973339146156 0 0 0 0 67.435138581114188 30.850160423665784 0 30.850160423665784 -10.659164072177191 0 0 0 0 12.900913435918483 45.412907748371254 0 45.412907748371254 -13.68302064970112 0 0 0 0 79.964127512879713 52.528344843998866 0 52.528344843998866 -36.10171753852012 0 0 0 0 36.965475192455642 -28.721116300870207 0 -28.721116300870207 -120.17427995955381 0 0 0 0 58.006966403783153 8.4430624632739963 0 8.4430624632739963 -6.6753688093886865 0 0 0 0 21.648319136320424 -12.977883191576666 0 -12.977883191576666 29.323886511318506 0 0 0 0 74.34455147411154 16.239366608285181 0 16.239366608285181 -34.853648267121002 0 0 0 0 60.108437454790163 8.5142722324303897 0 8.5142722324303897 -7.2201246742708056 0 0 0 0 3.4655651344346552 -73.364122475493673 0 -73.364122475493673 -53.293259149076334 0 0 0 0 13.410377300812591 5.1759863767981606 0 5.1759863767981606 -0.013860581553620577 0 0 0 0 28.273601902687005 35.053685423074626 0 35.053685423074626 -79.419924342255911 0 0 0 0 42.975368710816838 -7.977964803631636 0 -7.977964803631636 -60.490290992154542 0 0 0 0 11.138987617874378 2.2589464377310176 0 2.2589464377310176 -1.4982737986571313 0 0 0 0 13.44057773566692 77.031248511294606 0 77.031248511294606 -188.28881000454192 0 0 0 0 -25.841238351817083 46.406814329022509 0 46.406814329022509 -69.177754641280572 0 0 0 0 275.32438775949049 -117.34893122910648 0 -117.34893122910648 98.363894610868329 0 0 0 0 230.07667950755058 -212.63151414930599 0 -212.63151414930599 163.2841627863229 0 0 0 0 70.006965767035581 -212.14152563631387 0 -212.14152563631387 52.77474558753859 0 0 0 0 501.22752164803524 -332.48449178900847 0 -332.48449178900847 48.557863877674606 0 0 0 0 150.41078334402846 -378.05898998984674 0 -378.05898998984674 450.07832146856344 0 0 0 0 0.23247164015375432 0.52446668280109066 0 0.52446668280109066 -0.62878065220701629 0 0 0 0 -201.58372727616552 -144.31196867552387 0 -144.31196867552387 122.93062171210954 0 0 0 0 23.426398156158029 58.502791341877355 0 58.502791341877355 50.851648307164396 0 0 0 0 525.29718715065792 -109.27501307971227 0 -109.27501307971227 22.015611704013054 0 0 0 0 251.18636560149389 -165.08996246995412 0 -165.08996246995412 105.27558781925467 0 0 0 0 311.36422513889374 2.7718331555921623 0 2.7718331555921623 22.302494434181881 0 0 0 0 208.07811827605474 -11.699031388506683 0 -11.699031388506683 22.839803303181114 0 0 0 0 223.66343306632734 -46.664808836366547 0 -46.664808836366547 3.8698713324174605 0 0 0 0 237.11213809117771 0.081928567435795685 0 0.081928567435795685 -7.7133094761147731 0 0 0 0 49.004852558495259 -64.693942360428991 0 -64.693942360428991 -52.302846352903998 0 0 0 0 -1.3445544809128522 0.16419927021633995 0 0.16419927021633995 -3.4841208590182529 0 0 0 0 191.53486565867524 -61.500228997944191 0 -61.500228997944191 -110.26229488032368 0 0 0 0 172.64249226515676 -29.761929564498246 0 -29.761929564498246 -21.196526455190906 0 0 0 0 151.02342585159568 8.2807057689251451 0 8.2807057689251451 2.5259500694091912 0 0 0 0 69.585774902536286 -45.693614909767348 0 -45.693614909767348 15.41834035822626 0 0 0 0 131.92288361159308 -80.595702854324259 0 -80.595702854324259 31.365621746364923 0 0 0 0 122.9324305655864 -39.757402764243579 0 -39.757402764243579 6.9149371356684242 0 0 0 0 95.739929456130994 -37.971775042869353 0 -37.971775042869353 32.547491810864813 0 0 0 0 113.20207330684752 -90.635663548606544 0 -90.635663548606544 86.460913811209593 0 0 0 0 49.949302768964117 -38.763063309684753 0 -38.763063309684753 44.356115925043923 0 0 0 0 68.746670063106649 -61.911131255558871 0 -61.911131255558871 69.15208641754225 0 0 0 0 80.845040223752221 -64.375371386668689 0 -64.375371386668689 -42.1030533069179 0 0 0 0 70.747575687994711 -22.463275048948582 0 -22.463275048948582 2.7585096439675691 0 0 0 0 191.05144851475052 32.928189844310509 0 32.928189844310509 -120.26840924998464 0 0 0 0 147.3705321492962 82.325292478351457 0 82.325292478351457 47.650472549976257 0 0 0 0 135.07326909342419 22.874369312601033 0 22.874369312601033 39.39382558408397 0 0 0 0 134.67616268623533 58.317481020261766 0 58.317481020261766 88.190355243741521 0 0 0 0 149.92448291083201 30.676914276135449 0 30.676914276135449 46.413582502775171 0 0 0 0 70.892198320096441 -3.6717466609278517 0 -3.6717466609278517 -18.626567498441091 0 0 0 0 67.83679012892965 -22.226487160163042 0 -22.226487160163042 -9.3432325749796377 0 0 0 0 20.122167663551238 -10.841325056207666 0 -10.841325056207666 -14.109606535190863 0 0 0 0 70.473143757419166 -7.24456902177144 0 -7.24456902177144 -36.705385601140506 0 0 0 0 25.68083831804114 -0.13599494159354109 0 -0.13599494159354109 -0.21886899426517825 0 0 0 0 46.390227667114232 -56.056710467349376 0 -56.056710467349376 13.00308628407879 0 0 0 0 57.814647814420823 -18.336363321727049 0 -18.336363321727049 -30.285705943932101 0 0 0 0 78.781771793477674 -19.243612932742167 0 -19.243612932742167 -26.665980748084394 0 0 0 0 71.160598824133558 -11.791759947423117 0 -11.791759947423117 -32.650434251609511 0 0 0 0 92.760115573666553 -40.224525316951322 0 -40.224525316951322 -27.157422374369109 0 0 0 0 73.365352430100756 -1.7745683313909097 0 -1.7745683313909097 -63.771824909472315 0 0 0 0 67.492757224793877 -31.881548054884693 0 -31.881548054884693 -15.015321014032239 0 0 0 0 52.655162607898092 -16.195893956375471 0 -16.195893956375471 -10.620337001042344 0 0 0 0 34.571002954055075 -5.1376350796487031 0 -5.1376350796487031 2.0343602843959161 0 0 0 0 42.18185263738269 -13.131565151322093 0 -13.131565151322093 5.2007396401040751 0 0 0 0 19.453403484485843 -9.1931523784343483 0 -9.1931523784343483 -3.7637423389002329 0 0 0 0 28.28308330137196 -5.282272292278229 0 -5.282272292278229 -3.0016489937818873 0 0 0 0 21.199762746885398 -7.4111664585805244 0 -7.4111664585805244 12.836665829573825 0 0 0 0 38.931836830033717 -17.791825998713136 0 -17.791825998713136 1.5903048392624441 0 0 0 0 57.495312076258415 -24.495507349092122 0 -24.495507349092122 0.84905521409501716 0 0 0 0 67.757596134866617 -34.455200925739177 0 -34.455200925739177 -9.0263515250819637 0 0 0 0 66.297933313953763 -30.65663320312126 0 -30.65663320312126 -18.900242103284199 0 0 0 0 54.695369615340141 -12.416458735342907 0 -12.416458735342907 -13.117474617986176 0 0 0 0 23.279372945698313 0.8115175818158491 0 0.8115175818158491 19.299673543285863 0 0 0 0 52.671498617011821 28.489185379068658 0 28.489185379068658 49.019790399255726 0 0 0 0 38.958794328900694 -10.099547778314331 0 -10.099547778314331 11.487320408855339 0 0 0 0 36.907883379404666 -8.1723977385051967 0 -8.1723977385051967 14.491683355371151 0 0 0 0 24.365424304022611 -13.745164124471678 0 -13.745164124471678 8.079380691193478 0 0 0 0 38.000510282714458 -12.515944525055062 0 -12.515944525055062 24.742687156214743 0 0 0 0 -5.4694122009241255 21.273143751701355 0 21.273143751701355 2.3544651734089257 0 0 0 0 58.140980372547347 -11.947661345684082 0 -11.947661345684082 41.282872502996781 0 0 0 0 8.4466916376233883 -4.2892379864308197 0 -4.2892379864308197 1.1888605095221294 0 0 0 0 57.990092751722841 -32.308190798875103 0 -32.308190798875103 -26.615766111750418 0 0 0 0 86.720552868464438 62.096096573128534 0 62.096096573128534 44.05577822179248 0 0 0 0 17.741508282585471 -6.5149734539473272 0 -6.5149734539473272 0.70740503048012826 0 0 0 0 30.44335662231606 -20.086440286532934 0 -20.086440286532934 0.34492801770102233 0 0 0 0 33.890100681543117 -14.492250247739662 0 -14.492250247739662 -3.1802032050884463 0 0 0 0 -1.634946679987479 27.911139874766832 0 27.911139874766832 -6.258235204259563 0 0 0 0 1.9788243715483986 -10.850654803031375 0 -10.850654803031375 2.0170442468879628 0 0 0 0 1.4285275725832776 -1.0523555368481254 0 -1.0523555368481254 -0.084579349021574934 0 0 0 0 27.306009940351942 -18.92791614237035 0 -18.92791614237035 -4.0904491012187236 0 0 0 0 30.17023776716087 1.1191156469431007 0 1.1191156469431007 -2.7295745769668542 0 0 0 0 32.77675005189667 -16.292821274278822 0 -16.292821274278822 -6.6021504482118587 0 0 0 0 20.905797566243564 -17.298110004830505 0 -17.298110004830505 2.1248670883919658 0 0 0 0 23.861928976435593 -11.059767568443363 0 -11.059767568443363 -8.8318194326229786 0 0 0 0 52.217360704831663 -10.591322065782606 0 -10.591322065782606 -22.400449723691509 0 0 0 0 38.555871960565128 -40.988279240748227 0 -40.988279240748227 30.330199819258269 0 0 0 0 -3.448268322648282 -9.9212102409607326 0 -9.9212102409607326 5.4306008476419922 0 0 0 0 14.978781268597231 -18.775207571885574 0 -18.775207571885574 -9.41655903376693 0 0 0 0 10.633135130359733 -23.347201562827934 0 -23.347201562827934 27.932682474316181 0 0 0 0 12.989217225644097 -19.172124149322315 0 -19.172124149322315 19.965755672796092 0 0 0 0 8.5823923776429751 -2.5026085506749158 0 -2.5026085506749158 0.73921493659383986 0 0 0 0 8.2213915440381768 -6.6877107428436204 0 -6.6877107428436204 6.349947740871519 0 0 0 0 29.58491457967466 -1.6580796231792192 0 -1.6580796231792192 11.382260743803499 0 0 0 0 8.6609100080859207 -21.312768904926941 0 -21.312768904926941 9.4898214055679091 0 0 0 0 77.245379951753421 -50.40225670885593 0 -50.40225670885593 20.893866997002533 0 0 0 0 59.81186507055827 -15.906894951446361 0 -15.906894951446361 72.375812883349681 0 0 0 0 85.738065558107337 -50.071310861194206 0 -50.071310861194206 3.8168664680915754 0 0 0 0 1.994800283487308 -5.0857856916129336 0 -5.0857856916129336 1.0140323232194419 0 0 0 0 49.018065085474518 -66.873144245029721 0 -66.873144245029721 53.822723950431282 0 0 0 0 61.426063101887848 7.9471543760763268 0 7.9471543760763268 4.1947389504830426 0 0 0 0 49.786453309348872 -18.027848767295573 0 -18.027848767295573 -69.567444747617031 0 0 0 0 5.6510912773131281 -0.43358061762533495 0 -0.43358061762533495 -0.43166975583528694 0 0 0 0 -75.78737829856982 54.294065226560591 0 54.294065226560591 46.807741183438992 0 0 0 0 -2.8398235786953592 -27.517624051173087 0 -27.517624051173087 36.275613545759114 0 0 0 0 14.368266566416423 -14.926588870305068 0 -14.926588870305068 44.478689282688777 0 0 0 0 28.192873608000809 -47.341423077061876 0 -47.341423077061876 83.230360506604569 0 0 0 0 54.554515107265615 -49.052135430315516 0 -49.052135430315516 26.892047984596786 0 0 0 0 44.830880068147962 -26.126299986955189 0 -26.126299986955189 19.77821394337505 0 0 0 0 11.66989041720808 -21.070276449617495 0 -21.070276449617495 18.85039511664786 0 0 0 0 44.913215837153359 -34.112071628149756 0 -34.112071628149756 23.136947687973986 0 0 0 0 10.170820458959497 -64.15225319690785 0 -64.15225319690785 -24.527497088502173 0 0 0 0 18.736852177098626 -25.498362891815191 0 -25.498362891815191 30.063756941560314 0 0 0 0 43.681950669154958 1.7011774481156507 0 1.7011774481156507 10.929964419134194 0 0 0 0 22.871499755012337 -3.6519927362169256 0 -3.6519927362169256 -1.3897626615607805 0 0 0 0 25.359283984978156 -7.1006815738086004 0 -7.1006815738086004 4.583070485378844 0 0 0 0 27.973287919888065 -2.8659842620580491 0 -2.8659842620580491 5.8740134061919127 0 0 0 0 31.616309640811195 -5.9893581287426159 0 -5.9893581287426159 10.887539102853559 0 0 0 0 44.005660823145263 -5.3660494244505941 0 -5.3660494244505941 7.2738164096408582 0 0 0 0 36.737758807008504 -9.0616176154185268 0 -9.0616176154185268 11.826644114742294 0 0 0 0 28.03320305251691 -8.9273904157580546 0 -8.9273904157580546 13.117123788951631 0 0 0 0 43.114403223022236 -20.143482339015463 0 -20.143482339015463 6.6435252841379224 0 0 0 0 24.267650783297597 -11.631076181421193 0 -11.631076181421193 8.5969774718976506 0 0 0 0 37.287057010333228 -7.9140431490840228 0 -7.9140431490840228 12.343748120770215 0 0 0 0 3.9183696301988675 -46.065853765273346 0 -46.065853765273346 3.3317192076389688 0 0 0 0 11.385134935262613 -28.344019302621291 0 -28.344019302621291 15.181566312135601 0 0 0 0 32.805485614546342 6.1753632406498582 0 6.1753632406498582 22.222921172686256 0 0 0 0 34.44209074823786 -15.250518937884067 0 -15.250518937884067 1.8208139458631689 0 0 0 0 22.830104372616915 -11.621408946536349 0 -11.621408946536349 38.386749096810604 0 0 0 0 25.21481253743913 -12.249252726053022 0 -12.249252726053022 3.6813112142002473 0 0 0 0 42.187237839316367 -16.538149237862854 0 -16.538149237862854 -0.53400785554458707 0 0 0 0 27.958228837502247 -15.867399742476209 0 -15.867399742476209 9.9615048761782816 0 0 0 0 17.35162438389812 -3.8126437575147776 0 -3.8126437575147776 -1.1970266777803831 0 0 0 0 35.141109637785121 -0.21381197028131282 0 -0.21381197028131282 15.897559034134929 0 0 0 0 28.811040178021358 -3.7514571359101865 0 -3.7514571359101865 15.200777742039008 0 0 0 0 30.037491562165087 -9.8683998217978797 0 -9.8683998217978797 3.3864228063043811 0 0 0 0 21.215594959144092 -6.3737783246617781 0 -6.3737783246617781 5.6548174937541997 0 0 0 0 26.322299934446093 -5.1282038983697404 0 -5.1282038983697404 4.8160948717095593 0 0 0 0 21.911926333053486 -7.7184906793773322 0 -7.7184906793773322 10.293480495397725 0 0 0 0 26.360986056910406 -9.8228874104224673 0 -9.8228874104224673 -4.3227352189394423 0 0 0 0 30.242239487859493 -6.1059935005789665 0 -6.1059935005789665 0.35386252930150353 0 0 0 0 34.750585080528253 -11.035915998239659 0 -11.035915998239659 -5.0004190289309918 0 0 0 0 29.441464688679844 -2.6782019223244049 0 -2.6782019223244049 -7.1804802878283596 0 0 0 0 28.595096104138591 -11.998866386977582 0 -11.998866386977582 1.2491705691599972 0 0 0 0 25.758611846229499 -7.0141427329113455 0 -7.0141427329113455 -0.73145425608539982 0 0 0 0 20.85241074831174 -21.054629231707338 0 -21.054629231707338 -17.33096622274229 0 0 0 0 45.366606171544845 -19.927418836868469 0 -19.927418836868469 -12.673494506645255 0 0 0 0 36.206249798264253 -5.1601329637141475 0 -5.1601329637141475 -11.415628264056522 0 0 0 0 37.60023453282156 -3.5376896907039566 0 -3.5376896907039566 -10.393669392059451 0 0 0 0 32.186809926242859 -0.31902240586077824 0 -0.31902240586077824 -11.952970695310214 0 0 0 0 56.683151341874691 8.4638136446809256 0 8.4638136446809256 0.96882943186915327 0 0 0 0 40.461363452433346 -17.308945940443962 0 -17.308945940443962 1.0850705955763802 0 0 0 0 44.971658626680437 2.4648379903408113 0 2.4648379903408113 3.5485789257299984 0 0 0 0 52.270538158613363 -16.891328369872625 0 -16.891328369872625 -15.659125010259686 0 0 0 0 24.828937984282675 13.828415991370207 0 13.828415991370207 47.78372278334723 0 0 0 0 345.88276730713551 -181.68154279145483 0 -181.68154279145483 142.63669595053693 0 0 0 0 55.424876570621564 -28.401326311340199 0 -28.401326311340199 -23.587137540925141 0 0 0 0 42.883860994290444 -161.66800054118994 0 -161.66800054118994 103.37330198291841 0 0 0 0 0.66897243387117555 -6.3641607368843296 0 -6.3641607368843296 0.86802677933171124 0 0 0 0 42.702411482124589 -19.911736532591156 0 -19.911736532591156 3.9049706809028666 0 0 0 0 43.287752475312544 -15.055533429237578 0 -15.055533429237578 0.87493336649709263 0 0 0 0 55.759285539283155 -16.066175826273593 0 -16.066175826273593 -16.848272206249135 0 0 0 0 67.694615890366549 -17.86848099481665 0 -17.86848099481665 -15.856149153899423 0 0 0 0 55.635464260820299 -23.326111111088949 0 -23.326111111088949 1.2928348524751527 0 0 0 0 66.576593451634835 -7.3548128528116195 0 -7.3548128528116195 14.3680666688781 0 0 0 0 84.774694799358258 -34.58453052505746 0 -34.58453052505746 -0.63274276952620312 0 0 0 0 44.29314139244525 -32.4715240511307 0 -32.4715240511307 44.854375468538365 0 0 0 0 39.995969118024732 -0.79079100646771394 0 -0.79079100646771394 -26.956457334055813 0 0 0 0 41.262404450942995 -6.3316976890571368 0 -6.3316976890571368 -10.714829345565704 0 0 0 0 35.879993926559109 -2.058312182022064 0 -2.058312182022064 -12.320085440479886 0 0 0 0 40.742514255968672 -1.0581876519136415 0 -1.0581876519136415 -14.645596157896307 0 0 0 0 53.341056998991917 -7.3970639096569357 0 -7.3970639096569357 -2.5063229337047233 0 0 0 0 43.958135706032408 -8.8400714548052406 0 -8.8400714548052406 -9.9051680481959465 0 0 0 0 53.37163249617879 -8.74702278610539 0 -8.74702278610539 -13.456691419471781 0 0 0 0 55.873223836979605 -13.452642330253568 0 -13.452642330253568 -10.23227254609219 0 0 0 0 45.426526365510654 -10.841299709339637 0 -10.841299709339637 -3.3992375144389371 0 0 0 0 55.513315121010237 -20.132277483224243 0 -20.132277483224243 -0.38859106459449322 0 0 0 0 34.998885971426716 -27.484385828789527 0 -27.484385828789527 -12.81600999092916 0 0 0 0 46.22729780048212 -9.7695252680749149 0 -9.7695252680749149 -17.25652464294717 0 0 0 0 39.702164976257336 -10.699687734134159 0 -10.699687734134159 -7.9983211227331594 0 0 0 0 28.073280698603412 -30.096518824202576 0 -30.096518824202576 -19.148226669481119 0 0 0 0 38.95545743979892 -14.400232533599365 0 -14.400232533599365 -16.571447077584253 0 0 0 0 39.192629025146744 -16.253983934227108 0 -16.253983934227108 -44.419284171454819 0 0 0 0 35.600890029923903 3.5248052727988579 0 3.5248052727988579 -28.846014350364953 0 0 0 0 0.081424606593930804 0.8582063486001239 0 0.8582063486001239 -0.49979066539681316 0 0 0 0 43.763788636148092 10.541423879622926 0 10.541423879622926 -36.910675760903814 0 0 0 0 35.431091747428582 1.7609874048355323 0 1.7609874048355323 -14.507506414880936 0 0 0 0 35.423333682752627 1.824991092271226 0 1.824991092271226 -14.568863768163283 0 0 0 0 28.426193401341152 -11.905785672190063 0 -11.905785672190063 -42.037645925714514 0 0 0 0 30.463074455954484 -22.992722942863111 0 -22.992722942863111 -13.392414047439615 0 0 0 0 30.227240859170024 -11.694350398505257 0 -11.694350398505257 -42.126814899279225 0 0 0 0 36.384154061881418 -6.1606355992304316 0 -6.1606355992304316 -49.554059295528077 0 0 0 0 8.8202233831962076 23.970774240404012 0 23.970774240404012 -59.734087877998405 0 0 0 0 122.39048948691288 -116.27588765851448 0 -116.27588765851448 78.778397629046594 0 0 0 0 3.3817304177339622 0.64402045622285442 0 0.64402045622285442 -1.711644836796939 0 0 0 0 24.874148236392102 -9.6708362352311497 0 -9.6708362352311497 -18.647930265238074 0 0 0 0 3.7140938211010734 1.4086760510266849 0 1.4086760510266849 -1.7713203439017362 0 0 0 0 116.69447020882581 -89.574988279776292 0 -89.574988279776292 39.55234458259207 0 0 0 0 11.400995005888035 -0.51015530596149006 0 -0.51015530596149006 -19.138336565474425 0 0 0 0 102.1806607443873 -77.474537767531231 0 -77.474537767531231 18.943448373285719 0 0 0 0 85.058248624318367 -56.616713646500102 0 -56.616713646500102 58.162642118424486 0 0 0 0 77.97407285349982 -31.939735035915255 0 -31.939735035915255 -4.4012946047786734 0 0 0 0 101.47582510774009 -55.569106411990944 0 -55.569106411990944 -15.651338201025446 0 0 0 0 74.583707375244558 -29.705703364955099 0 -29.705703364955099 7.2595939335809021 0 0 0 0 75.230018838105025 -60.147672103783634 0 -60.147672103783634 46.514627312445839 0 0 0 0 9.1848512275633141 -0.492639233631742 0 -0.492639233631742 -0.89383764722508563 0 0 0 0 81.638154687527276 -47.871646475731438 0 -47.871646475731438 8.3374954654632347 0 0 0 0 53.853281598960166 -9.6442702571789596 0 -9.6442702571789596 -2.6499306859662397 0 0 0 0 53.638412994310784 -15.235124822052512 0 -15.235124822052512 -6.0283754839351218 0 0 0 0 37.798798401825479 -4.8776011314072321 0 -4.8776011314072321 11.287006754709239 0 0 0 0 19.394780875554716 -22.445713041156864 0 -22.445713041156864 15.992609600471269 0 0 0 0 55.944040354886965 -1.2687939689732275 0 -1.2687939689732275 23.473818460691732 0 0 0 0 -1.606388252838812 -3.2155167822408535 0 -3.2155167822408535 2.0467834906957805 0 0 0 0 30.613427560740092 -14.351930569563592 0 -14.351930569563592 3.4570621471452796 0 0 0 0 5.3911307354768159 -10.929772058321188 0 -10.929772058321188 3.976288441802156 0 0 0 0 38.448652465980558 -10.678961033205042 0 -10.678961033205042 2.6233718179992138 0 0 0 0 21.54553041408743 -11.398578737412709 0 -11.398578737412709 1.6348210549936322 0 0 0 0 44.341857184499531 -12.58805934868974 0 -12.58805934868974 -5.4618760598540632 0 0 0 0 53.838105376831663 -10.235520820413399 0 -10.235520820413399 4.5528331702939795 0 0 0 0 27.418087433379696 2.9575299559348451 0 2.9575299559348451 -8.8657392997332067 0 0 0 0 6.8638643995883513 -0.98494429476775025 0 -0.98494429476775025 -0.2131500626589542 0 0 0 0 37.438680256982479 -12.565506969157525 0 -12.565506969157525 11.940195202643736 0 0 0 0 44.832730371007528 -15.545094914660126 0 -15.545094914660126 6.0843367325660438 0 0 0 0 57.43071529412191 -7.6574493262073702 0 -7.6574493262073702 -6.2248575819112375 0 0 0 0 56.980646463228368 -2.7689055203345774 0 -2.7689055203345774 -2.2312545904487706 0 0 0 0 3.5775849026277342 -0.3397530392667818 0 -0.3397530392667818 -0.30765802967536482 0 0 0 0 32.349375159782312 3.3130050863657452 0 3.3130050863657452 -13.757830738647954 0 0 0 0 37.097228240083041 -16.429762206731994 0 -16.429762206731994 30.693184017204658 0 0 0 0 23.473348752282618 -1.0656450470835352 0 -1.0656450470835352 9.2201328587361786 0 0 0 0 11.151165236671204 -10.081273977705875 0 -10.081273977705875 12.284440943454229 0 0 0 0 32.390310436494474 -17.273082243632302 0 -17.273082243632302 -5.1381538714063311 0 0 0 0 
</DataArray>
<DataArray type="Float64" Name="cross_section_updated" format="ascii">
1 1 1 1 1 1 1 0.010188191193844351 1 1 0.010001318035608775 0.0099715849758397652 0.010389866393217794 1 1 1 1 1 1 1 0.01006711014708064 1 1 1 1 1 1 0.010767113468973868 1 0.010327737820016574 1 1 1 1 1 1 1 1 1 1 1 1 1 0.010815668730717124 1 1 0.01003305613378341 1 1 1 1 1 1 1 1 1 1 1 1 1 1 1 1 0.01008670235953915 1 1 0.0099273230370772875 1 1 1 0.0095733103835202744 1 1 1 1 1 1 0.0099064020145964351 0.010054058961888017 1 1 1 1 1 1 1 1 1 1 1 1 1 1 1 1 1 0.010240340324826744 0.010146555404525383 1 1 1 0.010105503030675042 1 1 1 1 1 0.010745052846610592 0.010429363337997356 0.010314808871803303 0.010158765265553878 1 1 0.010462154267012788 1 0.010263166686783752 1 1 1 1 0.010178134048880804 0.010091861888372047 1 1 1 1 1 1 1 1 1 1 1 1 1 1 1 1 1 1 0.011585885820405994 1 1 1 1 1 1 0.010392352259053279 1 1 0.011080536327405438 1 1 1 1 1 1 1 1 1 1 1 1 1 1 1 1 1 1 1 1 1 1 1 1 1 1 0.011928055118782584 1 1 1 1 1 1 0.011961716145877965 1 0.011202800972591801 1 1 1 0.01068775583427819 1 1 1 1 1 1 1 1 0.013069796625103896 0.0098178075039750592 1 1 1 1 1 1 1 1 1 1 1 1 0.011123741500117168 1 1 1 1 1 1 1 1 1 1 0.0098525860965137692 1 0.012110533031882392 1 1 1 1 1 1 1 1 1 1 1 1 1 1 1 1 1 1 1 1 1 1 1 1 1 1 1 1 1 1 1 1 1 1 1 1 0.010890220232740768 1 1 1 1 1 1 1 1 0.010566159552391746 1 0.011650896034658955 0.0099672702420087189 1 0.011971930027407056 1 1 1 0.011496872334882684 1 0.010967481709639793 1 1 1 1 1 1 1 1 0.01218225915390005 1 1 1 1 1 1 1 1 1 1 1 1 1 1 0.01166132668094386 1 0.011130436844315646 1 0.012375251478890195 1 0.011185488379325313 1 1 1 1 0.011748929127597941 1 1 1 1 1 0.010710023333019531 1 1 0.010011757469062585 1 1 0.010014011703959911 1 1 1 0.010877997730457058 1 0.010908594422502685 1 0.010128683796563426 1 1 1 0.0104434574128339 1 0.01007412233481382 1 1 1 1 1 1 1 1 1 0.010428322950216099 1 1 1 1 1 1 0.010019222591583119 1 1 0.0098986186721273135 1 1 0.0092751136138573709 1 1 1 0.012546862403724509 0.010678149291018509 1 0.010346136132138828 1 0.012587155132989006 1 1 1 0.011090038299292008 1 0.011342125714005169 1 1 1 1 0.0097058025935734139 1 1 1 1 0.010622450321231488 1 1 0.0099065771756722161 1 1 1 1 1 0.011800606634849707 1 1 1 0.014214128597651896 1 1 1 1 1 0.01013448853430177 0.01246239872169881 1 0.0086860954248420032 1 1 1 1 1 0.0095599856929543068 1 0.0096071423725034091 1 1 1 1 1 1 1 1 1 1 1 1 1 1 1 1 1 0.011018322719950723 1 1 1 1 1 1 0.012415889629450094 1 1 1 1 1 1 1 1 1 1 1 1 1 1 1 1 1 1 1 1 1 1 1 1 1 1 1 0.016066990687833224 1 0.0094371115839288807 1 1 0.0093282100080021718 1 1 1 0.0099998389776439524 0.010119335793822388 1 1 1 1 1 1 1 1 1 1 1 1 1 1 1 1 1 1 1 1 1 1 1 1 1 1 0.010181180077515744 1 0.010425451145979573 1 1 1 1 0.010000527619588636 1 1 1 1 1 1 1 1 1 1 1 1 1 1 1 1 1 1 1 1 1 1 1 1 1 1 1 1 1 0.010531549877815972 1 1 1 1 1 0.010339384847457897 1 1 1 1 1 1 1 1 1 1 1 1 1 1 1 1 1 1 1 1 1 1 1 1 1 1 1 1 1 1 1 1 1 1 1 1 1 1 1 1 1 1 0.010998637716484742 1 0.010027221566482801 1 1 0.010297883526342607 1 1 1 1 1 1 1 1 1 1 1 1 0.010233754326498394 1 1 1 1 1 1 1 1 1 1 0.013080462025776217 1 1 0.012770779948657282 1 1 1 1 1 0.01010806883960977 1 1 1 1 1 1 1 1 0.0091705660566223403 1 1 0.010486318028413053 1 1 1 1 1 0.0098110369643376535 1 1 1 0.011151020455459465 1 1 1 1 1 1 1 1 1 1 1 1 1 1 1 1 1 1 1 1 1 1 1 1 1 1 1 1 1 1 1 1 1 1 1 1 1 0.010960135725772367 1 1 1 1 1 1 1 1 1 1 1 1 0.017367985657015354 1 1 1 1 0.010652394962170471 1 0.010459322261243777 0.015435533804166363 1 1 1 1 0.019554610315810229 0.0099906368381316463 1 1 1 1 1 1 1 0.018622653094874791 1 1 1 1 1 1 1 1 1 1 1 1 1 1 1 1 1 1 1 1 1 1 1 1 1 1 1 1 1 1 1 1 1 1 1 1 1 1 1 0.011460702532578394 1 1 1 1 1 1 1 1 1 1 1 1 1 1 0.010022275738388721 1 1 1 1 1 1 1 1 1 1 1 1 1 1 1 1 1 1 0.010270741415050605 1 1 0.0089851796705620723 1 0.0098622721020534803 1 0.010564803595759724 1 1 1 1 1 1 1 1 0.010188252849736049 1 0.010087612766731539 1 1 1 1 1 1 1 1 1 1 1 1 1 1 1 1 1 1 1 1 1 1 1 0.0094837862040028642 1 1 1 1 0.0096670158488355151 1 1 1 1 1 1 1 0.015093000857031408 1 1 1 0.014038458925636967 1 1 0.01265387876774844 1 0.012153611640112543 0.0098526218972386746 1 1 1 1 1 1 0.01294012487653531 0.0092539129188608515 1 1 1 0.012192797404790408 0.0094486771140838872 0.0092087822151199136 0.012724531167737654 0.012243253648189876 0.010014945209942835 1 1 1 1 1 1 0.012000164016899507 0.009646647014579313 1 1 1 0.011659287766581183 0.013570237480434672 1 0.010006782706287385 0.012397641599741148 0.0087813713320370034 1 1 1 0.0095581945642630659 1 1 1 1 1 1 0.00993602492995708 1 1 1 1 0.011212562419676338 1 1 0.015004351192640786 1 0.0099998748270439374 0.010408185836700258 0.010030408077321723 1 1 1 1 1 0.0088994805864711004 1 1 1 0.01270193840661986 1 1 0.0095696024814124897 0.010702607750269683 1 0.011262040839742993 0.0099992892062325187 1 0.013366288329225455 1 1 0.009520798585067481 0.010000803516347506 0.012257387662604769 1 1 1 0.010185146862041288 0.013417320922205975 1 1 1 1 1 0.015285804689163665 1 0.013500681451664446 1 1 1 0.0099353387536683432 1 0.0096244952335575815 1 0.010021482898519599 1 1 1 0.010999158465271969 0.010502160096060163 1 1 0.0091439740960331667 1 1 1 1 0.011580004218689084 0.0098527898432670489 0.011329481357574967 1 1 0.0092821191657572345 1 1 1 1 1 1 0.008971709534277927 1 0.011159523631395182 1 0.010010263588403503 1 1 0.00928505417711456 1 1 0.01004914967956369 1 0.01007168426791513 1 1 1 0.012110483333079444 1 1 0.011382408555969663 1 1 1 1 1 1 1 1 1 1 1 0.0095169837771028887 1 1 0.0099991287357260577 1 0.014480476213589319 1 1 0.013276833128912018 1 1 1 1 1 0.0098018837353608338 1 0.010117140210409157 1 1 1 1 1 1 1 1 1 1 1 1 0.012352604794944667 1 1 1 1 1 1 1 1 1 1 1 1 1 1 1 1 1 1 0.01040287090473736 1 1 1 1 1 1 1 0.010287065321120347 1 1 1 0.011855073000680172 1 0.012248039181936954 1 1 1 1 0.012409839538232664 0.010180282845421693 1 1 1 1 0.011038001042487911 1 1 1 0.012786888344079872 1 0.011488110402520697 1 1 0.011709419564637742 1 0.012245219019450596 1 0.010291303902041854 1 1 0.012855806811443942 1 1 1 1 1 1 0.013087390506602032 1 1 0.010093763575274514 1 1 1 1 1 1 1 1 0.0098306943477286558 1 1 1 1 1 1 0.01007759692422836 1 1 1 1 1 1 0.012726047810848132 1 1 1 1 1 1 1 1 1 0.012600962600585162 1 1 1 1 0.010332794071271155 1 1 1 1 1 1 1 0.012145777611259151 1 1 0.010697424591734228 1 1 1 0.010058267260204189 0.0090647774063880374 1 1 1 1 1 1 1 1 1 1 1 1 0.010222695412615584 1 1 1 0.009135546703834518 1 1 1 1 1 1 1 1 1 1 1 0.0099789552166841301 1 1 1 1 1 1 1 1 1 1 1 1 0.010167037923624351 0.007807941227183212 1 1 1 1 1 1 0.0082759283260523883 1 1 1 1 1 1 1 1 1 0.010083823095078515 1 1 1 1 1 1 1 1 1 1 1 1 1 0.010239896385828541 1 1 1 1 1 1 1 1 1 1 1 0.01184049784964188 1 1 1 1 1 0.010112757712946747 1 1 1 1 1 1 0.014208823848084149 1 1 1 1 1 1 1 1 1 1 1 1 1 1 1 0.010278879629988757 1 1 1 1 1 1 1 1 1 1 1 1 0.0099789689003419359 1 1 1 1 1 1 1 1 0.011011121412545163 0.013746620267197909 1 0.015401335635399378 1 1 0.014983050735179478 1 1 1 1 0.012458499881515518 1 1 1 1 1 0.020882162915270439 1 1 0.020296447824125808 1 1 0.010512917832457518 1 1 1 1 1 1 1 1 1 1 0.019284388095388991 1 0.0090965456003457915 1 1 0.010132711985558637 1 1 1 1 1 1 1 0.017329159723204902 1 1 0.019026000825578444 0.011188227792805943 0.010900151061830128 1 1 0.010413042486328466 1 0.012373807591584851 1 1 0.015983776298169949 1 1 0.015902832311494607 1 0.012691898304968089 0.010576301081460952 1 1 1 1 0.012716769390646771 1 1 1 1 1 1 0.011709663108547846 1 1 0.011785320032897714 0.0099971134191597297 1 1 1 0.0099823175645091175 1 1 1 1 1 1 1 1 1 1 1 0.01028180390744619 1 1 1 1 0.010129924718494174 1 1 1 1 0.010253200359612033 1 1 1 0.0099689331016221145 1 1 1 0.014132454917324712 0.0097777436860805016 1 1 1 1 1 0.011147171640635284 1 1 1 1 0.012600438024600358 1 1 1 1 1 1 1 1 1 1 1 1 1 1 1 1 1 1 1 1 0.020811734886505954 1 1 1 1 1 1 0.010903020470320608 1 1 1 1 1 1 1 1 0.012033013633449184 1 1 1 1 1 1 0.012146128038788392 0.010193371815715238 1 1 1 1 1 1 1 1 1 1 1 1 1 1 1 1 1 1 1 1 1 1 0.010458626222031782 1 1 1 0.01981782754746237 1 0.0099907825793890976 1 1 1 0.0099757427422125181 0.014849538113949543 1 1 1 1 0.011271188238908138 1 1 0.013923175705049282 1 1 1 1 1 1 1 1 0.010110705016257257 1 1 1 1 1 1 1 1 1 1 1 1 1 1 1 0.010952591594992775 1 1 1 0.011183465346792421 1 1 1 1 1 1 1 1 1 1 1 0.021134127732563558 1 1 1 1 1 0.010268280085584149 1 1 0.010704266038572861 1 1 1 1 1 1 1 1 1 1 1 1 1 1 1 1 1 1 1 1 1 1 1 1 0.011295965805345119 1 1 0.011840760565713607 1 1 1 1 1 1 1 1 1 1 1 0.012481837952422265 0.011743864410475317 1 1 0.014826590259874832 1 1 1 0.0099365854052059933 1 1 1 1 1 1 1 1 1 1 1 1 1 0.01237809593639142 1 0.010345752283125825 1 1 1 1 1 1 1 1 1 1 1 0.010859952748380978 1 1 1 1 1 1 1 1 0.014221924630270846 0.011607533572358201 1 1 1 1 1 0.01465907394709651 1 1 1 1 0.010845051011913675 1 0.0099262060392882288 1 1 1 1 1 1 1 1 1 1 1 1 0.0093224477759992121 1 1 1 0.0093185878302726906 1 1 1 0.01311205604366647 1 1 1 0.011549757283028437 1 1 1 1 1 1 1 1 1 1 1 1 1 1 1 1 1 1 1 1 1 0.010016489293572687 1 1 0.0099958905750110426 1 1 1 1 1 1 1 1 1 1 1 0.011245175492324854 1 1 1 1 1 1 1 1 1 1 1 1 1 1 1 1 1 1 1 0.010834945787162464 1 1 1 0.011323551092566313 1 1 1 1 1 1 1 1 1 1 1 1 1 1 1 1 1 1 1 1 1 1 1 0.010068195964968458 1 1 1 1 0.010178890218529956 1 1 1 0.010073509891474651 1 1 1 1 0.010058661989607795 1 1 1 1 1 1 1 1 1 1 1 0.010196662718909625 1 0.010352761675717517 1 1 1 1 1 1 1 0.010997026802830309 1 1 1 1 1 1 1 1 1 1 1 1 1 1 1 1 1 1 1 0.010489391379991036 1 1 1 1 1 1 1 1 1 0.011225626888560587 1 1 1 0.010527117619796418 1 1 1 1 1 1 1 1 1 1 1 1 0.010703373036218451 1 1 1 1 1 1 1 1 0.010080839849625649 1 1 0.0099945586617338749 1 1 1 1 1 1 1 1 1 1 1 1 1 1 1 1 1 1 1 1 1 0.010049675106355314 1 1 0.010065452039541085 1 1 1 1 1 1 1 1 1 1 1 1 1 1 1 1 0.010160313330997156 1 1 1 1 1 1 1 1 1 0.013921924939656102 1 1 1 1 0.010022309137309622 1 1 1 1 1 1 1 1 1 1 1 1 1 1 1 1 0.013623047944065903 0.013311262152670252 1 1 1 1 1 0.011897778620507086 1 1 1 1 1 1 1 1 1 1 1 0.01036617370789639 1 1 0.01004862672483006 1 0.011037687098185475 1 1 1 1 1 1 0.010021774920457117 1 0.010665160543524553 1 1 1 0.010597264751265389 1 0.012470428782250315 1 1 1 1 1 1 1 1 1 1 1 1 1 1 1 1 1 1 1 1 1 1 1 1 1 1 1 1 1 1 1 1 1 1 1 1 1 1 1 1 1 1 1 1 1 1 1 1 1 1 1 1 1 0.010028315067603627 1 0.0096333275149536463 1 1 1 0.010682051361477166 0.0097818798405072023 0.0099348451873500672 0.011352174735188274 1 1 1 0.010268700092961058 1 1 1 1 1 0.0087818980151476399 1 1 1 1 1 0.010250162685685594 1 1 1 1 1 1 1 1 1 1 1 1 1 1 0.010033773863052122 1 1 0.01080958609015264 1 1 1 1 1 1 0.0099091917669183668 1 0.014811602104982219 0.011452867605913328 1 1 1 1 1 1 1 0.016189619506923349 1 1 1 1 1 1 1 1 0.015350859624468971 1 1 1 1 1 1 1 1 1 1 1 1 0.011529658627204479 1 1 1 1 1 1 1 1 1 1 1 1 1 1 1 1 1 1 0.010508890628565908 1 1 1 1 0.011306952437546768 0.012444793816907459 1 1 1 1 1 0.01022805122057039 1 1 0.010818772939239468 1 1 1 0.010304875956553414 1 1 1 1 1 0.013442824556270194 0.010502163423041446 1 1 1 1 1 0.010500427147024861 0.010441953634035897 1 1 1 1 1 1 1 1 1 1 1 1 1 1 1 1 1 1 1 1 1 1 1 1 1 1 1 1 1 1 1 1 1 1 1 1 1 1 1 1 1 1 1 1 1 1 1 1 1 1 1 1 1 1 1 1 1 1 1 1 1 1 1 1 1 1 1 1 0.01584127640774146 1 1 1 0.010149194217337319 0.013655064075583251 1 1 1 0.0099653480924880074 1 1 1 1 1 0.011478020861968963 1 1 1 1 1 1 1 0.010105576074477762 1 1 1 0.013317329948183342 1 1 1 1 1 1 1 1 1 1 0.011748990229663941 0.010584335661222466 1 1 0.011702690552582197 1 1 1 1 0.010314652201608956 1 1 1 1 1 1 0.011978416157533733 1 1 1 1 1 1 1 1 1 0.011159474688629803 1 0.010059675606726413 1 1 1 0.013153957382720908 1 1 1 1 0.010001467649099918 1 1 1 1 1 1 1 1 1 1 1 1 1 1 1 1 0.010363185842543249 1 1 0.011048164954427732 1 1 0.016044941212050242 1 1 1 1 1 1 1 1 1 1 0.010054693132448526 1 1 0.01015286802041764 1 0.010640494302239983 1 1 0.010357291629630722 1 1 0.013009662775133572 1 0.010808008867752008 1 0.011655318620294121 1 1 0.01001695336760066 1 1 1 0.011287945650553544 1 0.0099839354446671184 1 1 1 1 1 1 1 0.012467156301568723 1 1 1 0.012047147876703811 1 1 0.015148600758194302 1 0.010025279935633855 0.010006934367469595 1 1 1 1 1 1 0.0099994931277556931 1 1 1 1 1 1 1 1 1 1 1 1 1 1 1 1 1 1 1 1 1 1 1 1 1 0.0098750634503718491 1 0.010002034601971702 1 1 1 1 1 1 1 1 0.014427983239750902 1 0.013682029152524141 1 1 1 0.016181013484895541 1 0.011473686097753313 1 1 1 0.010460852277128847 1 1 1 1 1 1 0.016193624041169551 1 0.016155933925805707 1 1 0.010196240472166615 1 1 0.015704753395789701 1 1 1 1 1 0.01170085880567214 1 1 0.0088731625827128402 1 0.010291370914140462 1 1 1 0.010867186250349417 1 1 1 0.010917361258062424 1 0.0099185088057322582 1 0.011562500124434471 0.010039208533395513 1 1 1 1 1 1 0.0096399271639479173 1 1 1 1 1 1 1 0.010880940267057578 1 1 1 1 1 1 0.010348687626634816 0.0099974528689077916 1 0.010029876414529773 1 1 1 1 0.010020808623895216 1 1 1 1 1 1 1 1 0.010351109182485161 1 1 0.010987692752916911 1 1 1 1 1 1 1 0.010092674595477096 1 1 1 1 1 1 1 1 0.010162897577417142 1 1 1 1 0.010023732233836426 1 1 1 1 1 1 1 0.010085693733583267 1 1 1 0.010070222981940052 1 1 1 1 1 1 1 1 1 1 1 1 1 1 1 1 1 1 1 1 1 1 1 1 1 1 1 1 1 1 1 1 1 1 1 1 1 1 1 1 1 1 1 1 0.013601975653502759 1 1 1 1 1 0.012461634881266616 1 1 1 1 1 0.011833376032617042 1 0.011245694824538853 1 1 1 1 0.010012974434527942 0.013404025094704831 1 0.0093817285344367802 0.011911480962976733 1 1 0.01228891594199061 0.012841322808608946 1 1 0.010000651958360432 1 1 0.017730476508455086 1 1 1 1 1 1 0.0093205295577752818 1 1 1 1 1 1 1 0.014403882748740229 1 1 0.015232435856337715 1 1 1 1 1 1 1 1 1 1 1 1 1 1 1 1 1 1 1 1 0.010014847906125836 1 1 1 1 1 1 1 1 1 1 1 1 0.010003561659229675 1 1 1 0.010035524815369861 1 0.010144595865946246 1 1 1 1 1 1 0.010109379513615424 1 1 1 0.01004193613228029 1 1 1 1 1 0.010061414922907828 1 1 1 0.010033274639666958 1 1 1 1 1 1 1 1 1 1 1 1 1 1 1 1 0.010028185690222475 1 1 1 0.01002711100756958 1 1 1 0.0099988394293738115 1 1 1 1 1 1 1 1 1 1 1 1 0.0099873315104295549 1 1 1 0.0099884942334931767 1 1 0.010081583885949491 1 1 1 0.01263386110900841 1 1 0.012339637102796893 1 1 1 1 1 1 1 1 1 1 1 1 1 1 1 1 1 1 1 0.015452522729175269 1 1 1 1 1 1 1 1 1 1 1 1 1 0.012247422271241157 1 1 1 1 1 1 1 1 1 1 1 1 1 1 1 0.015684220138725974 1 1 1 1 0.01154413882781301 1 1 1 1 1 1 1 1 0.012502449820155134 1 1 1 1 1 1 1 0.010079118041567118 1 1 1 1 1 1 1 1 1 1 1 1 1 1 1 1 1 1 1 1 1 1 1 1 1 0.017875312580112358 1 1 1 1 1 1 1 1 1 1 1 1 1 1 1 1 1 1 1 1 1 1 1 1 1 1 1 0.017881656910417987 1 1 1 1 1 0.01053411784511391 1 1 1 1 1 1 1 1 1 1 1 1 1 1 0.010108586574713386 1 1 1 1 1 1 1 1 1 1 1 1 1 1 1 1 0.0097984416605050653 1 0.010627307938584258 1 1 1 1 1 0.010562098457699114 1 0.010085309636319343 1 1 1 1 1 1 1 1 0.010193896211032727 1 1 1 0.0099707402679239977 1 1 0.010498433574904934 1 1 1 0.0099975267589033166 1 1 1 1 1 1 0.0087390939899304829 1 1 1 1 1 1 1 0.0099935392131206453 1 1 1 1 1 0.0093133336801422203 1 1 1 0.0092736098234410744 1 0.015716765672819166 0.015792337466382918 1 1 1 0.009285887268801616 1 1 1 1 1 1 1 1 1 1 1 1 1 0.013727118360500133 1 1 0.010528645552749374 0.010463371749159926 1 0.010965970899431823 1 1 1 1 0.0099680604024629978 1 1 1 1 1 1 1 1 1 0.0104127772347158 1 1 1 1 1 1 1 1 1 1 1 1 1 1 1 1 1 1 1 1 1 1 1 1 1 1 1 1 1 1 1 1 1 1 1 1 1 1 0.0098582834775439374 0.0097676478242775516 1 1 1 1 1 1 1 1 1 1 1 1 1 1 1 0.0065208415899933037 1 1 0.0077068195179633911 1 1 1 0.010064170078576387 1 1 1 1 1 1 1 1 1 1 1 1 1 1 1 1 1 1 0.010179524705610832 1 1 1 1 1 1 0.010787511065310507 0.010603797964401793 1 1 1 1 1 1 1 1 1 1 1 1 1 1 1 0.010157749341983623 1 1 1 1 0.0099500401059892957 1 1 1 1 1 1 1 0.0099855510627581759 1 1 1 1 1 1 1 1 1 1 1 1 1 1 1 1 1 1 0.0099195981312159443 1 1 0.01017785136511325 1 1 1 1 1 1 1 1 1 1 1 0.010084272101706019 1 1 1 1 1 1 1 1 1 1 1 1 1 1 1 1 1 1 1 1 1 1 1 1 1 1 1 1 1 1 0.0098255270810635332 1 1 1 1 1 1 1 1 1 0.0099551090879848106 1 1 1 1 1 1 1 1 1 1 1 1 1 1 1 1 1 1 1 1 1 0.010003803436509119 1 1 1 1 1 1 1 1 1 1 1 1 1 1 1 1 1 1 1 1 1 1 1 1 1 1 1 1 1 1 1 1 1 1 1 1 0.0099653601671460118 0.0098154150693304798 1 1 1 1 1 1 1 1 1 1 1 1 1 1 1 1 0.0096276355349457134 1 1 1 1 0.0097107498471174537 1 1 1 1 0.0111568161322394 1 1 1 1 0.0099794410154586902 0.0099091794396711091 1 1 1 0.014402415124936285 1 0.011324569563623245 0.0099068930418861681 1 1 1 1 1 1 0.012453042318255815 1 1 1 0.013081560911803089 0.010912864134292957 1 1 1 0.012547949394907552 1 1 0.012652865813230501 1 1 0.010017059299719494 1 1 0.012274003045416903 1 1 1 1 0.012475867549025963 1 1 1 0.010002955824000825 1 1 1 1 0.011458330659578592 1 1 0.0099494230889763252 1 1 0.011843633965465903 0.012477338602117007 1 0.011250499921170927 1 1 1 1 1 1 1 1 1 0.009999825982040059 0.010069162699401193 1 1 1 1 1 1 1 1 1 1 1 1 1 0.010102511445071977 1 1 0.010268590978362054 0.010313434824729205 1 1 1 1 1 1 1 1 0.0097327457182896007 0.011764745605564368 1 1 1 1 1 1 1 1 1 0.010056283255133506 1 1 1 1 1 1 1 1 1 1 0.010117180801472401 1 1 1 0.01011560455011528 1 1 1 1 1 1 0.010444408193548636 1 1 1 1 1 1 1 1 0.0097930900648511877 1 1 1 1 1 0.0093385839353190437 1 1 1 1 1 1 0.012407163479358016 1 1 1 1 1 1 0.0086911132375362445 0.010725853479673373 1 1 0.0099480731341352272 1 0.0091813506119589883 1 0.013171007528162307 1 1 1 1 0.010644244403052026 0.010294994871249553 1 1 0.010046185027701209 1 1 1 1 1 1 1 1 0.0090155394780801496 0.010053734742464144 1 1 1 1 1 1 1 1 1 1 1 1 1 1 1 1 0.01286298693106341 1 0.010352797893955034 0.012645548152187628 1 0.0099971353315169657 1 0.0097401743668408744 1 1 1 0.0095280938484955009 1 1 1 0.0099712634266043484 1 0.0099452567088483303 1 1 1 1 1 1 0.010090533448467116 1 1 1 1 1 1 1 1 1 1 1 1 1 1 1 1 1 0.010793880575681446 1 1 1 1 1 1 1 1 1 1 1 1 1 0.012085394766598924 1 1 1 1 1 1 1 1 1 0.010005537116020513 1 1 1 0.012913482690760194 1 0.0099981316896787555 0.010087668821937016 1 1 1 0.0104291839683638 1 1 0.011143239098481392 1 1 1 0.010235672703873572 1 1 1 0.009361427733409965 1 1 0.010273934020199603 1 1 0.0098207957119149508 1 1 1 1 1 1 1 1 1 1 1 1 1 1 1 1 1 1 0.011043241146916495 1 1 1 1 1 1 1 1 1 1 1 0.010011487986765006 1 1 1 1 1 1 0.010014824647859556 0.010092296787560445 1 1 1 1 1 1 1 1 1 1 1 1 1 1 1 1 1 1 1 1 1 1 1 1 1 1 1 1 1 1 1 1 1 1 1 1 1 1 1 1 1 1 1 1 1 1 0.01016231304235052 1 1 1 1 1 1 1 1 1 1 1 1 1 1 1 1 1 1 1 1 1 1 1 1 1 1 1 1 1 1 1 1 1 1 1 1 1 1 1 1 1 1 1 1 1 1 1 1 1 1 1 1 1 1 1 1 1 1 1 1 1 1 1 1 1 1 1 1 1 0.0092876505254710778 0.014824738765962114 1 1 1 1 0.01019996907326646 1 0.0099108996098030127 1 1 1 1 1 1 1 1 1 1 1 1 1 1 1 0.0097057584744412069 1 1 1 1 1 1 1 1 1 1 1 1 1 1 1 1 1 1 1 1 1 1 1 1 1 1 1 1 1 1 1 1 1 1 1 1 1 1 1 1 1 1 1 1 1 1 1 1 1 1 1 1 1 1 1 1 1 1 1 1 1 1 1 1 1 1 1 1 1 1 1 1 1 1 1 1 1 1 1 1 1 1 1 1 1 1 1 1 1 1 1 0.010489753575825912 0.016820777479137884 1 1 1 1 1 1 1 1 0.010107513823690137 1 1 0.015259631802882784 1 1 1 1 0.0099507563692055132 1 1 1 1 1 1 0.0099337095878874737 1 1 1 0.01007422132738474 1 1 1 1 1 1 1 1 1 1 1 1 1 1 1 1 0.0099829532186819642 1 1 1 1 1 1 0.010052129806641314 1 1 1 1 1 1 1 1 1 1 1 1 1 0.013429646659142605 1 1 1 0.010702863736893414 1 1 0.010135618553525983 1 0.012074160693020218 0.011446386439282511 1 1 1 0.0087571938910139084 1 1 1 1 1 0.0098405451597043565 1 1 1 0.010757680174724577 1 1 1 1 1 1 1 1 1 1 1 0.0047499771725813753 1 1 1 1 1 0.0055387700415635869 1 1 1 1 1 0.010140468477929373 1 1 1 1 1 1 1 0.0048081051485309358 0.010003469289490122 1 0.01251316414523195 1 0.013196606069241251 0.013131552565577419 1 1 1 1 1 1 1 1 1 1 1 1 1 1 1 1 1 1 1 1 1 1 1 1 1 1 1 1 1 1 1 1 1 1 1 1 1 1 1 1 1 1 1 1 1 1 1 1 1 1 1 1 1 1 1 0.016803208100671058 1 0.010028282114955232 1 1 1 1 1 1 1 1 1 0.012519341824656307 1 1 1 0.013400127378683834 1 1 0.014746597911600261 1 1 1 1 1 0.014926635271395133 1 1 1 1 0.013614624453243046 0.010385658872657359 1 1 1 1 1 1 1 1 1 1 1 1 1 1 0.0097843195364305489 0.016200164809859335 1 1 1 1 1 1 0.011183659021389108 1 0.012817854842512836 1 1 1 1 1 0.013214983787574989 1 1 1 1 0.01644932548416269 1 1 0.010110621932911838 1 1 1 1 1 0.011044125644842528 1 1 0.0099414776992112885 1 1 1 1 1 1 0.01138288511437977 1 1 1 0.013453074282590891 1 1 1 0.010112478401829786 1 1 1 1 1 1 1 0.010223682530772819 1 1 1 1 0.009509894499850003 1 1 1 0.01038947854138202 1 1 1 1 0.010413438564863681 0.010904267978261339 1 1 1 1 1 0.011810070350524789 1 1 1 1 1 1 1 1 1 1 1 1 0.0096128566019046506 1 0.012307010983851209 1 1 0.010916335079465067 1 1 1 1 1 1 1 1 1 1 1 1 1 1 1 1 1 1 1 1 1 1 1 1 1 1 1 1 1 1 1 1 1 1 1 1 1 1 1 1 0.010621746098705415 1 1 1 0.0099334829094001511 1 1 0.0097947318635110033 1 1 1 1 1 1 1 0.0099780568746720612 1 1 1 1 1 0.010293502123586583 1 1 1 1 1 1 1 1 1 1 0.0091889258289838179 1 0.0076363272070276433 1 1 1 1 1 1 1 1 1 1 1 0.01452078996556028 1 0.012472826326667626 1 0.014121755359900562 1 0.010164620265843166 1 1 1 0.017802845092156471 1 1 1 1 1 1 1 1 1 1 1 1 1 1 1 1 1 1 1 1 0.0095067534440114593 1 0.010007212947017747 0.010007341667792529 1 1 0.0097793783373083722 1 1 0.01215962920219545 1 0.015455916735334571 1 0.0084862595318205159 0.0099614114123124826 1 1 1 1 1 1 0.020339318363318412 1 0.018597963866770775 1 0.0095381924738407731 1 1 1 1 1 1 1 1 0.009255948381009833 0.01342998341179754 1 1 1 1 1 1 1 0.0098790277887793286 1 1 1 1 1 1 1 1 1 1 1 1 1 0.010482281212178018 1 1 1 1 1 1 1 1 1 1 1 1 1 1 1 1 1 1 0.009345692037636126 0.00979286603362476 1 1 1 1 1 0.0093615453390562143 1 1 1 1 1 0.013561363058235198 1 1 1 1 0.00998802277467499 1 1 1 1 0.01358478375726058 0.012581104765972873 1 0.0093753242292130695 1 1 0.0096232796500457587 0.012320809705838251 1 0.009924461196156812 1 1 1 0.0098022965333492765 1 1 1 0.011317329365348265 0.0099895617363825878 1 0.0096348551640744792 1 0.0094348485609528927 1 0.01000329923109361 1 1 1 1 0.0091452196260743482 1 0.0097984639224422201 0.013534328758304053 0.0099301447800055481 0.0099152275591044784 1 1 1 1 0.013250433815065576 1 1 1 1 1 1 1 0.0099994277931454208 1 1 1 1 1 1 1 1 0.010093381336183534 1 1 1 1 1 1 1 1 1 0.014099668974400783 0.0098562251703978379 1 0.010559216719505096 1 1 0.016995300678781317 1 1 1 1 1 1 1 0.01401609183289758 1 1 1 1 1 1 1 1 1 1 1 1 1 1 1 1 0.014905017986609592 1 1 1 1 1 1 1 1 1 1 1 1 1 1 1 1 1 1 1 1 1 1 1 1 1 1 0.015068589243214331 1 0.01007692690424429 1 0.01006235067259317 1 1 1 1 1 1 0.015347319248537447 1 1 1 0.011313712341710767 1 0.011096618971942168 1 1 1 1 1 1 0.010797784072046738 0.01594202172399254 1 1 1 1 1 1 1 0.012318800591927088 1 1 0.010617718225647702 1 1 0.013403277983859277 1 1 0.010183863426657509 1 1 0.010154256876870226 1 1 0.013800446444394576 1 1 1 1 1 1 1 1 1 1 1 0.010328243975118823 1 1 1 1 1 1 1 1 1 1 1 1 1 1 0.010340819271929038 1 0.010686194303647371 1 1 1 1 1 1 0.01154013946095685 1 1 1 1 1 1 1 0.016533745770289418 1 1 1 1 1 0.016280846548128145 1 1 1 0.01678725508275632 1 1 1 1 1 1 0.010556205676680655 1 1 1 1 1 1 1 0.013894877996896159 1 1 0.015089044043128356 1 1 0.0096898966525830067 1 1 1 1 1 1 1 0.0100025901585856 0.010005180882881104 1 0.011435387526332622 1 1 1 1 1 1 1 1 1 1 1 1 1 1 1 1 1 1 1 1 0.011548310576135109 1 1 1 1 1 1 1 1 1 1 1 0.010247964737031936 1 1 1 1 1 0.014102433478226973 0.01306166575050649 1 1 0.015338071548314319 0.0099967615272746179 1 1 1 1 1 1 0.014431219564883942 1 0.010001181137843842 1 0.0081319088833142362 1 1 1 1 1 1 1 1 1 1 1 1 1 0.01697654477581946 1 1 0.01536642619040857 1 1 1 0.016614133673207424 1 1 1 1 1 1 1 1 1 1 1 1 1 1 1 1 1 1 1 1 1 1 1 1 1 0.013820608401696789 1 1 1 0.011343997901112889 1 1 1 1 0.018270407179397888 1 1 0.012994079681444538 1 1 0.013988428851438334 1 1 1 1 1 1 1 1 0.013071231151067781 1 1 0.011088873225644405 1 1 1 1 0.017423239960802139 1 1 1 1 1 0.016138797926932423 1 1 1 1 1 1 1 1 1 0.014730033529905281 1 1 1 0.0099047930500361613 1 1 0.013301006197085199 1 1 1 1 1 1 1 1 1 1 1 1 1 1 1 1 1 1 1 1 1 1 1 1 1 1 1 1 1 1 1 1 1 1 1 1 1 1 1 1 1 1 1 1 1 1 1 1 1 1 1 1 1 0.010933671883961372 1 1 0.0099941071357352376 0.0087355123060110472 1 1 1 1 1 1 1 0.0078669062243041828 1 1 1 1 1 1 1 1 1 1 1 1 1 0.009608129977762803 1 0.0087525013815431731 1 1 1 1 1 1 0.010894799035190902 1 1 1 1 0.010298389127679464 1 1 1 0.010627958817471597 1 1 1 1 1 1 1 1 1 1 1 1 1 1 1 1 1 1 1 1 1 1 1 1 1 1 0.010417577060701171 1 1 1 0.010262494329735646 1 1 1 0.013815379930350395 1 1 1 1 0.010254196047287212 1 0.010914968040929018 1 1 1 1 1 1 1 1 1 1 1 1 1 1 1 1 1 0.010331239663960936 1 1 0.01070328665039905 1 1 1 1 1 0.010623498357821198 1 1 0.010015548771435494 1 1 1 1 1 1 1 1 1 1 1 1 1 1 1 1 1 1 1 1 1 1 1 0.010119902540184475 1 1 1 0.010230435590383266 1 1 0.010091125550179394 1 1 1 1 1 1 1 1 1 1 1 1 1 1 1 1 1 0.007323913723970529 1 0.0098528110694768162 1 1 1 1 0.017304695833936356 1 1 1 1 1 1 1 1 1 0.010044325761440577 1 1 1 1 0.010069456971344171 1 0.010205162545960303 1 1 1 1 1 1 1 1 1 1 1 0.010482399821735537 1 1 1 1 1 1 1 1 1 1 1 1 1 1 1 1 1 1 1 1 1 1 1 1 1 1 1 1 1 1 1 1 1 1 1 1 1 1 0.02131147369695529 1 1 1 0.010564560074458083 1 1 1 1 1 1 1 1 0.021251941814844612 1 1 0.010268235641412524 1 1 1 1 1 1 1 1 1 1 1 1 0.011573525301639702 1 0.020913702695977657 1 1 1 0.021978415143875329 1 0.010168487780086723 1 1 1 1 1 1 1 1 1 1 1 1 1 1 1 1 1 1 1 1 1 1 1 0.011589399719576298 1 1 1 1 0.010562395753277823 1 1 0.01041513940082024 1 1 0.010284003141032087 1 1 1 1 1 1 1 0.010334886020676219 1 1 1 1 1 1 1 0.010647844789387812 1 1 1 1 1 1 0.017220799629613152 1 1 1 0.014639192560417487 1 1 1 1 1 1 0.014324918816802298 1 1 1 1 0.010128989638727321 0.010129643709408997 1 1 1 1 1 1 1 1 1 1 1 1 1 1 0.014730417013075344 1 1 1 1 1 1 1 1 1 1 1 1 1 1 1 1 1 1 1 1 0.0099603030431621078 1 1 1 1 1 1 1 1 1 1 0.0098789889979223645 1 1 0.010448237355792216 0.010202216233901554 0.010120806440576467 1 1 1 1 0.010089632065291534 1 1 1 1 0.010155013502304768 1 1 1 1 1 1 1 1 1 1 1 1 1 1 1 1 1 0.011867597331351457 1 1 1 1 1 1 0.012735570295085078 1 1 1 1 1 0.013348603575360194 1 1 1 1 1 1 1 1 1 1 1 1 1 1 1 1 1 1 1 1 1 1 1 1 1 1 1 1 1 1 1 1 1 1 1 1 1 1 0.019144842933411347 1 1 1 0.014415389963567483 1 1 0.014195050505110361 1 1 1 1 0.013823152615879651 1 1 0.010195030630558474 1 1 1 1 1 1 1 1 1 1 1 1 1 1 0.010720127146706454 1 1 1 0.010656275514318865 1 1 1 1 1 1 1 1 1 1 0.010345655539833781 1 1 1 0.010546478417472067 1 1 1 1 1 1 1 1 1 1 1 1 1 1 0.01162731869963754 1 1 0.012125422945162247 1 1 1 1 1 1 1 0.011378221734531079 1 1 1 1 1 1 1 1 1 1 1 1 0.013451581976269406 1 1 0.0094696042129708904 0.012448044613267678 1 1 1 1 1 1 1 1 1 1 1 1 1 1 0.011216420048821708 1 1 1 1 1 1 1 1 1 1 1 1 1 1 1 1 1 1 0.0099715060131119505 1 0.010364554184116383 1 1 1 1 1 1 1 1 1 1 0.010226721522677545 1 1 0.0096021021977103424 1 1 0.0099220531422371475 1 0.010217016944324654 1 0.010293187770437653 0.010438864979498834 1 1 1 1 1 1 1 1 1 1 1 1 1 1 1 1 0.010139656513824804 1 1 1 1 1 1 1 1 1 1 1 1 1 1 1 1 1 1 1 1 1 1 1 1 1 1 1 1 1 0.01067709867140808 1 1 1 1 1 1 1 1 1 0.0099312684617044802 1 1 1 1 1 1 0.0096302895365766826 1 1 1 1 1 0.007935747495860488 1 0.0099558678366210053 1 1 1 0.010002103508505923 1 0.016243439545229617 1 1 1 1 1 1 1 1 1 1 1 1 0.015449469650122723 1 1 1 1 1 1 1 1 1 1 1 1 1 1 1 1 1 1 0.0089773503473237412 1 1 0.010593493387660758 1 1 1 1 1 1 1 1 1 0.010733878443712782 1 1 0.010379898531203607 1 1 0.010618609670179156 1 1 0.011772149412798234 1 0.010074668776865959 1 1 1 1 1 1 1 0.014587061537758272 1 1 1 1 1 1 1 1 0.0099587386605270584 0.0095329840223673454 1 1 0.011644217910042713 1 1 1 0.012778379986183898 1 0.010609746982615686 1 1 1 1 1 1 0.01181932975413616 1 1 1 1 1 1 0.01190498275462103 1 0.0099271576716075255 1 1 0.00998054954612735 1 1 1 1 0.0091774222343810139 1 1 1 1 1 1 1 0.0088417865013504862 1 1 1 1 1 1 1 0.0084870547453938724 0.010004190111186199 0.010403865920578658 1 1 1 1 0.0052615021310344363 1 1 0.010950637440872052 0.0089178933552062876 1 1 1 0.019452446678523243 1 1 0.0099939179466602239 1 1 1 1 1 1 1 1 1 1 1 1 1 0.012217005471452644 1 0.0090028759083925422 1 1 0.0097621098039479253 1 1 1 1 0.0093182846898874662 1 1 1 1 1 1 1 1 1 1 1 1 1 1 1 1 1 1 1 1 1 0.0097606131086594231 1 1 1 1 0.012052398199819469 1 1 1 1 1 1 1 0.010697193314078497 1 1 1 1 1 0.0098200316222446012 1 1 0.010021681502100583 1 0.010998276386631211 1 1 1 0.010045385879505056 0.010645657197096814 0.010002682581395151 0.0099612054870179441 1 1 1 1 1 1 1 1 1 1 1 1 1 1 1 1 1 1 1 1 1 0.010116217521479585 1 1 1 0.016499130670663338 1 1 1 1 1 1 1 1 1 0.01092696627215198 1 1 1 1 0.011858494110417655 1 1 0.014989379593568931 1 1 1 1 1 1 1 1 1 0.006652842636606965 1 1 1 1 1 1 1 1 0.016696761381759195 1 1 1 1 1 1 1 1 1 1 1 1 1 1 1 0.0089395469852976608 1 1 1 1 1 1 1 1 1 0.010815648664419603 1 1 1 1 1 1 1 1 1 1 1 1 1 1 1 1 1 1 1 1 1 1 1 1 1 1 1 1 1 1 0.010290954700522848 1 1 1 1 0.010690012233479044 1 1 1 1 1 1 1 1 1 0.010492296681637855 1 1 1 1 1 1 1 1 1 1 1 1 1 1 1 1 1 1 1 1 1 1 1 1 1 0.010819598162100178 1 1 1 1 1 0.010342812332696984 1 0.012162791391220168 0.011345926275660893 1 1 0.010000531054685177 1 1 1 1 1 1 1 0.010589776716963891 1 1 1 1 1 1 1 1 1 1 1 1 1 1 0.013418672629728637 1 0.013321571747036506 1 1 0.013669827547226591 0.012779643948954412 1 1 1 1 1 1 0.01000663270157741 1 1 0.013348615846469297 1 1 1 1 0.0098151086644817868 1 0.0046199145730949215 0.012914242277724012 1 1 1 1 1 1 1 1 1 0.011183587261879997 1 1 1 1 1 1 1 0.011210149135647107 1 1 1 1 1 1 1 1 1 1 1 1 1 1 1 0.016989408082041267 1 0.017380890357183321 1 0.0099221871146596401 1 1 1 0.010274712144719568 1 1 1 1 0.010081385345328034 1 1 1 1 0.0098459505960127036 1 0.0088077195490471362 1 1 1 1 1 1 1 0.010948896869355441 0.011216427649363666 0.0097886912642050454 1 1 1 1 1 1 0.015456265802424627 1 1 1 0.010128122323271344 1 1 1 1 1 1 1 1 1 1 0.016940250734339014 1 1 1 1 1 1 1 0.0097890752531282366 0.010036261232721838 1 0.0098321438706824929 1 1 1 1 0.01559310646296401 0.0099995857599961303 1 1 1 1 1 1 1 1 1 0.0098684148610721101 1 1 0.0099569526463449149 1 1 1 1 1 1 1 1 1 1 1 1 1 1 1 1 1 1 1 1 1 1 1 1 1 1 1 1 1 0.010099004978176861 1 1 0.0099147052673283342 1 1 1 1 1 1 1 1 1 1 1 1 1 1 0.0098362503457474406 1 1 1 1 1 1 1 1 1 1 1 1 1 1 1 1 1 1 1 1 0.0098598123644975874 1 1 1 1 0.016445534292095179 1 1 0.019799772681261305 1 1 1 1 1 1 1 1 1 1 0.0096935503963248675 1 0.0089915584932770409 1 1 1 1 1 1 1 1 1 1 1 1 1 1 1 1 0.014969342252556852 1 0.010078344798458471 0.014217286974973427 1 1 1 1 0.010515755583666436 1 1 1 0.011632103965050438 1 1 1 1 1 1 1 1 1 1 0.011553116754512253 0.011013029171046022 1 1 1 0.011250271877787816 1 1 1 1 0.011157520546637682 1 1 1 1 1 1 1 1 0.012018698556928702 1 1 1 1 0.011450903563727742 1 1 1 0.010580129429871223 1 1 1 1 1 1 1 1 1 1 1 1 1 1 1 1 1 1 1 1 1 1 1 1 1 1 1 1 0.015624625209001805 1 1 1 1 1 1 1 0.015100967685213041 1 1 0.012950006650687528 1 0.010025133326063224 1 1 1 1 1 1 1 0.016337820618446987 1 1 1 1 1 1 1 1 1 1 1 0.0093384535123146629 1 1 1 1 1 1 1 0.0099480789483135101 1 0.01012539945142178 1 1 1 1 1 1 1 1 1 1 0.010315393257456488 1 1 1 1 1 1 1 1 1 1 1 1 1 1 1 0.010631405782587332 1 1 1 1 1 1 0.010262495307773201 1 1 1 1 1 0.011730519819990312 1 1 1 1 1 0.012960915658274383 1 1 1 1 1 1 1 1 1 1 0.018671884842571037 1 1 1 1 0.017525844164877513 1 1 1 1 1 1 1 1 1 1 1 1 0.017549194738719506 1 0.010032038432238969 1 1 1 1 1 0.010498098379632828 1 1 1 0.010236841397958966 1 1 0.010487840167532006 1 1 0.010434440484731959 1 1 1 1 1 1 1 1 0.011804211506869687 1 0.012344875771690626 1 1 1 1 1 0.011464501332563425 1 1 1 1 0.012272318255397671 1 1 1 1 1 1 1 1 1 0.013685041116779543 1 1 1 0.011280025665038898 1 0.010002510835710087 0.011667863577655691 0.0095617536959305416 1 1 1 1 1 1 1 1 1 1 1 1 1 1 1 1 1 1 1 1 1 1 1 1 1 1 1 1 1 1 1 1 1 1 1 0.010188102658147451 1 1 0.0098545584816799349 1 1 1 1 1 1 1 1 1 1 1 1 0.0099852589304788748 1 1 1 1 1 1 0.01436342789965642 0.011256404553183882 1 1 1 1 0.0097191362882926256 1 1 0.014628189645657095 1 1 0.01443214791024606 1 1 1 1 1 1 1 1 1 1 1 1 1 1 1 0.014866718644005393 1 1 1 0.01429205116915765 1 0.014725957446429096 1 1 1 0.014514172548045441 1 1 1 1 1 1 1 1 1 1 1 1 1 0.010304232041690987 1 1 0.012474181278169754 1 0.0092312229128888746 1 0.010821724550433407 1 1 1 0.01004792216501107 0.010183441715158916 1 1 1 1 1 1 1 1 1 0.012631292962856248 1 0.011173588365515255 1 0.010037345583112672 1 1 1 0.010515911968786927 1 0.011447089924183702 1 0.016028274763427486 1 1 1 1 1 1 1 0.009897450589257565 1 1 1 1 0.0095316688873392612 1 1 1 1 1 0.010206217668352363 1 1 0.010329883085531446 1 1 1 1 1 0.0108894235270045 1 0.00893815730972943 0.011256929838489024 1 1 0.014889696017799743 1 1 1 0.013924043370312606 1 0.010210065898140646 1 1 0.019267443784975146 1 1 1 1 1 0.015244779723078899 1 1 0.012156684446603129 1 1 1 1 1 1 1 1 1 1 1 1 1 1 1 1 1 1 1 1 1 1 1 1 1 0.010802189038757248 1 0.0098308528289792214 1 1 1 1 1 1 1 1 0.010382792025497189 1 1 1 0.0093190514049481307 1 1 1 1 1 1 0.011419551778965607 1 1 1 1 0.010618144686567792 1 1 1 1 1 1 1 1 1 1 1 1 1 1 1 1 1 1 1 1 1 1 1 1 1 1 1 1 1 1 1 1 0.01138080391076369 1 1 1 1 1 1 1 1 1 1 1 1 1 0.010724165800751933 1 0.01003955203105315 0.010660106854035994 1 0.010717799771758751 1 0.01165430741428432 1 0.01081913432212305 1 1 0.012852144058951579 1 0.010116101929935846 1 0.010241813483508761 1 0.014322353537867741 1 1 0.012878070199346555 1 0.01129339490462848 1 1 0.011859965581408389 1 1 0.010045617160000273 0.013519092336164574 1 1 1 1 1 1 1 1 0.011135843134342077 1 1 1 1 1 1 1 1 1 1 1 1 1 0.013793859845110175 1 1 1 1 1 1 1 1 0.0099994141677840105 1 1 0.011184335297226138 0.011254275873842718 0.0093219696044191253 1 1 0.010003707407662507 1 1 1 1 1 1 1 1 1 1 1 1 0.0097379047896374912 1 1 1 0.010013537253641505 1 1 1 1 1 0.010116451824520778 1 1 1 1 0.010002559160649054 1 1 1 1 1 1 1 1 1 0.011010272254581187 1 1 0.011527083791829491 1 1 1 1 1 1 1 1 0.0099401411178925807 1 1 0.012820486585261401 1 0.011504217272506688 1 0.011596957736433032 1 1 1 1 1 1 1 0.010199819569404092 1 1 1 1 1 1 1 1 1 1 1 1 1 1 1 1 1 1 1 1 1 1 1 1 1 1 1 1 1 1 1 1 1 1 1 1 1 1 1 0.010225814525156918 1 1 1 1 1 1 1 1 1 1 1 1 1 1 1 1 1 1 1 1 1 1 1 1 1 1 1 1 1 1 1 1 1 1 1 1 1 1 1 1 1 0.012344610105198332 1 1 1 1 0.009993594984296722 1 1 1 1 0.010615190115718905 1 1 1 1 0.013110291563795437 1 1 1 1 1 1 1 1 1 1 1 1 1 1 1 1 1 1 1 1 1 0.010213805496001933 1 1 1 1 1 1 0.010479356160627651 1 1 1 1 1 0.010465370234029828 1 1 1 1 1 1 0.010305818953237424 1 1 1 0.010391075471522555 1 1 1 1 1 1 1 1 1 1 1 0.010687188068569818 1 1 1 1 1 1 1 1 1 1 1 1 1 1 1 1 1 1 1 1 1 1 1 1 0.014763924381141302 1 1 1 1 1 1 1 0.010099846107819666 1 1 1 1 1 1 1 1 0.010294892364782917 1 0.010005607772075216 1 1 1 1 0.013379631745390546 1 1 0.011628791787998298 1 1 1 1 0.013735610794431979 1 0.01264689149040369 1 1 1 1 1 1 1 1 1 1 1 0.010007002846963212 1 1 0.012291909427319749 1 0.010023178662713015 1 1 0.011178527913407609 0.010413714219874585 1 1 1 1 1 1 1 1 1 1 1 1 0.010526367763244475 1 1 1 0.011244079711640013 1 1 0.0099812853132774451 1 0.011892510954452516 1 0.010057206151679918 1 1 1 1 1 1 1 0.011446690277760298 1 0.009970853857164513 1 1 1 1 1 1 1 1 1 0.012950375580725211 1 1 1 0.012848049178318688 1 1 1 1 1 1 0.0099766218736448749 1 1 1 1 1 1 1 1 1 0.010637289676329639 1 1 1 1 1 1 1 1 1 1 1 0.011127083273903443 1 1 1 1 1 1 0.010511351251863355 1 1 0.012194017324071372 1 1 0.011852070767285906 1 1 1 1 0.010791153827052107 1 1 1 1 1 1 1 1 1 1 1 1 0.011839679966753799 1 0.012299403116337666 1 1 0.010156897393915494 1 1 0.0098685865194197593 1 1 1 1 0.0098523762779338976 1 1 1 1 1 1 0.0098521723353466838 1 1 1 1 1 1 0.010790954899045153 1 1 1 1 1 0.011889047420514208 1 1 1 1 1 1 1 1 1 1 1 1 1 1 1 1 1 0.010509921989924927 1 1 1 0.0098811237472144573 1 1 1 1 1 0.010565810014719798 0.010213713366628883 1 1 1 0.011611513854431621 1 0.009966241244529819 1 0.0096017197288650238 1 1 0.010541777198321917 0.0091566996403490471 1 1 1 1 1 1 1 1 1 1 0.011186758171091967 1 1 1 0.010528748908069168 1 1 1 1 1 1 1 1 1 1 1 1 1 1 1 1 1 1 1 1 1 1 1 1 1 0.010040814422131313 0.010071970974198773 1 0.010347159953712019 0.011284450458127905 1 1 1 1 1 1 1 1 1 0.0097051856968399797 1 1 1 1 1 1 0.010020602562154809 1 1 1 1 0.011060216448183125 1 1 1 1 1 1 1 1 1 1 1 1 1 1 1 1 1 1 1 1 1 1 1 1 1 0.0093205755033426759 1 1 1 1 1 0.010459020189897666 1 1 0.0098439463327592569 1 1 0.0090363716924272142 1 1 0.010000466247037661 1 1 1 0.01130703015804552 1 1 1 0.012760333463616057 1 1 1 1 1 1 1 1 1 1 1 0.010453635618042483 1 1 1 1 1 1 0.012516588271123289 0.010017339956429342 1 1 1 1 0.010077394104868513 0.011765699331637011 1 1 1 1 0.013691840961649715 1 1 1 0.010126287852411384 1 1 1 1 1 0.014503921302794471 1 1 1 1 1 1 1 1 1 1 0.0095186993384943075 1 1 1 1 0.0091515297101055458 1 1 0.013431880280238031 1 1 1 1 1 0.0072003507509451146 1 1 1 1 1 1 0.0091780156196512863 1 1 1 1 1 1 1 1 1 1 1 1 1 1 1 1 1 1 1 1 1 1 1 0.013795733701761266 1 0.0099661284590132418 1 0.010011887805661493 1 1 0.012727881703886211 1 1 0.0099843312187265845 1 1 1 1 1 1 1 1 1 1 1 0.013130398636511185 1 1 0.012385082243463982 1 1 0.0089417249225225183 1 1 1 1 1 1 1 1 0.010227621831160735 1 1 1 1 1 0.01044100167780275 0.01157883508866956 1 1 0.0099154393863111947 0.010640362975476634 0.010895797155118861 1 1 1 1 0.0094960214389436422 1 1 1 0.010314322377008215 1 1 0.0098519409390468854 0.010120309297218726 1 1 1 1 1 1 1 1 1 1 1 1 1 0.010285379382065231 1 0.010156402866583911 1 1 1 1 1 1 1 1 0.0099968062407150074 1 1 1 1 1 0.010337059059772821 1 1 0.010160690822109185 1 1 1 1 1 1 1 1 1 1 1 1 1 1 1 1 1 1 1 1 1 1 1 0.00999354772038283 1 1 1 1 1 1 0.010254782777609448 1 1 1 1 1 1 1 1 1 1 1 1 1 1 1 1 1 1 1 1 1 1 1 1 1 1 1 1 1 1 1 1 1 0.011194788749431587 1 1 1 1 1 1 1 1 1 1 1 1 1 1 1 1 1 1 0.01401792853583762 1 1 1 0.013009101694355683 1 1 1 1 1 1 0.010728134531295376 1 1 1 1 1 1 1 1 1 1 1 1 1 1 1 1 1 1 0.010257620587476023 1 0.010171508788238358 1 1 0.014514251536259766 1 1 0.013034069761438704 1 0.0098611731317005263 1 1 1 1 1 0.012484343463983657 1 1 1 1 0.01143408397210474 1 0.0099452931522469867 1 1 1 1 1 0.0099965020629619768 1 1 1 1 1 1 1 1 1 1 1 1 1 1 1 1 1 1 1 1 1 1 0.011073007419831148 1 1 1 1 1 1 1 1 1 1 0.0090069740009333429 1 0.011685302361791414 1 1 1 1 1 0.010672550509043808 1 1 1 1 1 1 1 0.01073307827620684 1 1 1 0.010408817018116315 1 1 0.010345606721307733 1 1 1 0.010000892398553998 0.0099962029715145971 1 1 0.01031849061852509 0.010209887507940656 1 1 1 1 1 1 1 1 1 1 1 1 1 1 1 1 1 1 0.010004560434028082 0.009580987814735431 1 1 0.010895206151979258 1 1 1 0.010005572467960204 1 1 1 0.010000958770529603 1 1 1 1 1 1 0.011475182288714423 1 0.013539968691223248 1 1 1 1 1 1 1 1 1 1 1 1 1 1 0.012932176348001456 1 1 0.0099944348735898966 1 0.012391817258065074 1 1 1 0.011924451375076618 1 1 1 1 1 1 1 1 1 1 1 1 1 1 1 1 1 1 1 1 1 1 1 1 1 1 1 1 1 1 1 1 1 0.0093601525078006436 1 1 1 1 0.0098633316946719965 1 0.010287604336357262 1 1 1 1 1 1 0.013902836037177993 1 1 1 0.010071600132273088 1 0.0135108405867194 1 1 0.010387206215059145 1 1 1 0.01193934242674788 1 0.011088662250071256 1 1 1 1 1 1 1 1 1 1 0.010133004578626576 1 1 1 1 1 0.01238561237511928 1 1 1 1 1 0.01312043184410182 1 1 1 1 1 1 0.010045443793922342 1 1 1 1 1 1 1 1 1 1 1 1 1 1 1 1 1 1 1 1 0.010023286782003264 1 1 1 1 1 1 1 1 1 1 1 1 1 1 0.012449965509246562 1 0.010062385987112508 1 0.012582930120361574 1 0.0098751123384674157 1 1 0.010005383833665452 1 1 0.0092103582697805504 1 1 1 0.0094270470040278328 1 0.010481852032572533 1 1 1 1 0.00992638286750459 1 1 1 1 0.010022179131432015 1 1 1 0.015628593979510913 1 1 0.010010444986863555 0.010018813280984024 1 1 0.01298460484495567 1 1 1 0.012032670416204254 1 1 0.010006580289120616 0.012058912517602348 1 1 0.012357554874041502 1 1 1 1 1 1 1 1 1 1 1 1 1 1 1 1 1 1 1 1 1 1 1 1 1 1 1 1 1 1 1 1 1 1 1 1 0.0098088596694577423 0.010356341695563922 1 1 0.011767734036672261 1 0.010003138138665093 0.01022738253134434 1 1 1 0.0099633956414407598 1 0.011907427909773793 1 1 1 1 1 1 1 0.0099656271019410783 1 1 1 0.010014249870804889 1 1 1 0.011282494088887804 1 1 1 0.010482450683919486 1 1 1 1 1 0.010063534460114177 1 1 0.0095470904806933179 1 0.010075950518478155 1 1 0.01334085184443717 1 1 1 1 1 0.010026922221215087 1 1 1 0.0092739967925929891 1 1 1 1 1 1 1 1 1 0.009711939702975193 1 1 0.013575725643926565 1 1 0.01335619389513068 1 0.013203122088620761 1 1 1 1 1 0.012613753273660572 1 1 0.0096202681501981451 1 1 0.014123617685884928 1 1 0.009507753978759281 1 1 1 1 1 1 1 1 1 1 1 1 1 0.010304514898124385 1 1 1 1 1 1 1 1 1 0.01000825927963382 1 1 1 1 1 1 1 0.010040144846734754 0.013394628313887198 1 1 0.012456224834433574 1 1 1 1 1 1 1 1 0.010516245755627113 1 1 1 1 1 1 1 1 1 1 1 1 1 1 1 1 1 1 1 1 1 1 1 1 1 1 1 1 1 1 1 1 1 1 1 1 1 1 1 1 1 1 1 1 1 1 1 1 1 1 1 1 1 1 1 1 1 1 1 1 1 1 1 1 1 1 1 1 1 1 1 1 1 1 1 1 1 1 1 1 1 1 1 1 1 1 1 1 1 1 1 1 1 1 1 1 1 1 1 1 1 1 1 1 1 1 1 1 1 1 1 0.012816117822618288 1 1 1 1 1 1 1 1 1 1 1 1 1 1 1 1 1 0.010551515616104052 1 1 1 0.010186963564940213 1 1 1 1 1 1 1 0.0098200897242402708 1 0.020267198183904989 1 0.0092925479708515796 1 1 0.018798332270843696 1 1 1 1 0.010044022776373999 1 1 0.015062510394335071 0.013451279313921014 1 0.0077760545591867127 1 1 0.012563601410006328 1 1 0.015980257294482745 1 1 0.013624783428030942 1 1 0.0092730830398889599 1 1 0.014931417829773414 1 1 0.011190238444271586 1 1 0.014101320605533789 0.010094745106299681 1 1 0.0099989149783630063 1 1 1 1 1 1 1 1 1 1 1 1 1 1 0.01244322705837367 1 1 0.011644761012332141 1 1 1 1 1 1 1 1 1 1 0.010199457156272601 1 1 1 0.010141913225878891 1 1 1 1 1 1 1 0.0098871024380351169 1 1 1 1 1 1 1 1 1 1 0.0099919230791811441 1 1 1 1 1 1 1 1 1 1 1 1 1 1 1 1 0.010299343813526544 1 1 1 1 0.00993554943379861 1 0.010178648585354852 1 1 1 0.010192610039827219 0.010193765596267628 1 0.011271926368266193 1 0.010338807149745067 0.010961535750953702 1 1 0.010011711940175607 0.010612384510876849 1 1 1 1 1 1 1 1 1 1 1 1 0.012103052715320238 1 1 1 1 1 1 1 1 1 0.010685251110910465 1 1 1 1 1 1 1 1 1 1 1 1 1 1 1 1 1 1 1 1 1 1 1 1 1 1 1 1 1 1 1 1 1 1 1 1 1 1 1 1 1 1 1 1 1 1 1 1 1 1 1 1 1 1 1 1 1 1 1 1 1 1 1 1 1 1 1 1 1 1 1 1 1 1 1 1 1 1 1 1 1 1 1 1 1 1 1 1 1 1 1 1 1 1 1 1 1 1 1 1 1 0.0099467106439775771 1 1 1 0.010053733772288541 0.0099477848146167346 1 1 1 1 1 1 0.0099889192170001962 1 0.012003508877219113 1 1 1 1 1 0.011875279142592048 1 1 1 1 1 1 1 1 1 0.0099992510411752427 1 1 1 1 1 0.0095670466500790991 1 0.011029331090604824 1 1 0.0098909445132516326 1 0.01243697929775955 1 1 0.010097440659625551 0.012376360406183706 1 1 1 1 1 0.011733397524615339 1 1 1 1 1 1 0.0098091951395326265 1 1 1 1 1 1 1 1 1 1 0.010129584746028973 1 1 0.010052782374571304 1 1 1 1 1 1 1 1 0.010880407378319391 1 0.01069404788911753 1 1 0.01017249008343107 1 1 1 1 0.010449272112003234 1 1 1 0.010221843005324605 1 1 0.0092806397032214622 1 1 0.011723035574211366 1 1 0.010172637107925934 1 1 1 0.015275296846327455 1 1 1 1 0.014705771817816149 1 1 0.010039884049424347 1 0.0099869564783361953 1 1 1 1 1 1 1 0.015621654061233675 1 1 1 1 1 1 0.012770380074344447 1 1 0.011257047649562634 1 0.010934794949232335 1 0.0096016275701671649 1 1 1 1 1 1 1 0.010137162674288313 0.0099570906327627363 1 1 1 1 1 1 1 1 1 1 1 1 1 1 1 1 1 1 1 1 1 1 0.01056702862482174 1 1 1 1 1 1 1 1 1 1 1 1 0.011335079872604688 1 1 1 1 1 1 1 1 1 1 1 1 1 1 1 1 1 1 1 1 1 1 1 1 1 1 1 1 1 1 1 0.012967194380849199 1 1 1 1 1 0.013260154170414505 1 1 1 1 0.01166196760594705 1 1 1 1 1 1 0.010609015951642485 1 1 1 1 1 1 1 1 1 1 1 1 1 0.011373023237906552 1 0.011481847358523763 1 1 1 1 1 1 1 1 1 1 1 1 1 1 1 1 1 1 1 1 1 0.010675852745438962 1 1 1 1 1 1 1 1 1 1 1 1 1 1 1 1 0.012155387339991268 1 0.01078656652685595 1 1 1 0.010782176551614689 0.011318889369592874 0.011407457228790869 1 1 1 1 0.010648049515498624 1 0.010100132772640533 1 1 1 1 1 1 1 1 0.0095899201237864499 1 1 0.0086591441835143935 1 1 0.0077935944092061213 1 1 1 0.013477779157873248 1 1 1 0.0093719103541260729 0.0099189604537166295 1 1 0.012338969994067098 1 0.0069685652966670298 0.014690630656119643 1 1 0.015518243318489644 1 1 0.018657984643073812 1 1 1 1 1 0.0073375002466706737 1 1 1 1 1 1 1 1 1 1 1 1 1 1 1 1 1 1 1 1 1 1 1 1 1 1 1 1 1 1 1 1 1 1 1 1 1 1 1 1 1 1 1 0.01505090900416443 1 1 1 1 1 1 1 1 1 1 1 1 1 1 1 1 1 1 1 1 0.017193464479695941 1 1 0.010016086022874406 0.010146756474905511 1 1 1 1 1 1 1 1 1 1 1 1 1 1 1 0.0066353748747043362 1 1 1 1 1 1 1 0.008795034044335388 1 1 1 1 1 1 1 1 1 1 1 1 1 1 1 1 1 1 1 0.010771445219437884 1 1 1 0.010699841860483835 1 0.013225346613638896 1 1 1 1 1 1 1 1 1 1 1 1 1 1 1 1 1 1 1 1 1 1 1 1 1 1 1 1 1 1 1 1 1 1 1 1 1 1 1 1 1 1 1 1 1 1 1 1 1 1 1 1 1 1 1 0.011917465486942997 1 1 1 1 1 1 1 1 1 1 1 1 1 1 1 1 1 1 1 1 0.010318000228809575 1 1 1 0.010045454919009147 1 1 0.01071148668897279 1 1 1 1 1 0.010046529089648308 1 1 1 1 1 1 1 0.010531691843066614 1 1 1 1 1 1 0.010121368515925022 1 1 1 0.010207173523353978 1 1 1 1 1 1 1 1 1 1 1 0.01012926270420852 1 1 0.0095650755452926228 1 1 1 1 1 1 1 1 1 1 1 1 1 0.010503840340826756 1 1 1 1 0.011035532183893377 1 1 1 1 1 1 1 1 1 1 1 1 1 1 1 1 1 1 0.0089876137004086323 1 1 1 1 1 1 1 1 1 1 1 1 1 1 1 1 1 1 0.0099878743578152764 1 1 1 1 1 1 1 1 0.009985248014229205 1 1 1 1 1 1 1 1 1 1 1 1 1 1 1 1 1 1 0.010355381929189195 1 1 1 1 0.01012459105247409 1 1 1 1 1 0.0097598406580662374 1 1 1 0.01302741159427487 1 1 1 0.011617247131455616 1 1 1 0.012611799821040255 0.0091260359284281445 0.0090731905539736205 1 1 0.013245827171097829 1 1 0.010398706763645359 1 1 0.014831279280202099 0.014173611355105361 1 1 0.010738746481817342 1 1 1 1 1 1 1 1 0.010377042386400371 1 1 0.0087544292125792261 1 1 0.010734555112873516 0.011971783958947581 1 0.0090085208406234744 0.010981637974386824 1 0.009572839449632338 1 1 1 1 1 1 1 1 1 1 1 1 1 1 1 1 1 1 1 1 0.011437837532222253 1 1 1 1 1 1 1 1 0.010539503926984828 1 1 1 1 1 1 1 0.0073231724521296473 1 1 1 1 1 1 0.0063801399034333845 1 1 1 1 1 1 1 1 1 1 1 1 1 1 1 1 1 0.0060194285626645576 0.011942030079813013 1 1 1 0.0090689623902618852 0.0088092428594890495 1 1 1 1 1 1 1 0.011903431895451084 1 1 1 1 1 1 0.010886543060714843 1 1 1 1 1 1 0.011807505382346652 1 1 1 1 1 1 1 1 1 1 1 1 1 1 1 1 1 0.014270118163613031 0.012346889649054598 0.010714489779227399 1 1 0.010520611818352366 1 0.010424928081556116 1 1 0.010064787245820737 0.011198104871215236 1 1 1 1 1 1 0.012049613488013994 1 1 0.013346066483687177 1 1 0.010920962321631804 1 1 0.0082706560860661589 1 1 0.01412483963172801 1 1 0.01004714839749936 1 1 1 0.0072612105005082622 1 1 1 0.015678334417002206 1 0.0098663531252510834 1 1 1 1 1 0.0099618942658084471 1 1 1 1 1 0.015179669698930696 0.013147146846706108 1 1 0.011649745836283941 1 0.0092137324928543377 1 1 1 1 1 1 1 1 1 1 1 1 1 1 1 1 1 1 1 1 1 1 1 1 1 1 0.011038865872217205 0.01790254441334407 1 1 1 1 1 1 1 1 1 1 1 1 1 1 1 1 1 0.013004622777850368 1 1 1 1 1 1 1 0.015693510927878483 1 1 1 0.010007450181005522 1 1 1 1 1 1 1 1 1 1 0.012392030044775928 1 0.012671144864432309 1 1 0.0085282732053623654 1 1 1 1 1 1 1 0.011144821845944813 1 1 1 1 1 0.015274185875991671 1 0.0080814976501203447 1 0.0099791021553584693 1 1 1 1 1 1 0.015651700678159457 1 1 1 1 1 1 1 1 1 1 0.010435144372873613 1 1 1 1 0.010127138672881794 1 1 1 1 1 1 1 1 1 1 1 1 1 1 1 1 1 1 1 1 1 1 1 1 1 1 1 1 0.0098036544600131371 1 1 1 1 1 1 0.010557474813777832 1 1 0.010203630510936862 1 1 1 1 1 1 1 1 1 1 1 1 1 1 1 0.0099239603287752699 1 1 1 1 1 0.0098336721598357331 1 1 1 1 1 1 1 1 1 1 1 0.0097249051998392951 1 0.0094484687833635752 1 1 0.012880973178228925 1 1 1 1 1 0.0133401221199804 1 0.0096619847543399466 1 1 0.012563600289550586 1 1 1 1 1 1 1 1 0.011297985845361711 1 1 0.013033647953109524 0.0079271890829774941 1 1 1 1 1 1 1 1 1 1 1 1 1 1 1 1 1 1 1 1 1 1 1 1 1 1 1 1 1 0.010425606340476085 1 0.015160216864667047 1 1 1 1 1 1 0.010036915972211855 1 0.0098579406816981137 0.019488877854976175 1 1 0.010167825233332423 1 1 1 0.015057919189051104 1 1 1 1 1 0.009599224604790374 1 1 1 1 1 1 1 1 1 1 0.0113495771162795 1 1 1 1 1 1 1 1 1 1 1 0.010511385032902302 1 1 1 1 1 1 1 1 1 1 1 1 1 1 1 1 1 1 1 1 1 1 0.0098953790070154049 0.01543944372349826 1 1 1 1 1 1 1 1 1 1 1 1 1 1 0.013604381347949142 0.010480917809021443 1 1 1 1 1 1 1 1 1 1 1 1 1 1 1 1 1 1 1 1 1 1 1 1 1 1 1 1 1 1 1 1 0.010092376644607345 1 1 1 1 1 1 1 0.010188600983701317 1 1 1 1 1 1 1 1 1 1 1 1 1 1 1 1 1 0.0098842836476993393 1 1 1 1 1 1 1 1 1 1 1 0.0096638811302943821 1 1 1 1 1 1 1 1 0.013275353394239471 1 1 1 1 1 0.01194400224079953 1 1 1 1 1 1 1 1 1 1 1 1 1 1 1 1 1 0.0099149451536259172 1 1 1 1 1 1 0.010006938722471522 1 1 0.010039280699888369 1 1 1 1 1 1 1 0.010002426407235809 1 1 1 1 1 1 1 1 1 1 1 1 1 1 1 1 1 1 0.0098840894303491578 1 0.0099251392083342816 1 1 1 1 1 1 1 1 0.010346893615674577 1 1 1 1 1 1 1 1 1 0.010390215705657107 1 1 1 1 1 1 1 1 1 1 1 1 1 0.01013348152599924 1 1 1 0.010149248286892574 1 1 1 1 1 1 1 1 1 0.01034519282476332 1 1 1 1 1 0.010152622447888211 1 1 1 1 1 1 1 1 1 1 1 1 1 1 1 1 1 1 1 1 1 1 1 1 1 1 1 1 1 1 1 1 1 1 1 1 1 1 1 1 1 1 1 1 1 1 1 1 1 1 1 1 1 1 1 1 1 1 1 1 1 1 1 1 1 1 1 1 1 1 1 1 1 1 1 1 1 1 1 1 1 1 1 1 1 1 1 1 1 1 1 1 1 1 1 1 1 1 1 1 1 1 1 1 1 0.01005576354943555 1 1 1 1 1 1 1 1 1 1 1 1 0.010333034110634841 1 1 1 1 1 1 1 1 1 1 1 1 1 1 1 1 1 1 1 1 1 1 1 1 1 1 1 1 1 1 1 1 1 1 1 1 0.010288065207147375 1 1 1 1 1 0.010159942883876033 1 1 1 1 1 1 1 1 1 0.015120245300864804 1 1 0.015280144126881704 1 0.011415181073021828 1 1 0.010944798874973113 1 1 1 1 1 1 1 0.0099239634617203504 1 1 1 1 1 1 1 1 1 0.0096513437607821835 1 1 1 1 1 1 1 1 1 1 1 0.016732171680331968 1 1 1 1 1 1 0.016078820004594461 0.010003897914337642 1 0.011785914810173166 1 1 1 1 1 1 1 1 1 1 0.0093918612759295132 0.010707068179367217 0.012526477596417554 1 1 1 1 0.014163712014023316 0.011966014013409281 1 1 1 0.013129072971503316 1 1 1 0.010001510278907288 1 1 0.011727403624707752 1 1 1 1 0.0099600864694405263 1 1 1 1 1 1 1 0.0099316312852010744 1 1 1 0.010753373401326101 0.010286108440496043 1 1 1 1 1 0.01002847959122808 1 1 1 0.01053364305627396 1 1 1 1 1 1 1 1 1 1 1 1 0.010239182065694775 0.011375624593013632 0.012914589733392521 1 1 1 1 0.012936712048621882 1 1 1 1 0.013626766600603428 1 0.012908591395448643 1 1 0.0098221749232036779 1 1 1 0.010343917331562634 0.011024343015548981 0.012507139250986208 1 0.013139674888404278 1 1 0.01325118302029356 0.012274620251646495 1 1 1 1 1 1 0.014158648291322925 1 1 1 1 1 1 0.01035183920111689 0.01466134730805008 0.014215692114834378 1 1 1 1 1 1 1 1 1 1 1 1 1 1 1 1 1 1 1 1 1 1 1 0.0099787630364697247 1 1 1 1 1 1 1 1 1 0.010143195727339432 1 0.01023292092826256 1 1 1 1 1 1 1 1 0.010355995591670174 1 1 1 1 1 1 0.010001982173068708 1 0.010054376364750959 1 0.012558487126881001 1 1 1 0.0099820722730742332 1 1 1 1 0.0099684953760058974 1 1 1 1 1 
</DataArray>
</CellData>
</Piece>
</UnstructuredGrid>
</VTKFile>
